# vtk DataFile Version 3.0
MOAB 5.5.0
ASCII
DATASET UNSTRUCTURED_GRID
POINTS 32920 double
80 0 -2
57.35599644 0 0
57.35599644 0 -2
66.19276698 -5.461029787 -1
68.67799822 0 -1
57.35599644 0 -1
68.67799822 0 -2
73.09638349 -2.730514894 -1.5
61.77438171 -2.730514894 -0.5
61.77438171 -2.730514894 -1.5
57.35599644 0 0
41.0789911 0 0
41.0789911 0 -2
48.18282818 -3.94885632 -1
49.21749377 0 0
41.0789911 0 -1
49.21749377 0 -1
52.76941231 -1.97442816 -0.5
44.63090964 -1.97442816 -0.5
44.63090964 -1.97442816 -1.5
61.22230449 -16.38308936 0
80 0 0
61.22230449 -16.38308936 -2
66.19276698 -5.461029787 -1
70.61115225 -8.191544681 0
70.61115225 -8.191544681 -1
61.22230449 -16.38308936 -1
63.70753574 -10.92205957 -0.5
73.09638349 -2.730514894 -0.5
63.70753574 -10.92205957 -1.5
80 0 0
61.22230449 -16.38308936 -2
80 -40 0
61.22230449 -16.38308936 0
70.61115225 -8.191544681 -1
70.61115225 -28.19154468 -1
80 -20 0
70.61115225 -8.191544681 0
61.22230449 -16.38308936 -1
70.61115225 -28.19154468 0
46.113497 -11.84656896 -2
46.113497 -11.84656896 0
57.35599644 0 -2
48.18282818 -3.94885632 -1
46.113497 -11.84656896 -1
51.73474672 -5.92328448 -1
51.73474672 -5.92328448 -2
47.14816259 -7.897712639 -1.5
47.14816259 -7.897712639 -0.5
52.76941231 -1.97442816 -1.5
42.64202902 -30.06887785 0
80 -40 0
61.22230449 -16.38308936 -2
61.22230449 -16.38308936 0
61.32101451 -35.03443893 0
70.61115225 -28.19154468 -1
51.93216676 -23.22598361 -1
51.93216676 -23.22598361 0
70.61115225 -28.19154468 0
61.22230449 -16.38308936 -1
16.70077375 -14.31947115 -2
14.39589836 -5.633908197 -2
5.906920728 -9.432751709 -2
14.39589836 -5.633908197 0
15.54833606 -9.976689672 -2
10.15140955 -7.533329953 -2
11.30384724 -11.87611143 -2
15.54833606 -9.976689672 -1
14.39589836 -5.633908197 -1
10.15140955 -7.533329953 -1
57.35599644 0 0
41.0789911 0 -2
57.35599644 0 -2
48.18282818 -3.94885632 -1
49.21749377 0 -1
49.21749377 0 -2
57.35599644 0 -1
52.76941231 -1.97442816 -0.5
44.63090964 -1.97442816 -1.5
52.76941231 -1.97442816 -1.5
61.22230449 -16.38308936 -2
80 0 0
80 0 -2
66.19276698 -5.461029787 -1
70.61115225 -8.191544681 -1
80 0 -1
70.61115225 -8.191544681 -2
63.70753574 -10.92205957 -1.5
73.09638349 -2.730514894 -0.5
73.09638349 -2.730514894 -1.5
40 -80 0
0 -80 -2
0 -80 0
26.43663006 -53.23168972 0
20 -80 -1
0 -80 -1
20 -80 0
33.21831503 -66.61584486 0
13.21831503 -66.61584486 -1
13.21831503 -66.61584486 0
7.654666388 -3.621100098 -2
5.906920728 -9.432751709 -2
14.39589836 -5.633908197 0
7.654666388 -3.621100098 0
6.780793558 -6.526925903 -2
10.15140955 -7.533329953 -1
11.02528238 -4.627504148 -1
7.654666388 -3.621100098 -1
6.780793558 -6.526925903 -1
11.02528238 -4.627504148 0
46.113497 -11.84656896 0
57.35599644 0 0
57.35599644 0 -2
48.18282818 -3.94885632 -1
51.73474672 -5.92328448 0
57.35599644 0 -1
51.73474672 -5.92328448 -1
47.14816259 -7.897712639 -0.5
52.76941231 -1.97442816 -0.5
52.76941231 -1.97442816 -1.5
80 0 0
80 -40 0
61.22230449 -16.38308936 -2
80 -40 -2
80 -20 0
70.61115225 -28.19154468 -1
70.61115225 -8.191544681 -1
80 -20 -1
80 -40 -1
70.61115225 -28.19154468 -2
80 0 -2
80 -40 -2
80 0 0
61.22230449 -16.38308936 -2
80 -20 -2
80 -20 -1
80 0 -1
70.61115225 -8.191544681 -2
70.61115225 -28.19154468 -2
70.61115225 -8.191544681 -1
55.80060429 -55.80060429 0
80 -80 0
80 -40 -2
80 -40 0
67.90030215 -67.90030215 0
80 -60 -1
67.90030215 -47.90030215 -1
67.90030215 -47.90030215 0
80 -60 0
80 -40 -1
55.80060429 -55.80060429 0
40 -80 -2
80 -80 0
40 -80 0
47.90030215 -67.90030215 -1
60 -80 -1
67.90030215 -67.90030215 0
47.90030215 -67.90030215 0
40 -80 -1
60 -80 0
55.80060429 -55.80060429 -2
80 -40 -2
42.64202902 -30.06887785 -2
55.80060429 -55.80060429 0
67.90030215 -47.90030215 -2
61.32101451 -35.03443893 -2
49.22131666 -42.93474107 -2
55.80060429 -55.80060429 -1
67.90030215 -47.90030215 -1
49.22131666 -42.93474107 -1
46.113497 -11.84656896 0
29.02592924 -17.21853599 0
33.90365308 -7.281161265 0
46.113497 -11.84656896 -2
37.56971312 -14.53255248 0
31.46479116 -12.24984863 0
40.00857504 -9.563865112 0
46.113497 -11.84656896 -1
37.56971312 -14.53255248 -1
40.00857504 -9.563865112 -1
20.96831662 0 -2
10.57703397 0 0
14.39589836 -5.633908197 -2
14.39589836 -5.633908197 0
15.77267529 0 -1
12.48646617 -2.816954099 -1
17.68210749 -2.816954099 -2
17.68210749 -2.816954099 -1
12.48646617 -2.816954099 0
14.39589836 -5.633908197 -1
61.22230449 -16.38308936 -2
42.64202902 -30.06887785 -2
80 -40 0
42.64202902 -30.06887785 0
51.93216676 -23.22598361 -2
61.32101451 -35.03443893 -1
70.61115225 -28.19154468 -1
51.93216676 -23.22598361 -1
42.64202902 -30.06887785 -1
61.32101451 -35.03443893 0
57.35599644 0 0
80 0 -2
80 0 0
66.19276698 -5.461029787 -1
68.67799822 0 -1
80 0 -1
68.67799822 0 0
61.77438171 -2.730514894 -0.5
73.09638349 -2.730514894 -1.5
73.09638349 -2.730514894 -0.5
5.906920728 -9.432751709 -2
5.906920728 -9.432751709 0
16.70077375 -14.31947115 -2
14.39589836 -5.633908197 0
5.906920728 -9.432751709 -1
11.30384724 -11.87611143 -1
11.30384724 -11.87611143 -2
10.15140955 -7.533329953 -1
10.15140955 -7.533329953 0
15.54833606 -9.976689672 -1
61.22230449 -16.38308936 -2
80 -40 0
42.64202902 -30.06887785 -2
80 -40 -2
70.61115225 -28.19154468 -1
61.32101451 -35.03443893 -1
51.93216676 -23.22598361 -2
70.61115225 -28.19154468 -2
80 -40 -1
61.32101451 -35.03443893 -2
14.39589836 -5.633908197 -2
14.39589836 -5.633908197 0
16.70077375 -14.31947115 -2
23.92112267 -7.340701375 -2
14.39589836 -5.633908197 -1
15.54833606 -9.976689672 -1
15.54833606 -9.976689672 -2
19.15851052 -6.487304786 -2
19.15851052 -6.487304786 -1
20.31094821 -10.83008626 -2
41.0789911 0 -2
41.0789911 0 0
46.113497 -11.84656896 -2
48.18282818 -3.94885632 -1
41.0789911 0 -1
43.59624405 -5.92328448 -1
43.59624405 -5.92328448 -2
44.63090964 -1.97442816 -1.5
44.63090964 -1.97442816 -0.5
47.14816259 -7.897712639 -1.5
14.39589836 -5.633908197 0
20.96831662 0 -2
10.57703397 0 0
20.96831662 0 0
17.68210749 -2.816954099 -1
15.77267529 0 -1
12.48646617 -2.816954099 0
17.68210749 -2.816954099 0
20.96831662 0 -1
15.77267529 0 0
20.96831662 0 -2
14.39589836 -5.633908197 -2
10.57703397 0 0
10.57703397 0 -2
17.68210749 -2.816954099 -2
12.48646617 -2.816954099 -1
15.77267529 0 -1
15.77267529 0 -2
12.48646617 -2.816954099 -2
10.57703397 0 -1
55.80060429 -55.80060429 0
80 -40 0
42.64202902 -30.06887785 -2
42.64202902 -30.06887785 0
67.90030215 -47.90030215 0
61.32101451 -35.03443893 -1
49.22131666 -42.93474107 -1
49.22131666 -42.93474107 0
61.32101451 -35.03443893 0
42.64202902 -30.06887785 -1
14.39589836 -5.633908197 0
5.906920728 -9.432751709 0
16.70077375 -14.31947115 -2
16.70077375 -14.31947115 0
10.15140955 -7.533329953 0
11.30384724 -11.87611143 -1
15.54833606 -9.976689672 -1
15.54833606 -9.976689672 0
11.30384724 -11.87611143 0
16.70077375 -14.31947115 -1
80 -40 -2
80 -40 0
42.64202902 -30.06887785 -2
55.80060429 -55.80060429 0
80 -40 -1
61.32101451 -35.03443893 -1
61.32101451 -35.03443893 -2
67.90030215 -47.90030215 -1
67.90030215 -47.90030215 0
49.22131666 -42.93474107 -1
2.582327856 -46.15903624 0
0 -80 0
0 -80 -2
26.43663006 -53.23168972 0
1.291163928 -63.07951812 0
0 -80 -1
1.291163928 -63.07951812 -1
14.50947896 -49.69536298 0
13.21831503 -66.61584486 0
13.21831503 -66.61584486 -1
20.96831662 0 -2
23.92112267 -7.340701375 -2
14.39589836 -5.633908197 0
14.39589836 -5.633908197 -2
22.44471964 -3.670350688 -2
19.15851052 -6.487304786 -1
17.68210749 -2.816954099 -1
17.68210749 -2.816954099 -2
19.15851052 -6.487304786 -2
14.39589836 -5.633908197 -1
-18.77807356 -52.36897868 -2
2.582327856 -46.15903624 0
0 -80 -2
2.582327856 -46.15903624 -2
-8.097872854 -49.26400746 -1
1.291163928 -63.07951812 -1
-9.389036782 -66.18448934 -2
-8.097872854 -49.26400746 -2
2.582327856 -46.15903624 -1
1.291163928 -63.07951812 -2
14.39589836 -5.633908197 0
16.70077375 -14.31947115 0
23.92112267 -7.340701375 -2
23.92112267 -7.340701375 0
15.54833606 -9.976689672 0
20.31094821 -10.83008626 -1
19.15851052 -6.487304786 -1
19.15851052 -6.487304786 0
20.31094821 -10.83008626 0
23.92112267 -7.340701375 -1
46.113497 -11.84656896 -2
41.0789911 0 0
46.113497 -11.84656896 0
48.18282818 -3.94885632 -1
43.59624405 -5.92328448 -1
43.59624405 -5.92328448 0
46.113497 -11.84656896 -1
47.14816259 -7.897712639 -1.5
44.63090964 -1.97442816 -0.5
47.14816259 -7.897712639 -0.5
23.92112267 -7.340701375 0
20.96831662 0 -2
14.39589836 -5.633908197 0
20.96831662 0 0
22.44471964 -3.670350688 -1
17.68210749 -2.816954099 -1
19.15851052 -6.487304786 0
22.44471964 -3.670350688 0
20.96831662 0 -1
17.68210749 -2.816954099 0
5.906920728 -9.432751709 -2
14.39589836 -5.633908197 0
14.39589836 -5.633908197 -2
7.654666388 -3.621100098 -2
10.15140955 -7.533329953 -1
14.39589836 -5.633908197 -1
10.15140955 -7.533329953 -2
6.780793558 -6.526925903 -2
11.02528238 -4.627504148 -1
11.02528238 -4.627504148 -2
2.582327856 -46.15903624 0
-18.77807356 -52.36897868 -2
0 -80 0
-18.77807356 -52.36897868 0
-8.097872854 -49.26400746 -1
-9.389036782 -66.18448934 -1
1.291163928 -63.07951812 0
-8.097872854 -49.26400746 0
-18.77807356 -52.36897868 -1
-9.389036782 -66.18448934 0
16.70077375 -14.31947115 -2
8.259621265 -18.55504219 -2
5.906920728 -9.432751709 0
5.906920728 -9.432751709 -2
12.48019751 -16.43725667 -2
7.083270997 -13.99389695 -1
11.30384724 -11.87611143 -1
11.30384724 -11.87611143 -2
7.083270997 -13.99389695 -2
5.906920728 -9.432751709 -1
16.70077375 -14.31947115 0
23.92112267 -7.340701375 0
29.02592924 -17.21853599 -2
23.92112267 -7.340701375 -2
20.31094821 -10.83008626 0
26.47352595 -12.27961868 -1
22.8633515 -15.76900357 -1
20.31094821 -10.83008626 -1
23.92112267 -7.340701375 -1
26.47352595 -12.27961868 -2
20.96831662 0 -2
14.39589836 -5.633908197 0
23.92112267 -7.340701375 -2
23.92112267 -7.340701375 0
17.68210749 -2.816954099 -1
19.15851052 -6.487304786 -1
22.44471964 -3.670350688 -2
22.44471964 -3.670350688 -1
19.15851052 -6.487304786 0
23.92112267 -7.340701375 -1
-1.486149823 -6.928202819 -2
2.291748005 -3.365583757 0
5.906920728 -9.432751709 -2
2.291748005 -3.365583757 -2
0.4027990914 -5.146893288 -1
4.099334367 -6.399167733 -1
2.210385453 -8.180477264 -2
0.4027990914 -5.146893288 -2
2.291748005 -3.365583757 -1
4.099334367 -6.399167733 -2
2.582327856 -46.15903624 0
1.259117512 -26.97648465 -2
1.259117512 -26.97648465 0
17.59481918 -27.36161992 0
1.920722684 -36.56776045 -1
1.259117512 -26.97648465 -1
1.920722684 -36.56776045 0
10.08857352 -36.76032808 0
9.426968348 -27.16905229 -1
9.426968348 -27.16905229 0
16.70077375 -14.31947115 -2
5.906920728 -9.432751709 0
8.259621265 -18.55504219 -2
8.259621265 -18.55504219 0
11.30384724 -11.87611143 -1
7.083270997 -13.99389695 -1
12.48019751 -16.43725667 -2
12.48019751 -16.43725667 -1
7.083270997 -13.99389695 0
8.259621265 -18.55504219 -1
5.906920728 -9.432751709 0
8.259621265 -18.55504219 0
16.70077375 -14.31947115 -2
16.70077375 -14.31947115 0
7.083270997 -13.99389695 0
12.48019751 -16.43725667 -1
11.30384724 -11.87611143 -1
11.30384724 -11.87611143 0
12.48019751 -16.43725667 0
16.70077375 -14.31947115 -1
2.582327856 -46.15903624 0
0 -80 0
-18.77807356 -52.36897868 -2
0 -80 -2
1.291163928 -63.07951812 0
-9.389036782 -66.18448934 -1
-8.097872854 -49.26400746 -1
1.291163928 -63.07951812 -1
0 -80 -1
-9.389036782 -66.18448934 -2
14.39589836 -5.633908197 0
23.92112267 -7.340701375 -2
16.70077375 -14.31947115 0
16.70077375 -14.31947115 -2
19.15851052 -6.487304786 -1
20.31094821 -10.83008626 -1
15.54833606 -9.976689672 0
15.54833606 -9.976689672 -1
20.31094821 -10.83008626 -2
16.70077375 -14.31947115 -1
16.70077375 -14.31947115 -2
16.70077375 -14.31947115 0
29.02592924 -17.21853599 -2
23.92112267 -7.340701375 -2
16.70077375 -14.31947115 -1
22.8633515 -15.76900357 -1
22.8633515 -15.76900357 -2
20.31094821 -10.83008626 -2
20.31094821 -10.83008626 -1
26.47352595 -12.27961868 -2
5.906920728 -9.432751709 0
-1.486149823 -6.928202819 -2
-1.486149823 -6.928202819 0
2.291748005 -3.365583757 0
2.210385453 -8.180477264 -1
-1.486149823 -6.928202819 -1
2.210385453 -8.180477264 0
4.099334367 -6.399167733 0
0.4027990914 -5.146893288 -1
0.4027990914 -5.146893288 0
5.906920728 -9.432751709 0
14.39589836 -5.633908197 0
5.906920728 -9.432751709 -2
7.654666388 -3.621100098 0
10.15140955 -7.533329953 0
10.15140955 -7.533329953 -1
5.906920728 -9.432751709 -1
6.780793558 -6.526925903 0
11.02528238 -4.627504148 0
6.780793558 -6.526925903 -1
5.207805435 0 -2
7.654666388 -3.621100098 0
5.207805435 0 0
2.291748005 -3.365583757 0
6.431235911 -1.810550049 -1
6.431235911 -1.810550049 0
5.207805435 0 -1
3.74977672 -1.682791878 -1
4.973207196 -3.493341928 0
3.74977672 -1.682791878 0
2.582327856 -46.15903624 0
26.43663006 -53.23168972 0
17.59481918 -27.36161992 -2
17.59481918 -27.36161992 0
14.50947896 -49.69536298 0
22.01572462 -40.29665482 -1
10.08857352 -36.76032808 -1
10.08857352 -36.76032808 0
22.01572462 -40.29665482 0
17.59481918 -27.36161992 -1
46.113497 -11.84656896 -2
41.0789911 0 0
33.90365308 -7.281161265 -2
33.90365308 -7.281161265 0
43.59624405 -5.92328448 -1
37.49132209 -3.640580633 -1
40.00857504 -9.563865112 -2
40.00857504 -9.563865112 -1
37.49132209 -3.640580633 0
33.90365308 -7.281161265 -1
40 -80 -2
26.43663006 -53.23168972 -2
55.80060429 -55.80060429 0
55.80060429 -55.80060429 -2
33.21831503 -66.61584486 -2
41.11861717 -54.516147 -1
47.90030215 -67.90030215 -1
47.90030215 -67.90030215 -2
41.11861717 -54.516147 -2
55.80060429 -55.80060429 -1
29.02592924 -17.21853599 -2
23.92112267 -7.340701375 0
33.90365308 -7.281161265 -2
23.92112267 -7.340701375 -2
26.47352595 -12.27961868 -1
28.91238787 -7.31093132 -1
31.46479116 -12.24984863 -2
26.47352595 -12.27961868 -2
23.92112267 -7.340701375 -1
28.91238787 -7.31093132 -2
23.92112267 -7.340701375 0
29.3787254 0 0
33.90365308 -7.281161265 -2
23.92112267 -7.340701375 -2
26.64992403 -3.670350688 0
31.64118924 -3.640580633 -1
28.91238787 -7.31093132 -1
23.92112267 -7.340701375 -1
26.64992403 -3.670350688 -1
28.91238787 -7.31093132 -2
2.582327856 -46.15903624 0
-12.72304544 -32.86479037 -2
1.259117512 -26.97648465 0
1.259117512 -26.97648465 -2
-5.070358793 -39.51191331 -1
-5.731963965 -29.92063751 -1
1.920722684 -36.56776045 0
1.920722684 -36.56776045 -1
-5.731963965 -29.92063751 -2
1.259117512 -26.97648465 -1
26.43663006 -53.23168972 -2
55.80060429 -55.80060429 -2
42.64202902 -30.06887785 -2
55.80060429 -55.80060429 0
41.11861717 -54.516147 -2
49.22131666 -42.93474107 -2
34.53932954 -41.65028378 -2
41.11861717 -54.516147 -1
55.80060429 -55.80060429 -1
49.22131666 -42.93474107 -1
33.90365308 -7.281161265 -2
41.0789911 0 0
29.3787254 0 -2
29.3787254 0 0
37.49132209 -3.640580633 -1
35.22885825 0 -1
31.64118924 -3.640580633 -2
31.64118924 -3.640580633 -1
35.22885825 0 0
29.3787254 0 -1
23.92112267 -7.340701375 0
29.3787254 0 0
20.96831662 0 -2
20.96831662 0 0
26.64992403 -3.670350688 0
25.17352101 0 -1
22.44471964 -3.670350688 -1
22.44471964 -3.670350688 0
25.17352101 0 0
20.96831662 0 -1
1.259117512 -26.97648465 0
-12.72304544 -32.86479037 -2
-9.599169743 -18.78484362 -2
1.259117512 -26.97648465 -2
-5.731963965 -29.92063751 -1
-11.16110759 -25.82481699 -2
-4.170026116 -22.88066414 -1
1.259117512 -26.97648465 -1
-5.731963965 -29.92063751 -2
-4.170026116 -22.88066414 -2
2.582327856 -46.15903624 0
1.259117512 -26.97648465 0
-12.72304544 -32.86479037 -2
-12.72304544 -32.86479037 0
1.920722684 -36.56776045 0
-5.731963965 -29.92063751 -1
-5.070358793 -39.51191331 -1
-5.070358793 -39.51191331 0
-5.731963965 -29.92063751 0
-12.72304544 -32.86479037 -1
5.906920728 -9.432751709 -2
7.654666388 -3.621100098 0
7.654666388 -3.621100098 -2
2.291748005 -3.365583757 0
6.780793558 -6.526925903 -1
7.654666388 -3.621100098 -1
6.780793558 -6.526925903 -2
4.099334367 -6.399167733 -1
4.973207196 -3.493341928 0
4.973207196 -3.493341928 -1
23.92112267 -7.340701375 -2
29.3787254 0 0
33.90365308 -7.281161265 -2
29.3787254 0 -2
26.64992403 -3.670350688 -1
31.64118924 -3.640580633 -1
28.91238787 -7.31093132 -2
26.64992403 -3.670350688 -2
29.3787254 0 -1
31.64118924 -3.640580633 -2
5.906920728 -9.432751709 -2
2.291748005 -3.365583757 0
7.654666388 -3.621100098 -2
2.291748005 -3.365583757 -2
4.099334367 -6.399167733 -1
4.973207196 -3.493341928 -1
6.780793558 -6.526925903 -2
4.099334367 -6.399167733 -2
2.291748005 -3.365583757 -1
4.973207196 -3.493341928 -2
1.259117512 -26.97648465 -2
8.259621265 -18.55504219 0
17.59481918 -27.36161992 0
8.259621265 -18.55504219 -2
4.759369388 -22.76576342 -1
12.92722022 -22.95833106 0
9.426968348 -27.16905229 -1
4.759369388 -22.76576342 -2
8.259621265 -18.55504219 -1
12.92722022 -22.95833106 -1
-0.1635248549 -14.68488354 -2
8.259621265 -18.55504219 0
1.259117512 -26.97648465 -2
8.259621265 -18.55504219 -2
4.048048205 -16.61996287 -1
4.759369388 -22.76576342 -1
0.5477963283 -20.8306841 -2
4.048048205 -16.61996287 -2
8.259621265 -18.55504219 -1
4.759369388 -22.76576342 -2
20.96831662 0 -2
23.92112267 -7.340701375 -2
29.3787254 0 0
23.92112267 -7.340701375 0
22.44471964 -3.670350688 -2
26.64992403 -3.670350688 -1
25.17352101 0 -1
22.44471964 -3.670350688 -1
23.92112267 -7.340701375 -1
26.64992403 -3.670350688 0
29.02592924 -17.21853599 0
46.113497 -11.84656896 0
42.64202902 -30.06887785 0
46.113497 -11.84656896 -2
37.56971312 -14.53255248 0
44.37776301 -20.95772341 0
35.83397913 -23.64370692 0
37.56971312 -14.53255248 -1
46.113497 -11.84656896 -1
44.37776301 -20.95772341 -1
41.0789911 0 0
33.90365308 -7.281161265 0
29.3787254 0 0
33.90365308 -7.281161265 -2
37.49132209 -3.640580633 0
31.64118924 -3.640580633 0
35.22885825 0 0
37.49132209 -3.640580633 -1
33.90365308 -7.281161265 -1
31.64118924 -3.640580633 -1
26.43663006 -53.23168972 -2
55.80060429 -55.80060429 0
42.64202902 -30.06887785 -2
26.43663006 -53.23168972 0
41.11861717 -54.516147 -1
49.22131666 -42.93474107 -1
34.53932954 -41.65028378 -2
26.43663006 -53.23168972 -1
41.11861717 -54.516147 0
34.53932954 -41.65028378 -1
1.259117512 -26.97648465 -2
2.582327856 -46.15903624 0
17.59481918 -27.36161992 -2
17.59481918 -27.36161992 0
1.920722684 -36.56776045 -1
10.08857352 -36.76032808 -1
9.426968348 -27.16905229 -2
9.426968348 -27.16905229 -1
10.08857352 -36.76032808 0
17.59481918 -27.36161992 -1
26.43663006 -53.23168972 0
55.80060429 -55.80060429 0
42.64202902 -30.06887785 -2
42.64202902 -30.06887785 0
41.11861717 -54.516147 0
49.22131666 -42.93474107 -1
34.53932954 -41.65028378 -1
34.53932954 -41.65028378 0
49.22131666 -42.93474107 0
42.64202902 -30.06887785 -1
29.3787254 0 0
33.90365308 -7.281161265 -2
33.90365308 -7.281161265 0
23.92112267 -7.340701375 0
31.64118924 -3.640580633 -1
33.90365308 -7.281161265 -1
31.64118924 -3.640580633 0
26.64992403 -3.670350688 0
28.91238787 -7.31093132 -1
28.91238787 -7.31093132 0
29.02592924 -17.21853599 -2
16.70077375 -14.31947115 -2
17.59481918 -27.36161992 0
16.70077375 -14.31947115 0
22.8633515 -15.76900357 -2
17.14779647 -20.84054553 -1
23.31037421 -22.29007796 -1
22.8633515 -15.76900357 -1
16.70077375 -14.31947115 -1
17.14779647 -20.84054553 0
-18.77807356 -52.36897868 0
2.582327856 -46.15903624 0
-12.72304544 -32.86479037 -2
-12.72304544 -32.86479037 0
-8.097872854 -49.26400746 0
-5.070358793 -39.51191331 -1
-15.7505595 -42.61688453 -1
-15.7505595 -42.61688453 0
-5.070358793 -39.51191331 0
-12.72304544 -32.86479037 -1
20.96831662 0 -2
29.3787254 0 0
23.92112267 -7.340701375 -2
29.3787254 0 -2
25.17352101 0 -1
26.64992403 -3.670350688 -1
22.44471964 -3.670350688 -2
25.17352101 0 -2
29.3787254 0 -1
26.64992403 -3.670350688 -2
10.57703397 0 0
7.654666388 -3.621100098 -2
14.39589836 -5.633908197 0
7.654666388 -3.621100098 0
9.115850178 -1.810550049 -1
11.02528238 -4.627504148 -1
12.48646617 -2.816954099 0
9.115850178 -1.810550049 0
7.654666388 -3.621100098 -1
11.02528238 -4.627504148 0
46.113497 -11.84656896 -2
33.90365308 -7.281161265 -2
41.0789911 0 0
41.0789911 0 -2
40.00857504 -9.563865112 -2
37.49132209 -3.640580633 -1
43.59624405 -5.92328448 -1
43.59624405 -5.92328448 -2
37.49132209 -3.640580633 -2
41.0789911 0 -1
17.59481918 -27.36161992 -2
42.64202902 -30.06887785 -2
26.43663006 -53.23168972 0
26.43663006 -53.23168972 -2
30.1184241 -28.71524889 -2
34.53932954 -41.65028378 -1
22.01572462 -40.29665482 -1
22.01572462 -40.29665482 -2
34.53932954 -41.65028378 -2
26.43663006 -53.23168972 -1
-0.1635248549 -14.68488354 -2
1.259117512 -26.97648465 0
-9.599169743 -18.78484362 -2
1.259117512 -26.97648465 -2
0.5477963283 -20.8306841 -1
-4.170026116 -22.88066414 -1
-4.881347299 -16.73486358 -2
0.5477963283 -20.8306841 -2
1.259117512 -26.97648465 -1
-4.170026116 -22.88066414 -2
7.654666388 -3.621100098 0
5.207805435 0 -2
7.654666388 -3.621100098 -2
2.291748005 -3.365583757 0
6.431235911 -1.810550049 -1
6.431235911 -1.810550049 -2
7.654666388 -3.621100098 -1
4.973207196 -3.493341928 0
3.74977672 -1.682791878 -1
4.973207196 -3.493341928 -1
42.64202902 -30.06887785 0
46.113497 -11.84656896 0
61.22230449 -16.38308936 -2
46.113497 -11.84656896 -2
44.37776301 -20.95772341 0
53.66790074 -14.11482916 -1
51.93216676 -23.22598361 -1
44.37776301 -20.95772341 -1
46.113497 -11.84656896 -1
53.66790074 -14.11482916 -2
2.291748005 -3.365583757 0
5.207805435 0 -2
7.654666388 -3.621100098 -2
2.291748005 -3.365583757 -2
3.74977672 -1.682791878 -1
6.431235911 -1.810550049 -2
4.973207196 -3.493341928 -1
2.291748005 -3.365583757 -1
3.74977672 -1.682791878 -2
4.973207196 -3.493341928 -2
29.02592924 -17.21853599 0
23.92112267 -7.340701375 0
29.02592924 -17.21853599 -2
16.70077375 -14.31947115 0
26.47352595 -12.27961868 0
26.47352595 -12.27961868 -1
29.02592924 -17.21853599 -1
22.8633515 -15.76900357 0
20.31094821 -10.83008626 0
22.8633515 -15.76900357 -1
-0.1635248549 -14.68488354 -2
5.906920728 -9.432751709 0
8.259621265 -18.55504219 -2
5.906920728 -9.432751709 -2
2.871697937 -12.05881763 -1
7.083270997 -13.99389695 -1
4.048048205 -16.61996287 -2
2.871697937 -12.05881763 -2
5.906920728 -9.432751709 -1
7.083270997 -13.99389695 -2
46.113497 -11.84656896 0
33.90365308 -7.281161265 0
41.0789911 0 0
46.113497 -11.84656896 -2
40.00857504 -9.563865112 0
37.49132209 -3.640580633 0
43.59624405 -5.92328448 0
46.113497 -11.84656896 -1
40.00857504 -9.563865112 -1
43.59624405 -5.92328448 -1
-1.486149823 -6.928202819 -2
5.906920728 -9.432751709 -2
2.291748005 -3.365583757 0
5.906920728 -9.432751709 0
2.210385453 -8.180477264 -2
4.099334367 -6.399167733 -1
0.4027990914 -5.146893288 -1
2.210385453 -8.180477264 -1
5.906920728 -9.432751709 -1
4.099334367 -6.399167733 0
17.59481918 -27.36161992 0
8.259621265 -18.55504219 0
16.70077375 -14.31947115 -2
8.259621265 -18.55504219 -2
12.92722022 -22.95833106 0
12.48019751 -16.43725667 -1
17.14779647 -20.84054553 -1
12.92722022 -22.95833106 -1
8.259621265 -18.55504219 -1
12.48019751 -16.43725667 -2
-1.486149823 -6.928202819 -2
5.906920728 -9.432751709 0
-0.1635248549 -14.68488354 -2
5.906920728 -9.432751709 -2
2.210385453 -8.180477264 -1
2.871697937 -12.05881763 -1
-0.8248373387 -10.80654318 -2
2.210385453 -8.180477264 -2
5.906920728 -9.432751709 -1
2.871697937 -12.05881763 -2
17.59481918 -27.36161992 0
16.70077375 -14.31947115 -2
8.259621265 -18.55504219 0
16.70077375 -14.31947115 0
17.14779647 -20.84054553 -1
12.48019751 -16.43725667 -1
12.92722022 -22.95833106 0
17.14779647 -20.84054553 0
16.70077375 -14.31947115 -1
12.48019751 -16.43725667 0
41.0789911 0 -2
41.0789911 0 0
29.3787254 0 -2
33.90365308 -7.281161265 -2
41.0789911 0 -1
35.22885825 0 -1
35.22885825 0 -2
37.49132209 -3.640580633 -2
37.49132209 -3.640580633 -1
31.64118924 -3.640580633 -2
1.259117512 -26.97648465 -2
17.59481918 -27.36161992 -2
2.582327856 -46.15903624 0
2.582327856 -46.15903624 -2
9.426968348 -27.16905229 -2
10.08857352 -36.76032808 -1
1.920722684 -36.56776045 -1
1.920722684 -36.56776045 -2
10.08857352 -36.76032808 -2
2.582327856 -46.15903624 -1
5.906920728 -9.432751709 0
8.259621265 -18.55504219 0
-0.1635248549 -14.68488354 -2
8.259621265 -18.55504219 -2
7.083270997 -13.99389695 0
4.048048205 -16.61996287 -1
2.871697937 -12.05881763 -1
7.083270997 -13.99389695 -1
8.259621265 -18.55504219 -1
4.048048205 -16.61996287 -2
57.35599644 0 -2
61.22230449 -16.38308936 -2
46.113497 -11.84656896 0
46.113497 -11.84656896 -2
59.28915047 -8.191544681 -2
53.66790074 -14.11482916 -1
51.73474672 -5.92328448 -1
51.73474672 -5.92328448 -2
53.66790074 -14.11482916 -2
46.113497 -11.84656896 -1
1.259117512 -26.97648465 0
17.59481918 -27.36161992 0
1.259117512 -26.97648465 -2
8.259621265 -18.55504219 0
9.426968348 -27.16905229 0
9.426968348 -27.16905229 -1
1.259117512 -26.97648465 -1
4.759369388 -22.76576342 0
12.92722022 -22.95833106 0
4.759369388 -22.76576342 -1
5.207805435 0 0
5.207805435 0 -2
10.57703397 0 0
7.654666388 -3.621100098 0
5.207805435 0 -1
7.892419701 0 -1
7.892419701 0 0
6.431235911 -1.810550049 0
6.431235911 -1.810550049 -1
9.115850178 -1.810550049 0
17.59481918 -27.36161992 0
29.02592924 -17.21853599 0
29.02592924 -17.21853599 -2
16.70077375 -14.31947115 0
23.31037421 -22.29007796 0
29.02592924 -17.21853599 -1
23.31037421 -22.29007796 -1
17.14779647 -20.84054553 0
22.8633515 -15.76900357 0
22.8633515 -15.76900357 -1
14.39589836 -5.633908197 0
10.57703397 0 0
14.39589836 -5.633908197 -2
7.654666388 -3.621100098 -2
12.48646617 -2.816954099 0
12.48646617 -2.816954099 -1
14.39589836 -5.633908197 -1
11.02528238 -4.627504148 -1
9.115850178 -1.810550049 -1
11.02528238 -4.627504148 -2
-0.1635248549 -14.68488354 -2
1.259117512 -26.97648465 -2
8.259621265 -18.55504219 0
1.259117512 -26.97648465 0
0.5477963283 -20.8306841 -2
4.759369388 -22.76576342 -1
4.048048205 -16.61996287 -1
0.5477963283 -20.8306841 -1
1.259117512 -26.97648465 -1
4.759369388 -22.76576342 0
57.35599644 0 -2
57.35599644 0 0
61.22230449 -16.38308936 0
66.19276698 -5.461029787 -1
57.35599644 0 -1
59.28915047 -8.191544681 0
59.28915047 -8.191544681 -1
61.77438171 -2.730514894 -1.5
61.77438171 -2.730514894 -0.5
63.70753574 -10.92205957 -0.5
10.57703397 0 0
10.57703397 0 -2
14.39589836 -5.633908197 -2
7.654666388 -3.621100098 -2
10.57703397 0 -1
12.48646617 -2.816954099 -2
12.48646617 -2.816954099 -1
9.115850178 -1.810550049 -1
9.115850178 -1.810550049 -2
11.02528238 -4.627504148 -2
57.35599644 0 -2
61.22230449 -16.38308936 0
57.35599644 0 0
46.113497 -11.84656896 0
59.28915047 -8.191544681 -1
59.28915047 -8.191544681 0
57.35599644 0 -1
51.73474672 -5.92328448 -1
53.66790074 -14.11482916 0
51.73474672 -5.92328448 0
2.582327856 -46.15903624 0
-12.72304544 -32.86479037 -2
1.259117512 -26.97648465 -2
2.582327856 -46.15903624 -2
-5.070358793 -39.51191331 -1
-5.731963965 -29.92063751 -2
1.920722684 -36.56776045 -1
2.582327856 -46.15903624 -1
-5.070358793 -39.51191331 -2
1.920722684 -36.56776045 -2
5.906920728 -9.432751709 0
7.654666388 -3.621100098 0
5.906920728 -9.432751709 -2
2.291748005 -3.365583757 0
6.780793558 -6.526925903 0
6.780793558 -6.526925903 -1
5.906920728 -9.432751709 -1
4.099334367 -6.399167733 0
4.973207196 -3.493341928 0
4.099334367 -6.399167733 -1
61.22230449 -16.38308936 0
46.113497 -11.84656896 0
61.22230449 -16.38308936 -2
42.64202902 -30.06887785 0
53.66790074 -14.11482916 0
53.66790074 -14.11482916 -1
61.22230449 -16.38308936 -1
51.93216676 -23.22598361 0
44.37776301 -20.95772341 0
51.93216676 -23.22598361 -1
-12.72304544 -32.86479037 -2
2.582327856 -46.15903624 0
-18.77807356 -52.36897868 -2
2.582327856 -46.15903624 -2
-5.070358793 -39.51191331 -1
-8.097872854 -49.26400746 -1
-15.7505595 -42.61688453 -2
-5.070358793 -39.51191331 -2
2.582327856 -46.15903624 -1
-8.097872854 -49.26400746 -2
-12.72304544 -32.86479037 -2
-18.77807356 -52.36897868 -2
2.582327856 -46.15903624 0
-18.77807356 -52.36897868 0
-15.7505595 -42.61688453 -2
-8.097872854 -49.26400746 -1
-5.070358793 -39.51191331 -1
-15.7505595 -42.61688453 -1
-18.77807356 -52.36897868 -1
-8.097872854 -49.26400746 0
7.654666388 -3.621100098 -2
10.57703397 0 0
5.207805435 0 -2
7.654666388 -3.621100098 0
9.115850178 -1.810550049 -1
7.892419701 0 -1
6.431235911 -1.810550049 -2
7.654666388 -3.621100098 -1
9.115850178 -1.810550049 0
6.431235911 -1.810550049 -1
1.259117512 -26.97648465 -2
17.59481918 -27.36161992 0
17.59481918 -27.36161992 -2
8.259621265 -18.55504219 -2
9.426968348 -27.16905229 -1
17.59481918 -27.36161992 -1
9.426968348 -27.16905229 -2
4.759369388 -22.76576342 -2
12.92722022 -22.95833106 -1
12.92722022 -22.95833106 -2
61.22230449 -16.38308936 0
61.22230449 -16.38308936 -2
57.35599644 0 -2
66.19276698 -5.461029787 -1
61.22230449 -16.38308936 -1
59.28915047 -8.191544681 -2
59.28915047 -8.191544681 -1
63.70753574 -10.92205957 -0.5
63.70753574 -10.92205957 -1.5
61.77438171 -2.730514894 -1.5
57.35599644 0 -2
46.113497 -11.84656896 0
61.22230449 -16.38308936 -2
61.22230449 -16.38308936 0
51.73474672 -5.92328448 -1
53.66790074 -14.11482916 -1
59.28915047 -8.191544681 -2
59.28915047 -8.191544681 -1
53.66790074 -14.11482916 0
61.22230449 -16.38308936 -1
29.02592924 -17.21853599 -2
17.59481918 -27.36161992 0
16.70077375 -14.31947115 -2
17.59481918 -27.36161992 -2
23.31037421 -22.29007796 -1
17.14779647 -20.84054553 -1
22.8633515 -15.76900357 -2
23.31037421 -22.29007796 -2
17.59481918 -27.36161992 -1
17.14779647 -20.84054553 -2
46.113497 -11.84656896 -2
61.22230449 -16.38308936 -2
42.64202902 -30.06887785 0
42.64202902 -30.06887785 -2
53.66790074 -14.11482916 -2
51.93216676 -23.22598361 -1
44.37776301 -20.95772341 -1
44.37776301 -20.95772341 -2
51.93216676 -23.22598361 -2
42.64202902 -30.06887785 -1
10.57703397 0 0
5.207805435 0 -2
10.57703397 0 -2
7.654666388 -3.621100098 -2
7.892419701 0 -1
7.892419701 0 -2
10.57703397 0 -1
9.115850178 -1.810550049 -1
6.431235911 -1.810550049 -2
9.115850178 -1.810550049 -2
8.259621265 -18.55504219 -2
17.59481918 -27.36161992 0
17.59481918 -27.36161992 -2
16.70077375 -14.31947115 -2
12.92722022 -22.95833106 -1
17.59481918 -27.36161992 -1
12.92722022 -22.95833106 -2
12.48019751 -16.43725667 -2
17.14779647 -20.84054553 -1
17.14779647 -20.84054553 -2
61.22230449 -16.38308936 -2
80 0 -2
57.35599644 0 -2
66.19276698 -5.461029787 -1
70.61115225 -8.191544681 -2
68.67799822 0 -2
59.28915047 -8.191544681 -2
63.70753574 -10.92205957 -1.5
73.09638349 -2.730514894 -1.5
61.77438171 -2.730514894 -1.5
46.113497 -11.84656896 0
41.0789911 0 0
57.35599644 0 0
48.18282818 -3.94885632 -1
43.59624405 -5.92328448 0
49.21749377 0 0
51.73474672 -5.92328448 0
47.14816259 -7.897712639 -0.5
44.63090964 -1.97442816 -0.5
52.76941231 -1.97442816 -0.5
46.113497 -11.84656896 -2
57.35599644 0 -2
41.0789911 0 -2
48.18282818 -3.94885632 -1
51.73474672 -5.92328448 -2
49.21749377 0 -2
43.59624405 -5.92328448 -2
47.14816259 -7.897712639 -1.5
52.76941231 -1.97442816 -1.5
44.63090964 -1.97442816 -1.5
57.35599644 0 0
80 0 0
61.22230449 -16.38308936 0
66.19276698 -5.461029787 -1
68.67799822 0 0
70.61115225 -8.191544681 0
59.28915047 -8.191544681 0
61.77438171 -2.730514894 -0.5
73.09638349 -2.730514894 -0.5
63.70753574 -10.92205957 -0.5
29.02592924 -17.21853599 0
46.113497 -11.84656896 -2
33.90365308 -7.281161265 -2
33.90365308 -7.281161265 0
37.56971312 -14.53255248 -1
40.00857504 -9.563865112 -2
31.46479116 -12.24984863 -1
31.46479116 -12.24984863 0
40.00857504 -9.563865112 -1
33.90365308 -7.281161265 -1
33.90365308 -7.281161265 -2
46.113497 -11.84656896 -2
29.02592924 -17.21853599 0
29.02592924 -17.21853599 -2
40.00857504 -9.563865112 -2
37.56971312 -14.53255248 -1
31.46479116 -12.24984863 -1
31.46479116 -12.24984863 -2
37.56971312 -14.53255248 -2
29.02592924 -17.21853599 -1
33.90365308 -7.281161265 -2
23.92112267 -7.340701375 0
29.02592924 -17.21853599 0
33.90365308 -7.281161265 0
28.91238787 -7.31093132 -1
26.47352595 -12.27961868 0
31.46479116 -12.24984863 -1
33.90365308 -7.281161265 -1
28.91238787 -7.31093132 0
31.46479116 -12.24984863 0
29.02592924 -17.21853599 0
23.92112267 -7.340701375 0
33.90365308 -7.281161265 -2
29.02592924 -17.21853599 -2
26.47352595 -12.27961868 0
28.91238787 -7.31093132 -1
31.46479116 -12.24984863 -1
29.02592924 -17.21853599 -1
26.47352595 -12.27961868 -1
31.46479116 -12.24984863 -2
80 -80 0
80 -40 -2
55.80060429 -55.80060429 -2
55.80060429 -55.80060429 0
80 -60 -1
67.90030215 -47.90030215 -2
67.90030215 -67.90030215 -1
67.90030215 -67.90030215 0
67.90030215 -47.90030215 -1
55.80060429 -55.80060429 -1
55.80060429 -55.80060429 -2
80 -40 -2
80 -80 0
80 -80 -2
67.90030215 -47.90030215 -2
80 -60 -1
67.90030215 -67.90030215 -1
67.90030215 -67.90030215 -2
80 -60 -2
80 -80 -1
55.80060429 -55.80060429 -2
40 -80 -2
80 -80 0
55.80060429 -55.80060429 0
47.90030215 -67.90030215 -2
60 -80 -1
67.90030215 -67.90030215 -1
55.80060429 -55.80060429 -1
47.90030215 -67.90030215 -1
67.90030215 -67.90030215 0
80 -80 0
40 -80 -2
55.80060429 -55.80060429 -2
80 -80 -2
60 -80 -1
47.90030215 -67.90030215 -2
67.90030215 -67.90030215 -1
80 -80 -1
60 -80 -2
67.90030215 -67.90030215 -2
40 -80 0
0 -80 -2
26.43663006 -53.23168972 -2
40 -80 -2
20 -80 -1
13.21831503 -66.61584486 -2
33.21831503 -66.61584486 -1
40 -80 -1
20 -80 -2
33.21831503 -66.61584486 -2
26.43663006 -53.23168972 -2
0 -80 -2
40 -80 0
26.43663006 -53.23168972 0
13.21831503 -66.61584486 -2
20 -80 -1
33.21831503 -66.61584486 -1
26.43663006 -53.23168972 -1
13.21831503 -66.61584486 -1
33.21831503 -66.61584486 0
26.43663006 -53.23168972 -2
55.80060429 -55.80060429 0
40 -80 0
40 -80 -2
41.11861717 -54.516147 -1
47.90030215 -67.90030215 0
33.21831503 -66.61584486 -1
33.21831503 -66.61584486 -2
47.90030215 -67.90030215 -1
40 -80 -1
40 -80 0
55.80060429 -55.80060429 0
26.43663006 -53.23168972 -2
26.43663006 -53.23168972 0
47.90030215 -67.90030215 0
41.11861717 -54.516147 -1
33.21831503 -66.61584486 -1
33.21831503 -66.61584486 0
41.11861717 -54.516147 0
26.43663006 -53.23168972 -1
26.43663006 -53.23168972 0
17.59481918 -27.36161992 -2
2.582327856 -46.15903624 -2
2.582327856 -46.15903624 0
22.01572462 -40.29665482 -1
10.08857352 -36.76032808 -2
14.50947896 -49.69536298 -1
14.50947896 -49.69536298 0
10.08857352 -36.76032808 -1
2.582327856 -46.15903624 -1
2.582327856 -46.15903624 -2
17.59481918 -27.36161992 -2
26.43663006 -53.23168972 0
26.43663006 -53.23168972 -2
10.08857352 -36.76032808 -2
22.01572462 -40.29665482 -1
14.50947896 -49.69536298 -1
14.50947896 -49.69536298 -2
22.01572462 -40.29665482 -2
26.43663006 -53.23168972 -1
2.582327856 -46.15903624 -2
0 -80 -2
26.43663006 -53.23168972 0
2.582327856 -46.15903624 0
1.291163928 -63.07951812 -2
13.21831503 -66.61584486 -1
14.50947896 -49.69536298 -1
2.582327856 -46.15903624 -1
1.291163928 -63.07951812 -1
14.50947896 -49.69536298 0
26.43663006 -53.23168972 0
0 -80 -2
2.582327856 -46.15903624 -2
26.43663006 -53.23168972 -2
13.21831503 -66.61584486 -1
1.291163928 -63.07951812 -2
14.50947896 -49.69536298 -1
26.43663006 -53.23168972 -1
13.21831503 -66.61584486 -2
14.50947896 -49.69536298 -2
42.64202902 -30.06887785 -2
17.59481918 -27.36161992 0
29.02592924 -17.21853599 -2
17.59481918 -27.36161992 -2
30.1184241 -28.71524889 -1
23.31037421 -22.29007796 -1
35.83397913 -23.64370692 -2
30.1184241 -28.71524889 -2
17.59481918 -27.36161992 -1
23.31037421 -22.29007796 -2
17.59481918 -27.36161992 0
42.64202902 -30.06887785 -2
26.43663006 -53.23168972 0
17.59481918 -27.36161992 -2
30.1184241 -28.71524889 -1
34.53932954 -41.65028378 -1
22.01572462 -40.29665482 0
17.59481918 -27.36161992 -1
30.1184241 -28.71524889 -2
22.01572462 -40.29665482 -1
42.64202902 -30.06887785 -2
17.59481918 -27.36161992 0
26.43663006 -53.23168972 0
42.64202902 -30.06887785 0
30.1184241 -28.71524889 -1
22.01572462 -40.29665482 0
34.53932954 -41.65028378 -1
42.64202902 -30.06887785 -1
30.1184241 -28.71524889 0
34.53932954 -41.65028378 0
42.64202902 -30.06887785 -2
46.113497 -11.84656896 -2
29.02592924 -17.21853599 0
42.64202902 -30.06887785 0
44.37776301 -20.95772341 -2
37.56971312 -14.53255248 -1
35.83397913 -23.64370692 -1
42.64202902 -30.06887785 -1
44.37776301 -20.95772341 -1
35.83397913 -23.64370692 0
29.02592924 -17.21853599 0
46.113497 -11.84656896 -2
42.64202902 -30.06887785 -2
29.02592924 -17.21853599 -2
37.56971312 -14.53255248 -1
44.37776301 -20.95772341 -2
35.83397913 -23.64370692 -1
29.02592924 -17.21853599 -1
37.56971312 -14.53255248 -2
35.83397913 -23.64370692 -2
29.02592924 -17.21853599 0
17.59481918 -27.36161992 0
42.64202902 -30.06887785 -2
42.64202902 -30.06887785 0
23.31037421 -22.29007796 0
30.1184241 -28.71524889 -1
35.83397913 -23.64370692 -1
35.83397913 -23.64370692 0
30.1184241 -28.71524889 0
42.64202902 -30.06887785 -1
42.64202902 -30.06887785 -2
17.59481918 -27.36161992 0
29.02592924 -17.21853599 0
29.02592924 -17.21853599 -2
30.1184241 -28.71524889 -1
23.31037421 -22.29007796 0
35.83397913 -23.64370692 -1
35.83397913 -23.64370692 -2
23.31037421 -22.29007796 -1
29.02592924 -17.21853599 -1
80 -40 -3.4
80 0 -2
61.22230449 -16.38308936 -3.4
61.22230449 -16.38308936 -2
80 -20 -2.7
70.61115225 -8.191544681 -2.7
70.61115225 -28.19154468 -3.4
70.61115225 -28.19154468 -2.7
70.61115225 -8.191544681 -2
61.22230449 -16.38308936 -2.7
80 -40 -3.4
61.22230449 -16.38308936 -3.4
42.64202902 -30.06887785 -2
61.22230449 -16.38308936 -2
70.61115225 -28.19154468 -3.4
51.93216676 -23.22598361 -2.7
61.32101451 -35.03443893 -2.7
70.61115225 -28.19154468 -2.7
61.22230449 -16.38308936 -2.7
51.93216676 -23.22598361 -2
80 -80 -2
40 -80 -3.4
55.80060429 -55.80060429 -2
55.80060429 -55.80060429 -3.4
60 -80 -2.7
47.90030215 -67.90030215 -2.7
67.90030215 -67.90030215 -2
67.90030215 -67.90030215 -2.7
47.90030215 -67.90030215 -3.4
55.80060429 -55.80060429 -2.7
80 -80 -2
80 -40 -2
55.80060429 -55.80060429 -3.4
55.80060429 -55.80060429 -2
80 -60 -2
67.90030215 -47.90030215 -2.7
67.90030215 -67.90030215 -2.7
67.90030215 -67.90030215 -2
67.90030215 -47.90030215 -2
55.80060429 -55.80060429 -2.7
26.43663006 -53.23168972 -3.4
0 -80 -2
0 -80 -3.4
40 -80 -3.4
13.21831503 -66.61584486 -2.7
0 -80 -2.7
13.21831503 -66.61584486 -3.4
33.21831503 -66.61584486 -3.4
20 -80 -2.7
20 -80 -3.4
80 -40 -2
80 0 -2
80 -40 -3.4
61.22230449 -16.38308936 -2
80 -20 -2
80 -20 -2.7
80 -40 -2.7
70.61115225 -28.19154468 -2
70.61115225 -8.191544681 -2
70.61115225 -28.19154468 -2.7
80 -80 -2
55.80060429 -55.80060429 -2
40 -80 -3.4
40 -80 -2
67.90030215 -67.90030215 -2
47.90030215 -67.90030215 -2.7
60 -80 -2.7
60 -80 -2
47.90030215 -67.90030215 -2
40 -80 -2.7
80 -40 -3.4
61.22230449 -16.38308936 -3.4
80 0 -2
80 0 -3.4
70.61115225 -28.19154468 -3.4
70.61115225 -8.191544681 -2.7
80 -20 -2.7
80 -20 -3.4
70.61115225 -8.191544681 -3.4
80 0 -2.7
55.80060429 -55.80060429 -2
80 -40 -2
55.80060429 -55.80060429 -3.4
42.64202902 -30.06887785 -2
67.90030215 -47.90030215 -2
67.90030215 -47.90030215 -2.7
55.80060429 -55.80060429 -2.7
49.22131666 -42.93474107 -2
61.32101451 -35.03443893 -2
49.22131666 -42.93474107 -2.7
5.906920728 -9.432751709 -3.4
7.654666388 -3.621100098 -2
14.39589836 -5.633908197 -3.4
7.654666388 -3.621100098 -3.4
6.780793558 -6.526925903 -2.7
11.02528238 -4.627504148 -2.7
10.15140955 -7.533329953 -3.4
6.780793558 -6.526925903 -3.4
7.654666388 -3.621100098 -2.7
11.02528238 -4.627504148 -3.4
40 -80 -3.4
80 -80 -2
80 -80 -3.4
55.80060429 -55.80060429 -3.4
60 -80 -2.7
80 -80 -2.7
60 -80 -3.4
47.90030215 -67.90030215 -3.4
67.90030215 -67.90030215 -2.7
67.90030215 -67.90030215 -3.4
55.80060429 -55.80060429 -3.4
80 -80 -3.4
80 -40 -2
80 -80 -2
67.90030215 -67.90030215 -3.4
80 -60 -2.7
67.90030215 -47.90030215 -2.7
67.90030215 -67.90030215 -2.7
80 -80 -2.7
80 -60 -2
26.43663006 -53.23168972 -3.4
0 -80 -3.4
2.582327856 -46.15903624 -2
2.582327856 -46.15903624 -3.4
13.21831503 -66.61584486 -3.4
1.291163928 -63.07951812 -2.7
14.50947896 -49.69536298 -2.7
14.50947896 -49.69536298 -3.4
1.291163928 -63.07951812 -3.4
2.582327856 -46.15903624 -2.7
55.80060429 -55.80060429 -3.4
80 -40 -2
80 -80 -3.4
80 -40 -3.4
67.90030215 -47.90030215 -2.7
80 -60 -2.7
67.90030215 -67.90030215 -3.4
67.90030215 -47.90030215 -3.4
80 -40 -2.7
80 -60 -3.4
46.113497 -11.84656896 -2
29.02592924 -17.21853599 -3.4
33.90365308 -7.281161265 -3.4
46.113497 -11.84656896 -3.4
37.56971312 -14.53255248 -2.7
31.46479116 -12.24984863 -3.4
40.00857504 -9.563865112 -2.7
46.113497 -11.84656896 -2.7
37.56971312 -14.53255248 -3.4
40.00857504 -9.563865112 -3.4
42.64202902 -30.06887785 -3.4
61.22230449 -16.38308936 -3.4
42.64202902 -30.06887785 -2
80 -40 -3.4
51.93216676 -23.22598361 -3.4
51.93216676 -23.22598361 -2.7
42.64202902 -30.06887785 -2.7
61.32101451 -35.03443893 -3.4
70.61115225 -28.19154468 -3.4
61.32101451 -35.03443893 -2.7
61.22230449 -16.38308936 -2
42.64202902 -30.06887785 -2
80 -40 -3.4
80 -40 -2
51.93216676 -23.22598361 -2
61.32101451 -35.03443893 -2.7
70.61115225 -28.19154468 -2.7
70.61115225 -28.19154468 -2
61.32101451 -35.03443893 -2
80 -40 -2.7
2.582327856 -46.15903624 -2
26.43663006 -53.23168972 -2
0 -80 -2
26.43663006 -53.23168972 -3.4
14.50947896 -49.69536298 -2
13.21831503 -66.61584486 -2
1.291163928 -63.07951812 -2
14.50947896 -49.69536298 -2.7
26.43663006 -53.23168972 -2.7
13.21831503 -66.61584486 -2.7
16.70077375 -14.31947115 -2
14.39589836 -5.633908197 -3.4
14.39589836 -5.633908197 -2
23.92112267 -7.340701375 -3.4
15.54833606 -9.976689672 -2.7
14.39589836 -5.633908197 -2.7
15.54833606 -9.976689672 -2
20.31094821 -10.83008626 -2.7
19.15851052 -6.487304786 -3.4
19.15851052 -6.487304786 -2.7
42.64202902 -30.06887785 -3.4
42.64202902 -30.06887785 -2
55.80060429 -55.80060429 -3.4
80 -40 -3.4
42.64202902 -30.06887785 -2.7
49.22131666 -42.93474107 -2.7
49.22131666 -42.93474107 -3.4
61.32101451 -35.03443893 -3.4
61.32101451 -35.03443893 -2.7
67.90030215 -47.90030215 -3.4
16.70077375 -14.31947115 -3.4
5.906920728 -9.432751709 -3.4
16.70077375 -14.31947115 -2
14.39589836 -5.633908197 -3.4
11.30384724 -11.87611143 -3.4
11.30384724 -11.87611143 -2.7
16.70077375 -14.31947115 -2.7
15.54833606 -9.976689672 -3.4
10.15140955 -7.533329953 -3.4
15.54833606 -9.976689672 -2.7
42.64202902 -30.06887785 -2
80 -40 -2
55.80060429 -55.80060429 -3.4
80 -40 -3.4
61.32101451 -35.03443893 -2
67.90030215 -47.90030215 -2.7
49.22131666 -42.93474107 -2.7
61.32101451 -35.03443893 -2.7
80 -40 -2.7
67.90030215 -47.90030215 -3.4
0 -80 -2
0 -80 -3.4
2.582327856 -46.15903624 -2
26.43663006 -53.23168972 -3.4
0 -80 -2.7
1.291163928 -63.07951812 -2.7
1.291163928 -63.07951812 -2
13.21831503 -66.61584486 -2.7
13.21831503 -66.61584486 -3.4
14.50947896 -49.69536298 -2.7
0 -80 -3.4
-18.77807356 -52.36897868 -3.4
2.582327856 -46.15903624 -2
2.582327856 -46.15903624 -3.4
-9.389036782 -66.18448934 -3.4
-8.097872854 -49.26400746 -2.7
1.291163928 -63.07951812 -2.7
1.291163928 -63.07951812 -3.4
-8.097872854 -49.26400746 -3.4
2.582327856 -46.15903624 -2.7
16.70077375 -14.31947115 -2
23.92112267 -7.340701375 -3.4
14.39589836 -5.633908197 -2
23.92112267 -7.340701375 -2
20.31094821 -10.83008626 -2.7
19.15851052 -6.487304786 -2.7
15.54833606 -9.976689672 -2
20.31094821 -10.83008626 -2
23.92112267 -7.340701375 -2.7
19.15851052 -6.487304786 -2
0 -80 -3.4
2.582327856 -46.15903624 -2
-18.77807356 -52.36897868 -3.4
-18.77807356 -52.36897868 -2
1.291163928 -63.07951812 -2.7
-8.097872854 -49.26400746 -2.7
-9.389036782 -66.18448934 -3.4
-9.389036782 -66.18448934 -2.7
-8.097872854 -49.26400746 -2
-18.77807356 -52.36897868 -2.7
5.906920728 -9.432751709 -3.4
8.259621265 -18.55504219 -2
16.70077375 -14.31947115 -2
5.906920728 -9.432751709 -2
7.083270997 -13.99389695 -2.7
12.48019751 -16.43725667 -2
11.30384724 -11.87611143 -2.7
5.906920728 -9.432751709 -2.7
7.083270997 -13.99389695 -2
11.30384724 -11.87611143 -2
29.02592924 -17.21853599 -2
29.02592924 -17.21853599 -3.4
42.64202902 -30.06887785 -2
17.59481918 -27.36161992 -2
29.02592924 -17.21853599 -2.7
35.83397913 -23.64370692 -2.7
35.83397913 -23.64370692 -2
23.31037421 -22.29007796 -2
23.31037421 -22.29007796 -2.7
30.1184241 -28.71524889 -2
1.259117512 -26.97648465 -3.4
1.259117512 -26.97648465 -2
2.582327856 -46.15903624 -3.4
17.59481918 -27.36161992 -3.4
1.259117512 -26.97648465 -2.7
1.920722684 -36.56776045 -2.7
1.920722684 -36.56776045 -3.4
9.426968348 -27.16905229 -3.4
9.426968348 -27.16905229 -2.7
10.08857352 -36.76032808 -3.4
16.70077375 -14.31947115 -3.4
8.259621265 -18.55504219 -3.4
8.259621265 -18.55504219 -2
5.906920728 -9.432751709 -3.4
12.48019751 -16.43725667 -3.4
8.259621265 -18.55504219 -2.7
12.48019751 -16.43725667 -2.7
11.30384724 -11.87611143 -3.4
7.083270997 -13.99389695 -3.4
7.083270997 -13.99389695 -2.7
8.259621265 -18.55504219 -2
16.70077375 -14.31947115 -2
16.70077375 -14.31947115 -3.4
5.906920728 -9.432751709 -3.4
12.48019751 -16.43725667 -2
16.70077375 -14.31947115 -2.7
12.48019751 -16.43725667 -2.7
7.083270997 -13.99389695 -2.7
11.30384724 -11.87611143 -2.7
11.30384724 -11.87611143 -3.4
0 -80 -3.4
2.582327856 -46.15903624 -2
-18.77807356 -52.36897868 -2
0 -80 -2
1.291163928 -63.07951812 -2.7
-8.097872854 -49.26400746 -2
-9.389036782 -66.18448934 -2.7
0 -80 -2.7
1.291163928 -63.07951812 -2
-9.389036782 -66.18448934 -2
16.70077375 -14.31947115 -3.4
14.39589836 -5.633908197 -3.4
16.70077375 -14.31947115 -2
23.92112267 -7.340701375 -3.4
15.54833606 -9.976689672 -3.4
15.54833606 -9.976689672 -2.7
16.70077375 -14.31947115 -2.7
20.31094821 -10.83008626 -3.4
19.15851052 -6.487304786 -3.4
20.31094821 -10.83008626 -2.7
26.43663006 -53.23168972 -3.4
2.582327856 -46.15903624 -3.4
17.59481918 -27.36161992 -2
17.59481918 -27.36161992 -3.4
14.50947896 -49.69536298 -3.4
10.08857352 -36.76032808 -2.7
22.01572462 -40.29665482 -2.7
22.01572462 -40.29665482 -3.4
10.08857352 -36.76032808 -3.4
17.59481918 -27.36161992 -2.7
46.113497 -11.84656896 -2
41.0789911 0 -2
33.90365308 -7.281161265 -3.4
33.90365308 -7.281161265 -2
43.59624405 -5.92328448 -2
37.49132209 -3.640580633 -2.7
40.00857504 -9.563865112 -2.7
40.00857504 -9.563865112 -2
37.49132209 -3.640580633 -2
33.90365308 -7.281161265 -2.7
-12.72304544 -32.86479037 -2
1.259117512 -26.97648465 -2
2.582327856 -46.15903624 -3.4
1.259117512 -26.97648465 -3.4
-5.731963965 -29.92063751 -2
1.920722684 -36.56776045 -2.7
-5.070358793 -39.51191331 -2.7
-5.731963965 -29.92063751 -2.7
1.259117512 -26.97648465 -2.7
1.920722684 -36.56776045 -3.4
1.259117512 -26.97648465 -3.4
-9.599169743 -18.78484362 -2
-12.72304544 -32.86479037 -2
1.259117512 -26.97648465 -2
-4.170026116 -22.88066414 -2.7
-11.16110759 -25.82481699 -2
-5.731963965 -29.92063751 -2.7
1.259117512 -26.97648465 -2.7
-4.170026116 -22.88066414 -2
-5.731963965 -29.92063751 -2
17.59481918 -27.36161992 -3.4
8.259621265 -18.55504219 -3.4
1.259117512 -26.97648465 -2
8.259621265 -18.55504219 -2
12.92722022 -22.95833106 -3.4
4.759369388 -22.76576342 -2.7
9.426968348 -27.16905229 -2.7
12.92722022 -22.95833106 -2.7
8.259621265 -18.55504219 -2.7
4.759369388 -22.76576342 -2
42.64202902 -30.06887785 -2
29.02592924 -17.21853599 -3.4
46.113497 -11.84656896 -2
46.113497 -11.84656896 -3.4
35.83397913 -23.64370692 -2.7
37.56971312 -14.53255248 -2.7
44.37776301 -20.95772341 -2
44.37776301 -20.95772341 -2.7
37.56971312 -14.53255248 -3.4
46.113497 -11.84656896 -2.7
33.90365308 -7.281161265 -3.4
29.3787254 0 -3.4
23.92112267 -7.340701375 -3.4
23.92112267 -7.340701375 -2
31.64118924 -3.640580633 -3.4
26.64992403 -3.670350688 -3.4
28.91238787 -7.31093132 -3.4
28.91238787 -7.31093132 -2.7
26.64992403 -3.670350688 -2.7
23.92112267 -7.340701375 -2.7
8.259621265 -18.55504219 -3.4
-0.1635248549 -14.68488354 -2
1.259117512 -26.97648465 -2
8.259621265 -18.55504219 -2
4.048048205 -16.61996287 -2.7
0.5477963283 -20.8306841 -2
4.759369388 -22.76576342 -2.7
8.259621265 -18.55504219 -2.7
4.048048205 -16.61996287 -2
4.759369388 -22.76576342 -2
42.64202902 -30.06887785 -2
46.113497 -11.84656896 -2
29.02592924 -17.21853599 -3.4
29.02592924 -17.21853599 -2
44.37776301 -20.95772341 -2
37.56971312 -14.53255248 -2.7
35.83397913 -23.64370692 -2.7
35.83397913 -23.64370692 -2
37.56971312 -14.53255248 -2
29.02592924 -17.21853599 -2.7
2.291748005 -3.365583757 -2
7.654666388 -3.621100098 -2
5.906920728 -9.432751709 -3.4
7.654666388 -3.621100098 -3.4
4.973207196 -3.493341928 -2
6.780793558 -6.526925903 -2.7
4.099334367 -6.399167733 -2.7
4.973207196 -3.493341928 -2.7
7.654666388 -3.621100098 -2.7
6.780793558 -6.526925903 -3.4
1.259117512 -26.97648465 -2
17.59481918 -27.36161992 -2
2.582327856 -46.15903624 -3.4
17.59481918 -27.36161992 -3.4
9.426968348 -27.16905229 -2
10.08857352 -36.76032808 -2.7
1.920722684 -36.56776045 -2.7
9.426968348 -27.16905229 -2.7
17.59481918 -27.36161992 -2.7
10.08857352 -36.76032808 -3.4
33.90365308 -7.281161265 -3.4
29.3787254 0 -2
41.0789911 0 -3.4
29.3787254 0 -3.4
31.64118924 -3.640580633 -2.7
35.22885825 0 -2.7
37.49132209 -3.640580633 -3.4
31.64118924 -3.640580633 -3.4
29.3787254 0 -2.7
35.22885825 0 -3.4
26.43663006 -53.23168972 -3.4
42.64202902 -30.06887785 -2
55.80060429 -55.80060429 -3.4
42.64202902 -30.06887785 -3.4
34.53932954 -41.65028378 -2.7
49.22131666 -42.93474107 -2.7
41.11861717 -54.516147 -3.4
34.53932954 -41.65028378 -3.4
42.64202902 -30.06887785 -2.7
49.22131666 -42.93474107 -3.4
29.3787254 0 -2
33.90365308 -7.281161265 -3.4
41.0789911 0 -2
33.90365308 -7.281161265 -2
31.64118924 -3.640580633 -2.7
37.49132209 -3.640580633 -2.7
35.22885825 0 -2
31.64118924 -3.640580633 -2
33.90365308 -7.281161265 -2.7
37.49132209 -3.640580633 -2
2.582327856 -46.15903624 -2
2.582327856 -46.15903624 -3.4
17.59481918 -27.36161992 -2
26.43663006 -53.23168972 -3.4
2.582327856 -46.15903624 -2.7
10.08857352 -36.76032808 -2.7
10.08857352 -36.76032808 -2
14.50947896 -49.69536298 -2.7
14.50947896 -49.69536298 -3.4
22.01572462 -40.29665482 -2.7
23.92112267 -7.340701375 -2
29.3787254 0 -2
33.90365308 -7.281161265 -3.4
29.3787254 0 -3.4
26.64992403 -3.670350688 -2
31.64118924 -3.640580633 -2.7
28.91238787 -7.31093132 -2.7
26.64992403 -3.670350688 -2.7
29.3787254 0 -2.7
31.64118924 -3.640580633 -3.4
17.59481918 -27.36161992 -2
26.43663006 -53.23168972 -3.4
42.64202902 -30.06887785 -2
26.43663006 -53.23168972 -2
22.01572462 -40.29665482 -2.7
34.53932954 -41.65028378 -2.7
30.1184241 -28.71524889 -2
22.01572462 -40.29665482 -2
26.43663006 -53.23168972 -2.7
34.53932954 -41.65028378 -2
33.90365308 -7.281161265 -2
29.3787254 0 -2
33.90365308 -7.281161265 -3.4
23.92112267 -7.340701375 -2
31.64118924 -3.640580633 -2
31.64118924 -3.640580633 -2.7
33.90365308 -7.281161265 -2.7
28.91238787 -7.31093132 -2
26.64992403 -3.670350688 -2
28.91238787 -7.31093132 -2.7
42.64202902 -30.06887785 -2
46.113497 -11.84656896 -2
61.22230449 -16.38308936 -3.4
46.113497 -11.84656896 -3.4
44.37776301 -20.95772341 -2
53.66790074 -14.11482916 -2.7
51.93216676 -23.22598361 -2.7
44.37776301 -20.95772341 -2.7
46.113497 -11.84656896 -2.7
53.66790074 -14.11482916 -3.4
-9.599169743 -18.78484362 -2
1.259117512 -26.97648465 -3.4
-0.1635248549 -14.68488354 -2
1.259117512 -26.97648465 -2
-4.170026116 -22.88066414 -2.7
0.5477963283 -20.8306841 -2.7
-4.881347299 -16.73486358 -2
-4.170026116 -22.88066414 -2
1.259117512 -26.97648465 -2.7
0.5477963283 -20.8306841 -2
57.35599644 0 -3.4
80 0 -3.4
57.35599644 0 -2
61.22230449 -16.38308936 -3.4
68.67799822 0 -3.4
68.67799822 0 -2.7
57.35599644 0 -2.7
59.28915047 -8.191544681 -3.4
70.61115225 -8.191544681 -3.4
59.28915047 -8.191544681 -2.7
14.39589836 -5.633908197 -3.4
7.654666388 -3.621100098 -2
10.57703397 0 -2
7.654666388 -3.621100098 -3.4
11.02528238 -4.627504148 -2.7
9.115850178 -1.810550049 -2
12.48646617 -2.816954099 -2.7
11.02528238 -4.627504148 -3.4
7.654666388 -3.621100098 -2.7
9.115850178 -1.810550049 -2.7
17.59481918 -27.36161992 -2
2.582327856 -46.15903624 -2
26.43663006 -53.23168972 -3.4
26.43663006 -53.23168972 -2
10.08857352 -36.76032808 -2
14.50947896 -49.69536298 -2.7
22.01572462 -40.29665482 -2.7
22.01572462 -40.29665482 -2
14.50947896 -49.69536298 -2
26.43663006 -53.23168972 -2.7
-0.1635248549 -14.68488354 -2
8.259621265 -18.55504219 -2
5.906920728 -9.432751709 -3.4
5.906920728 -9.432751709 -2
4.048048205 -16.61996287 -2
7.083270997 -13.99389695 -2.7
2.871697937 -12.05881763 -2.7
2.871697937 -12.05881763 -2
7.083270997 -13.99389695 -2
5.906920728 -9.432751709 -2.7
2.291748005 -3.365583757 -2
5.207805435 0 -2
7.654666388 -3.621100098 -2
7.654666388 -3.621100098 -3.4
3.74977672 -1.682791878 -2
6.431235911 -1.810550049 -2
4.973207196 -3.493341928 -2
4.973207196 -3.493341928 -2.7
6.431235911 -1.810550049 -2.7
7.654666388 -3.621100098 -2.7
8.259621265 -18.55504219 -2
17.59481918 -27.36161992 -3.4
8.259621265 -18.55504219 -3.4
16.70077375 -14.31947115 -3.4
12.92722022 -22.95833106 -2.7
12.92722022 -22.95833106 -3.4
8.259621265 -18.55504219 -2.7
12.48019751 -16.43725667 -2.7
17.14779647 -20.84054553 -3.4
12.48019751 -16.43725667 -3.4
1.259117512 -26.97648465 -2
2.582327856 -46.15903624 -3.4
17.59481918 -27.36161992 -2
2.582327856 -46.15903624 -2
1.920722684 -36.56776045 -2.7
10.08857352 -36.76032808 -2.7
9.426968348 -27.16905229 -2
1.920722684 -36.56776045 -2
2.582327856 -46.15903624 -2.7
10.08857352 -36.76032808 -2
8.259621265 -18.55504219 -2
17.59481918 -27.36161992 -2
16.70077375 -14.31947115 -3.4
16.70077375 -14.31947115 -2
12.92722022 -22.95833106 -2
17.14779647 -20.84054553 -2.7
12.48019751 -16.43725667 -2.7
12.48019751 -16.43725667 -2
17.14779647 -20.84054553 -2
16.70077375 -14.31947115 -2.7
33.90365308 -7.281161265 -3.4
41.0789911 0 -3.4
29.3787254 0 -2
41.0789911 0 -2
37.49132209 -3.640580633 -3.4
35.22885825 0 -2.7
31.64118924 -3.640580633 -2.7
37.49132209 -3.640580633 -2.7
41.0789911 0 -2.7
35.22885825 0 -2
2.291748005 -3.365583757 -2
-1.486149823 -6.928202819 -2
5.906920728 -9.432751709 -3.4
5.906920728 -9.432751709 -2
0.4027990914 -5.146893288 -2
2.210385453 -8.180477264 -2.7
4.099334367 -6.399167733 -2.7
4.099334367 -6.399167733 -2
2.210385453 -8.180477264 -2
5.906920728 -9.432751709 -2.7
-0.1635248549 -14.68488354 -2
5.906920728 -9.432751709 -3.4
-1.486149823 -6.928202819 -2
5.906920728 -9.432751709 -2
2.871697937 -12.05881763 -2.7
2.210385453 -8.180477264 -2.7
-0.8248373387 -10.80654318 -2
2.871697937 -12.05881763 -2
5.906920728 -9.432751709 -2.7
2.210385453 -8.180477264 -2
5.906920728 -9.432751709 -3.4
-0.1635248549 -14.68488354 -2
8.259621265 -18.55504219 -3.4
8.259621265 -18.55504219 -2
2.871697937 -12.05881763 -2.7
4.048048205 -16.61996287 -2.7
7.083270997 -13.99389695 -3.4
7.083270997 -13.99389695 -2.7
4.048048205 -16.61996287 -2
8.259621265 -18.55504219 -2.7
17.59481918 -27.36161992 -3.4
1.259117512 -26.97648465 -3.4
1.259117512 -26.97648465 -2
8.259621265 -18.55504219 -3.4
9.426968348 -27.16905229 -3.4
1.259117512 -26.97648465 -2.7
9.426968348 -27.16905229 -2.7
12.92722022 -22.95833106 -3.4
4.759369388 -22.76576342 -3.4
4.759369388 -22.76576342 -2.7
57.35599644 0 -2
61.22230449 -16.38308936 -3.4
80 0 -2
61.22230449 -16.38308936 -2
59.28915047 -8.191544681 -2.7
70.61115225 -8.191544681 -2.7
68.67799822 0 -2
59.28915047 -8.191544681 -2
61.22230449 -16.38308936 -2.7
70.61115225 -8.191544681 -2
10.57703397 0 -2
14.39589836 -5.633908197 -2
14.39589836 -5.633908197 -3.4
20.96831662 0 -3.4
12.48646617 -2.816954099 -2
14.39589836 -5.633908197 -2.7
12.48646617 -2.816954099 -2.7
15.77267529 0 -2.7
17.68210749 -2.816954099 -2.7
17.68210749 -2.816954099 -3.4
14.39589836 -5.633908197 -2
20.96831662 0 -3.4
10.57703397 0 -2
20.96831662 0 -2
17.68210749 -2.816954099 -2.7
15.77267529 0 -2.7
12.48646617 -2.816954099 -2
17.68210749 -2.816954099 -2
20.96831662 0 -2.7
15.77267529 0 -2
14.39589836 -5.633908197 -2
10.57703397 0 -2
14.39589836 -5.633908197 -3.4
7.654666388 -3.621100098 -2
12.48646617 -2.816954099 -2
12.48646617 -2.816954099 -2.7
14.39589836 -5.633908197 -2.7
11.02528238 -4.627504148 -2
9.115850178 -1.810550049 -2
11.02528238 -4.627504148 -2.7
8.259621265 -18.55504219 -3.4
-0.1635248549 -14.68488354 -2
1.259117512 -26.97648465 -3.4
1.259117512 -26.97648465 -2
4.048048205 -16.61996287 -2.7
0.5477963283 -20.8306841 -2.7
4.759369388 -22.76576342 -3.4
4.759369388 -22.76576342 -2.7
0.5477963283 -20.8306841 -2
1.259117512 -26.97648465 -2.7
5.207805435 0 -2
5.207805435 0 -3.4
10.57703397 0 -2
7.654666388 -3.621100098 -3.4
5.207805435 0 -2.7
7.892419701 0 -2.7
7.892419701 0 -2
6.431235911 -1.810550049 -2.7
6.431235911 -1.810550049 -3.4
9.115850178 -1.810550049 -2.7
20.96831662 0 -3.4
14.39589836 -5.633908197 -2
14.39589836 -5.633908197 -3.4
23.92112267 -7.340701375 -3.4
17.68210749 -2.816954099 -2.7
14.39589836 -5.633908197 -2.7
17.68210749 -2.816954099 -3.4
22.44471964 -3.670350688 -3.4
19.15851052 -6.487304786 -2.7
19.15851052 -6.487304786 -3.4
10.57703397 0 -2
14.39589836 -5.633908197 -3.4
10.57703397 0 -3.4
20.96831662 0 -3.4
12.48646617 -2.816954099 -2.7
12.48646617 -2.816954099 -3.4
10.57703397 0 -2.7
15.77267529 0 -2.7
17.68210749 -2.816954099 -3.4
15.77267529 0 -3.4
-12.72304544 -32.86479037 -2
2.582327856 -46.15903624 -3.4
1.259117512 -26.97648465 -2
2.582327856 -46.15903624 -2
-5.070358793 -39.51191331 -2.7
1.920722684 -36.56776045 -2.7
-5.731963965 -29.92063751 -2
-5.070358793 -39.51191331 -2
2.582327856 -46.15903624 -2.7
1.920722684 -36.56776045 -2
42.64202902 -30.06887785 -2
61.22230449 -16.38308936 -3.4
46.113497 -11.84656896 -2
61.22230449 -16.38308936 -2
51.93216676 -23.22598361 -2.7
53.66790074 -14.11482916 -2.7
44.37776301 -20.95772341 -2
51.93216676 -23.22598361 -2
61.22230449 -16.38308936 -2.7
53.66790074 -14.11482916 -2
-12.72304544 -32.86479037 -2
2.582327856 -46.15903624 -2
-18.77807356 -52.36897868 -3.4
2.582327856 -46.15903624 -3.4
-5.070358793 -39.51191331 -2
-8.097872854 -49.26400746 -2.7
-15.7505595 -42.61688453 -2.7
-5.070358793 -39.51191331 -2.7
2.582327856 -46.15903624 -2.7
-8.097872854 -49.26400746 -3.4
14.39589836 -5.633908197 -2
23.92112267 -7.340701375 -2
20.96831662 0 -3.4
20.96831662 0 -2
19.15851052 -6.487304786 -2
22.44471964 -3.670350688 -2.7
17.68210749 -2.816954099 -2.7
17.68210749 -2.816954099 -2
22.44471964 -3.670350688 -2
20.96831662 0 -2.7
-18.77807356 -52.36897868 -2
-18.77807356 -52.36897868 -3.4
-12.72304544 -32.86479037 -2
2.582327856 -46.15903624 -2
-18.77807356 -52.36897868 -2.7
-15.7505595 -42.61688453 -2.7
-15.7505595 -42.61688453 -2
-8.097872854 -49.26400746 -2
-8.097872854 -49.26400746 -2.7
-5.070358793 -39.51191331 -2
2.291748005 -3.365583757 -2
5.906920728 -9.432751709 -3.4
7.654666388 -3.621100098 -2
5.906920728 -9.432751709 -2
4.099334367 -6.399167733 -2.7
6.780793558 -6.526925903 -2.7
4.973207196 -3.493341928 -2
4.099334367 -6.399167733 -2
5.906920728 -9.432751709 -2.7
6.780793558 -6.526925903 -2
14.39589836 -5.633908197 -2
23.92112267 -7.340701375 -3.4
20.96831662 0 -3.4
23.92112267 -7.340701375 -2
19.15851052 -6.487304786 -2.7
22.44471964 -3.670350688 -3.4
17.68210749 -2.816954099 -2.7
19.15851052 -6.487304786 -2
23.92112267 -7.340701375 -2.7
22.44471964 -3.670350688 -2.7
14.39589836 -5.633908197 -3.4
10.57703397 0 -2
10.57703397 0 -3.4
7.654666388 -3.621100098 -3.4
12.48646617 -2.816954099 -2.7
10.57703397 0 -2.7
12.48646617 -2.816954099 -3.4
11.02528238 -4.627504148 -3.4
9.115850178 -1.810550049 -2.7
9.115850178 -1.810550049 -3.4
61.22230449 -16.38308936 -3.4
80 0 -3.4
57.35599644 0 -2
80 0 -2
70.61115225 -8.191544681 -3.4
68.67799822 0 -2.7
59.28915047 -8.191544681 -2.7
70.61115225 -8.191544681 -2.7
80 0 -2.7
68.67799822 0 -2
10.57703397 0 -2
7.654666388 -3.621100098 -2
5.207805435 0 -2
7.654666388 -3.621100098 -3.4
9.115850178 -1.810550049 -2
6.431235911 -1.810550049 -2
7.892419701 0 -2
9.115850178 -1.810550049 -2.7
7.654666388 -3.621100098 -2.7
6.431235911 -1.810550049 -2.7
17.59481918 -27.36161992 -3.4
1.259117512 -26.97648465 -2
17.59481918 -27.36161992 -2
8.259621265 -18.55504219 -2
9.426968348 -27.16905229 -2.7
9.426968348 -27.16905229 -2
17.59481918 -27.36161992 -2.7
12.92722022 -22.95833106 -2.7
4.759369388 -22.76576342 -2
12.92722022 -22.95833106 -2
61.22230449 -16.38308936 -2
57.35599644 0 -2
61.22230449 -16.38308936 -3.4
46.113497 -11.84656896 -2
59.28915047 -8.191544681 -2
59.28915047 -8.191544681 -2.7
61.22230449 -16.38308936 -2.7
53.66790074 -14.11482916 -2
51.73474672 -5.92328448 -2
53.66790074 -14.11482916 -2.7
29.02592924 -17.21853599 -3.4
46.113497 -11.84656896 -3.4
42.64202902 -30.06887785 -2
42.64202902 -30.06887785 -3.4
37.56971312 -14.53255248 -3.4
44.37776301 -20.95772341 -2.7
35.83397913 -23.64370692 -2.7
35.83397913 -23.64370692 -3.4
44.37776301 -20.95772341 -3.4
42.64202902 -30.06887785 -2.7
29.02592924 -17.21853599 -3.4
17.59481918 -27.36161992 -3.4
17.59481918 -27.36161992 -2
16.70077375 -14.31947115 -3.4
23.31037421 -22.29007796 -3.4
17.59481918 -27.36161992 -2.7
23.31037421 -22.29007796 -2.7
22.8633515 -15.76900357 -3.4
17.14779647 -20.84054553 -3.4
17.14779647 -20.84054553 -2.7
61.22230449 -16.38308936 -3.4
42.64202902 -30.06887785 -2
46.113497 -11.84656896 -3.4
42.64202902 -30.06887785 -3.4
51.93216676 -23.22598361 -2.7
44.37776301 -20.95772341 -2.7
53.66790074 -14.11482916 -3.4
51.93216676 -23.22598361 -3.4
42.64202902 -30.06887785 -2.7
44.37776301 -20.95772341 -3.4
23.92112267 -7.340701375 -2
29.3787254 0 -2
20.96831662 0 -3.4
20.96831662 0 -2
26.64992403 -3.670350688 -2
25.17352101 0 -2.7
22.44471964 -3.670350688 -2.7
22.44471964 -3.670350688 -2
25.17352101 0 -2
20.96831662 0 -2.7
29.3787254 0 -3.4
23.92112267 -7.340701375 -2
20.96831662 0 -3.4
23.92112267 -7.340701375 -3.4
26.64992403 -3.670350688 -2.7
22.44471964 -3.670350688 -2.7
25.17352101 0 -3.4
26.64992403 -3.670350688 -3.4
23.92112267 -7.340701375 -2.7
22.44471964 -3.670350688 -3.4
23.92112267 -7.340701375 -2
20.96831662 0 -3.4
29.3787254 0 -2
29.3787254 0 -3.4
22.44471964 -3.670350688 -2.7
25.17352101 0 -2.7
26.64992403 -3.670350688 -2
26.64992403 -3.670350688 -2.7
25.17352101 0 -3.4
29.3787254 0 -2.7
8.259621265 -18.55504219 -2
16.70077375 -14.31947115 -3.4
17.59481918 -27.36161992 -2
17.59481918 -27.36161992 -3.4
12.48019751 -16.43725667 -2.7
17.14779647 -20.84054553 -2.7
12.92722022 -22.95833106 -2
12.92722022 -22.95833106 -2.7
17.14779647 -20.84054553 -3.4
17.59481918 -27.36161992 -2.7
7.654666388 -3.621100098 -3.4
5.207805435 0 -3.4
10.57703397 0 -2
10.57703397 0 -3.4
6.431235911 -1.810550049 -3.4
7.892419701 0 -2.7
9.115850178 -1.810550049 -2.7
9.115850178 -1.810550049 -3.4
7.892419701 0 -3.4
10.57703397 0 -2.7
5.906920728 -9.432751709 -3.4
16.70077375 -14.31947115 -2
14.39589836 -5.633908197 -2
5.906920728 -9.432751709 -2
11.30384724 -11.87611143 -2.7
15.54833606 -9.976689672 -2
10.15140955 -7.533329953 -2.7
5.906920728 -9.432751709 -2.7
11.30384724 -11.87611143 -2
10.15140955 -7.533329953 -2
14.39589836 -5.633908197 -2
16.70077375 -14.31947115 -2
5.906920728 -9.432751709 -3.4
14.39589836 -5.633908197 -3.4
15.54833606 -9.976689672 -2
11.30384724 -11.87611143 -2.7
10.15140955 -7.533329953 -2.7
14.39589836 -5.633908197 -2.7
15.54833606 -9.976689672 -2.7
10.15140955 -7.533329953 -3.4
14.39589836 -5.633908197 -2
7.654666388 -3.621100098 -2
5.906920728 -9.432751709 -3.4
5.906920728 -9.432751709 -2
11.02528238 -4.627504148 -2
6.780793558 -6.526925903 -2.7
10.15140955 -7.533329953 -2.7
10.15140955 -7.533329953 -2
6.780793558 -6.526925903 -2
5.906920728 -9.432751709 -2.7
5.906920728 -9.432751709 -3.4
7.654666388 -3.621100098 -2
14.39589836 -5.633908197 -2
14.39589836 -5.633908197 -3.4
6.780793558 -6.526925903 -2.7
11.02528238 -4.627504148 -2
10.15140955 -7.533329953 -2.7
10.15140955 -7.533329953 -3.4
11.02528238 -4.627504148 -2.7
14.39589836 -5.633908197 -2.7
40 -80 -3.4
26.43663006 -53.23168972 -2
0 -80 -2
40 -80 -2
33.21831503 -66.61584486 -2.7
13.21831503 -66.61584486 -2
20 -80 -2.7
40 -80 -2.7
33.21831503 -66.61584486 -2
20 -80 -2
26.43663006 -53.23168972 -2
40 -80 -3.4
0 -80 -2
26.43663006 -53.23168972 -3.4
33.21831503 -66.61584486 -2.7
20 -80 -2.7
13.21831503 -66.61584486 -2
26.43663006 -53.23168972 -2.7
33.21831503 -66.61584486 -3.4
13.21831503 -66.61584486 -2.7
26.43663006 -53.23168972 -2
40 -80 -3.4
55.80060429 -55.80060429 -2
40 -80 -2
33.21831503 -66.61584486 -2.7
47.90030215 -67.90030215 -2.7
41.11861717 -54.516147 -2
33.21831503 -66.61584486 -2
40 -80 -2.7
47.90030215 -67.90030215 -2
42.64202902 -30.06887785 -2
26.43663006 -53.23168972 -3.4
17.59481918 -27.36161992 -3.4
42.64202902 -30.06887785 -3.4
34.53932954 -41.65028378 -2.7
22.01572462 -40.29665482 -3.4
30.1184241 -28.71524889 -2.7
42.64202902 -30.06887785 -2.7
34.53932954 -41.65028378 -3.4
30.1184241 -28.71524889 -3.4
17.59481918 -27.36161992 -3.4
26.43663006 -53.23168972 -3.4
42.64202902 -30.06887785 -2
17.59481918 -27.36161992 -2
22.01572462 -40.29665482 -3.4
34.53932954 -41.65028378 -2.7
30.1184241 -28.71524889 -2.7
17.59481918 -27.36161992 -2.7
22.01572462 -40.29665482 -2.7
30.1184241 -28.71524889 -2
17.59481918 -27.36161992 -3.4
29.02592924 -17.21853599 -3.4
42.64202902 -30.06887785 -2
42.64202902 -30.06887785 -3.4
23.31037421 -22.29007796 -3.4
35.83397913 -23.64370692 -2.7
30.1184241 -28.71524889 -2.7
30.1184241 -28.71524889 -3.4
35.83397913 -23.64370692 -3.4
42.64202902 -30.06887785 -2.7
42.64202902 -30.06887785 -2
29.02592924 -17.21853599 -3.4
17.59481918 -27.36161992 -3.4
17.59481918 -27.36161992 -2
35.83397913 -23.64370692 -2.7
23.31037421 -22.29007796 -3.4
30.1184241 -28.71524889 -2.7
30.1184241 -28.71524889 -2
23.31037421 -22.29007796 -2.7
17.59481918 -27.36161992 -2.7
16.70077375 -14.31947115 -2
23.92112267 -7.340701375 -3.4
29.02592924 -17.21853599 -3.4
16.70077375 -14.31947115 -3.4
20.31094821 -10.83008626 -2.7
26.47352595 -12.27961868 -3.4
22.8633515 -15.76900357 -2.7
16.70077375 -14.31947115 -2.7
20.31094821 -10.83008626 -3.4
22.8633515 -15.76900357 -3.4
16.70077375 -14.31947115 -2
17.59481918 -27.36161992 -2
29.02592924 -17.21853599 -3.4
29.02592924 -17.21853599 -2
17.14779647 -20.84054553 -2
23.31037421 -22.29007796 -2.7
22.8633515 -15.76900357 -2.7
22.8633515 -15.76900357 -2
23.31037421 -22.29007796 -2
29.02592924 -17.21853599 -2.7
29.02592924 -17.21853599 -3.4
17.59481918 -27.36161992 -2
16.70077375 -14.31947115 -2
16.70077375 -14.31947115 -3.4
23.31037421 -22.29007796 -2.7
17.14779647 -20.84054553 -2
22.8633515 -15.76900357 -2.7
22.8633515 -15.76900357 -3.4
17.14779647 -20.84054553 -2.7
16.70077375 -14.31947115 -2.7
26.43663006 -53.23168972 -2
42.64202902 -30.06887785 -2
55.80060429 -55.80060429 -3.4
26.43663006 -53.23168972 -3.4
34.53932954 -41.65028378 -2
49.22131666 -42.93474107 -2.7
41.11861717 -54.516147 -2.7
26.43663006 -53.23168972 -2.7
34.53932954 -41.65028378 -2.7
41.11861717 -54.516147 -3.4
55.80060429 -55.80060429 -3.4
42.64202902 -30.06887785 -2
26.43663006 -53.23168972 -2
55.80060429 -55.80060429 -2
49.22131666 -42.93474107 -2.7
34.53932954 -41.65028378 -2
41.11861717 -54.516147 -2.7
55.80060429 -55.80060429 -2.7
49.22131666 -42.93474107 -2
41.11861717 -54.516147 -2
55.80060429 -55.80060429 -3.4
40 -80 -3.4
26.43663006 -53.23168972 -2
26.43663006 -53.23168972 -3.4
47.90030215 -67.90030215 -3.4
33.21831503 -66.61584486 -2.7
41.11861717 -54.516147 -2.7
41.11861717 -54.516147 -3.4
33.21831503 -66.61584486 -3.4
26.43663006 -53.23168972 -2.7
26.43663006 -53.23168972 -2
40 -80 -3.4
55.80060429 -55.80060429 -3.4
55.80060429 -55.80060429 -2
33.21831503 -66.61584486 -2.7
47.90030215 -67.90030215 -3.4
41.11861717 -54.516147 -2.7
41.11861717 -54.516147 -2
47.90030215 -67.90030215 -2.7
55.80060429 -55.80060429 -2.7
29.02592924 -17.21853599 -3.4
16.70077375 -14.31947115 -2
23.92112267 -7.340701375 -2
23.92112267 -7.340701375 -3.4
22.8633515 -15.76900357 -2.7
20.31094821 -10.83008626 -2
26.47352595 -12.27961868 -2.7
26.47352595 -12.27961868 -3.4
20.31094821 -10.83008626 -2.7
23.92112267 -7.340701375 -2.7
23.92112267 -7.340701375 -2
16.70077375 -14.31947115 -2
29.02592924 -17.21853599 -3.4
29.02592924 -17.21853599 -2
20.31094821 -10.83008626 -2
22.8633515 -15.76900357 -2.7
26.47352595 -12.27961868 -2.7
26.47352595 -12.27961868 -2
22.8633515 -15.76900357 -2
29.02592924 -17.21853599 -2.7
23.92112267 -7.340701375 -2
33.90365308 -7.281161265 -3.4
29.02592924 -17.21853599 -3.4
23.92112267 -7.340701375 -3.4
28.91238787 -7.31093132 -2.7
31.46479116 -12.24984863 -3.4
26.47352595 -12.27961868 -2.7
23.92112267 -7.340701375 -2.7
28.91238787 -7.31093132 -3.4
26.47352595 -12.27961868 -3.4
57.35599644 0 -2
61.22230449 -16.38308936 -3.4
46.113497 -11.84656896 -3.4
57.35599644 0 -3.4
59.28915047 -8.191544681 -2.7
53.66790074 -14.11482916 -3.4
51.73474672 -5.92328448 -2.7
57.35599644 0 -2.7
59.28915047 -8.191544681 -3.4
51.73474672 -5.92328448 -3.4
46.113497 -11.84656896 -3.4
61.22230449 -16.38308936 -3.4
57.35599644 0 -2
46.113497 -11.84656896 -2
53.66790074 -14.11482916 -3.4
59.28915047 -8.191544681 -2.7
51.73474672 -5.92328448 -2.7
46.113497 -11.84656896 -2.7
53.66790074 -14.11482916 -2.7
51.73474672 -5.92328448 -2
46.113497 -11.84656896 -3.4
41.0789911 0 -3.4
57.35599644 0 -2
57.35599644 0 -3.4
43.59624405 -5.92328448 -3.4
49.21749377 0 -2.7
51.73474672 -5.92328448 -2.7
51.73474672 -5.92328448 -3.4
49.21749377 0 -3.4
57.35599644 0 -2.7
29.02592924 -17.21853599 -3.4
23.92112267 -7.340701375 -2
33.90365308 -7.281161265 -2
33.90365308 -7.281161265 -3.4
26.47352595 -12.27961868 -2.7
28.91238787 -7.31093132 -2
31.46479116 -12.24984863 -2.7
31.46479116 -12.24984863 -3.4
28.91238787 -7.31093132 -2.7
33.90365308 -7.281161265 -2.7
33.90365308 -7.281161265 -2
23.92112267 -7.340701375 -2
29.02592924 -17.21853599 -3.4
29.02592924 -17.21853599 -2
28.91238787 -7.31093132 -2
26.47352595 -12.27961868 -2.7
31.46479116 -12.24984863 -2.7
31.46479116 -12.24984863 -2
26.47352595 -12.27961868 -2
29.02592924 -17.21853599 -2.7
33.90365308 -7.281161265 -2
46.113497 -11.84656896 -2
29.02592924 -17.21853599 -3.4
33.90365308 -7.281161265 -3.4
40.00857504 -9.563865112 -2
37.56971312 -14.53255248 -2.7
31.46479116 -12.24984863 -2.7
33.90365308 -7.281161265 -2.7
40.00857504 -9.563865112 -2.7
31.46479116 -12.24984863 -3.4
29.02592924 -17.21853599 -3.4
46.113497 -11.84656896 -2
33.90365308 -7.281161265 -2
29.02592924 -17.21853599 -2
37.56971312 -14.53255248 -2.7
40.00857504 -9.563865112 -2
31.46479116 -12.24984863 -2.7
29.02592924 -17.21853599 -2.7
37.56971312 -14.53255248 -2
31.46479116 -12.24984863 -2
46.113497 -11.84656896 -3.4
57.35599644 0 -2
41.0789911 0 -2
46.113497 -11.84656896 -2
51.73474672 -5.92328448 -2.7
49.21749377 0 -2
43.59624405 -5.92328448 -2.7
46.113497 -11.84656896 -2.7
51.73474672 -5.92328448 -2
43.59624405 -5.92328448 -2
41.0789911 0 -2
57.35599644 0 -2
46.113497 -11.84656896 -3.4
41.0789911 0 -3.4
49.21749377 0 -2
51.73474672 -5.92328448 -2.7
43.59624405 -5.92328448 -2.7
41.0789911 0 -2.7
49.21749377 0 -2.7
43.59624405 -5.92328448 -3.4
41.0789911 0 -2
33.90365308 -7.281161265 -3.4
46.113497 -11.84656896 -3.4
46.113497 -11.84656896 -2
37.49132209 -3.640580633 -2.7
40.00857504 -9.563865112 -3.4
43.59624405 -5.92328448 -2.7
43.59624405 -5.92328448 -2
40.00857504 -9.563865112 -2.7
46.113497 -11.84656896 -2.7
46.113497 -11.84656896 -3.4
33.90365308 -7.281161265 -3.4
41.0789911 0 -2
41.0789911 0 -3.4
40.00857504 -9.563865112 -3.4
37.49132209 -3.640580633 -2.7
43.59624405 -5.92328448 -2.7
43.59624405 -5.92328448 -3.4
37.49132209 -3.640580633 -3.4
41.0789911 0 -2.7
20 -35.90730148 -10.5
-20 -45.35898385 -10.5
0 -80 -10.5
2.582327856 -46.15903624 -3.4
0 -40.63314266 -10.5
-10 -62.67949192 -10.5
10 -57.95365074 -10.5
11.29116393 -41.03316886 -6.95
-8.708836072 -45.75901005 -6.95
1.291163928 -63.07951812 -6.95
17.83908043 -12.29946945 -7.46400298
7.654666388 -3.621100098 -3.4
14.39589836 -5.633908197 -3.4
2.347262615 -1.487475145 -9.507742122
12.74687341 -7.960284773 -5.43200149
11.02528238 -4.627504148 -3.4
16.1174894 -8.966688823 -5.43200149
10.09317152 -6.893472296 -8.485872551
5.000964501 -2.554287621 -6.453871061
8.371580489 -3.560691671 -6.453871061
23.92112267 -7.340701375 -3.4
29.02592924 -17.21853599 -3.4
40 0 -10.5
33.90365308 -7.281161265 -3.4
26.47352595 -12.27961868 -3.4
34.51296462 -8.609267996 -6.95
31.96056133 -3.670350688 -6.95
28.91238787 -7.31093132 -3.4
31.46479116 -12.24984863 -3.4
36.95182654 -3.640580633 -6.95
20 -35.90730148 -10.5
29.02592924 -17.21853599 -3.4
56.27926234 -23.78169231 -10.5
40 0 -10.5
24.51296462 -26.56291874 -6.95
42.65259579 -20.50011415 -6.95
38.13963117 -29.84449689 -10.5
30 -17.95365074 -10.5
34.51296462 -8.609267996 -6.95
48.13963117 -11.89084615 -10.5
80 0 -10.5
56.27926234 -23.78169231 -10.5
57.35599644 0 -3.4
40 0 -10.5
68.13963117 -11.89084615 -10.5
56.81762939 -11.89084615 -6.95
68.67799822 0 -6.95
60 0 -10.5
48.13963117 -11.89084615 -10.5
48.67799822 0 -6.95
20.96831662 0 -3.4
23.92112267 -7.340701375 -3.4
40 0 -10.5
29.3787254 0 -3.4
22.44471964 -3.670350688 -3.4
31.96056133 -3.670350688 -6.95
30.48415831 0 -6.95
25.17352101 0 -3.4
26.64992403 -3.670350688 -3.4
34.6893627 0 -6.95
46.113497 -11.84656896 -3.4
56.27926234 -23.78169231 -10.5
29.02592924 -17.21853599 -3.4
40 0 -10.5
51.19637967 -17.81413063 -6.95
42.65259579 -20.50011415 -6.95
37.56971312 -14.53255248 -3.4
43.0567485 -5.92328448 -6.95
48.13963117 -11.89084615 -10.5
34.51296462 -8.609267996 -6.95
42.64202902 -30.06887785 -3.4
29.02592924 -17.21853599 -3.4
56.27926234 -23.78169231 -10.5
20 -35.90730148 -10.5
35.83397913 -23.64370692 -3.4
42.65259579 -20.50011415 -6.95
49.46064568 -26.92528508 -6.95
31.32101451 -32.98808967 -6.95
24.51296462 -26.56291874 -6.95
38.13963117 -29.84449689 -10.5
1.259117512 -26.97648465 -3.4
-20 -45.35898385 -10.5
20 -35.90730148 -10.5
2.582327856 -46.15903624 -3.4
-9.370441244 -36.16773425 -6.95
0 -40.63314266 -10.5
10.62955876 -31.44189307 -6.95
1.920722684 -36.56776045 -3.4
-8.708836072 -45.75901005 -6.95
11.29116393 -41.03316886 -6.95
14.39589836 -5.633908197 -3.4
7.654666388 -3.621100098 -3.4
10.57703397 0 -3.4
2.347262615 -1.487475145 -9.507742122
11.02528238 -4.627504148 -3.4
9.115850178 -1.810550049 -3.4
12.48646617 -2.816954099 -3.4
8.371580489 -3.560691671 -6.453871061
5.000964501 -2.554287621 -6.453871061
6.462148291 -0.7437375723 -6.453871061
26.43663006 -53.23168972 -3.4
20 -35.90730148 -10.5
0 -80 -10.5
2.582327856 -46.15903624 -3.4
23.21831503 -44.5694956 -6.95
10 -57.95365074 -10.5
13.21831503 -66.61584486 -6.95
14.50947896 -49.69536298 -3.4
11.29116393 -41.03316886 -6.95
1.291163928 -63.07951812 -6.95
46.113497 -11.84656896 -3.4
29.02592924 -17.21853599 -3.4
33.90365308 -7.281161265 -3.4
40 0 -10.5
37.56971312 -14.53255248 -3.4
31.46479116 -12.24984863 -3.4
40.00857504 -9.563865112 -3.4
43.0567485 -5.92328448 -6.95
34.51296462 -8.609267996 -6.95
36.95182654 -3.640580633 -6.95
16.70077375 -14.31947115 -3.4
17.59481918 -27.36161992 -3.4
8.259621265 -18.55504219 -3.4
20 -35.90730148 -10.5
17.14779647 -20.84054553 -3.4
12.92722022 -22.95833106 -3.4
12.48019751 -16.43725667 -3.4
18.35038688 -25.11338631 -6.95
18.79740959 -31.6344607 -6.95
14.12981063 -27.23117184 -6.95
56.27926234 -23.78169231 -10.5
20 -35.90730148 -10.5
53.76162299 -50.92843107 -10.5
42.64202902 -30.06887785 -3.4
38.13963117 -29.84449689 -10.5
36.8808115 -43.41786627 -10.5
55.02044267 -37.35506169 -10.5
49.46064568 -26.92528508 -6.95
31.32101451 -32.98808967 -6.95
48.20182601 -40.49865446 -6.95
46.113497 -11.84656896 -3.4
29.02592924 -17.21853599 -3.4
56.27926234 -23.78169231 -10.5
42.64202902 -30.06887785 -3.4
37.56971312 -14.53255248 -3.4
42.65259579 -20.50011415 -6.95
51.19637967 -17.81413063 -6.95
44.37776301 -20.95772341 -3.4
35.83397913 -23.64370692 -3.4
49.46064568 -26.92528508 -6.95
29.3787254 0 -3.4
23.92112267 -7.340701375 -3.4
40 0 -10.5
33.90365308 -7.281161265 -3.4
26.64992403 -3.670350688 -3.4
31.96056133 -3.670350688 -6.95
34.6893627 0 -6.95
31.64118924 -3.640580633 -3.4
28.91238787 -7.31093132 -3.4
36.95182654 -3.640580633 -6.95
61.22230449 -16.38308936 -3.4
56.27926234 -23.78169231 -10.5
57.35599644 0 -3.4
80 0 -10.5
58.75078342 -20.08239083 -6.95
56.81762939 -11.89084615 -6.95
59.28915047 -8.191544681 -3.4
70.61115225 -8.191544681 -6.95
68.13963117 -11.89084615 -10.5
68.67799822 0 -6.95
17.59481918 -27.36161992 -3.4
16.70077375 -14.31947115 -3.4
29.02592924 -17.21853599 -3.4
20 -35.90730148 -10.5
17.14779647 -20.84054553 -3.4
22.8633515 -15.76900357 -3.4
23.31037421 -22.29007796 -3.4
18.79740959 -31.6344607 -6.95
18.35038688 -25.11338631 -6.95
24.51296462 -26.56291874 -6.95
46.113497 -11.84656896 -3.4
57.35599644 0 -3.4
56.27926234 -23.78169231 -10.5
40 0 -10.5
51.73474672 -5.92328448 -3.4
56.81762939 -11.89084615 -6.95
51.19637967 -17.81413063 -6.95
43.0567485 -5.92328448 -6.95
48.67799822 0 -6.95
48.13963117 -11.89084615 -10.5
61.22230449 -16.38308936 -3.4
80 -40 -3.4
42.64202902 -30.06887785 -3.4
56.27926234 -23.78169231 -10.5
70.61115225 -28.19154468 -3.4
61.32101451 -35.03443893 -3.4
51.93216676 -23.22598361 -3.4
58.75078342 -20.08239083 -6.95
68.13963117 -31.89084615 -6.95
49.46064568 -26.92528508 -6.95
56.27926234 -23.78169231 -10.5
80 -40 -10.5
80 0 -10.5
61.22230449 -16.38308936 -3.4
68.13963117 -31.89084615 -10.5
80 -20 -10.5
68.13963117 -11.89084615 -10.5
58.75078342 -20.08239083 -6.95
70.61115225 -28.19154468 -6.95
70.61115225 -8.191544681 -6.95
53.76162299 -50.92843107 -10.5
40 -80 -10.5
80 -80 -10.5
55.80060429 -55.80060429 -3.4
46.8808115 -65.46421553 -10.5
60 -80 -10.5
66.8808115 -65.46421553 -10.5
54.78111364 -53.36451768 -6.95
47.90030215 -67.90030215 -6.95
67.90030215 -67.90030215 -6.95
53.76162299 -50.92843107 -10.5
80 -80 -10.5
80 -40 -10.5
55.80060429 -55.80060429 -3.4
66.8808115 -65.46421553 -10.5
80 -60 -10.5
66.8808115 -45.46421553 -10.5
54.78111364 -53.36451768 -6.95
67.90030215 -67.90030215 -6.95
67.90030215 -47.90030215 -6.95
42.64202902 -30.06887785 -3.4
55.80060429 -55.80060429 -3.4
56.27926234 -23.78169231 -10.5
80 -40 -3.4
49.22131666 -42.93474107 -3.4
56.03993331 -39.7911483 -6.95
49.46064568 -26.92528508 -6.95
61.32101451 -35.03443893 -3.4
67.90030215 -47.90030215 -3.4
68.13963117 -31.89084615 -6.95
46.113497 -11.84656896 -3.4
56.27926234 -23.78169231 -10.5
57.35599644 0 -3.4
61.22230449 -16.38308936 -3.4
51.19637967 -17.81413063 -6.95
56.81762939 -11.89084615 -6.95
51.73474672 -5.92328448 -3.4
53.66790074 -14.11482916 -3.4
58.75078342 -20.08239083 -6.95
59.28915047 -8.191544681 -3.4
1.259117512 -26.97648465 -3.4
8.259621265 -18.55504219 -3.4
17.59481918 -27.36161992 -3.4
20 -35.90730148 -10.5
4.759369388 -22.76576342 -3.4
12.92722022 -22.95833106 -3.4
9.426968348 -27.16905229 -3.4
10.62955876 -31.44189307 -6.95
14.12981063 -27.23117184 -6.95
18.79740959 -31.6344607 -6.95
-20 -45.35898385 -10.5
2.582327856 -46.15903624 -3.4
-18.77807356 -52.36897868 -3.4
0 -80 -10.5
-8.708836072 -45.75901005 -6.95
-8.097872854 -49.26400746 -3.4
-19.38903678 -48.86398126 -6.95
-10 -62.67949192 -10.5
1.291163928 -63.07951812 -6.95
-9.389036782 -66.18448934 -6.95
61.22230449 -16.38308936 -3.4
80 -40 -10.5
80 0 -10.5
80 0 -3.4
70.61115225 -28.19154468 -6.95
80 -20 -10.5
70.61115225 -8.191544681 -6.95
70.61115225 -8.191544681 -3.4
80 -20 -6.95
80 0 -6.95
80 -40 -10.5
80 0 -3.4
61.22230449 -16.38308936 -3.4
80 -40 -3.4
80 -20 -6.95
70.61115225 -8.191544681 -3.4
70.61115225 -28.19154468 -6.95
80 -40 -6.95
80 -20 -3.4
70.61115225 -28.19154468 -3.4
55.80060429 -55.80060429 -3.4
80 -80 -10.5
80 -40 -3.4
80 -80 -3.4
67.90030215 -67.90030215 -6.95
80 -60 -6.95
67.90030215 -47.90030215 -3.4
67.90030215 -67.90030215 -3.4
80 -80 -6.95
80 -60 -3.4
80 -40 -10.5
80 -80 -10.5
80 -40 -3.4
55.80060429 -55.80060429 -3.4
80 -60 -10.5
80 -60 -6.95
80 -40 -6.95
67.90030215 -47.90030215 -6.95
67.90030215 -67.90030215 -6.95
67.90030215 -47.90030215 -3.4
53.76162299 -50.92843107 -10.5
55.80060429 -55.80060429 -3.4
56.27926234 -23.78169231 -10.5
42.64202902 -30.06887785 -3.4
54.78111364 -53.36451768 -6.95
56.03993331 -39.7911483 -6.95
55.02044267 -37.35506169 -10.5
48.20182601 -40.49865446 -6.95
49.22131666 -42.93474107 -3.4
49.46064568 -26.92528508 -6.95
26.43663006 -53.23168972 -3.4
0 -80 -3.4
40 -80 -10.5
40 -80 -3.4
13.21831503 -66.61584486 -3.4
20 -80 -6.95
33.21831503 -66.61584486 -6.95
33.21831503 -66.61584486 -3.4
20 -80 -3.4
40 -80 -6.95
40 -80 -3.4
80 -80 -3.4
40 -80 -10.5
55.80060429 -55.80060429 -3.4
60 -80 -3.4
60 -80 -6.95
40 -80 -6.95
47.90030215 -67.90030215 -3.4
67.90030215 -67.90030215 -3.4
47.90030215 -67.90030215 -6.95
80 -80 -3.4
80 -80 -10.5
40 -80 -10.5
55.80060429 -55.80060429 -3.4
80 -80 -6.95
60 -80 -10.5
60 -80 -6.95
67.90030215 -67.90030215 -3.4
67.90030215 -67.90030215 -6.95
47.90030215 -67.90030215 -6.95
26.43663006 -53.23168972 -3.4
40 -80 -10.5
0 -80 -3.4
0 -80 -10.5
33.21831503 -66.61584486 -6.95
20 -80 -6.95
13.21831503 -66.61584486 -3.4
13.21831503 -66.61584486 -6.95
20 -80 -10.5
0 -80 -6.95
26.43663006 -53.23168972 -3.4
0 -80 -3.4
2.582327856 -46.15903624 -3.4
0 -80 -10.5
13.21831503 -66.61584486 -3.4
1.291163928 -63.07951812 -3.4
14.50947896 -49.69536298 -3.4
13.21831503 -66.61584486 -6.95
0 -80 -6.95
1.291163928 -63.07951812 -6.95
2.582327856 -46.15903624 -3.4
0 -80 -3.4
-18.77807356 -52.36897868 -3.4
0 -80 -10.5
1.291163928 -63.07951812 -3.4
-9.389036782 -66.18448934 -3.4
-8.097872854 -49.26400746 -3.4
1.291163928 -63.07951812 -6.95
0 -80 -6.95
-9.389036782 -66.18448934 -6.95
2.582327856 -46.15903624 -3.4
17.59481918 -27.36161992 -3.4
26.43663006 -53.23168972 -3.4
20 -35.90730148 -10.5
10.08857352 -36.76032808 -3.4
22.01572462 -40.29665482 -3.4
14.50947896 -49.69536298 -3.4
11.29116393 -41.03316886 -6.95
18.79740959 -31.6344607 -6.95
23.21831503 -44.5694956 -6.95
42.64202902 -30.06887785 -3.4
26.43663006 -53.23168972 -3.4
17.59481918 -27.36161992 -3.4
20 -35.90730148 -10.5
34.53932954 -41.65028378 -3.4
22.01572462 -40.29665482 -3.4
30.1184241 -28.71524889 -3.4
31.32101451 -32.98808967 -6.95
23.21831503 -44.5694956 -6.95
18.79740959 -31.6344607 -6.95
40 -80 -10.5
26.43663006 -53.23168972 -3.4
40 -80 -3.4
55.80060429 -55.80060429 -3.4
33.21831503 -66.61584486 -6.95
33.21831503 -66.61584486 -3.4
40 -80 -6.95
47.90030215 -67.90030215 -6.95
41.11861717 -54.516147 -3.4
47.90030215 -67.90030215 -3.4
80 -40 -3.4
56.27926234 -23.78169231 -10.5
61.22230449 -16.38308936 -3.4
80 -40 -10.5
68.13963117 -31.89084615 -6.95
58.75078342 -20.08239083 -6.95
70.61115225 -28.19154468 -3.4
80 -40 -6.95
68.13963117 -31.89084615 -10.5
70.61115225 -28.19154468 -6.95
46.113497 -11.84656896 -3.4
41.0789911 0 -3.4
57.35599644 0 -3.4
40 0 -10.5
43.59624405 -5.92328448 -3.4
49.21749377 0 -3.4
51.73474672 -5.92328448 -3.4
43.0567485 -5.92328448 -6.95
40.53949555 0 -6.95
48.67799822 0 -6.95
57.35599644 0 -3.4
80 0 -10.5
80 0 -3.4
61.22230449 -16.38308936 -3.4
68.67799822 0 -6.95
80 0 -6.95
68.67799822 0 -3.4
59.28915047 -8.191544681 -3.4
70.61115225 -8.191544681 -6.95
70.61115225 -8.191544681 -3.4
46.113497 -11.84656896 -3.4
61.22230449 -16.38308936 -3.4
42.64202902 -30.06887785 -3.4
56.27926234 -23.78169231 -10.5
53.66790074 -14.11482916 -3.4
51.93216676 -23.22598361 -3.4
44.37776301 -20.95772341 -3.4
51.19637967 -17.81413063 -6.95
58.75078342 -20.08239083 -6.95
49.46064568 -26.92528508 -6.95
29.02592924 -17.21853599 -3.4
42.64202902 -30.06887785 -3.4
17.59481918 -27.36161992 -3.4
20 -35.90730148 -10.5
35.83397913 -23.64370692 -3.4
30.1184241 -28.71524889 -3.4
23.31037421 -22.29007796 -3.4
24.51296462 -26.56291874 -6.95
31.32101451 -32.98808967 -6.95
18.79740959 -31.6344607 -6.95
17.59481918 -27.36161992 -3.4
2.582327856 -46.15903624 -3.4
1.259117512 -26.97648465 -3.4
20 -35.90730148 -10.5
10.08857352 -36.76032808 -3.4
1.920722684 -36.56776045 -3.4
9.426968348 -27.16905229 -3.4
18.79740959 -31.6344607 -6.95
11.29116393 -41.03316886 -6.95
10.62955876 -31.44189307 -6.95
46.113497 -11.84656896 -3.4
33.90365308 -7.281161265 -3.4
41.0789911 0 -3.4
40 0 -10.5
40.00857504 -9.563865112 -3.4
37.49132209 -3.640580633 -3.4
43.59624405 -5.92328448 -3.4
43.0567485 -5.92328448 -6.95
36.95182654 -3.640580633 -6.95
40.53949555 0 -6.95
29.3787254 0 -3.4
41.0789911 0 -3.4
33.90365308 -7.281161265 -3.4
40 0 -10.5
35.22885825 0 -3.4
37.49132209 -3.640580633 -3.4
31.64118924 -3.640580633 -3.4
34.6893627 0 -6.95
40.53949555 0 -6.95
36.95182654 -3.640580633 -6.95
20 -35.90730148 -10.5
0 -80 -10.5
40 -80 -10.5
26.43663006 -53.23168972 -3.4
10 -57.95365074 -10.5
20 -80 -10.5
30 -57.95365074 -10.5
23.21831503 -44.5694956 -6.95
13.21831503 -66.61584486 -6.95
33.21831503 -66.61584486 -6.95
7.654666388 -3.621100098 -3.4
14.39589836 -5.633908197 -3.4
5.906920728 -9.432751709 -3.4
17.83908043 -12.29946945 -7.46400298
11.02528238 -4.627504148 -3.4
10.15140955 -7.533329953 -3.4
6.780793558 -6.526925903 -3.4
12.74687341 -7.960284773 -5.43200149
16.1174894 -8.966688823 -5.43200149
11.87300058 -10.86611058 -5.43200149
8.259621265 -18.55504219 -3.4
16.70077375 -14.31947115 -3.4
20 -35.90730148 -10.5
17.83908043 -12.29946945 -7.46400298
12.48019751 -16.43725667 -3.4
18.35038688 -25.11338631 -6.95
14.12981063 -27.23117184 -6.95
13.04935085 -15.42725582 -5.43200149
17.26992709 -13.3094703 -5.43200149
18.91954021 -24.10338546 -8.98200149
14.39589836 -5.633908197 -3.4
23.92112267 -7.340701375 -3.4
16.70077375 -14.31947115 -3.4
17.83908043 -12.29946945 -7.46400298
19.15851052 -6.487304786 -3.4
20.31094821 -10.83008626 -3.4
15.54833606 -9.976689672 -3.4
16.1174894 -8.966688823 -5.43200149
20.88010155 -9.820085412 -5.43200149
17.26992709 -13.3094703 -5.43200149
14.39589836 -5.633908197 -3.4
16.70077375 -14.31947115 -3.4
5.906920728 -9.432751709 -3.4
17.83908043 -12.29946945 -7.46400298
15.54833606 -9.976689672 -3.4
11.30384724 -11.87611143 -3.4
10.15140955 -7.533329953 -3.4
16.1174894 -8.966688823 -5.43200149
17.26992709 -13.3094703 -5.43200149
11.87300058 -10.86611058 -5.43200149
5.906920728 -9.432751709 -3.4
16.70077375 -14.31947115 -3.4
8.259621265 -18.55504219 -3.4
17.83908043 -12.29946945 -7.46400298
11.30384724 -11.87611143 -3.4
12.48019751 -16.43725667 -3.4
7.083270997 -13.99389695 -3.4
11.87300058 -10.86611058 -5.43200149
17.26992709 -13.3094703 -5.43200149
13.04935085 -15.42725582 -5.43200149
10.57703397 0 -3.4
20.96831662 0 -3.4
14.39589836 -5.633908197 -3.4
2.347262615 -1.487475145 -9.507742122
15.77267529 0 -3.4
17.68210749 -2.816954099 -3.4
12.48646617 -2.816954099 -3.4
6.462148291 -0.7437375723 -6.453871061
11.65778962 -0.7437375723 -6.453871061
8.371580489 -3.560691671 -6.453871061
55.80060429 -55.80060429 -3.4
42.64202902 -30.06887785 -3.4
20 -35.90730148 -10.5
26.43663006 -53.23168972 -3.4
49.22131666 -42.93474107 -3.4
31.32101451 -32.98808967 -6.95
37.90030215 -45.85395289 -6.95
41.11861717 -54.516147 -3.4
34.53932954 -41.65028378 -3.4
23.21831503 -44.5694956 -6.95
20 -35.90730148 -10.5
42.64202902 -30.06887785 -3.4
55.80060429 -55.80060429 -3.4
53.76162299 -50.92843107 -10.5
31.32101451 -32.98808967 -6.95
49.22131666 -42.93474107 -3.4
37.90030215 -45.85395289 -6.95
36.8808115 -43.41786627 -10.5
48.20182601 -40.49865446 -6.95
54.78111364 -53.36451768 -6.95
20 -35.90730148 -10.5
40 -80 -10.5
55.80060429 -55.80060429 -3.4
26.43663006 -53.23168972 -3.4
30 -57.95365074 -10.5
47.90030215 -67.90030215 -6.95
37.90030215 -45.85395289 -6.95
23.21831503 -44.5694956 -6.95
33.21831503 -66.61584486 -6.95
41.11861717 -54.516147 -3.4
55.80060429 -55.80060429 -3.4
40 -80 -10.5
20 -35.90730148 -10.5
53.76162299 -50.92843107 -10.5
47.90030215 -67.90030215 -6.95
30 -57.95365074 -10.5
37.90030215 -45.85395289 -6.95
54.78111364 -53.36451768 -6.95
46.8808115 -65.46421553 -10.5
36.8808115 -43.41786627 -10.5
56.27926234 -23.78169231 -10.5
55.80060429 -55.80060429 -3.4
80 -40 -10.5
80 -40 -3.4
56.03993331 -39.7911483 -6.95
67.90030215 -47.90030215 -6.95
68.13963117 -31.89084615 -10.5
68.13963117 -31.89084615 -6.95
67.90030215 -47.90030215 -3.4
80 -40 -6.95
55.80060429 -55.80060429 -3.4
56.27926234 -23.78169231 -10.5
80 -40 -10.5
53.76162299 -50.92843107 -10.5
56.03993331 -39.7911483 -6.95
68.13963117 -31.89084615 -10.5
67.90030215 -47.90030215 -6.95
54.78111364 -53.36451768 -6.95
55.02044267 -37.35506169 -10.5
66.8808115 -45.46421553 -10.5
17.83908043 -12.29946945 -7.46400298
29.02592924 -17.21853599 -3.4
20 -35.90730148 -10.5
40 0 -10.5
23.43250483 -14.75900272 -5.43200149
24.51296462 -26.56291874 -6.95
18.91954021 -24.10338546 -8.98200149
28.91954021 -6.149734724 -8.98200149
34.51296462 -8.609267996 -6.95
30 -17.95365074 -10.5
29.02592924 -17.21853599 -3.4
17.83908043 -12.29946945 -7.46400298
20 -35.90730148 -10.5
16.70077375 -14.31947115 -3.4
23.43250483 -14.75900272 -5.43200149
18.91954021 -24.10338546 -8.98200149
24.51296462 -26.56291874 -6.95
22.8633515 -15.76900357 -3.4
17.26992709 -13.3094703 -5.43200149
18.35038688 -25.11338631 -6.95
29.02592924 -17.21853599 -3.4
17.83908043 -12.29946945 -7.46400298
23.92112267 -7.340701375 -3.4
40 0 -10.5
23.43250483 -14.75900272 -5.43200149
20.88010155 -9.820085412 -5.43200149
26.47352595 -12.27961868 -3.4
34.51296462 -8.609267996 -6.95
28.91954021 -6.149734724 -8.98200149
31.96056133 -3.670350688 -6.95
17.83908043 -12.29946945 -7.46400298
29.02592924 -17.21853599 -3.4
23.92112267 -7.340701375 -3.4
16.70077375 -14.31947115 -3.4
23.43250483 -14.75900272 -5.43200149
26.47352595 -12.27961868 -3.4
20.88010155 -9.820085412 -5.43200149
17.26992709 -13.3094703 -5.43200149
22.8633515 -15.76900357 -3.4
20.31094821 -10.83008626 -3.4
17.83908043 -12.29946945 -7.46400298
0 0 -10.5
2.347262615 -1.487475145 -9.507742122
40 0 -10.5
8.919540213 -6.149734724 -8.98200149
1.173631307 -0.7437375723 -10.00387106
10.09317152 -6.893472296 -8.485872551
28.91954021 -6.149734724 -8.98200149
20 0 -10.5
21.17363131 -0.7437375723 -10.00387106
0 0 -10.5
17.83908043 -12.29946945 -7.46400298
20 -35.90730148 -10.5
40 0 -10.5
8.919540213 -6.149734724 -8.98200149
18.91954021 -24.10338546 -8.98200149
10 -17.95365074 -10.5
20 0 -10.5
28.91954021 -6.149734724 -8.98200149
30 -17.95365074 -10.5
17.83908043 -12.29946945 -7.46400298
20.96831662 0 -3.4
23.92112267 -7.340701375 -3.4
40 0 -10.5
19.40369852 -6.149734724 -5.43200149
22.44471964 -3.670350688 -3.4
20.88010155 -9.820085412 -5.43200149
28.91954021 -6.149734724 -8.98200149
30.48415831 0 -6.95
31.96056133 -3.670350688 -6.95
20.96831662 0 -3.4
17.83908043 -12.29946945 -7.46400298
23.92112267 -7.340701375 -3.4
14.39589836 -5.633908197 -3.4
19.40369852 -6.149734724 -5.43200149
20.88010155 -9.820085412 -5.43200149
22.44471964 -3.670350688 -3.4
17.68210749 -2.816954099 -3.4
16.1174894 -8.966688823 -5.43200149
19.15851052 -6.487304786 -3.4
20.96831662 0 -3.4
17.83908043 -12.29946945 -7.46400298
2.347262615 -1.487475145 -9.507742122
40 0 -10.5
19.40369852 -6.149734724 -5.43200149
10.09317152 -6.893472296 -8.485872551
11.65778962 -0.7437375723 -6.453871061
30.48415831 0 -6.95
28.91954021 -6.149734724 -8.98200149
21.17363131 -0.7437375723 -10.00387106
17.83908043 -12.29946945 -7.46400298
20.96831662 0 -3.4
2.347262615 -1.487475145 -9.507742122
14.39589836 -5.633908197 -3.4
19.40369852 -6.149734724 -5.43200149
11.65778962 -0.7437375723 -6.453871061
10.09317152 -6.893472296 -8.485872551
16.1174894 -8.966688823 -5.43200149
17.68210749 -2.816954099 -3.4
8.371580489 -3.560691671 -6.453871061
56.27926234 -23.78169231 -10.5
56.27926234 -23.78169231 -40
20 0 -25.25
40 0 -40
56.27926234 -23.78169231 -25.25
38.13963117 -11.89084615 -32.625
38.13963117 -11.89084615 -17.875
48.13963117 -11.89084615 -25.25
48.13963117 -11.89084615 -40
30 0 -32.625
20 -80 -25.25
53.76162299 -50.92843107 -40
20 -35.90730148 -10.5
53.76162299 -50.92843107 -10.5
36.8808115 -65.46421553 -32.625
36.8808115 -43.41786627 -25.25
20 -57.95365074 -17.875
36.8808115 -65.46421553 -17.875
53.76162299 -50.92843107 -25.25
36.8808115 -43.41786627 -10.5
40 0 -10.5
56.27926234 -23.78169231 -10.5
20 0 -25.25
40 0 -40
48.13963117 -11.89084615 -10.5
38.13963117 -11.89084615 -17.875
30 0 -17.875
40 0 -25.25
48.13963117 -11.89084615 -25.25
30 0 -32.625
20 0 -25.25
20 -35.90730148 -10.5
56.27926234 -23.78169231 -40
56.27926234 -23.78169231 -10.5
20 -17.95365074 -17.875
38.13963117 -29.84449689 -25.25
38.13963117 -11.89084615 -32.625
38.13963117 -11.89084615 -17.875
38.13963117 -29.84449689 -10.5
56.27926234 -23.78169231 -25.25
20 -35.90730148 -10.5
0 -80 -10.5
20 -35.90730148 -40
20 -80 -25.25
10 -57.95365074 -10.5
10 -57.95365074 -25.25
20 -35.90730148 -25.25
20 -57.95365074 -17.875
10 -80 -17.875
20 -57.95365074 -32.625
0 -80 -10.5
0 -80 -40
20 -35.90730148 -40
20 -80 -25.25
0 -80 -25.25
10 -57.95365074 -40
10 -57.95365074 -25.25
10 -80 -17.875
10 -80 -32.625
20 -57.95365074 -32.625
40 0 -40
56.27926234 -23.78169231 -40
20 0 -25.25
20 -35.90730148 -40
48.13963117 -11.89084615 -40
38.13963117 -11.89084615 -32.625
30 0 -32.625
30 -17.95365074 -40
38.13963117 -29.84449689 -40
20 -17.95365074 -32.625
20 -35.90730148 -10.5
56.27926234 -23.78169231 -10.5
20 0 -25.25
40 0 -10.5
38.13963117 -29.84449689 -10.5
38.13963117 -11.89084615 -17.875
20 -17.95365074 -17.875
30 -17.95365074 -10.5
48.13963117 -11.89084615 -10.5
30 0 -17.875
20 -80 -25.25
20 -35.90730148 -10.5
53.76162299 -50.92843107 -40
20 -35.90730148 -40
20 -57.95365074 -17.875
36.8808115 -43.41786627 -25.25
36.8808115 -65.46421553 -32.625
20 -57.95365074 -32.625
20 -35.90730148 -25.25
36.8808115 -43.41786627 -40
20 -80 -25.25
40 -80 -10.5
53.76162299 -50.92843107 -40
53.76162299 -50.92843107 -10.5
30 -80 -17.875
46.8808115 -65.46421553 -25.25
36.8808115 -65.46421553 -32.625
36.8808115 -65.46421553 -17.875
46.8808115 -65.46421553 -10.5
53.76162299 -50.92843107 -25.25
20 0 -25.25
56.27926234 -23.78169231 -40
20 -35.90730148 -10.5
20 -35.90730148 -40
38.13963117 -11.89084615 -32.625
38.13963117 -29.84449689 -25.25
20 -17.95365074 -17.875
20 -17.95365074 -32.625
38.13963117 -29.84449689 -40
20 -35.90730148 -25.25
20 -80 -25.25
40 -80 -10.5
20 -35.90730148 -10.5
0 -80 -10.5
30 -80 -17.875
30 -57.95365074 -10.5
20 -57.95365074 -17.875
10 -80 -17.875
20 -80 -10.5
10 -57.95365074 -10.5
0 -80 -40
40 -80 -40
20 -35.90730148 -40
20 -80 -25.25
20 -80 -40
30 -57.95365074 -40
10 -57.95365074 -40
10 -80 -32.625
30 -80 -32.625
20 -57.95365074 -32.625
20 -35.90730148 -40
53.76162299 -50.92843107 -40
20 -80 -25.25
40 -80 -40
36.8808115 -43.41786627 -40
36.8808115 -65.46421553 -32.625
20 -57.95365074 -32.625
30 -57.95365074 -40
46.8808115 -65.46421553 -40
30 -80 -32.625
40 -80 -10.5
53.76162299 -50.92843107 -10.5
20 -80 -25.25
20 -35.90730148 -10.5
46.8808115 -65.46421553 -10.5
36.8808115 -65.46421553 -17.875
30 -80 -17.875
30 -57.95365074 -10.5
36.8808115 -43.41786627 -10.5
20 -57.95365074 -17.875
20 -80 -25.25
53.76162299 -50.92843107 -40
40 -80 -10.5
40 -80 -40
36.8808115 -65.46421553 -32.625
46.8808115 -65.46421553 -25.25
30 -80 -17.875
30 -80 -32.625
46.8808115 -65.46421553 -40
40 -80 -25.25
80 -80 -40
80 -40 -40
53.76162299 -50.92843107 -40
80 -60 -25.25
80 -60 -40
66.8808115 -45.46421553 -40
66.8808115 -65.46421553 -40
80 -70 -32.625
80 -50 -32.625
66.8808115 -55.46421553 -32.625
80 -80 -40
80 -60 -25.25
53.76162299 -50.92843107 -40
60 -80 -25.25
80 -70 -32.625
66.8808115 -55.46421553 -32.625
66.8808115 -65.46421553 -40
70 -80 -32.625
70 -70 -25.25
56.8808115 -65.46421553 -32.625
56.27926234 -23.78169231 -10.5
53.76162299 -50.92843107 -40
20 -35.90730148 -10.5
56.27926234 -23.78169231 -40
55.02044267 -37.35506169 -25.25
36.8808115 -43.41786627 -25.25
38.13963117 -29.84449689 -10.5
56.27926234 -23.78169231 -25.25
55.02044267 -37.35506169 -40
38.13963117 -29.84449689 -25.25
60 -80 -25.25
53.76162299 -50.92843107 -10.5
80 -80 -10.5
80 -60 -25.25
56.8808115 -65.46421553 -17.875
66.8808115 -65.46421553 -10.5
70 -80 -17.875
70 -70 -25.25
66.8808115 -55.46421553 -17.875
80 -70 -17.875
20 0 -25.25
20 -35.90730148 -10.5
0 0 -10.5
20 -35.90730148 -40
20 -17.95365074 -17.875
10 -17.95365074 -10.5
10 0 -17.875
20 -17.95365074 -32.625
20 -35.90730148 -25.25
10 -17.95365074 -25.25
53.76162299 -50.92843107 -10.5
80 -40 -10.5
80 -80 -10.5
80 -60 -25.25
66.8808115 -45.46421553 -10.5
80 -60 -10.5
66.8808115 -65.46421553 -10.5
66.8808115 -55.46421553 -17.875
80 -50 -17.875
80 -70 -17.875
56.27926234 -23.78169231 -10.5
20 -35.90730148 -10.5
53.76162299 -50.92843107 -40
53.76162299 -50.92843107 -10.5
38.13963117 -29.84449689 -10.5
36.8808115 -43.41786627 -25.25
55.02044267 -37.35506169 -25.25
55.02044267 -37.35506169 -10.5
36.8808115 -43.41786627 -10.5
53.76162299 -50.92843107 -25.25
0 0 -10.5
20 -35.90730148 -10.5
-20 -45.35898385 -40
20 -35.90730148 -40
10 -17.95365074 -10.5
0 -40.63314266 -25.25
-10 -22.67949192 -25.25
10 -17.95365074 -25.25
20 -35.90730148 -25.25
0 -40.63314266 -40
20 0 -25.25
20 -35.90730148 -40
0 0 -10.5
0 0 -40
20 -17.95365074 -32.625
10 -17.95365074 -25.25
10 0 -17.875
10 0 -32.625
10 -17.95365074 -40
0 0 -25.25
0 0 -10.5
-20 -45.35898385 -40
20 -35.90730148 -10.5
-20 -45.35898385 -10.5
-10 -22.67949192 -25.25
0 -40.63314266 -25.25
10 -17.95365074 -10.5
-10 -22.67949192 -10.5
-20 -45.35898385 -25.25
0 -40.63314266 -10.5
-20 -45.35898385 -40
0 0 -10.5
20 -35.90730148 -40
0 0 -40
-10 -22.67949192 -25.25
10 -17.95365074 -25.25
0 -40.63314266 -40
-10 -22.67949192 -40
0 0 -25.25
10 -17.95365074 -40
0 -80 -40
-20 -45.35898385 -40
0 -80 -10.5
20 -35.90730148 -40
-10 -62.67949192 -40
-10 -62.67949192 -25.25
0 -80 -25.25
10 -57.95365074 -40
0 -40.63314266 -40
10 -57.95365074 -25.25
20 -35.90730148 -40
20 -35.90730148 -10.5
-20 -45.35898385 -40
0 -80 -10.5
20 -35.90730148 -25.25
0 -40.63314266 -25.25
0 -40.63314266 -40
10 -57.95365074 -25.25
10 -57.95365074 -10.5
-10 -62.67949192 -25.25
80 -60 -25.25
53.76162299 -50.92843107 -10.5
53.76162299 -50.92843107 -40
60 -80 -25.25
66.8808115 -55.46421553 -17.875
53.76162299 -50.92843107 -25.25
66.8808115 -55.46421553 -32.625
70 -70 -25.25
56.8808115 -65.46421553 -17.875
56.8808115 -65.46421553 -32.625
0 -80 -10.5
20 -35.90730148 -10.5
-20 -45.35898385 -40
-20 -45.35898385 -10.5
10 -57.95365074 -10.5
0 -40.63314266 -25.25
-10 -62.67949192 -25.25
-10 -62.67949192 -10.5
0 -40.63314266 -10.5
-20 -45.35898385 -25.25
56.27926234 -23.78169231 -10.5
56.27926234 -23.78169231 -40
80 -20 -25.25
80 -40 -40
56.27926234 -23.78169231 -25.25
68.13963117 -21.89084615 -32.625
68.13963117 -21.89084615 -17.875
68.13963117 -31.89084615 -25.25
68.13963117 -31.89084615 -40
80 -30 -32.625
56.27926234 -23.78169231 -40
80 0 -40
80 -20 -25.25
80 -40 -40
68.13963117 -11.89084615 -40
80 -10 -32.625
68.13963117 -21.89084615 -32.625
68.13963117 -31.89084615 -40
80 -20 -40
80 -30 -32.625
40 0 -10.5
20 -35.90730148 -10.5
0 0 -10.5
20 0 -25.25
30 -17.95365074 -10.5
10 -17.95365074 -10.5
20 0 -10.5
30 0 -17.875
20 -17.95365074 -17.875
10 0 -17.875
40 0 -40
20 0 -25.25
0 0 -40
20 -35.90730148 -40
30 0 -32.625
10 0 -32.625
20 0 -40
30 -17.95365074 -40
20 -17.95365074 -32.625
10 -17.95365074 -40
56.27926234 -23.78169231 -10.5
80 0 -10.5
80 -40 -10.5
80 -20 -25.25
68.13963117 -11.89084615 -10.5
80 -20 -10.5
68.13963117 -31.89084615 -10.5
68.13963117 -21.89084615 -17.875
80 -10 -17.875
80 -30 -17.875
56.27926234 -23.78169231 -10.5
40 0 -40
60 0 -25.25
56.27926234 -23.78169231 -40
48.13963117 -11.89084615 -25.25
50 0 -32.625
58.13963117 -11.89084615 -17.875
56.27926234 -23.78169231 -25.25
48.13963117 -11.89084615 -40
58.13963117 -11.89084615 -32.625
53.76162299 -50.92843107 -40
40 -80 -40
80 -80 -40
60 -80 -25.25
46.8808115 -65.46421553 -40
60 -80 -40
66.8808115 -65.46421553 -40
56.8808115 -65.46421553 -32.625
50 -80 -32.625
70 -80 -32.625
56.27926234 -23.78169231 -10.5
40 0 -10.5
80 0 -10.5
60 0 -25.25
48.13963117 -11.89084615 -10.5
60 0 -10.5
68.13963117 -11.89084615 -10.5
58.13963117 -11.89084615 -17.875
50 0 -17.875
70 0 -17.875
60 0 -25.25
40 0 -40
80 0 -40
56.27926234 -23.78169231 -40
50 0 -32.625
60 0 -40
70 0 -32.625
58.13963117 -11.89084615 -32.625
48.13963117 -11.89084615 -40
68.13963117 -11.89084615 -40
53.76162299 -50.92843107 -10.5
80 -80 -10.5
40 -80 -10.5
60 -80 -25.25
66.8808115 -65.46421553 -10.5
60 -80 -10.5
46.8808115 -65.46421553 -10.5
56.8808115 -65.46421553 -17.875
70 -80 -17.875
50 -80 -17.875
56.27926234 -23.78169231 -10.5
80 -20 -25.25
80 -40 -10.5
80 -40 -40
68.13963117 -21.89084615 -17.875
80 -30 -17.875
68.13963117 -31.89084615 -10.5
68.13963117 -31.89084615 -25.25
80 -30 -32.625
80 -40 -25.25
56.27926234 -23.78169231 -10.5
60 0 -25.25
40 0 -40
40 0 -10.5
58.13963117 -11.89084615 -17.875
50 0 -32.625
48.13963117 -11.89084615 -25.25
48.13963117 -11.89084615 -10.5
50 0 -17.875
40 0 -25.25
40 -80 -10.5
53.76162299 -50.92843107 -40
53.76162299 -50.92843107 -10.5
60 -80 -25.25
46.8808115 -65.46421553 -25.25
53.76162299 -50.92843107 -25.25
46.8808115 -65.46421553 -10.5
50 -80 -17.875
56.8808115 -65.46421553 -32.625
56.8808115 -65.46421553 -17.875
56.27926234 -23.78169231 -40
53.76162299 -50.92843107 -40
20 -35.90730148 -10.5
20 -35.90730148 -40
55.02044267 -37.35506169 -40
36.8808115 -43.41786627 -25.25
38.13963117 -29.84449689 -25.25
38.13963117 -29.84449689 -40
36.8808115 -43.41786627 -40
20 -35.90730148 -25.25
53.76162299 -50.92843107 -10.5
53.76162299 -50.92843107 -40
80 -40 -10.5
80 -60 -25.25
53.76162299 -50.92843107 -25.25
66.8808115 -45.46421553 -25.25
66.8808115 -45.46421553 -10.5
66.8808115 -55.46421553 -17.875
66.8808115 -55.46421553 -32.625
80 -50 -17.875
80 -40 -40
80 -40 -10.5
53.76162299 -50.92843107 -40
80 -60 -25.25
80 -40 -25.25
66.8808115 -45.46421553 -25.25
66.8808115 -45.46421553 -40
80 -50 -32.625
80 -50 -17.875
66.8808115 -55.46421553 -32.625
56.27926234 -23.78169231 -10.5
53.76162299 -50.92843107 -40
56.27926234 -23.78169231 -40
80 -40 -40
55.02044267 -37.35506169 -25.25
55.02044267 -37.35506169 -40
56.27926234 -23.78169231 -25.25
68.13963117 -31.89084615 -25.25
66.8808115 -45.46421553 -40
68.13963117 -31.89084615 -40
80 -40 -10.5
53.76162299 -50.92843107 -10.5
56.27926234 -23.78169231 -10.5
53.76162299 -50.92843107 -40
66.8808115 -45.46421553 -10.5
55.02044267 -37.35506169 -10.5
68.13963117 -31.89084615 -10.5
66.8808115 -45.46421553 -25.25
53.76162299 -50.92843107 -25.25
55.02044267 -37.35506169 -25.25
80 -40 -10.5
53.76162299 -50.92843107 -40
56.27926234 -23.78169231 -10.5
80 -40 -40
66.8808115 -45.46421553 -25.25
55.02044267 -37.35506169 -25.25
68.13963117 -31.89084615 -10.5
80 -40 -25.25
66.8808115 -45.46421553 -40
68.13963117 -31.89084615 -25.25
56.27926234 -23.78169231 -10.5
60 0 -25.25
80 -20 -25.25
56.27926234 -23.78169231 -40
58.13963117 -11.89084615 -17.875
70 -10 -25.25
68.13963117 -21.89084615 -17.875
56.27926234 -23.78169231 -25.25
58.13963117 -11.89084615 -32.625
68.13963117 -21.89084615 -32.625
40 -80 -10.5
40 -80 -40
53.76162299 -50.92843107 -40
60 -80 -25.25
40 -80 -25.25
46.8808115 -65.46421553 -40
46.8808115 -65.46421553 -25.25
50 -80 -17.875
50 -80 -32.625
56.8808115 -65.46421553 -32.625
60 0 -25.25
80 0 -40
80 -20 -25.25
56.27926234 -23.78169231 -40
70 0 -32.625
80 -10 -32.625
70 -10 -25.25
58.13963117 -11.89084615 -32.625
68.13963117 -11.89084615 -40
68.13963117 -21.89084615 -32.625
60 0 -25.25
80 0 -10.5
56.27926234 -23.78169231 -10.5
80 -20 -25.25
70 0 -17.875
68.13963117 -11.89084615 -10.5
58.13963117 -11.89084615 -17.875
70 -10 -25.25
80 -10 -17.875
68.13963117 -21.89084615 -17.875
80 -20 -25.25
80 0 -10.5
80 0 -40
60 0 -25.25
80 -10 -17.875
80 0 -25.25
80 -10 -32.625
70 -10 -25.25
70 0 -17.875
70 0 -32.625
80 -80 -10.5
80 -60 -25.25
80 -80 -40
60 -80 -25.25
80 -70 -17.875
80 -70 -32.625
80 -80 -25.25
70 -80 -17.875
70 -70 -25.25
70 -80 -32.625
-18.77807356 -52.36897868 -2
-18.77807356 -52.36897868 0
-40 -80 -2
0 -80 0
-18.77807356 -52.36897868 -1
-29.38903678 -66.18448934 -1
-29.38903678 -66.18448934 -2
-9.389036782 -66.18448934 -1
-9.389036782 -66.18448934 0
-20 -80 -1
-64.85093541 -15.58550524 0
-80 0 0
-80 -40 -2
-80 -40 0
-72.4254677 -7.792752621 0
-80 -20 -1
-72.4254677 -27.79275262 -1
-72.4254677 -27.79275262 0
-80 -20 0
-80 -40 -1
0 -80 0
-18.77807356 -52.36897868 0
-40 -80 -2
-40 -80 0
-9.389036782 -66.18448934 0
-29.38903678 -66.18448934 -1
-20 -80 -1
-20 -80 0
-29.38903678 -66.18448934 0
-40 -80 -1
-40 -80 -2
0 -80 0
0 -80 -2
-18.77807356 -52.36897868 -2
-20 -80 -1
0 -80 -1
-20 -80 -2
-29.38903678 -66.18448934 -2
-9.389036782 -66.18448934 -1
-9.389036782 -66.18448934 -2
-23.30834065 -7.162864969 0
-35.22885825 -8.708177492 -2
-23.30834065 -7.162864969 -2
-23.37061834 -19.18052153 -2
-29.26859945 -7.93552123 -1
-29.26859945 -7.93552123 -2
-23.30834065 -7.162864969 -1
-23.3394795 -13.17169325 -1
-29.29973829 -13.94434951 -2
-23.3394795 -13.17169325 -2
-9.599169743 -18.78484362 0
-23.37061834 -19.18052153 -2
-9.599169743 -18.78484362 -2
-12.72304544 -32.86479037 -2
-16.48489404 -18.98268257 -1
-16.48489404 -18.98268257 -2
-9.599169743 -18.78484362 -1
-11.16110759 -25.82481699 -1
-18.04683189 -26.02265595 -2
-11.16110759 -25.82481699 -2
-14.92273025 0 -2
-7.453252438 0 -2
-10.97631886 -4.569077337 0
-10.97631886 -4.569077337 -2
-11.18799134 0 -2
-9.214785649 -2.284538668 -1
-12.94952455 -2.284538668 -1
-12.94952455 -2.284538668 -2
-9.214785649 -2.284538668 -2
-10.97631886 -4.569077337 -1
-14.92273025 0 -2
-10.97631886 -4.569077337 0
-7.453252438 0 0
-14.92273025 0 0
-12.94952455 -2.284538668 -1
-9.214785649 -2.284538668 0
-11.18799134 0 -1
-14.92273025 0 -1
-12.94952455 -2.284538668 0
-11.18799134 0 0
-14.92273025 0 -2
-10.97631886 -4.569077337 0
-7.453252438 0 -2
-7.453252438 0 0
-12.94952455 -2.284538668 -1
-9.214785649 -2.284538668 -1
-11.18799134 0 -2
-11.18799134 0 -1
-9.214785649 -2.284538668 0
-7.453252438 0 -1
-5.514209552 -3.8896768 0
-10.97631886 -4.569077337 0
-5.514209552 -3.8896768 -2
-6.562657941 -9.734789696 0
-8.245264206 -4.229377068 0
-8.245264206 -4.229377068 -1
-5.514209552 -3.8896768 -1
-6.038433746 -6.812233248 0
-8.7694884 -7.151933516 0
-6.038433746 -6.812233248 -1
-23.37061834 -19.18052153 0
-23.37061834 -19.18052153 -2
-9.599169743 -18.78484362 0
-12.72304544 -32.86479037 -2
-23.37061834 -19.18052153 -1
-16.48489404 -18.98268257 -1
-16.48489404 -18.98268257 0
-18.04683189 -26.02265595 -1
-18.04683189 -26.02265595 -2
-11.16110759 -25.82481699 -1
-9.599169743 -18.78484362 0
-14.82258609 -10.38793373 0
-14.82258609 -10.38793373 -2
-23.37061834 -19.18052153 -2
-12.21087792 -14.58638868 0
-14.82258609 -10.38793373 -1
-12.21087792 -14.58638868 -1
-16.48489404 -18.98268257 -1
-19.09660221 -14.78422763 -1
-19.09660221 -14.78422763 -2
-5.514209552 -3.8896768 -2
-10.97631886 -4.569077337 0
-10.97631886 -4.569077337 -2
-6.562657941 -9.734789696 0
-8.245264206 -4.229377068 -1
-10.97631886 -4.569077337 -1
-8.245264206 -4.229377068 -2
-6.038433746 -6.812233248 -1
-8.7694884 -7.151933516 0
-8.7694884 -7.151933516 -1
-23.37061834 -19.18052153 -2
-12.72304544 -32.86479037 -2
-23.37061834 -19.18052153 0
-28.10264555 -36.10448984 -2
-18.04683189 -26.02265595 -2
-18.04683189 -26.02265595 -1
-23.37061834 -19.18052153 -1
-25.73663194 -27.64250568 -2
-20.4128455 -34.48464011 -2
-25.73663194 -27.64250568 -1
-6.562657941 -9.734789696 0
-10.97631886 -4.569077337 0
-10.97631886 -4.569077337 -2
-14.82258609 -10.38793373 0
-8.7694884 -7.151933516 0
-10.97631886 -4.569077337 -1
-8.7694884 -7.151933516 -1
-10.69262202 -10.06136171 0
-12.89945247 -7.478505535 0
-12.89945247 -7.478505535 -1
-9.599169743 -18.78484362 0
-12.72304544 -32.86479037 0
-23.37061834 -19.18052153 0
-12.72304544 -32.86479037 -2
-11.16110759 -25.82481699 0
-18.04683189 -26.02265595 0
-16.48489404 -18.98268257 0
-11.16110759 -25.82481699 -1
-12.72304544 -32.86479037 -1
-18.04683189 -26.02265595 -1
-23.30834065 -7.162864969 -2
-17.19268076 -4.215970994 -2
-17.19268076 -4.215970994 0
-14.82258609 -10.38793373 0
-20.25051071 -5.689417981 -2
-17.19268076 -4.215970994 -1
-20.25051071 -5.689417981 -1
-19.06546337 -8.775399351 -1
-16.00763342 -7.301952363 -1
-16.00763342 -7.301952363 0
-20.96831662 0 -2
-20.96831662 0 0
-29.3787254 0 0
-23.30834065 -7.162864969 0
-20.96831662 0 -1
-25.17352101 0 0
-25.17352101 0 -1
-22.13832864 -3.581432484 -1
-22.13832864 -3.581432484 0
-26.34353303 -3.581432484 0
-14.92273025 0 -2
-10.97631886 -4.569077337 -2
-17.19268076 -4.215970994 0
-17.19268076 -4.215970994 -2
-12.94952455 -2.284538668 -2
-14.08449981 -4.392524165 -1
-16.0577055 -2.107985497 -1
-16.0577055 -2.107985497 -2
-14.08449981 -4.392524165 -2
-17.19268076 -4.215970994 -1
-23.30834065 -7.162864969 -2
-14.82258609 -10.38793373 0
-23.30834065 -7.162864969 0
-23.37061834 -19.18052153 -2
-19.06546337 -8.775399351 -1
-19.06546337 -8.775399351 0
-23.30834065 -7.162864969 -1
-23.3394795 -13.17169325 -2
-19.09660221 -14.78422763 -1
-23.3394795 -13.17169325 -1
-9.599169743 -18.78484362 0
-0.1635248549 -14.68488354 -2
-0.1635248549 -14.68488354 0
1.259117512 -26.97648465 0
-4.881347299 -16.73486358 -1
-0.1635248549 -14.68488354 -1
-4.881347299 -16.73486358 0
-4.170026116 -22.88066414 0
0.5477963283 -20.8306841 -1
0.5477963283 -20.8306841 0
-9.599169743 -18.78484362 0
-12.72304544 -32.86479037 -2
-9.599169743 -18.78484362 -2
1.259117512 -26.97648465 0
-11.16110759 -25.82481699 -1
-11.16110759 -25.82481699 -2
-9.599169743 -18.78484362 -1
-4.170026116 -22.88066414 0
-5.731963965 -29.92063751 -1
-4.170026116 -22.88066414 -1
-23.30834065 -7.162864969 -2
-14.82258609 -10.38793373 -2
-14.82258609 -10.38793373 0
-23.37061834 -19.18052153 -2
-19.06546337 -8.775399351 -2
-14.82258609 -10.38793373 -1
-19.06546337 -8.775399351 -1
-23.3394795 -13.17169325 -2
-19.09660221 -14.78422763 -2
-19.09660221 -14.78422763 -1
-14.92273025 0 -2
-17.19268076 -4.215970994 0
-10.97631886 -4.569077337 -2
-10.97631886 -4.569077337 0
-16.0577055 -2.107985497 -1
-14.08449981 -4.392524165 -1
-12.94952455 -2.284538668 -2
-12.94952455 -2.284538668 -1
-14.08449981 -4.392524165 0
-10.97631886 -4.569077337 -1
-14.82258609 -10.38793373 -2
-9.599169743 -18.78484362 -2
-9.599169743 -18.78484362 0
-23.37061834 -19.18052153 -2
-12.21087792 -14.58638868 -2
-9.599169743 -18.78484362 -1
-12.21087792 -14.58638868 -1
-19.09660221 -14.78422763 -2
-16.48489404 -18.98268257 -2
-16.48489404 -18.98268257 -1
-49.21749377 -11.78656805 -2
-35.22885825 -8.708177492 -2
-35.22885825 -8.708177492 0
-39.58959944 -25.83695265 -2
-42.22317601 -10.24737277 -2
-35.22885825 -8.708177492 -1
-42.22317601 -10.24737277 -1
-44.40354661 -18.81176035 -2
-37.40922884 -17.27256507 -2
-37.40922884 -17.27256507 -1
-10.97631886 -4.569077337 0
-7.453252438 0 -2
-5.514209552 -3.8896768 0
-5.514209552 -3.8896768 -2
-9.214785649 -2.284538668 -1
-6.483730995 -1.9448384 -1
-8.245264206 -4.229377068 0
-8.245264206 -4.229377068 -1
-6.483730995 -1.9448384 -2
-5.514209552 -3.8896768 -1
-23.37061834 -19.18052153 0
-12.72304544 -32.86479037 -2
-12.72304544 -32.86479037 0
-28.10264555 -36.10448984 0
-18.04683189 -26.02265595 -1
-12.72304544 -32.86479037 -1
-18.04683189 -26.02265595 0
-25.73663194 -27.64250568 0
-20.4128455 -34.48464011 -1
-20.4128455 -34.48464011 0
-6.562657941 -9.734789696 -2
-0.1635248549 -14.68488354 -2
-6.562657941 -9.734789696 0
-9.599169743 -18.78484362 -2
-3.363091398 -12.20983662 -2
-3.363091398 -12.20983662 -1
-6.562657941 -9.734789696 -1
-8.080913842 -14.25981666 -2
-4.881347299 -16.73486358 -2
-8.080913842 -14.25981666 -1
-17.19268076 -4.215970994 -2
-10.97631886 -4.569077337 -2
-17.19268076 -4.215970994 0
-14.82258609 -10.38793373 0
-14.08449981 -4.392524165 -2
-14.08449981 -4.392524165 -1
-17.19268076 -4.215970994 -1
-16.00763342 -7.301952363 -1
-12.89945247 -7.478505535 -1
-16.00763342 -7.301952363 0
-10.97631886 -4.569077337 0
-14.92273025 0 -2
-17.19268076 -4.215970994 0
-14.92273025 0 0
-12.94952455 -2.284538668 -1
-16.0577055 -2.107985497 -1
-14.08449981 -4.392524165 0
-12.94952455 -2.284538668 0
-14.92273025 0 -1
-16.0577055 -2.107985497 0
-17.19268076 -4.215970994 0
-10.97631886 -4.569077337 -2
-10.97631886 -4.569077337 0
-14.82258609 -10.38793373 0
-14.08449981 -4.392524165 -1
-10.97631886 -4.569077337 -1
-14.08449981 -4.392524165 0
-16.00763342 -7.301952363 0
-12.89945247 -7.478505535 -1
-12.89945247 -7.478505535 0
-6.562657941 -9.734789696 0
-14.82258609 -10.38793373 -2
-6.562657941 -9.734789696 -2
-9.599169743 -18.78484362 -2
-10.69262202 -10.06136171 -1
-10.69262202 -10.06136171 -2
-6.562657941 -9.734789696 -1
-8.080913842 -14.25981666 -1
-12.21087792 -14.58638868 -2
-8.080913842 -14.25981666 -2
-49.21749377 -11.78656805 0
-41.0789911 0 -2
-57.35599644 0 0
-41.0789911 0 0
-45.14824243 -5.893284027 -1
-49.21749377 0 -1
-53.28674511 -5.893284027 0
-45.14824243 -5.893284027 0
-41.0789911 0 -1
-49.21749377 0 0
-9.599169743 -18.78484362 -2
-0.1635248549 -14.68488354 -2
-9.599169743 -18.78484362 0
1.259117512 -26.97648465 0
-4.881347299 -16.73486358 -2
-4.881347299 -16.73486358 -1
-9.599169743 -18.78484362 -1
-4.170026116 -22.88066414 -1
0.5477963283 -20.8306841 -1
-4.170026116 -22.88066414 0
-23.30834065 -7.162864969 0
-29.3787254 0 -2
-35.22885825 -8.708177492 0
-29.3787254 0 0
-26.34353303 -3.581432484 -1
-32.30379182 -4.354088746 -1
-29.26859945 -7.93552123 0
-26.34353303 -3.581432484 0
-29.3787254 0 -1
-32.30379182 -4.354088746 0
-29.3787254 0 -2
-23.30834065 -7.162864969 -2
-23.30834065 -7.162864969 0
-35.22885825 -8.708177492 -2
-26.34353303 -3.581432484 -2
-23.30834065 -7.162864969 -1
-26.34353303 -3.581432484 -1
-32.30379182 -4.354088746 -2
-29.26859945 -7.93552123 -2
-29.26859945 -7.93552123 -1
-20.96831662 0 -2
-17.19268076 -4.215970994 0
-23.30834065 -7.162864969 -2
-17.19268076 -4.215970994 -2
-19.08049869 -2.107985497 -1
-20.25051071 -5.689417981 -1
-22.13832864 -3.581432484 -2
-19.08049869 -2.107985497 -2
-17.19268076 -4.215970994 -1
-20.25051071 -5.689417981 -2
-23.37061834 -19.18052153 0
-39.58959944 -25.83695265 -2
-23.37061834 -19.18052153 -2
-28.10264555 -36.10448984 -2
-31.48010889 -22.50873709 -1
-31.48010889 -22.50873709 -2
-23.37061834 -19.18052153 -1
-25.73663194 -27.64250568 -1
-33.8461225 -30.97072125 -2
-25.73663194 -27.64250568 -2
-28.10264555 -36.10448984 0
-23.37061834 -19.18052153 0
-12.72304544 -32.86479037 -2
-28.10264555 -36.10448984 -2
-25.73663194 -27.64250568 0
-18.04683189 -26.02265595 -1
-20.4128455 -34.48464011 -1
-28.10264555 -36.10448984 -1
-25.73663194 -27.64250568 -1
-20.4128455 -34.48464011 -2
-40 -80 -2
-46.05189097 -50.27120598 -2
-18.77807356 -52.36897868 0
-18.77807356 -52.36897868 -2
-43.02594549 -65.13560299 -2
-32.41498227 -51.32009233 -1
-29.38903678 -66.18448934 -1
-29.38903678 -66.18448934 -2
-32.41498227 -51.32009233 -2
-18.77807356 -52.36897868 -1
-10.97631886 -4.569077337 -2
-5.514209552 -3.8896768 -2
-7.453252438 0 -2
-10.97631886 -4.569077337 0
-8.245264206 -4.229377068 -2
-6.483730995 -1.9448384 -2
-9.214785649 -2.284538668 -2
-10.97631886 -4.569077337 -1
-8.245264206 -4.229377068 -1
-9.214785649 -2.284538668 -1
-0.1635248549 -14.68488354 0
-1.486149823 -6.928202819 -2
-1.486149823 -6.928202819 0
5.906920728 -9.432751709 0
-0.8248373387 -10.80654318 -1
-1.486149823 -6.928202819 -1
-0.8248373387 -10.80654318 0
2.871697937 -12.05881763 0
2.210385453 -8.180477264 -1
2.210385453 -8.180477264 0
-1.486149823 -6.928202819 -2
-0.1635248549 -14.68488354 0
-1.486149823 -6.928202819 0
-6.562657941 -9.734789696 0
-0.8248373387 -10.80654318 -1
-0.8248373387 -10.80654318 0
-1.486149823 -6.928202819 -1
-4.024403882 -8.331496257 -1
-3.363091398 -12.20983662 0
-4.024403882 -8.331496257 0
-6.562657941 -9.734789696 0
-5.514209552 -3.8896768 0
-1.486149823 -6.928202819 -2
-5.514209552 -3.8896768 -2
-6.038433746 -6.812233248 0
-3.500179687 -5.408939809 -1
-4.024403882 -8.331496257 -1
-6.038433746 -6.812233248 -1
-5.514209552 -3.8896768 -1
-3.500179687 -5.408939809 -2
-9.599169743 -18.78484362 0
-23.37061834 -19.18052153 0
-14.82258609 -10.38793373 0
-23.37061834 -19.18052153 -2
-16.48489404 -18.98268257 0
-19.09660221 -14.78422763 0
-12.21087792 -14.58638868 0
-16.48489404 -18.98268257 -1
-23.37061834 -19.18052153 -1
-19.09660221 -14.78422763 -1
-5.514209552 -3.8896768 -2
-6.562657941 -9.734789696 0
-10.97631886 -4.569077337 -2
-6.562657941 -9.734789696 -2
-6.038433746 -6.812233248 -1
-8.7694884 -7.151933516 -1
-8.245264206 -4.229377068 -2
-6.038433746 -6.812233248 -2
-6.562657941 -9.734789696 -1
-8.7694884 -7.151933516 -2
-10.97631886 -4.569077337 -2
-6.562657941 -9.734789696 -2
-6.562657941 -9.734789696 0
-14.82258609 -10.38793373 -2
-8.7694884 -7.151933516 -2
-6.562657941 -9.734789696 -1
-8.7694884 -7.151933516 -1
-12.89945247 -7.478505535 -2
-10.69262202 -10.06136171 -2
-10.69262202 -10.06136171 -1
-23.37061834 -19.18052153 0
-35.22885825 -8.708177492 0
-39.58959944 -25.83695265 -2
-39.58959944 -25.83695265 0
-29.29973829 -13.94434951 0
-37.40922884 -17.27256507 -1
-31.48010889 -22.50873709 -1
-31.48010889 -22.50873709 0
-37.40922884 -17.27256507 0
-39.58959944 -25.83695265 -1
1.259117512 -26.97648465 0
-0.1635248549 -14.68488354 -2
-0.1635248549 -14.68488354 0
8.259621265 -18.55504219 0
0.5477963283 -20.8306841 -1
-0.1635248549 -14.68488354 -1
0.5477963283 -20.8306841 0
4.759369388 -22.76576342 0
4.048048205 -16.61996287 -1
4.048048205 -16.61996287 0
-10.97631886 -4.569077337 0
-5.514209552 -3.8896768 0
-7.453252438 0 -2
-7.453252438 0 0
-8.245264206 -4.229377068 0
-6.483730995 -1.9448384 -1
-9.214785649 -2.284538668 -1
-9.214785649 -2.284538668 0
-6.483730995 -1.9448384 0
-7.453252438 0 -1
-20.96831662 0 -2
-29.3787254 0 0
-29.3787254 0 -2
-23.30834065 -7.162864969 0
-25.17352101 0 -1
-29.3787254 0 -1
-25.17352101 0 -2
-22.13832864 -3.581432484 -1
-26.34353303 -3.581432484 0
-26.34353303 -3.581432484 -1
-6.562657941 -9.734789696 0
-9.599169743 -18.78484362 0
-0.1635248549 -14.68488354 -2
-0.1635248549 -14.68488354 0
-8.080913842 -14.25981666 0
-4.881347299 -16.73486358 -1
-3.363091398 -12.20983662 -1
-3.363091398 -12.20983662 0
-4.881347299 -16.73486358 0
-0.1635248549 -14.68488354 -1
-41.0789911 0 0
-49.21749377 -11.78656805 0
-41.0789911 0 -2
-35.22885825 -8.708177492 0
-45.14824243 -5.893284027 0
-45.14824243 -5.893284027 -1
-41.0789911 0 -1
-38.15392467 -4.354088746 0
-42.22317601 -10.24737277 0
-38.15392467 -4.354088746 -1
-23.30834065 -7.162864969 0
-29.3787254 0 -2
-20.96831662 0 -2
-23.30834065 -7.162864969 -2
-26.34353303 -3.581432484 -1
-25.17352101 0 -2
-22.13832864 -3.581432484 -1
-23.30834065 -7.162864969 -1
-26.34353303 -3.581432484 -2
-22.13832864 -3.581432484 -2
-17.19268076 -4.215970994 0
-20.96831662 0 -2
-23.30834065 -7.162864969 0
-20.96831662 0 0
-19.08049869 -2.107985497 -1
-22.13832864 -3.581432484 -1
-20.25051071 -5.689417981 0
-19.08049869 -2.107985497 0
-20.96831662 0 -1
-22.13832864 -3.581432484 0
-12.72304544 -32.86479037 0
-12.72304544 -32.86479037 -2
-9.599169743 -18.78484362 0
1.259117512 -26.97648465 0
-12.72304544 -32.86479037 -1
-11.16110759 -25.82481699 -1
-11.16110759 -25.82481699 0
-5.731963965 -29.92063751 0
-5.731963965 -29.92063751 -1
-4.170026116 -22.88066414 0
-6.562657941 -9.734789696 0
-14.82258609 -10.38793373 -2
-9.599169743 -18.78484362 0
-14.82258609 -10.38793373 0
-10.69262202 -10.06136171 -1
-12.21087792 -14.58638868 -1
-8.080913842 -14.25981666 0
-10.69262202 -10.06136171 0
-14.82258609 -10.38793373 -1
-12.21087792 -14.58638868 0
-17.19268076 -4.215970994 0
-20.96831662 0 -2
-14.92273025 0 -2
-17.19268076 -4.215970994 -2
-19.08049869 -2.107985497 -1
-17.94552343 0 -2
-16.0577055 -2.107985497 -1
-17.19268076 -4.215970994 -1
-19.08049869 -2.107985497 -2
-16.0577055 -2.107985497 -2
-0.1635248549 -14.68488354 -2
-6.562657941 -9.734789696 0
-1.486149823 -6.928202819 -2
-6.562657941 -9.734789696 -2
-3.363091398 -12.20983662 -1
-4.024403882 -8.331496257 -1
-0.8248373387 -10.80654318 -2
-3.363091398 -12.20983662 -2
-6.562657941 -9.734789696 -1
-4.024403882 -8.331496257 -2
-23.37061834 -19.18052153 0
-23.30834065 -7.162864969 0
-14.82258609 -10.38793373 0
-23.37061834 -19.18052153 -2
-23.3394795 -13.17169325 0
-19.06546337 -8.775399351 0
-19.09660221 -14.78422763 0
-23.37061834 -19.18052153 -1
-23.3394795 -13.17169325 -1
-19.09660221 -14.78422763 -1
-41.0789911 0 -2
-35.22885825 -8.708177492 0
-49.21749377 -11.78656805 -2
-35.22885825 -8.708177492 -2
-38.15392467 -4.354088746 -1
-42.22317601 -10.24737277 -1
-45.14824243 -5.893284027 -2
-38.15392467 -4.354088746 -2
-35.22885825 -8.708177492 -1
-42.22317601 -10.24737277 -2
-35.22885825 -8.708177492 0
-41.0789911 0 -2
-29.3787254 0 0
-29.3787254 0 -2
-38.15392467 -4.354088746 -1
-35.22885825 0 -1
-32.30379182 -4.354088746 0
-32.30379182 -4.354088746 -1
-35.22885825 0 -2
-29.3787254 0 -1
-17.19268076 -4.215970994 0
-14.92273025 0 -2
-20.96831662 0 0
-14.92273025 0 0
-16.0577055 -2.107985497 -1
-17.94552343 0 -1
-19.08049869 -2.107985497 0
-16.0577055 -2.107985497 0
-14.92273025 0 -1
-17.94552343 0 0
-35.22885825 -8.708177492 0
-49.21749377 -11.78656805 0
-41.0789911 0 -2
-49.21749377 -11.78656805 -2
-42.22317601 -10.24737277 0
-45.14824243 -5.893284027 -1
-38.15392467 -4.354088746 -1
-42.22317601 -10.24737277 -1
-49.21749377 -11.78656805 -1
-45.14824243 -5.893284027 -2
-18.77807356 -52.36897868 0
-46.05189097 -50.27120598 -2
-28.10264555 -36.10448984 0
-28.10264555 -36.10448984 -2
-32.41498227 -51.32009233 -1
-37.07726826 -43.18784791 -1
-23.44035956 -44.23673426 0
-23.44035956 -44.23673426 -1
-37.07726826 -43.18784791 -2
-28.10264555 -36.10448984 -1
-18.77807356 -52.36897868 0
-12.72304544 -32.86479037 -2
-28.10264555 -36.10448984 0
-12.72304544 -32.86479037 0
-15.7505595 -42.61688453 -1
-20.4128455 -34.48464011 -1
-23.44035956 -44.23673426 0
-15.7505595 -42.61688453 0
-12.72304544 -32.86479037 -1
-20.4128455 -34.48464011 0
-6.562657941 -9.734789696 0
-0.1635248549 -14.68488354 -2
-9.599169743 -18.78484362 0
-9.599169743 -18.78484362 -2
-3.363091398 -12.20983662 -1
-4.881347299 -16.73486358 -1
-8.080913842 -14.25981666 0
-8.080913842 -14.25981666 -1
-4.881347299 -16.73486358 -2
-9.599169743 -18.78484362 -1
-6.562657941 -9.734789696 0
-1.486149823 -6.928202819 -2
-5.514209552 -3.8896768 0
-1.486149823 -6.928202819 0
-4.024403882 -8.331496257 -1
-3.500179687 -5.408939809 -1
-6.038433746 -6.812233248 0
-4.024403882 -8.331496257 0
-1.486149823 -6.928202819 -1
-3.500179687 -5.408939809 0
-23.30834065 -7.162864969 -2
-17.19268076 -4.215970994 0
-23.30834065 -7.162864969 0
-14.82258609 -10.38793373 0
-20.25051071 -5.689417981 -1
-20.25051071 -5.689417981 0
-23.30834065 -7.162864969 -1
-19.06546337 -8.775399351 -1
-16.00763342 -7.301952363 0
-19.06546337 -8.775399351 0
-6.562657941 -9.734789696 0
-9.599169743 -18.78484362 0
-14.82258609 -10.38793373 -2
-9.599169743 -18.78484362 -2
-8.080913842 -14.25981666 0
-12.21087792 -14.58638868 -1
-10.69262202 -10.06136171 -1
-8.080913842 -14.25981666 -1
-9.599169743 -18.78484362 -1
-12.21087792 -14.58638868 -2
-6.562657941 -9.734789696 0
-14.82258609 -10.38793373 0
-10.97631886 -4.569077337 -2
-14.82258609 -10.38793373 -2
-10.69262202 -10.06136171 0
-12.89945247 -7.478505535 -1
-8.7694884 -7.151933516 -1
-10.69262202 -10.06136171 -1
-14.82258609 -10.38793373 -1
-12.89945247 -7.478505535 -2
-14.82258609 -10.38793373 0
-23.30834065 -7.162864969 -2
-17.19268076 -4.215970994 -2
-14.82258609 -10.38793373 -2
-19.06546337 -8.775399351 -1
-20.25051071 -5.689417981 -2
-16.00763342 -7.301952363 -1
-14.82258609 -10.38793373 -1
-19.06546337 -8.775399351 -2
-16.00763342 -7.301952363 -2
-23.30834065 -7.162864969 0
-35.22885825 -8.708177492 0
-29.3787254 0 -2
-35.22885825 -8.708177492 -2
-29.26859945 -7.93552123 0
-32.30379182 -4.354088746 -1
-26.34353303 -3.581432484 -1
-29.26859945 -7.93552123 -1
-35.22885825 -8.708177492 -1
-32.30379182 -4.354088746 -2
-18.77807356 -52.36897868 0
-28.10264555 -36.10448984 0
-12.72304544 -32.86479037 -2
-28.10264555 -36.10448984 -2
-23.44035956 -44.23673426 0
-20.4128455 -34.48464011 -1
-15.7505595 -42.61688453 -1
-23.44035956 -44.23673426 -1
-28.10264555 -36.10448984 -1
-20.4128455 -34.48464011 -2
5.906920728 -9.432751709 0
-0.1635248549 -14.68488354 -2
8.259621265 -18.55504219 0
-0.1635248549 -14.68488354 0
2.871697937 -12.05881763 -1
4.048048205 -16.61996287 -1
7.083270997 -13.99389695 0
2.871697937 -12.05881763 0
-0.1635248549 -14.68488354 -1
4.048048205 -16.61996287 0
-17.19268076 -4.215970994 0
-20.96831662 0 0
-14.92273025 0 -2
-20.96831662 0 -2
-19.08049869 -2.107985497 0
-17.94552343 0 -1
-16.0577055 -2.107985497 -1
-19.08049869 -2.107985497 -1
-20.96831662 0 -1
-17.94552343 0 -2
-80 0 -2
-57.35599644 0 0
-64.85093541 -15.58550524 -2
-57.35599644 0 -2
-68.67799822 0 -1
-61.10346593 -7.792752621 -1
-72.4254677 -7.792752621 -2
-68.67799822 0 -2
-57.35599644 0 -1
-61.10346593 -7.792752621 -2
-1.486149823 -6.928202819 -2
-0.1635248549 -14.68488354 0
-0.1635248549 -14.68488354 -2
5.906920728 -9.432751709 0
-0.8248373387 -10.80654318 -1
-0.1635248549 -14.68488354 -1
-0.8248373387 -10.80654318 -2
2.210385453 -8.180477264 -1
2.871697937 -12.05881763 0
2.871697937 -12.05881763 -1
-0.1635248549 -14.68488354 -2
-0.1635248549 -14.68488354 0
-1.486149823 -6.928202819 -2
-6.562657941 -9.734789696 0
-0.1635248549 -14.68488354 -1
-0.8248373387 -10.80654318 -1
-0.8248373387 -10.80654318 -2
-3.363091398 -12.20983662 -1
-3.363091398 -12.20983662 0
-4.024403882 -8.331496257 -1
-1.486149823 -6.928202819 -2
-6.562657941 -9.734789696 0
-5.514209552 -3.8896768 -2
-6.562657941 -9.734789696 -2
-4.024403882 -8.331496257 -1
-6.038433746 -6.812233248 -1
-3.500179687 -5.408939809 -2
-4.024403882 -8.331496257 -2
-6.562657941 -9.734789696 -1
-6.038433746 -6.812233248 -2
-14.82258609 -10.38793373 0
-17.19268076 -4.215970994 -2
-10.97631886 -4.569077337 -2
-14.82258609 -10.38793373 -2
-16.00763342 -7.301952363 -1
-14.08449981 -4.392524165 -2
-12.89945247 -7.478505535 -1
-14.82258609 -10.38793373 -1
-16.00763342 -7.301952363 -2
-12.89945247 -7.478505535 -2
-35.22885825 -8.708177492 0
-29.3787254 0 0
-41.0789911 0 -2
-41.0789911 0 0
-32.30379182 -4.354088746 0
-35.22885825 0 -1
-38.15392467 -4.354088746 -1
-38.15392467 -4.354088746 0
-35.22885825 0 0
-41.0789911 0 -1
-20.96831662 0 -2
-23.30834065 -7.162864969 -2
-17.19268076 -4.215970994 0
-23.30834065 -7.162864969 0
-22.13832864 -3.581432484 -2
-20.25051071 -5.689417981 -1
-19.08049869 -2.107985497 -1
-22.13832864 -3.581432484 -1
-23.30834065 -7.162864969 -1
-20.25051071 -5.689417981 0
-5.514209552 -3.8896768 0
-3.593728995 0 0
-7.453252438 0 -2
-7.453252438 0 0
-4.553969273 -1.9448384 0
-5.523490716 0 -1
-6.483730995 -1.9448384 -1
-6.483730995 -1.9448384 0
-5.523490716 0 0
-7.453252438 0 -1
-46.05189097 -50.27120598 -2
-18.77807356 -52.36897868 -2
-28.10264555 -36.10448984 -2
-18.77807356 -52.36897868 0
-32.41498227 -51.32009233 -2
-23.44035956 -44.23673426 -2
-37.07726826 -43.18784791 -2
-32.41498227 -51.32009233 -1
-18.77807356 -52.36897868 -1
-23.44035956 -44.23673426 -1
-35.22885825 -8.708177492 0
-41.0789911 0 -2
-29.3787254 0 -2
-35.22885825 -8.708177492 -2
-38.15392467 -4.354088746 -1
-35.22885825 0 -2
-32.30379182 -4.354088746 -1
-35.22885825 -8.708177492 -1
-38.15392467 -4.354088746 -2
-32.30379182 -4.354088746 -2
-28.10264555 -36.10448984 -2
-12.72304544 -32.86479037 -2
-18.77807356 -52.36897868 0
-18.77807356 -52.36897868 -2
-20.4128455 -34.48464011 -2
-15.7505595 -42.61688453 -1
-23.44035956 -44.23673426 -1
-23.44035956 -44.23673426 -2
-15.7505595 -42.61688453 -2
-18.77807356 -52.36897868 -1
-18.77807356 -52.36897868 0
-28.10264555 -36.10448984 0
-46.05189097 -50.27120598 -2
-46.05189097 -50.27120598 0
-23.44035956 -44.23673426 0
-37.07726826 -43.18784791 -1
-32.41498227 -51.32009233 -1
-32.41498227 -51.32009233 0
-37.07726826 -43.18784791 0
-46.05189097 -50.27120598 -1
-39.58959944 -25.83695265 0
-46.05189097 -50.27120598 -2
-28.10264555 -36.10448984 0
-46.05189097 -50.27120598 0
-42.82074521 -38.05407932 -1
-37.07726826 -43.18784791 -1
-33.8461225 -30.97072125 0
-42.82074521 -38.05407932 0
-46.05189097 -50.27120598 -1
-37.07726826 -43.18784791 0
-46.05189097 -50.27120598 -2
-39.58959944 -25.83695265 0
-56.10009327 -28.46376564 0
-46.05189097 -50.27120598 0
-42.82074521 -38.05407932 -1
-47.84484636 -27.15035914 0
-51.07599212 -39.36748581 -1
-46.05189097 -50.27120598 -1
-42.82074521 -38.05407932 0
-51.07599212 -39.36748581 0
-80 0 0
-57.35599644 0 0
-64.85093541 -15.58550524 -2
-80 0 -2
-68.67799822 0 0
-61.10346593 -7.792752621 -1
-72.4254677 -7.792752621 -1
-80 0 -1
-68.67799822 0 -1
-72.4254677 -7.792752621 -2
-64.85093541 -15.58550524 -2
-57.35599644 0 0
-80 0 0
-64.85093541 -15.58550524 0
-61.10346593 -7.792752621 -1
-68.67799822 0 0
-72.4254677 -7.792752621 -1
-64.85093541 -15.58550524 -1
-61.10346593 -7.792752621 0
-72.4254677 -7.792752621 0
-64.85093541 -15.58550524 -2
-80 -40 -2
-80 0 0
-80 0 -2
-72.4254677 -27.79275262 -2
-80 -20 -1
-72.4254677 -7.792752621 -1
-72.4254677 -7.792752621 -2
-80 -20 -2
-80 0 -1
-80 0 0
-80 -40 -2
-64.85093541 -15.58550524 -2
-64.85093541 -15.58550524 0
-80 -20 -1
-72.4254677 -27.79275262 -2
-72.4254677 -7.792752621 -1
-72.4254677 -7.792752621 0
-72.4254677 -27.79275262 -1
-64.85093541 -15.58550524 -1
-80 -80 0
-46.05189097 -50.27120598 -2
-40 -80 -2
-80 -80 -2
-63.02594549 -65.13560299 -1
-43.02594549 -65.13560299 -2
-60 -80 -1
-80 -80 -1
-63.02594549 -65.13560299 -2
-60 -80 -2
-46.05189097 -50.27120598 -2
-80 -80 0
-80 -40 -2
-80 -80 -2
-63.02594549 -65.13560299 -1
-80 -60 -1
-63.02594549 -45.13560299 -2
-63.02594549 -65.13560299 -2
-80 -80 -1
-80 -60 -2
-35.22885825 -8.708177492 0
-39.58959944 -25.83695265 -2
-23.37061834 -19.18052153 -2
-23.37061834 -19.18052153 0
-37.40922884 -17.27256507 -1
-31.48010889 -22.50873709 -2
-29.29973829 -13.94434951 -1
-29.29973829 -13.94434951 0
-31.48010889 -22.50873709 -1
-23.37061834 -19.18052153 -1
-23.37061834 -19.18052153 -2
-39.58959944 -25.83695265 -2
-35.22885825 -8.708177492 0
-35.22885825 -8.708177492 -2
-31.48010889 -22.50873709 -2
-37.40922884 -17.27256507 -1
-29.29973829 -13.94434951 -1
-29.29973829 -13.94434951 -2
-37.40922884 -17.27256507 -2
-35.22885825 -8.708177492 -1
-23.37061834 -19.18052153 -2
-23.30834065 -7.162864969 0
-35.22885825 -8.708177492 0
-23.37061834 -19.18052153 0
-23.3394795 -13.17169325 -1
-29.26859945 -7.93552123 0
-29.29973829 -13.94434951 -1
-23.37061834 -19.18052153 -1
-23.3394795 -13.17169325 0
-29.29973829 -13.94434951 0
-35.22885825 -8.708177492 0
-23.30834065 -7.162864969 0
-23.37061834 -19.18052153 -2
-35.22885825 -8.708177492 -2
-29.26859945 -7.93552123 0
-23.3394795 -13.17169325 -1
-29.29973829 -13.94434951 -1
-35.22885825 -8.708177492 -1
-29.26859945 -7.93552123 -1
-29.29973829 -13.94434951 -2
-39.58959944 -25.83695265 0
-35.22885825 -8.708177492 0
-49.21749377 -11.78656805 -2
-49.21749377 -11.78656805 0
-37.40922884 -17.27256507 0
-42.22317601 -10.24737277 -1
-44.40354661 -18.81176035 -1
-44.40354661 -18.81176035 0
-42.22317601 -10.24737277 0
-49.21749377 -11.78656805 -1
-49.21749377 -11.78656805 -2
-35.22885825 -8.708177492 0
-39.58959944 -25.83695265 0
-39.58959944 -25.83695265 -2
-42.22317601 -10.24737277 -1
-37.40922884 -17.27256507 0
-44.40354661 -18.81176035 -1
-44.40354661 -18.81176035 -2
-37.40922884 -17.27256507 -1
-39.58959944 -25.83695265 -1
-49.21749377 -11.78656805 -2
-56.10009327 -28.46376564 0
-39.58959944 -25.83695265 0
-49.21749377 -11.78656805 0
-52.65879352 -20.12516685 -1
-47.84484636 -27.15035914 0
-44.40354661 -18.81176035 -1
-49.21749377 -11.78656805 -1
-52.65879352 -20.12516685 0
-44.40354661 -18.81176035 0
-46.05189097 -50.27120598 -2
-80 -80 0
-80 -40 0
-80 -40 -2
-63.02594549 -65.13560299 -1
-80 -60 0
-63.02594549 -45.13560299 -1
-63.02594549 -45.13560299 -2
-80 -60 -1
-80 -40 -1
-80 -40 0
-80 -80 0
-46.05189097 -50.27120598 -2
-46.05189097 -50.27120598 0
-80 -60 0
-63.02594549 -65.13560299 -1
-63.02594549 -45.13560299 -1
-63.02594549 -45.13560299 0
-63.02594549 -65.13560299 0
-46.05189097 -50.27120598 -1
-46.05189097 -50.27120598 -2
-56.10009327 -28.46376564 0
-80 -40 0
-46.05189097 -50.27120598 0
-51.07599212 -39.36748581 -1
-68.05004664 -34.23188282 0
-63.02594549 -45.13560299 -1
-46.05189097 -50.27120598 -1
-51.07599212 -39.36748581 0
-63.02594549 -45.13560299 0
-57.35599644 0 0
-49.21749377 -11.78656805 -2
-64.85093541 -15.58550524 -2
-57.35599644 0 -2
-53.28674511 -5.893284027 -1
-57.03421459 -13.68603665 -2
-61.10346593 -7.792752621 -1
-57.35599644 0 -1
-53.28674511 -5.893284027 -2
-61.10346593 -7.792752621 -2
-49.21749377 -11.78656805 -2
-57.35599644 0 0
-41.0789911 0 -2
-57.35599644 0 -2
-53.28674511 -5.893284027 -1
-49.21749377 0 -1
-45.14824243 -5.893284027 -2
-53.28674511 -5.893284027 -2
-57.35599644 0 -1
-49.21749377 0 -2
-57.35599644 0 0
-49.21749377 -11.78656805 -2
-41.0789911 0 -2
-49.21749377 -11.78656805 0
-53.28674511 -5.893284027 -1
-45.14824243 -5.893284027 -2
-49.21749377 0 -1
-53.28674511 -5.893284027 0
-49.21749377 -11.78656805 -1
-45.14824243 -5.893284027 -1
-46.05189097 -50.27120598 -2
-80 -80 0
-40 -80 0
-46.05189097 -50.27120598 0
-63.02594549 -65.13560299 -1
-60 -80 0
-43.02594549 -65.13560299 -1
-46.05189097 -50.27120598 -1
-63.02594549 -65.13560299 0
-43.02594549 -65.13560299 0
-40 -80 0
-80 -80 0
-46.05189097 -50.27120598 -2
-40 -80 -2
-60 -80 0
-63.02594549 -65.13560299 -1
-43.02594549 -65.13560299 -1
-40 -80 -1
-60 -80 -1
-43.02594549 -65.13560299 -2
-40 -80 0
-18.77807356 -52.36897868 0
-46.05189097 -50.27120598 -2
-46.05189097 -50.27120598 0
-29.38903678 -66.18448934 0
-32.41498227 -51.32009233 -1
-43.02594549 -65.13560299 -1
-43.02594549 -65.13560299 0
-32.41498227 -51.32009233 0
-46.05189097 -50.27120598 -1
-46.05189097 -50.27120598 -2
-18.77807356 -52.36897868 0
-40 -80 0
-40 -80 -2
-32.41498227 -51.32009233 -1
-29.38903678 -66.18448934 0
-43.02594549 -65.13560299 -1
-43.02594549 -65.13560299 -2
-29.38903678 -66.18448934 -1
-40 -80 -1
-39.58959944 -25.83695265 0
-46.05189097 -50.27120598 -2
-28.10264555 -36.10448984 -2
-28.10264555 -36.10448984 0
-42.82074521 -38.05407932 -1
-37.07726826 -43.18784791 -2
-33.8461225 -30.97072125 -1
-33.8461225 -30.97072125 0
-37.07726826 -43.18784791 -1
-28.10264555 -36.10448984 -1
-28.10264555 -36.10448984 -2
-46.05189097 -50.27120598 -2
-39.58959944 -25.83695265 0
-39.58959944 -25.83695265 -2
-37.07726826 -43.18784791 -2
-42.82074521 -38.05407932 -1
-33.8461225 -30.97072125 -1
-33.8461225 -30.97072125 -2
-42.82074521 -38.05407932 -2
-39.58959944 -25.83695265 -1
-28.10264555 -36.10448984 -2
-23.37061834 -19.18052153 0
-39.58959944 -25.83695265 0
-28.10264555 -36.10448984 0
-25.73663194 -27.64250568 -1
-31.48010889 -22.50873709 0
-33.8461225 -30.97072125 -1
-28.10264555 -36.10448984 -1
-25.73663194 -27.64250568 0
-33.8461225 -30.97072125 0
-39.58959944 -25.83695265 0
-23.37061834 -19.18052153 0
-28.10264555 -36.10448984 -2
-39.58959944 -25.83695265 -2
-31.48010889 -22.50873709 0
-25.73663194 -27.64250568 -1
-33.8461225 -30.97072125 -1
-39.58959944 -25.83695265 -1
-31.48010889 -22.50873709 -1
-33.8461225 -30.97072125 -2
-56.10009327 -28.46376564 -2
-49.21749377 -11.78656805 -2
-39.58959944 -25.83695265 0
-39.58959944 -25.83695265 -2
-52.65879352 -20.12516685 -2
-44.40354661 -18.81176035 -1
-47.84484636 -27.15035914 -1
-47.84484636 -27.15035914 -2
-44.40354661 -18.81176035 -2
-39.58959944 -25.83695265 -1
-39.58959944 -25.83695265 0
-49.21749377 -11.78656805 -2
-56.10009327 -28.46376564 -2
-56.10009327 -28.46376564 0
-44.40354661 -18.81176035 -1
-52.65879352 -20.12516685 -2
-47.84484636 -27.15035914 -1
-47.84484636 -27.15035914 0
-52.65879352 -20.12516685 -1
-56.10009327 -28.46376564 -1
-39.58959944 -25.83695265 0
-46.05189097 -50.27120598 -2
-56.10009327 -28.46376564 -2
-39.58959944 -25.83695265 -2
-42.82074521 -38.05407932 -1
-51.07599212 -39.36748581 -2
-47.84484636 -27.15035914 -1
-39.58959944 -25.83695265 -1
-42.82074521 -38.05407932 -2
-47.84484636 -27.15035914 -2
-56.10009327 -28.46376564 -2
-46.05189097 -50.27120598 -2
-39.58959944 -25.83695265 0
-56.10009327 -28.46376564 0
-51.07599212 -39.36748581 -2
-42.82074521 -38.05407932 -1
-47.84484636 -27.15035914 -1
-56.10009327 -28.46376564 -1
-51.07599212 -39.36748581 -1
-47.84484636 -27.15035914 0
-49.21749377 -11.78656805 -2
-64.85093541 -15.58550524 0
-56.10009327 -28.46376564 0
-49.21749377 -11.78656805 0
-57.03421459 -13.68603665 -1
-60.47551434 -22.02463544 0
-52.65879352 -20.12516685 -1
-49.21749377 -11.78656805 -1
-57.03421459 -13.68603665 0
-52.65879352 -20.12516685 0
-49.21749377 -11.78656805 -2
-64.85093541 -15.58550524 0
-57.35599644 0 0
-64.85093541 -15.58550524 -2
-57.03421459 -13.68603665 -1
-61.10346593 -7.792752621 0
-53.28674511 -5.893284027 -1
-57.03421459 -13.68603665 -2
-64.85093541 -15.58550524 -1
-61.10346593 -7.792752621 -1
-64.85093541 -15.58550524 0
-49.21749377 -11.78656805 -2
-57.35599644 0 0
-49.21749377 -11.78656805 0
-57.03421459 -13.68603665 -1
-53.28674511 -5.893284027 -1
-61.10346593 -7.792752621 0
-57.03421459 -13.68603665 0
-49.21749377 -11.78656805 -1
-53.28674511 -5.893284027 0
-64.85093541 -15.58550524 0
-56.10009327 -28.46376564 -2
-80 -40 -2
-64.85093541 -15.58550524 -2
-60.47551434 -22.02463544 -1
-68.05004664 -34.23188282 -2
-72.4254677 -27.79275262 -1
-64.85093541 -15.58550524 -1
-60.47551434 -22.02463544 -2
-72.4254677 -27.79275262 -2
-56.10009327 -28.46376564 -2
-64.85093541 -15.58550524 0
-49.21749377 -11.78656805 -2
-64.85093541 -15.58550524 -2
-60.47551434 -22.02463544 -1
-57.03421459 -13.68603665 -1
-52.65879352 -20.12516685 -2
-60.47551434 -22.02463544 -2
-64.85093541 -15.58550524 -1
-57.03421459 -13.68603665 -2
-64.85093541 -15.58550524 0
-56.10009327 -28.46376564 -2
-49.21749377 -11.78656805 -2
-56.10009327 -28.46376564 0
-60.47551434 -22.02463544 -1
-52.65879352 -20.12516685 -2
-57.03421459 -13.68603665 -1
-60.47551434 -22.02463544 0
-56.10009327 -28.46376564 -1
-52.65879352 -20.12516685 -1
-80 -40 0
-56.10009327 -28.46376564 -2
-64.85093541 -15.58550524 0
-56.10009327 -28.46376564 0
-68.05004664 -34.23188282 -1
-60.47551434 -22.02463544 -1
-72.4254677 -27.79275262 0
-68.05004664 -34.23188282 0
-56.10009327 -28.46376564 -1
-60.47551434 -22.02463544 0
-56.10009327 -28.46376564 -2
-80 -40 0
-64.85093541 -15.58550524 0
-80 -40 -2
-68.05004664 -34.23188282 -1
-72.4254677 -27.79275262 0
-60.47551434 -22.02463544 -1
-68.05004664 -34.23188282 -2
-80 -40 -1
-72.4254677 -27.79275262 -1
-56.10009327 -28.46376564 -2
-80 -40 0
-46.05189097 -50.27120598 -2
-56.10009327 -28.46376564 0
-68.05004664 -34.23188282 -1
-63.02594549 -45.13560299 -1
-51.07599212 -39.36748581 -2
-56.10009327 -28.46376564 -1
-68.05004664 -34.23188282 0
-51.07599212 -39.36748581 -1
-80 -40 0
-56.10009327 -28.46376564 -2
-46.05189097 -50.27120598 -2
-80 -40 -2
-68.05004664 -34.23188282 -1
-51.07599212 -39.36748581 -2
-63.02594549 -45.13560299 -1
-80 -40 -1
-68.05004664 -34.23188282 -2
-63.02594549 -45.13560299 -2
-64.85093541 -15.58550524 -2
-80 -40 -2
-80 0 -2
-80 -40 -3.4
-72.4254677 -27.79275262 -2
-80 -20 -2
-72.4254677 -7.792752621 -2
-72.4254677 -27.79275262 -2.7
-80 -40 -2.7
-80 -20 -2.7
-80 -40 -3.4
-46.05189097 -50.27120598 -3.4
-80 -40 -2
-80 -80 -3.4
-63.02594549 -45.13560299 -3.4
-63.02594549 -45.13560299 -2.7
-80 -40 -2.7
-80 -60 -3.4
-63.02594549 -65.13560299 -3.4
-80 -60 -2.7
-18.77807356 -52.36897868 -2
-40 -80 -2
0 -80 -3.4
0 -80 -2
-29.38903678 -66.18448934 -2
-20 -80 -2.7
-9.389036782 -66.18448934 -2.7
-9.389036782 -66.18448934 -2
-20 -80 -2
0 -80 -2.7
-40 -80 -3.4
-46.05189097 -50.27120598 -3.4
-80 -80 -2
-40 -80 -2
-43.02594549 -65.13560299 -3.4
-63.02594549 -65.13560299 -2.7
-60 -80 -2.7
-40 -80 -2.7
-43.02594549 -65.13560299 -2.7
-60 -80 -2
-80 -80 -2
-80 -40 -2
-46.05189097 -50.27120598 -3.4
-80 -80 -3.4
-80 -60 -2
-63.02594549 -45.13560299 -2.7
-63.02594549 -65.13560299 -2.7
-80 -80 -2.7
-80 -60 -2.7
-63.02594549 -65.13560299 -3.4
-80 -80 -2
-46.05189097 -50.27120598 -3.4
-80 -40 -2
-46.05189097 -50.27120598 -2
-63.02594549 -65.13560299 -2.7
-63.02594549 -45.13560299 -2.7
-80 -60 -2
-63.02594549 -65.13560299 -2
-46.05189097 -50.27120598 -2.7
-63.02594549 -45.13560299 -2
-12.72304544 -32.86479037 -2
-23.37061834 -19.18052153 -3.4
-9.599169743 -18.78484362 -2
-9.599169743 -18.78484362 -3.4
-18.04683189 -26.02265595 -2.7
-16.48489404 -18.98268257 -2.7
-11.16110759 -25.82481699 -2
-11.16110759 -25.82481699 -2.7
-16.48489404 -18.98268257 -3.4
-9.599169743 -18.78484362 -2.7
-14.92273025 0 -3.4
-7.453252438 0 -3.4
-10.97631886 -4.569077337 -2
-10.97631886 -4.569077337 -3.4
-11.18799134 0 -3.4
-9.214785649 -2.284538668 -2.7
-12.94952455 -2.284538668 -2.7
-12.94952455 -2.284538668 -3.4
-9.214785649 -2.284538668 -3.4
-10.97631886 -4.569077337 -2.7
-46.05189097 -50.27120598 -2
-40 -80 -2
-80 -80 -2
-46.05189097 -50.27120598 -3.4
-43.02594549 -65.13560299 -2
-60 -80 -2
-63.02594549 -65.13560299 -2
-46.05189097 -50.27120598 -2.7
-43.02594549 -65.13560299 -2.7
-63.02594549 -65.13560299 -2.7
-80 -80 -2
-80 -80 -3.4
-46.05189097 -50.27120598 -3.4
-40 -80 -3.4
-80 -80 -2.7
-63.02594549 -65.13560299 -3.4
-63.02594549 -65.13560299 -2.7
-60 -80 -2.7
-60 -80 -3.4
-43.02594549 -65.13560299 -3.4
-7.453252438 0 -3.4
-7.453252438 0 -2
-14.92273025 0 -3.4
-10.97631886 -4.569077337 -2
-7.453252438 0 -2.7
-11.18799134 0 -2.7
-11.18799134 0 -3.4
-9.214785649 -2.284538668 -2.7
-9.214785649 -2.284538668 -2
-12.94952455 -2.284538668 -2.7
-10.97631886 -4.569077337 -2
-7.453252438 0 -2
-14.92273025 0 -3.4
-14.92273025 0 -2
-9.214785649 -2.284538668 -2
-11.18799134 0 -2.7
-12.94952455 -2.284538668 -2.7
-12.94952455 -2.284538668 -2
-11.18799134 0 -2
-14.92273025 0 -2.7
-12.72304544 -32.86479037 -2
-9.599169743 -18.78484362 -2
-23.37061834 -19.18052153 -3.4
-23.37061834 -19.18052153 -2
-11.16110759 -25.82481699 -2
-16.48489404 -18.98268257 -2.7
-18.04683189 -26.02265595 -2.7
-18.04683189 -26.02265595 -2
-16.48489404 -18.98268257 -2
-23.37061834 -19.18052153 -2.7
-5.514209552 -3.8896768 -2
-10.97631886 -4.569077337 -3.4
-5.514209552 -3.8896768 -3.4
-6.562657941 -9.734789696 -2
-8.245264206 -4.229377068 -2.7
-8.245264206 -4.229377068 -3.4
-5.514209552 -3.8896768 -2.7
-6.038433746 -6.812233248 -2
-8.7694884 -7.151933516 -2.7
-6.038433746 -6.812233248 -2.7
-23.37061834 -19.18052153 -3.4
-35.22885825 -8.708177492 -2
-35.22885825 -8.708177492 -3.4
-39.58959944 -25.83695265 -3.4
-29.29973829 -13.94434951 -2.7
-35.22885825 -8.708177492 -2.7
-29.29973829 -13.94434951 -3.4
-31.48010889 -22.50873709 -3.4
-37.40922884 -17.27256507 -2.7
-37.40922884 -17.27256507 -3.4
-23.30834065 -7.162864969 -3.4
-35.22885825 -8.708177492 -2
-35.22885825 -8.708177492 -3.4
-23.37061834 -19.18052153 -3.4
-29.26859945 -7.93552123 -2.7
-35.22885825 -8.708177492 -2.7
-29.26859945 -7.93552123 -3.4
-23.3394795 -13.17169325 -3.4
-29.29973829 -13.94434951 -2.7
-29.29973829 -13.94434951 -3.4
-10.97631886 -4.569077337 -3.4
-5.514209552 -3.8896768 -2
-10.97631886 -4.569077337 -2
-6.562657941 -9.734789696 -2
-8.245264206 -4.229377068 -2.7
-8.245264206 -4.229377068 -2
-10.97631886 -4.569077337 -2.7
-8.7694884 -7.151933516 -2.7
-6.038433746 -6.812233248 -2
-8.7694884 -7.151933516 -2
-9.599169743 -18.78484362 -3.4
-12.72304544 -32.86479037 -2
-23.37061834 -19.18052153 -3.4
-12.72304544 -32.86479037 -3.4
-11.16110759 -25.82481699 -2.7
-18.04683189 -26.02265595 -2.7
-16.48489404 -18.98268257 -3.4
-11.16110759 -25.82481699 -3.4
-12.72304544 -32.86479037 -2.7
-18.04683189 -26.02265595 -3.4
-9.599169743 -18.78484362 -2
-12.72304544 -32.86479037 -2
-9.599169743 -18.78484362 -3.4
1.259117512 -26.97648465 -3.4
-11.16110759 -25.82481699 -2
-11.16110759 -25.82481699 -2.7
-9.599169743 -18.78484362 -2.7
-4.170026116 -22.88066414 -2.7
-5.731963965 -29.92063751 -2.7
-4.170026116 -22.88066414 -3.4
-10.97631886 -4.569077337 -3.4
-6.562657941 -9.734789696 -2
-10.97631886 -4.569077337 -2
-14.82258609 -10.38793373 -2
-8.7694884 -7.151933516 -2.7
-8.7694884 -7.151933516 -2
-10.97631886 -4.569077337 -2.7
-12.89945247 -7.478505535 -2.7
-10.69262202 -10.06136171 -2
-12.89945247 -7.478505535 -2
-17.19268076 -4.215970994 -3.4
-17.19268076 -4.215970994 -2
-23.30834065 -7.162864969 -2
-14.82258609 -10.38793373 -3.4
-17.19268076 -4.215970994 -2.7
-20.25051071 -5.689417981 -2
-20.25051071 -5.689417981 -2.7
-16.00763342 -7.301952363 -3.4
-16.00763342 -7.301952363 -2.7
-19.06546337 -8.775399351 -2.7
-14.82258609 -10.38793373 -3.4
-9.599169743 -18.78484362 -3.4
-9.599169743 -18.78484362 -2
-23.37061834 -19.18052153 -3.4
-12.21087792 -14.58638868 -3.4
-9.599169743 -18.78484362 -2.7
-12.21087792 -14.58638868 -2.7
-19.09660221 -14.78422763 -3.4
-16.48489404 -18.98268257 -3.4
-16.48489404 -18.98268257 -2.7
-49.21749377 -11.78656805 -3.4
-35.22885825 -8.708177492 -3.4
-35.22885825 -8.708177492 -2
-39.58959944 -25.83695265 -3.4
-42.22317601 -10.24737277 -3.4
-35.22885825 -8.708177492 -2.7
-42.22317601 -10.24737277 -2.7
-44.40354661 -18.81176035 -3.4
-37.40922884 -17.27256507 -3.4
-37.40922884 -17.27256507 -2.7
-17.19268076 -4.215970994 -2
-14.92273025 0 -3.4
-10.97631886 -4.569077337 -3.4
-17.19268076 -4.215970994 -3.4
-16.0577055 -2.107985497 -2.7
-12.94952455 -2.284538668 -3.4
-14.08449981 -4.392524165 -2.7
-17.19268076 -4.215970994 -2.7
-16.0577055 -2.107985497 -3.4
-14.08449981 -4.392524165 -3.4
-49.21749377 -11.78656805 -3.4
-35.22885825 -8.708177492 -2
-49.21749377 -11.78656805 -2
-39.58959944 -25.83695265 -2
-42.22317601 -10.24737277 -2.7
-42.22317601 -10.24737277 -2
-49.21749377 -11.78656805 -2.7
-44.40354661 -18.81176035 -2.7
-37.40922884 -17.27256507 -2
-44.40354661 -18.81176035 -2
-23.37061834 -19.18052153 -3.4
-12.72304544 -32.86479037 -2
-28.10264555 -36.10448984 -3.4
-12.72304544 -32.86479037 -3.4
-18.04683189 -26.02265595 -2.7
-20.4128455 -34.48464011 -2.7
-25.73663194 -27.64250568 -3.4
-18.04683189 -26.02265595 -3.4
-12.72304544 -32.86479037 -2.7
-20.4128455 -34.48464011 -3.4
-17.19268076 -4.215970994 -2
-14.92273025 0 -3.4
-10.97631886 -4.569077337 -2
-10.97631886 -4.569077337 -3.4
-16.0577055 -2.107985497 -2.7
-12.94952455 -2.284538668 -2.7
-14.08449981 -4.392524165 -2
-14.08449981 -4.392524165 -2.7
-12.94952455 -2.284538668 -3.4
-10.97631886 -4.569077337 -2.7
-6.562657941 -9.734789696 -2
-6.562657941 -9.734789696 -3.4
-0.1635248549 -14.68488354 -2
-9.599169743 -18.78484362 -2
-6.562657941 -9.734789696 -2.7
-3.363091398 -12.20983662 -2.7
-3.363091398 -12.20983662 -2
-8.080913842 -14.25981666 -2
-8.080913842 -14.25981666 -2.7
-4.881347299 -16.73486358 -2
-64.85093541 -15.58550524 -2
-80 -40 -2
-56.10009327 -28.46376564 -3.4
-56.10009327 -28.46376564 -2
-72.4254677 -27.79275262 -2
-68.05004664 -34.23188282 -2.7
-60.47551434 -22.02463544 -2.7
-60.47551434 -22.02463544 -2
-68.05004664 -34.23188282 -2
-56.10009327 -28.46376564 -2.7
-5.514209552 -3.8896768 -3.4
-5.514209552 -3.8896768 -2
-7.453252438 0 -3.4
-10.97631886 -4.569077337 -3.4
-5.514209552 -3.8896768 -2.7
-6.483730995 -1.9448384 -2.7
-6.483730995 -1.9448384 -3.4
-8.245264206 -4.229377068 -3.4
-8.245264206 -4.229377068 -2.7
-9.214785649 -2.284538668 -3.4
-49.21749377 -11.78656805 -2
-41.0789911 0 -3.4
-57.35599644 0 -2
-41.0789911 0 -2
-45.14824243 -5.893284027 -2.7
-49.21749377 0 -2.7
-53.28674511 -5.893284027 -2
-45.14824243 -5.893284027 -2
-41.0789911 0 -2.7
-49.21749377 0 -2
-17.19268076 -4.215970994 -2
-17.19268076 -4.215970994 -3.4
-10.97631886 -4.569077337 -3.4
-14.82258609 -10.38793373 -3.4
-17.19268076 -4.215970994 -2.7
-14.08449981 -4.392524165 -3.4
-14.08449981 -4.392524165 -2.7
-16.00763342 -7.301952363 -2.7
-16.00763342 -7.301952363 -3.4
-12.89945247 -7.478505535 -3.4
-6.562657941 -9.734789696 -2
-14.82258609 -10.38793373 -2
-6.562657941 -9.734789696 -3.4
-9.599169743 -18.78484362 -2
-10.69262202 -10.06136171 -2
-10.69262202 -10.06136171 -2.7
-6.562657941 -9.734789696 -2.7
-8.080913842 -14.25981666 -2
-12.21087792 -14.58638868 -2
-8.080913842 -14.25981666 -2.7
-10.97631886 -4.569077337 -3.4
-10.97631886 -4.569077337 -2
-17.19268076 -4.215970994 -2
-14.82258609 -10.38793373 -2
-10.97631886 -4.569077337 -2.7
-14.08449981 -4.392524165 -2
-14.08449981 -4.392524165 -2.7
-12.89945247 -7.478505535 -2.7
-12.89945247 -7.478505535 -2
-16.00763342 -7.301952363 -2
-17.19268076 -4.215970994 -2
-10.97631886 -4.569077337 -2
-14.92273025 0 -3.4
-14.92273025 0 -2
-14.08449981 -4.392524165 -2
-12.94952455 -2.284538668 -2.7
-16.0577055 -2.107985497 -2.7
-16.0577055 -2.107985497 -2
-12.94952455 -2.284538668 -2
-14.92273025 0 -2.7
-80 -40 -3.4
-64.85093541 -15.58550524 -2
-56.10009327 -28.46376564 -3.4
-64.85093541 -15.58550524 -3.4
-72.4254677 -27.79275262 -2.7
-60.47551434 -22.02463544 -2.7
-68.05004664 -34.23188282 -3.4
-72.4254677 -27.79275262 -3.4
-64.85093541 -15.58550524 -2.7
-60.47551434 -22.02463544 -3.4
-80 -40 -3.4
-56.10009327 -28.46376564 -3.4
-80 -40 -2
-46.05189097 -50.27120598 -3.4
-68.05004664 -34.23188282 -3.4
-68.05004664 -34.23188282 -2.7
-80 -40 -2.7
-63.02594549 -45.13560299 -3.4
-51.07599212 -39.36748581 -3.4
-63.02594549 -45.13560299 -2.7
-49.21749377 -11.78656805 -3.4
-57.35599644 0 -2
-49.21749377 -11.78656805 -2
-41.0789911 0 -3.4
-53.28674511 -5.893284027 -2.7
-53.28674511 -5.893284027 -2
-49.21749377 -11.78656805 -2.7
-45.14824243 -5.893284027 -3.4
-49.21749377 0 -2.7
-45.14824243 -5.893284027 -2.7
-35.22885825 -8.708177492 -2
-29.3787254 0 -2
-23.30834065 -7.162864969 -2
-29.3787254 0 -3.4
-32.30379182 -4.354088746 -2
-26.34353303 -3.581432484 -2
-29.26859945 -7.93552123 -2
-32.30379182 -4.354088746 -2.7
-29.3787254 0 -2.7
-26.34353303 -3.581432484 -2.7
5.906920728 -9.432751709 -3.4
-0.1635248549 -14.68488354 -3.4
-1.486149823 -6.928202819 -2
-1.486149823 -6.928202819 -3.4
2.871697937 -12.05881763 -3.4
-0.8248373387 -10.80654318 -2.7
2.210385453 -8.180477264 -2.7
2.210385453 -8.180477264 -3.4
-0.8248373387 -10.80654318 -3.4
-1.486149823 -6.928202819 -2.7
-23.30834065 -7.162864969 -2
-23.30834065 -7.162864969 -3.4
-35.22885825 -8.708177492 -2
-29.3787254 0 -3.4
-23.30834065 -7.162864969 -2.7
-29.26859945 -7.93552123 -2.7
-29.26859945 -7.93552123 -2
-26.34353303 -3.581432484 -2.7
-26.34353303 -3.581432484 -3.4
-32.30379182 -4.354088746 -2.7
-0.1635248549 -14.68488354 -3.4
-1.486149823 -6.928202819 -2
-1.486149823 -6.928202819 -3.4
-6.562657941 -9.734789696 -3.4
-0.8248373387 -10.80654318 -2.7
-1.486149823 -6.928202819 -2.7
-0.8248373387 -10.80654318 -3.4
-3.363091398 -12.20983662 -3.4
-4.024403882 -8.331496257 -2.7
-4.024403882 -8.331496257 -3.4
-10.97631886 -4.569077337 -2
-7.453252438 0 -3.4
-5.514209552 -3.8896768 -2
-10.97631886 -4.569077337 -3.4
-9.214785649 -2.284538668 -2.7
-6.483730995 -1.9448384 -2.7
-8.245264206 -4.229377068 -2
-10.97631886 -4.569077337 -2.7
-9.214785649 -2.284538668 -3.4
-8.245264206 -4.229377068 -2.7
-12.72304544 -32.86479037 -2
2.582327856 -46.15903624 -3.4
-12.72304544 -32.86479037 -3.4
1.259117512 -26.97648465 -3.4
-5.070358793 -39.51191331 -2.7
-5.070358793 -39.51191331 -3.4
-12.72304544 -32.86479037 -2.7
-5.731963965 -29.92063751 -2.7
1.920722684 -36.56776045 -3.4
-5.731963965 -29.92063751 -3.4
-6.562657941 -9.734789696 -2
-10.97631886 -4.569077337 -3.4
-6.562657941 -9.734789696 -3.4
-14.82258609 -10.38793373 -2
-8.7694884 -7.151933516 -2.7
-8.7694884 -7.151933516 -3.4
-6.562657941 -9.734789696 -2.7
-10.69262202 -10.06136171 -2
-12.89945247 -7.478505535 -2.7
-10.69262202 -10.06136171 -2.7
-49.21749377 -11.78656805 -3.4
-56.10009327 -28.46376564 -2
-39.58959944 -25.83695265 -2
-49.21749377 -11.78656805 -2
-52.65879352 -20.12516685 -2.7
-47.84484636 -27.15035914 -2
-44.40354661 -18.81176035 -2.7
-49.21749377 -11.78656805 -2.7
-52.65879352 -20.12516685 -2
-44.40354661 -18.81176035 -2
-5.514209552 -3.8896768 -3.4
-1.486149823 -6.928202819 -2
-5.514209552 -3.8896768 -2
-6.562657941 -9.734789696 -2
-3.500179687 -5.408939809 -2.7
-3.500179687 -5.408939809 -2
-5.514209552 -3.8896768 -2.7
-6.038433746 -6.812233248 -2.7
-4.024403882 -8.331496257 -2
-6.038433746 -6.812233248 -2
-6.562657941 -9.734789696 -3.4
-5.514209552 -3.8896768 -3.4
-10.97631886 -4.569077337 -3.4
-6.562657941 -9.734789696 -2
-6.038433746 -6.812233248 -3.4
-8.245264206 -4.229377068 -3.4
-8.7694884 -7.151933516 -3.4
-6.562657941 -9.734789696 -2.7
-6.038433746 -6.812233248 -2.7
-8.7694884 -7.151933516 -2.7
-41.0789911 0 -2
-49.21749377 -11.78656805 -2
-41.0789911 0 -3.4
-35.22885825 -8.708177492 -2
-45.14824243 -5.893284027 -2
-45.14824243 -5.893284027 -2.7
-41.0789911 0 -2.7
-38.15392467 -4.354088746 -2
-42.22317601 -10.24737277 -2
-38.15392467 -4.354088746 -2.7
-12.72304544 -32.86479037 -3.4
-9.599169743 -18.78484362 -3.4
-12.72304544 -32.86479037 -2
1.259117512 -26.97648465 -3.4
-11.16110759 -25.82481699 -3.4
-11.16110759 -25.82481699 -2.7
-12.72304544 -32.86479037 -2.7
-5.731963965 -29.92063751 -3.4
-4.170026116 -22.88066414 -3.4
-5.731963965 -29.92063751 -2.7
-7.453252438 0 -2
-7.453252438 0 -3.4
-5.514209552 -3.8896768 -2
-10.97631886 -4.569077337 -2
-7.453252438 0 -2.7
-6.483730995 -1.9448384 -2.7
-6.483730995 -1.9448384 -2
-9.214785649 -2.284538668 -2
-9.214785649 -2.284538668 -2.7
-8.245264206 -4.229377068 -2
-14.82258609 -10.38793373 -3.4
-6.562657941 -9.734789696 -3.4
-14.82258609 -10.38793373 -2
-9.599169743 -18.78484362 -2
-10.69262202 -10.06136171 -3.4
-10.69262202 -10.06136171 -2.7
-14.82258609 -10.38793373 -2.7
-12.21087792 -14.58638868 -2.7
-8.080913842 -14.25981666 -2.7
-12.21087792 -14.58638868 -2
-12.72304544 -32.86479037 -2
-18.77807356 -52.36897868 -3.4
-12.72304544 -32.86479037 -3.4
2.582327856 -46.15903624 -3.4
-15.7505595 -42.61688453 -2.7
-15.7505595 -42.61688453 -3.4
-12.72304544 -32.86479037 -2.7
-5.070358793 -39.51191331 -2.7
-8.097872854 -49.26400746 -3.4
-5.070358793 -39.51191331 -3.4
-35.22885825 -8.708177492 -2
-49.21749377 -11.78656805 -3.4
-41.0789911 0 -3.4
-35.22885825 -8.708177492 -3.4
-42.22317601 -10.24737277 -2.7
-45.14824243 -5.893284027 -3.4
-38.15392467 -4.354088746 -2.7
-35.22885825 -8.708177492 -2.7
-42.22317601 -10.24737277 -3.4
-38.15392467 -4.354088746 -3.4
-35.22885825 -8.708177492 -2
-39.58959944 -25.83695265 -2
-49.21749377 -11.78656805 -3.4
-39.58959944 -25.83695265 -3.4
-37.40922884 -17.27256507 -2
-44.40354661 -18.81176035 -2.7
-42.22317601 -10.24737277 -2.7
-37.40922884 -17.27256507 -2.7
-39.58959944 -25.83695265 -2.7
-44.40354661 -18.81176035 -3.4
-0.1635248549 -14.68488354 -2
-1.486149823 -6.928202819 -2
-6.562657941 -9.734789696 -3.4
-6.562657941 -9.734789696 -2
-0.8248373387 -10.80654318 -2
-4.024403882 -8.331496257 -2.7
-3.363091398 -12.20983662 -2.7
-3.363091398 -12.20983662 -2
-4.024403882 -8.331496257 -2
-6.562657941 -9.734789696 -2.7
-23.30834065 -7.162864969 -2
-29.3787254 0 -2
-20.96831662 0 -2
-29.3787254 0 -3.4
-26.34353303 -3.581432484 -2
-25.17352101 0 -2
-22.13832864 -3.581432484 -2
-26.34353303 -3.581432484 -2.7
-29.3787254 0 -2.7
-25.17352101 0 -2.7
-49.21749377 -11.78656805 -3.4
-41.0789911 0 -3.4
-49.21749377 -11.78656805 -2
-35.22885825 -8.708177492 -2
-45.14824243 -5.893284027 -3.4
-45.14824243 -5.893284027 -2.7
-49.21749377 -11.78656805 -2.7
-42.22317601 -10.24737277 -2.7
-38.15392467 -4.354088746 -2.7
-42.22317601 -10.24737277 -2
-46.05189097 -50.27120598 -2
-40 -80 -2
-46.05189097 -50.27120598 -3.4
-18.77807356 -52.36897868 -2
-43.02594549 -65.13560299 -2
-43.02594549 -65.13560299 -2.7
-46.05189097 -50.27120598 -2.7
-32.41498227 -51.32009233 -2
-29.38903678 -66.18448934 -2
-32.41498227 -51.32009233 -2.7
-18.77807356 -52.36897868 -3.4
-28.10264555 -36.10448984 -3.4
-12.72304544 -32.86479037 -2
-12.72304544 -32.86479037 -3.4
-23.44035956 -44.23673426 -3.4
-20.4128455 -34.48464011 -2.7
-15.7505595 -42.61688453 -2.7
-15.7505595 -42.61688453 -3.4
-20.4128455 -34.48464011 -3.4
-12.72304544 -32.86479037 -2.7
-35.22885825 -8.708177492 -2
-41.0789911 0 -3.4
-29.3787254 0 -2
-29.3787254 0 -3.4
-38.15392467 -4.354088746 -2.7
-35.22885825 0 -2.7
-32.30379182 -4.354088746 -2
-32.30379182 -4.354088746 -2.7
-35.22885825 0 -3.4
-29.3787254 0 -2.7
-49.21749377 -11.78656805 -3.4
-57.35599644 0 -3.4
-57.35599644 0 -2
-41.0789911 0 -3.4
-53.28674511 -5.893284027 -3.4
-57.35599644 0 -2.7
-53.28674511 -5.893284027 -2.7
-45.14824243 -5.893284027 -3.4
-49.21749377 0 -3.4
-49.21749377 0 -2.7
-6.562657941 -9.734789696 -3.4
-9.599169743 -18.78484362 -2
-14.82258609 -10.38793373 -3.4
-9.599169743 -18.78484362 -3.4
-8.080913842 -14.25981666 -2.7
-12.21087792 -14.58638868 -2.7
-10.69262202 -10.06136171 -3.4
-8.080913842 -14.25981666 -3.4
-9.599169743 -18.78484362 -2.7
-12.21087792 -14.58638868 -3.4
-64.85093541 -15.58550524 -2
-56.10009327 -28.46376564 -3.4
-80 -40 -2
-80 -40 -3.4
-60.47551434 -22.02463544 -2.7
-68.05004664 -34.23188282 -2.7
-72.4254677 -27.79275262 -2
-72.4254677 -27.79275262 -2.7
-68.05004664 -34.23188282 -3.4
-80 -40 -2.7
-23.30834065 -7.162864969 -3.4
-17.19268076 -4.215970994 -3.4
-23.30834065 -7.162864969 -2
-14.82258609 -10.38793373 -3.4
-20.25051071 -5.689417981 -3.4
-20.25051071 -5.689417981 -2.7
-23.30834065 -7.162864969 -2.7
-19.06546337 -8.775399351 -3.4
-16.00763342 -7.301952363 -3.4
-19.06546337 -8.775399351 -2.7
-5.514209552 -3.8896768 -3.4
-1.486149823 -6.928202819 -2
-6.562657941 -9.734789696 -3.4
-1.486149823 -6.928202819 -3.4
-3.500179687 -5.408939809 -2.7
-4.024403882 -8.331496257 -2.7
-6.038433746 -6.812233248 -3.4
-3.500179687 -5.408939809 -3.4
-1.486149823 -6.928202819 -2.7
-4.024403882 -8.331496257 -3.4
-12.72304544 -32.86479037 -2
-28.10264555 -36.10448984 -3.4
-18.77807356 -52.36897868 -2
-28.10264555 -36.10448984 -2
-20.4128455 -34.48464011 -2.7
-23.44035956 -44.23673426 -2.7
-15.7505595 -42.61688453 -2
-20.4128455 -34.48464011 -2
-28.10264555 -36.10448984 -2.7
-23.44035956 -44.23673426 -2
-6.562657941 -9.734789696 -3.4
-14.82258609 -10.38793373 -2
-10.97631886 -4.569077337 -3.4
-14.82258609 -10.38793373 -3.4
-10.69262202 -10.06136171 -2.7
-12.89945247 -7.478505535 -2.7
-8.7694884 -7.151933516 -3.4
-10.69262202 -10.06136171 -3.4
-14.82258609 -10.38793373 -2.7
-12.89945247 -7.478505535 -3.4
-14.82258609 -10.38793373 -2
-23.30834065 -7.162864969 -2
-17.19268076 -4.215970994 -2
-14.82258609 -10.38793373 -3.4
-19.06546337 -8.775399351 -2
-20.25051071 -5.689417981 -2
-16.00763342 -7.301952363 -2
-14.82258609 -10.38793373 -2.7
-19.06546337 -8.775399351 -2.7
-16.00763342 -7.301952363 -2.7
-64.85093541 -15.58550524 -2
-49.21749377 -11.78656805 -3.4
-57.35599644 0 -2
-49.21749377 -11.78656805 -2
-57.03421459 -13.68603665 -2.7
-53.28674511 -5.893284027 -2.7
-61.10346593 -7.792752621 -2
-57.03421459 -13.68603665 -2
-49.21749377 -11.78656805 -2.7
-53.28674511 -5.893284027 -2
-49.21749377 -11.78656805 -2
-49.21749377 -11.78656805 -3.4
-56.10009327 -28.46376564 -2
-64.85093541 -15.58550524 -2
-49.21749377 -11.78656805 -2.7
-52.65879352 -20.12516685 -2.7
-52.65879352 -20.12516685 -2
-57.03421459 -13.68603665 -2
-57.03421459 -13.68603665 -2.7
-60.47551434 -22.02463544 -2
-35.22885825 -8.708177492 -2
-23.30834065 -7.162864969 -3.4
-35.22885825 -8.708177492 -3.4
-29.3787254 0 -3.4
-29.26859945 -7.93552123 -2.7
-29.26859945 -7.93552123 -3.4
-35.22885825 -8.708177492 -2.7
-32.30379182 -4.354088746 -2.7
-26.34353303 -3.581432484 -3.4
-32.30379182 -4.354088746 -3.4
-57.35599644 0 -3.4
-57.35599644 0 -2
-80 0 -3.4
-64.85093541 -15.58550524 -3.4
-57.35599644 0 -2.7
-68.67799822 0 -2.7
-68.67799822 0 -3.4
-61.10346593 -7.792752621 -3.4
-61.10346593 -7.792752621 -2.7
-72.4254677 -7.792752621 -3.4
5.906920728 -9.432751709 -3.4
-1.486149823 -6.928202819 -2
-0.1635248549 -14.68488354 -3.4
-0.1635248549 -14.68488354 -2
2.210385453 -8.180477264 -2.7
-0.8248373387 -10.80654318 -2.7
2.871697937 -12.05881763 -3.4
2.871697937 -12.05881763 -2.7
-0.8248373387 -10.80654318 -2
-0.1635248549 -14.68488354 -2.7
-1.486149823 -6.928202819 -2
-6.562657941 -9.734789696 -3.4
-0.1635248549 -14.68488354 -3.4
-0.1635248549 -14.68488354 -2
-4.024403882 -8.331496257 -2.7
-3.363091398 -12.20983662 -3.4
-0.8248373387 -10.80654318 -2.7
-0.8248373387 -10.80654318 -2
-3.363091398 -12.20983662 -2.7
-0.1635248549 -14.68488354 -2.7
-35.22885825 -8.708177492 -2
-29.3787254 0 -2
-41.0789911 0 -3.4
-41.0789911 0 -2
-32.30379182 -4.354088746 -2
-35.22885825 0 -2.7
-38.15392467 -4.354088746 -2.7
-38.15392467 -4.354088746 -2
-35.22885825 0 -2
-41.0789911 0 -2.7
-10.97631886 -4.569077337 -3.4
-14.82258609 -10.38793373 -2
-17.19268076 -4.215970994 -2
-14.82258609 -10.38793373 -3.4
-12.89945247 -7.478505535 -2.7
-16.00763342 -7.301952363 -2
-14.08449981 -4.392524165 -2.7
-12.89945247 -7.478505535 -3.4
-14.82258609 -10.38793373 -2.7
-16.00763342 -7.301952363 -2.7
-5.514209552 -3.8896768 -3.4
-6.562657941 -9.734789696 -3.4
-1.486149823 -6.928202819 -2
-6.562657941 -9.734789696 -2
-6.038433746 -6.812233248 -3.4
-4.024403882 -8.331496257 -2.7
-3.500179687 -5.408939809 -2.7
-6.038433746 -6.812233248 -2.7
-6.562657941 -9.734789696 -2.7
-4.024403882 -8.331496257 -2
-28.10264555 -36.10448984 -3.4
-18.77807356 -52.36897868 -2
-46.05189097 -50.27120598 -3.4
-18.77807356 -52.36897868 -3.4
-23.44035956 -44.23673426 -2.7
-32.41498227 -51.32009233 -2.7
-37.07726826 -43.18784791 -3.4
-23.44035956 -44.23673426 -3.4
-18.77807356 -52.36897868 -2.7
-32.41498227 -51.32009233 -3.4
-49.21749377 -11.78656805 -3.4
-64.85093541 -15.58550524 -3.4
-57.35599644 0 -2
-57.35599644 0 -3.4
-57.03421459 -13.68603665 -3.4
-61.10346593 -7.792752621 -2.7
-53.28674511 -5.893284027 -2.7
-53.28674511 -5.893284027 -3.4
-61.10346593 -7.792752621 -3.4
-57.35599644 0 -2.7
-29.3787254 0 -3.4
-35.22885825 -8.708177492 -2
-41.0789911 0 -3.4
-35.22885825 -8.708177492 -3.4
-32.30379182 -4.354088746 -2.7
-38.15392467 -4.354088746 -2.7
-35.22885825 0 -3.4
-32.30379182 -4.354088746 -3.4
-35.22885825 -8.708177492 -2.7
-38.15392467 -4.354088746 -3.4
-64.85093541 -15.58550524 -2
-49.21749377 -11.78656805 -3.4
-56.10009327 -28.46376564 -2
-56.10009327 -28.46376564 -3.4
-57.03421459 -13.68603665 -2.7
-52.65879352 -20.12516685 -2.7
-60.47551434 -22.02463544 -2
-60.47551434 -22.02463544 -2.7
-52.65879352 -20.12516685 -3.4
-56.10009327 -28.46376564 -2.7
-12.72304544 -32.86479037 -2
-18.77807356 -52.36897868 -2
-28.10264555 -36.10448984 -3.4
-18.77807356 -52.36897868 -3.4
-15.7505595 -42.61688453 -2
-23.44035956 -44.23673426 -2.7
-20.4128455 -34.48464011 -2.7
-15.7505595 -42.61688453 -2.7
-18.77807356 -52.36897868 -2.7
-23.44035956 -44.23673426 -3.4
-56.10009327 -28.46376564 -3.4
-64.85093541 -15.58550524 -2
-49.21749377 -11.78656805 -3.4
-64.85093541 -15.58550524 -3.4
-60.47551434 -22.02463544 -2.7
-57.03421459 -13.68603665 -2.7
-52.65879352 -20.12516685 -3.4
-60.47551434 -22.02463544 -3.4
-64.85093541 -15.58550524 -2.7
-57.03421459 -13.68603665 -3.4
-49.21749377 -11.78656805 -3.4
-57.35599644 0 -2
-64.85093541 -15.58550524 -3.4
-64.85093541 -15.58550524 -2
-53.28674511 -5.893284027 -2.7
-61.10346593 -7.792752621 -2.7
-57.03421459 -13.68603665 -3.4
-57.03421459 -13.68603665 -2.7
-61.10346593 -7.792752621 -2
-64.85093541 -15.58550524 -2.7
-23.30834065 -7.162864969 -2
-29.3787254 0 -3.4
-20.96831662 0 -2
-20.96831662 0 -3.4
-26.34353303 -3.581432484 -2.7
-25.17352101 0 -2.7
-22.13832864 -3.581432484 -2
-22.13832864 -3.581432484 -2.7
-25.17352101 0 -3.4
-20.96831662 0 -2.7
-29.3787254 0 -3.4
-23.30834065 -7.162864969 -2
-23.30834065 -7.162864969 -3.4
-20.96831662 0 -3.4
-26.34353303 -3.581432484 -2.7
-23.30834065 -7.162864969 -2.7
-26.34353303 -3.581432484 -3.4
-25.17352101 0 -3.4
-22.13832864 -3.581432484 -2.7
-22.13832864 -3.581432484 -3.4
-23.30834065 -7.162864969 -2
-20.96831662 0 -3.4
-17.19268076 -4.215970994 -2
-17.19268076 -4.215970994 -3.4
-22.13832864 -3.581432484 -2.7
-19.08049869 -2.107985497 -2.7
-20.25051071 -5.689417981 -2
-20.25051071 -5.689417981 -2.7
-19.08049869 -2.107985497 -3.4
-17.19268076 -4.215970994 -2.7
-20.96831662 0 -2
-20.96831662 0 -3.4
-17.19268076 -4.215970994 -2
-23.30834065 -7.162864969 -2
-20.96831662 0 -2.7
-19.08049869 -2.107985497 -2.7
-19.08049869 -2.107985497 -2
-22.13832864 -3.581432484 -2
-22.13832864 -3.581432484 -2.7
-20.25051071 -5.689417981 -2
-17.19268076 -4.215970994 -2
-20.96831662 0 -3.4
-14.92273025 0 -3.4
-17.19268076 -4.215970994 -3.4
-19.08049869 -2.107985497 -2.7
-17.94552343 0 -3.4
-16.0577055 -2.107985497 -2.7
-17.19268076 -4.215970994 -2.7
-19.08049869 -2.107985497 -3.4
-16.0577055 -2.107985497 -3.4
-20.96831662 0 -3.4
-23.30834065 -7.162864969 -2
-23.30834065 -7.162864969 -3.4
-17.19268076 -4.215970994 -3.4
-22.13832864 -3.581432484 -2.7
-23.30834065 -7.162864969 -2.7
-22.13832864 -3.581432484 -3.4
-19.08049869 -2.107985497 -3.4
-20.25051071 -5.689417981 -2.7
-20.25051071 -5.689417981 -3.4
-14.92273025 0 -3.4
-14.92273025 0 -2
-20.96831662 0 -3.4
-17.19268076 -4.215970994 -2
-14.92273025 0 -2.7
-17.94552343 0 -2.7
-17.94552343 0 -3.4
-16.0577055 -2.107985497 -2.7
-16.0577055 -2.107985497 -2
-19.08049869 -2.107985497 -2.7
-17.19268076 -4.215970994 -2
-14.92273025 0 -2
-20.96831662 0 -3.4
-20.96831662 0 -2
-16.0577055 -2.107985497 -2
-17.94552343 0 -2.7
-19.08049869 -2.107985497 -2.7
-19.08049869 -2.107985497 -2
-17.94552343 0 -2
-20.96831662 0 -2.7
-80 0 -2
-80 -40 -3.4
-64.85093541 -15.58550524 -3.4
-64.85093541 -15.58550524 -2
-80 -20 -2.7
-72.4254677 -27.79275262 -3.4
-72.4254677 -7.792752621 -2.7
-72.4254677 -7.792752621 -2
-72.4254677 -27.79275262 -2.7
-64.85093541 -15.58550524 -2.7
-64.85093541 -15.58550524 -3.4
-80 -40 -3.4
-80 0 -2
-80 0 -3.4
-72.4254677 -27.79275262 -3.4
-80 -20 -2.7
-72.4254677 -7.792752621 -2.7
-72.4254677 -7.792752621 -3.4
-80 -20 -3.4
-80 0 -2.7
-64.85093541 -15.58550524 -3.4
-57.35599644 0 -2
-80 0 -2
-64.85093541 -15.58550524 -2
-61.10346593 -7.792752621 -2.7
-68.67799822 0 -2
-72.4254677 -7.792752621 -2.7
-64.85093541 -15.58550524 -2.7
-61.10346593 -7.792752621 -2
-72.4254677 -7.792752621 -2
-80 0 -2
-57.35599644 0 -2
-64.85093541 -15.58550524 -3.4
-80 0 -3.4
-68.67799822 0 -2
-61.10346593 -7.792752621 -2.7
-72.4254677 -7.792752621 -2.7
-80 0 -2.7
-68.67799822 0 -2.7
-72.4254677 -7.792752621 -3.4
-40 -80 -2
-18.77807356 -52.36897868 -3.4
-46.05189097 -50.27120598 -3.4
-18.77807356 -52.36897868 -2
-29.38903678 -66.18448934 -2.7
-32.41498227 -51.32009233 -3.4
-43.02594549 -65.13560299 -2.7
-29.38903678 -66.18448934 -2
-18.77807356 -52.36897868 -2.7
-32.41498227 -51.32009233 -2.7
-18.77807356 -52.36897868 -3.4
-40 -80 -2
-46.05189097 -50.27120598 -3.4
-40 -80 -3.4
-29.38903678 -66.18448934 -2.7
-43.02594549 -65.13560299 -2.7
-32.41498227 -51.32009233 -3.4
-29.38903678 -66.18448934 -3.4
-40 -80 -2.7
-43.02594549 -65.13560299 -3.4
-18.77807356 -52.36897868 -3.4
-40 -80 -2
0 -80 -3.4
-18.77807356 -52.36897868 -2
-29.38903678 -66.18448934 -2.7
-20 -80 -2.7
-9.389036782 -66.18448934 -3.4
-18.77807356 -52.36897868 -2.7
-29.38903678 -66.18448934 -2
-9.389036782 -66.18448934 -2.7
-40 -80 -2
-18.77807356 -52.36897868 -3.4
0 -80 -3.4
-40 -80 -3.4
-29.38903678 -66.18448934 -2.7
-9.389036782 -66.18448934 -3.4
-20 -80 -2.7
-40 -80 -2.7
-29.38903678 -66.18448934 -3.4
-20 -80 -3.4
-23.37061834 -19.18052153 -3.4
-35.22885825 -8.708177492 -2
-23.30834065 -7.162864969 -2
-23.30834065 -7.162864969 -3.4
-29.29973829 -13.94434951 -2.7
-29.26859945 -7.93552123 -2
-23.3394795 -13.17169325 -2.7
-23.3394795 -13.17169325 -3.4
-29.26859945 -7.93552123 -2.7
-23.30834065 -7.162864969 -2.7
-23.30834065 -7.162864969 -2
-35.22885825 -8.708177492 -2
-23.37061834 -19.18052153 -3.4
-23.37061834 -19.18052153 -2
-29.26859945 -7.93552123 -2
-29.29973829 -13.94434951 -2.7
-23.3394795 -13.17169325 -2.7
-23.3394795 -13.17169325 -2
-29.29973829 -13.94434951 -2
-23.37061834 -19.18052153 -2.7
-23.30834065 -7.162864969 -2
-14.82258609 -10.38793373 -3.4
-23.37061834 -19.18052153 -3.4
-23.30834065 -7.162864969 -3.4
-19.06546337 -8.775399351 -2.7
-19.09660221 -14.78422763 -3.4
-23.3394795 -13.17169325 -2.7
-23.30834065 -7.162864969 -2.7
-19.06546337 -8.775399351 -3.4
-23.3394795 -13.17169325 -3.4
-56.10009327 -28.46376564 -2
-46.05189097 -50.27120598 -3.4
-80 -40 -2
-56.10009327 -28.46376564 -3.4
-51.07599212 -39.36748581 -2.7
-63.02594549 -45.13560299 -2.7
-68.05004664 -34.23188282 -2
-56.10009327 -28.46376564 -2.7
-51.07599212 -39.36748581 -3.4
-68.05004664 -34.23188282 -2.7
-46.05189097 -50.27120598 -3.4
-56.10009327 -28.46376564 -2
-80 -40 -2
-46.05189097 -50.27120598 -2
-51.07599212 -39.36748581 -2.7
-68.05004664 -34.23188282 -2
-63.02594549 -45.13560299 -2.7
-46.05189097 -50.27120598 -2.7
-51.07599212 -39.36748581 -2
-63.02594549 -45.13560299 -2
-23.37061834 -19.18052153 -2
-39.58959944 -25.83695265 -3.4
-35.22885825 -8.708177492 -2
-23.37061834 -19.18052153 -3.4
-31.48010889 -22.50873709 -2.7
-37.40922884 -17.27256507 -2.7
-29.29973829 -13.94434951 -2
-23.37061834 -19.18052153 -2.7
-31.48010889 -22.50873709 -3.4
-29.29973829 -13.94434951 -2.7
-39.58959944 -25.83695265 -3.4
-23.37061834 -19.18052153 -2
-35.22885825 -8.708177492 -2
-39.58959944 -25.83695265 -2
-31.48010889 -22.50873709 -2.7
-29.29973829 -13.94434951 -2
-37.40922884 -17.27256507 -2.7
-39.58959944 -25.83695265 -2.7
-31.48010889 -22.50873709 -2
-37.40922884 -17.27256507 -2
-23.37061834 -19.18052153 -3.4
-23.30834065 -7.162864969 -2
-14.82258609 -10.38793373 -2
-14.82258609 -10.38793373 -3.4
-23.3394795 -13.17169325 -2.7
-19.06546337 -8.775399351 -2
-19.09660221 -14.78422763 -2.7
-19.09660221 -14.78422763 -3.4
-19.06546337 -8.775399351 -2.7
-14.82258609 -10.38793373 -2.7
-14.82258609 -10.38793373 -2
-23.30834065 -7.162864969 -2
-23.37061834 -19.18052153 -3.4
-23.37061834 -19.18052153 -2
-19.06546337 -8.775399351 -2
-23.3394795 -13.17169325 -2.7
-19.09660221 -14.78422763 -2.7
-19.09660221 -14.78422763 -2
-23.3394795 -13.17169325 -2
-23.37061834 -19.18052153 -2.7
-14.82258609 -10.38793373 -2
-9.599169743 -18.78484362 -2
-23.37061834 -19.18052153 -3.4
-14.82258609 -10.38793373 -3.4
-12.21087792 -14.58638868 -2
-16.48489404 -18.98268257 -2.7
-19.09660221 -14.78422763 -2.7
-14.82258609 -10.38793373 -2.7
-12.21087792 -14.58638868 -2.7
-19.09660221 -14.78422763 -3.4
-23.37061834 -19.18052153 -3.4
-9.599169743 -18.78484362 -2
-14.82258609 -10.38793373 -2
-23.37061834 -19.18052153 -2
-16.48489404 -18.98268257 -2.7
-12.21087792 -14.58638868 -2
-19.09660221 -14.78422763 -2.7
-23.37061834 -19.18052153 -2.7
-16.48489404 -18.98268257 -2
-19.09660221 -14.78422763 -2
-28.10264555 -36.10448984 -3.4
-23.37061834 -19.18052153 -2
-12.72304544 -32.86479037 -2
-23.37061834 -19.18052153 -3.4
-25.73663194 -27.64250568 -2.7
-18.04683189 -26.02265595 -2
-20.4128455 -34.48464011 -2.7
-25.73663194 -27.64250568 -3.4
-23.37061834 -19.18052153 -2.7
-18.04683189 -26.02265595 -2.7
-23.37061834 -19.18052153 -2
-28.10264555 -36.10448984 -3.4
-12.72304544 -32.86479037 -2
-28.10264555 -36.10448984 -2
-25.73663194 -27.64250568 -2.7
-20.4128455 -34.48464011 -2.7
-18.04683189 -26.02265595 -2
-25.73663194 -27.64250568 -2
-28.10264555 -36.10448984 -2.7
-20.4128455 -34.48464011 -2
-23.37061834 -19.18052153 -2
-28.10264555 -36.10448984 -3.4
-39.58959944 -25.83695265 -3.4
-23.37061834 -19.18052153 -3.4
-25.73663194 -27.64250568 -2.7
-33.8461225 -30.97072125 -3.4
-31.48010889 -22.50873709 -2.7
-23.37061834 -19.18052153 -2.7
-25.73663194 -27.64250568 -3.4
-31.48010889 -22.50873709 -3.4
-9.599169743 -18.78484362 -2
1.259117512 -26.97648465 -3.4
-0.1635248549 -14.68488354 -3.4
-0.1635248549 -14.68488354 -2
-4.170026116 -22.88066414 -2.7
0.5477963283 -20.8306841 -3.4
-4.881347299 -16.73486358 -2.7
-4.881347299 -16.73486358 -2
0.5477963283 -20.8306841 -2.7
-0.1635248549 -14.68488354 -2.7
-0.1635248549 -14.68488354 -3.4
1.259117512 -26.97648465 -3.4
-9.599169743 -18.78484362 -2
-9.599169743 -18.78484362 -3.4
0.5477963283 -20.8306841 -3.4
-4.170026116 -22.88066414 -2.7
-4.881347299 -16.73486358 -2.7
-4.881347299 -16.73486358 -3.4
-4.170026116 -22.88066414 -3.4
-9.599169743 -18.78484362 -2.7
-0.1635248549 -14.68488354 -3.4
-6.562657941 -9.734789696 -3.4
-9.599169743 -18.78484362 -2
-0.1635248549 -14.68488354 -2
-3.363091398 -12.20983662 -3.4
-8.080913842 -14.25981666 -2.7
-4.881347299 -16.73486358 -2.7
-0.1635248549 -14.68488354 -2.7
-3.363091398 -12.20983662 -2.7
-4.881347299 -16.73486358 -2
-9.599169743 -18.78484362 -2
-6.562657941 -9.734789696 -3.4
-0.1635248549 -14.68488354 -3.4
-9.599169743 -18.78484362 -3.4
-8.080913842 -14.25981666 -2.7
-3.363091398 -12.20983662 -3.4
-4.881347299 -16.73486358 -2.7
-9.599169743 -18.78484362 -2.7
-8.080913842 -14.25981666 -3.4
-4.881347299 -16.73486358 -3.4
-46.05189097 -50.27120598 -3.4
-28.10264555 -36.10448984 -2
-18.77807356 -52.36897868 -2
-28.10264555 -36.10448984 -3.4
-37.07726826 -43.18784791 -2.7
-23.44035956 -44.23673426 -2
-32.41498227 -51.32009233 -2.7
-37.07726826 -43.18784791 -3.4
-28.10264555 -36.10448984 -2.7
-23.44035956 -44.23673426 -2.7
-28.10264555 -36.10448984 -2
-46.05189097 -50.27120598 -3.4
-18.77807356 -52.36897868 -2
-46.05189097 -50.27120598 -2
-37.07726826 -43.18784791 -2.7
-32.41498227 -51.32009233 -2.7
-23.44035956 -44.23673426 -2
-37.07726826 -43.18784791 -2
-46.05189097 -50.27120598 -2.7
-32.41498227 -51.32009233 -2
-39.58959944 -25.83695265 -2
-46.05189097 -50.27120598 -3.4
-28.10264555 -36.10448984 -2
-46.05189097 -50.27120598 -2
-42.82074521 -38.05407932 -2.7
-37.07726826 -43.18784791 -2.7
-33.8461225 -30.97072125 -2
-42.82074521 -38.05407932 -2
-46.05189097 -50.27120598 -2.7
-37.07726826 -43.18784791 -2
-46.05189097 -50.27120598 -3.4
-39.58959944 -25.83695265 -2
-56.10009327 -28.46376564 -2
-46.05189097 -50.27120598 -2
-42.82074521 -38.05407932 -2.7
-47.84484636 -27.15035914 -2
-51.07599212 -39.36748581 -2.7
-46.05189097 -50.27120598 -2.7
-42.82074521 -38.05407932 -2
-51.07599212 -39.36748581 -2
-56.10009327 -28.46376564 -3.4
-46.05189097 -50.27120598 -3.4
-39.58959944 -25.83695265 -2
-56.10009327 -28.46376564 -2
-51.07599212 -39.36748581 -3.4
-42.82074521 -38.05407932 -2.7
-47.84484636 -27.15035914 -2.7
-56.10009327 -28.46376564 -2.7
-51.07599212 -39.36748581 -2.7
-47.84484636 -27.15035914 -2
-39.58959944 -25.83695265 -2
-46.05189097 -50.27120598 -3.4
-56.10009327 -28.46376564 -3.4
-39.58959944 -25.83695265 -3.4
-42.82074521 -38.05407932 -2.7
-51.07599212 -39.36748581 -3.4
-47.84484636 -27.15035914 -2.7
-39.58959944 -25.83695265 -2.7
-42.82074521 -38.05407932 -3.4
-47.84484636 -27.15035914 -3.4
-39.58959944 -25.83695265 -2
-49.21749377 -11.78656805 -3.4
-56.10009327 -28.46376564 -3.4
-56.10009327 -28.46376564 -2
-44.40354661 -18.81176035 -2.7
-52.65879352 -20.12516685 -3.4
-47.84484636 -27.15035914 -2.7
-47.84484636 -27.15035914 -2
-52.65879352 -20.12516685 -2.7
-56.10009327 -28.46376564 -2.7
-56.10009327 -28.46376564 -3.4
-49.21749377 -11.78656805 -3.4
-39.58959944 -25.83695265 -2
-39.58959944 -25.83695265 -3.4
-52.65879352 -20.12516685 -3.4
-44.40354661 -18.81176035 -2.7
-47.84484636 -27.15035914 -2.7
-47.84484636 -27.15035914 -3.4
-44.40354661 -18.81176035 -3.4
-39.58959944 -25.83695265 -2.7
-28.10264555 -36.10448984 -3.4
-46.05189097 -50.27120598 -3.4
-39.58959944 -25.83695265 -2
-39.58959944 -25.83695265 -3.4
-37.07726826 -43.18784791 -3.4
-42.82074521 -38.05407932 -2.7
-33.8461225 -30.97072125 -2.7
-33.8461225 -30.97072125 -3.4
-42.82074521 -38.05407932 -3.4
-39.58959944 -25.83695265 -2.7
-39.58959944 -25.83695265 -2
-46.05189097 -50.27120598 -3.4
-28.10264555 -36.10448984 -3.4
-28.10264555 -36.10448984 -2
-42.82074521 -38.05407932 -2.7
-37.07726826 -43.18784791 -3.4
-33.8461225 -30.97072125 -2.7
-33.8461225 -30.97072125 -2
-37.07726826 -43.18784791 -2.7
-28.10264555 -36.10448984 -2.7
-39.58959944 -25.83695265 -2
-23.37061834 -19.18052153 -2
-28.10264555 -36.10448984 -3.4
-39.58959944 -25.83695265 -3.4
-31.48010889 -22.50873709 -2
-25.73663194 -27.64250568 -2.7
-33.8461225 -30.97072125 -2.7
-39.58959944 -25.83695265 -2.7
-31.48010889 -22.50873709 -2.7
-33.8461225 -30.97072125 -3.4
-28.10264555 -36.10448984 -3.4
-23.37061834 -19.18052153 -2
-39.58959944 -25.83695265 -2
-28.10264555 -36.10448984 -2
-25.73663194 -27.64250568 -2.7
-31.48010889 -22.50873709 -2
-33.8461225 -30.97072125 -2.7
-28.10264555 -36.10448984 -2.7
-25.73663194 -27.64250568 -2
-33.8461225 -30.97072125 -2
-49.21749377 -11.78656805 -3.4
-40 0 -10.5
-64.85093541 -15.58550524 -3.4
-57.35599644 0 -3.4
-44.60874688 -5.893284027 -6.95
-52.4254677 -7.792752621 -6.95
-57.03421459 -13.68603665 -3.4
-53.28674511 -5.893284027 -3.4
-48.67799822 0 -6.95
-61.10346593 -7.792752621 -3.4
-57.35599644 0 -3.4
-40 0 -10.5
-64.85093541 -15.58550524 -3.4
-80 0 -10.5
-48.67799822 0 -6.95
-52.4254677 -7.792752621 -6.95
-61.10346593 -7.792752621 -3.4
-68.67799822 0 -6.95
-60 0 -10.5
-72.4254677 -7.792752621 -6.95
-23.30834065 -7.162864969 -3.4
-40 0 -10.5
-23.37061834 -19.18052153 -3.4
-35.22885825 -8.708177492 -3.4
-31.65417033 -3.581432484 -6.95
-31.68530917 -9.590260764 -6.95
-23.3394795 -13.17169325 -3.4
-29.26859945 -7.93552123 -3.4
-37.61442912 -4.354088746 -6.95
-29.29973829 -13.94434951 -3.4
-20.96831662 0 -3.4
-23.30834065 -7.162864969 -3.4
-40 0 -10.5
-6.936882012 -5.098539829 -9.13351315
-22.13832864 -3.581432484 -3.4
-31.65417033 -3.581432484 -6.95
-30.48415831 0 -6.95
-13.95259932 -2.549269914 -6.266756575
-15.12261133 -6.130702399 -6.266756575
-23.46844101 -2.549269914 -9.816756575
-8.816745334 0 -6.405136994
-20.96831662 0 -3.4
-40 0 -10.5
-6.936882012 -5.098539829 -9.13351315
-14.89253098 0 -4.902568497
-30.48415831 0 -6.95
-24.40837267 0 -8.452568497
-7.876813673 -2.549269914 -7.769325072
-13.95259932 -2.549269914 -6.266756575
-23.46844101 -2.549269914 -9.816756575
-14.92273025 0 -3.4
-20.96831662 0 -3.4
-8.816745334 0 -6.405136994
-17.19268076 -4.215970994 -3.4
-17.94552343 0 -3.4
-14.89253098 0 -4.902568497
-11.86973779 0 -4.902568497
-16.0577055 -2.107985497 -3.4
-19.08049869 -2.107985497 -3.4
-13.00471305 -2.107985497 -4.902568497
-46.05189097 -50.27120598 -3.4
-80 -80 -3.4
-80 -40 -3.4
-56.80751465 -56.88071741 -10.5
-63.02594549 -65.13560299 -3.4
-80 -60 -3.4
-63.02594549 -45.13560299 -3.4
-51.42970281 -53.57596169 -6.95
-68.40375733 -68.4403587 -6.95
-68.40375733 -48.4403587 -6.95
-49.21749377 -11.78656805 -3.4
-64.85093541 -15.58550524 -3.4
-40 0 -10.5
-53.70193335 -29.34729133 -10.5
-57.03421459 -13.68603665 -3.4
-52.4254677 -7.792752621 -6.95
-44.60874688 -5.893284027 -6.95
-51.45971356 -20.56692969 -6.95
-59.27643438 -22.46639828 -6.95
-46.85096668 -14.67364566 -10.5
-80 0 -10.5
-40 0 -10.5
-64.85093541 -15.58550524 -3.4
-53.70193335 -29.34729133 -10.5
-60 0 -10.5
-52.4254677 -7.792752621 -6.95
-72.4254677 -7.792752621 -6.95
-66.85096668 -14.67364566 -10.5
-46.85096668 -14.67364566 -10.5
-59.27643438 -22.46639828 -6.95
-53.70193335 -29.34729133 -10.5
-80 0 -10.5
-80 -40 -10.5
-64.85093541 -15.58550524 -3.4
-66.85096668 -14.67364566 -10.5
-80 -20 -10.5
-66.85096668 -34.67364566 -10.5
-59.27643438 -22.46639828 -6.95
-72.4254677 -7.792752621 -6.95
-72.4254677 -27.79275262 -6.95
-20.96831662 0 -3.4
-40 0 -10.5
-23.30834065 -7.162864969 -3.4
-29.3787254 0 -3.4
-30.48415831 0 -6.95
-31.65417033 -3.581432484 -6.95
-22.13832864 -3.581432484 -3.4
-25.17352101 0 -3.4
-34.6893627 0 -6.95
-26.34353303 -3.581432484 -3.4
-12.72304544 -32.86479037 -3.4
2.582327856 -46.15903624 -3.4
-20 -45.35898385 -10.5
1.259117512 -26.97648465 -3.4
-5.070358793 -39.51191331 -3.4
-8.708836072 -45.75901005 -6.95
-16.36152272 -39.11188711 -6.95
-5.731963965 -29.92063751 -3.4
1.920722684 -36.56776045 -3.4
-9.370441244 -36.16773425 -6.95
-12.72304544 -32.86479037 -3.4
-28.10264555 -36.10448984 -3.4
-23.37061834 -19.18052153 -3.4
-20 -45.35898385 -10.5
-20.4128455 -34.48464011 -3.4
-25.73663194 -27.64250568 -3.4
-18.04683189 -26.02265595 -3.4
-16.36152272 -39.11188711 -6.95
-24.05132278 -40.73173685 -6.95
-21.68530917 -32.26975269 -6.95
-56.80751465 -56.88071741 -10.5
-20 -45.35898385 -10.5
-53.70193335 -29.34729133 -10.5
-46.05189097 -50.27120598 -3.4
-38.40375733 -51.11985063 -10.5
-36.85096668 -37.35313759 -10.5
-55.254724 -43.11400437 -10.5
-51.42970281 -53.57596169 -6.95
-33.02594549 -47.81509491 -6.95
-49.87691216 -39.80924865 -6.95
-9.599169743 -18.78484362 -3.4
-6.562657941 -9.734789696 -3.4
-0.1635248549 -14.68488354 -3.4
-6.936882012 -5.098539829 -9.13351315
-8.080913842 -14.25981666 -3.4
-3.363091398 -12.20983662 -3.4
-4.881347299 -16.73486358 -3.4
-8.268025877 -11.94169172 -6.266756575
-6.749769976 -7.416664762 -6.266756575
-3.550203433 -9.891711685 -6.266756575
-17.19268076 -4.215970994 -3.4
-20.96831662 0 -3.4
-8.816745334 0 -6.405136994
-6.936882012 -5.098539829 -9.13351315
-19.08049869 -2.107985497 -3.4
-14.89253098 0 -4.902568497
-13.00471305 -2.107985497 -4.902568497
-12.06478138 -4.657255411 -6.266756575
-13.95259932 -2.549269914 -6.266756575
-7.876813673 -2.549269914 -7.769325072
-20 -45.35898385 -10.5
-40 -80 -10.5
0 -80 -10.5
-18.77807356 -52.36897868 -3.4
-30 -62.67949192 -10.5
-20 -80 -10.5
-10 -62.67949192 -10.5
-19.38903678 -48.86398126 -6.95
-29.38903678 -66.18448934 -6.95
-9.389036782 -66.18448934 -6.95
-20 -45.35898385 -10.5
-46.05189097 -50.27120598 -3.4
-56.80751465 -56.88071741 -10.5
-40 -80 -10.5
-33.02594549 -47.81509491 -6.95
-51.42970281 -53.57596169 -6.95
-38.40375733 -51.11985063 -10.5
-30 -62.67949192 -10.5
-43.02594549 -65.13560299 -6.95
-48.40375733 -68.4403587 -10.5
-9.599169743 -18.78484362 -3.4
-14.82258609 -10.38793373 -3.4
-6.562657941 -9.734789696 -3.4
-6.936882012 -5.098539829 -9.13351315
-12.21087792 -14.58638868 -3.4
-10.69262202 -10.06136171 -3.4
-8.080913842 -14.25981666 -3.4
-8.268025877 -11.94169172 -6.266756575
-10.87973405 -7.743236781 -6.266756575
-6.749769976 -7.416664762 -6.266756575
-23.30834065 -7.162864969 -3.4
-40 0 -10.5
-35.22885825 -8.708177492 -3.4
-29.3787254 0 -3.4
-31.65417033 -3.581432484 -6.95
-37.61442912 -4.354088746 -6.95
-29.26859945 -7.93552123 -3.4
-26.34353303 -3.581432484 -3.4
-34.6893627 0 -6.95
-32.30379182 -4.354088746 -3.4
-17.19268076 -4.215970994 -3.4
-10.97631886 -4.569077337 -3.4
-14.82258609 -10.38793373 -3.4
-6.936882012 -5.098539829 -9.13351315
-14.08449981 -4.392524165 -3.4
-12.89945247 -7.478505535 -3.4
-16.00763342 -7.301952363 -3.4
-12.06478138 -4.657255411 -6.266756575
-8.956600436 -4.833808583 -6.266756575
-10.87973405 -7.743236781 -6.266756575
-64.85093541 -15.58550524 -3.4
-80 -40 -10.5
-80 0 -3.4
-80 0 -10.5
-72.4254677 -27.79275262 -6.95
-80 -20 -6.95
-72.4254677 -7.792752621 -3.4
-72.4254677 -7.792752621 -6.95
-80 -20 -10.5
-80 0 -6.95
-64.85093541 -15.58550524 -3.4
-80 0 -3.4
-80 -40 -10.5
-80 -40 -3.4
-72.4254677 -7.792752621 -3.4
-80 -20 -6.95
-72.4254677 -27.79275262 -6.95
-72.4254677 -27.79275262 -3.4
-80 -20 -3.4
-80 -40 -6.95
-18.77807356 -52.36897868 -3.4
0 -80 -10.5
-40 -80 -3.4
-40 -80 -10.5
-9.389036782 -66.18448934 -6.95
-20 -80 -6.95
-29.38903678 -66.18448934 -3.4
-29.38903678 -66.18448934 -6.95
-20 -80 -10.5
-40 -80 -6.95
0 -80 -3.4
0 -80 -10.5
-40 -80 -3.4
-18.77807356 -52.36897868 -3.4
0 -80 -6.95
-20 -80 -6.95
-20 -80 -3.4
-9.389036782 -66.18448934 -3.4
-9.389036782 -66.18448934 -6.95
-29.38903678 -66.18448934 -3.4
-56.80751465 -56.88071741 -10.5
-80 -40 -10.5
-80 -80 -10.5
-80 -40 -3.4
-68.40375733 -48.4403587 -10.5
-80 -60 -10.5
-68.40375733 -68.4403587 -10.5
-68.40375733 -48.4403587 -6.95
-80 -40 -6.95
-80 -60 -6.95
-8.816745334 0 -6.405136994
-10.97631886 -4.569077337 -3.4
-14.92273025 0 -3.4
-17.19268076 -4.215970994 -3.4
-9.896532097 -2.284538668 -4.902568497
-12.94952455 -2.284538668 -3.4
-11.86973779 0 -4.902568497
-13.00471305 -2.107985497 -4.902568497
-14.08449981 -4.392524165 -3.4
-16.0577055 -2.107985497 -3.4
-80 -80 -3.4
-80 -80 -10.5
-80 -40 -3.4
-56.80751465 -56.88071741 -10.5
-80 -80 -6.95
-80 -60 -6.95
-80 -60 -3.4
-68.40375733 -68.4403587 -6.95
-68.40375733 -68.4403587 -10.5
-68.40375733 -48.4403587 -6.95
-80 -80 -3.4
-40 -80 -10.5
-80 -80 -10.5
-56.80751465 -56.88071741 -10.5
-60 -80 -6.95
-60 -80 -10.5
-80 -80 -6.95
-68.40375733 -68.4403587 -6.95
-48.40375733 -68.4403587 -10.5
-68.40375733 -68.4403587 -10.5
-46.05189097 -50.27120598 -3.4
-40 -80 -10.5
-20 -45.35898385 -10.5
-18.77807356 -52.36897868 -3.4
-43.02594549 -65.13560299 -6.95
-30 -62.67949192 -10.5
-33.02594549 -47.81509491 -6.95
-32.41498227 -51.32009233 -3.4
-29.38903678 -66.18448934 -6.95
-19.38903678 -48.86398126 -6.95
-56.10009327 -28.46376564 -3.4
-46.05189097 -50.27120598 -3.4
-80 -40 -3.4
-56.80751465 -56.88071741 -10.5
-51.07599212 -39.36748581 -3.4
-63.02594549 -45.13560299 -3.4
-68.05004664 -34.23188282 -3.4
-56.45380396 -42.67224152 -6.95
-51.42970281 -53.57596169 -6.95
-68.40375733 -48.4403587 -6.95
-53.70193335 -29.34729133 -10.5
-56.10009327 -28.46376564 -3.4
-64.85093541 -15.58550524 -3.4
-80 -40 -10.5
-54.90101331 -28.90552848 -6.95
-60.47551434 -22.02463544 -3.4
-59.27643438 -22.46639828 -6.95
-66.85096668 -34.67364566 -10.5
-68.05004664 -34.23188282 -6.95
-72.4254677 -27.79275262 -6.95
-46.05189097 -50.27120598 -3.4
-40 -80 -3.4
-40 -80 -10.5
-18.77807356 -52.36897868 -3.4
-43.02594549 -65.13560299 -3.4
-40 -80 -6.95
-43.02594549 -65.13560299 -6.95
-32.41498227 -51.32009233 -3.4
-29.38903678 -66.18448934 -3.4
-29.38903678 -66.18448934 -6.95
-80 -40 -10.5
-53.70193335 -29.34729133 -10.5
-56.10009327 -28.46376564 -3.4
-56.80751465 -56.88071741 -10.5
-66.85096668 -34.67364566 -10.5
-54.90101331 -28.90552848 -6.95
-68.05004664 -34.23188282 -6.95
-68.40375733 -48.4403587 -10.5
-55.254724 -43.11400437 -10.5
-56.45380396 -42.67224152 -6.95
-80 -40 -3.4
-80 -40 -10.5
-56.10009327 -28.46376564 -3.4
-56.80751465 -56.88071741 -10.5
-80 -40 -6.95
-68.05004664 -34.23188282 -6.95
-68.05004664 -34.23188282 -3.4
-68.40375733 -48.4403587 -6.95
-68.40375733 -48.4403587 -10.5
-56.45380396 -42.67224152 -6.95
-80 -40 -3.4
-64.85093541 -15.58550524 -3.4
-56.10009327 -28.46376564 -3.4
-80 -40 -10.5
-72.4254677 -27.79275262 -3.4
-60.47551434 -22.02463544 -3.4
-68.05004664 -34.23188282 -3.4
-80 -40 -6.95
-72.4254677 -27.79275262 -6.95
-68.05004664 -34.23188282 -6.95
-10.97631886 -4.569077337 -3.4
-6.562657941 -9.734789696 -3.4
-14.82258609 -10.38793373 -3.4
-6.936882012 -5.098539829 -9.13351315
-8.7694884 -7.151933516 -3.4
-10.69262202 -10.06136171 -3.4
-12.89945247 -7.478505535 -3.4
-8.956600436 -4.833808583 -6.266756575
-6.749769976 -7.416664762 -6.266756575
-10.87973405 -7.743236781 -6.266756575
-17.19268076 -4.215970994 -3.4
-8.816745334 0 -6.405136994
-10.97631886 -4.569077337 -3.4
-6.936882012 -5.098539829 -9.13351315
-13.00471305 -2.107985497 -4.902568497
-9.896532097 -2.284538668 -4.902568497
-14.08449981 -4.392524165 -3.4
-12.06478138 -4.657255411 -6.266756575
-7.876813673 -2.549269914 -7.769325072
-8.956600436 -4.833808583 -6.266756575
-46.05189097 -50.27120598 -3.4
-56.10009327 -28.46376564 -3.4
-53.70193335 -29.34729133 -10.5
-56.80751465 -56.88071741 -10.5
-51.07599212 -39.36748581 -3.4
-54.90101331 -28.90552848 -6.95
-49.87691216 -39.80924865 -6.95
-51.42970281 -53.57596169 -6.95
-56.45380396 -42.67224152 -6.95
-55.254724 -43.11400437 -10.5
-49.21749377 -11.78656805 -3.4
-64.85093541 -15.58550524 -3.4
-53.70193335 -29.34729133 -10.5
-56.10009327 -28.46376564 -3.4
-57.03421459 -13.68603665 -3.4
-59.27643438 -22.46639828 -6.95
-51.45971356 -20.56692969 -6.95
-52.65879352 -20.12516685 -3.4
-60.47551434 -22.02463544 -3.4
-54.90101331 -28.90552848 -6.95
-39.58959944 -25.83695265 -3.4
-56.10009327 -28.46376564 -3.4
-53.70193335 -29.34729133 -10.5
-46.05189097 -50.27120598 -3.4
-47.84484636 -27.15035914 -3.4
-54.90101331 -28.90552848 -6.95
-46.6457664 -27.59212199 -6.95
-42.82074521 -38.05407932 -3.4
-51.07599212 -39.36748581 -3.4
-49.87691216 -39.80924865 -6.95
-80 0 -3.4
-64.85093541 -15.58550524 -3.4
-80 0 -10.5
-57.35599644 0 -3.4
-72.4254677 -7.792752621 -3.4
-72.4254677 -7.792752621 -6.95
-80 0 -6.95
-68.67799822 0 -3.4
-61.10346593 -7.792752621 -3.4
-68.67799822 0 -6.95
-39.58959944 -25.83695265 -3.4
-49.21749377 -11.78656805 -3.4
-53.70193335 -29.34729133 -10.5
-56.10009327 -28.46376564 -3.4
-44.40354661 -18.81176035 -3.4
-51.45971356 -20.56692969 -6.95
-46.6457664 -27.59212199 -6.95
-47.84484636 -27.15035914 -3.4
-52.65879352 -20.12516685 -3.4
-54.90101331 -28.90552848 -6.95
-40 0 -10.5
-57.35599644 0 -3.4
-49.21749377 -11.78656805 -3.4
-41.0789911 0 -3.4
-48.67799822 0 -6.95
-53.28674511 -5.893284027 -3.4
-44.60874688 -5.893284027 -6.95
-40.53949555 0 -6.95
-49.21749377 0 -3.4
-45.14824243 -5.893284027 -3.4
-46.05189097 -50.27120598 -3.4
-20 -45.35898385 -10.5
-28.10264555 -36.10448984 -3.4
-18.77807356 -52.36897868 -3.4
-33.02594549 -47.81509491 -6.95
-24.05132278 -40.73173685 -6.95
-37.07726826 -43.18784791 -3.4
-32.41498227 -51.32009233 -3.4
-19.38903678 -48.86398126 -6.95
-23.44035956 -44.23673426 -3.4
-28.10264555 -36.10448984 -3.4
-12.72304544 -32.86479037 -3.4
-18.77807356 -52.36897868 -3.4
-20 -45.35898385 -10.5
-20.4128455 -34.48464011 -3.4
-15.7505595 -42.61688453 -3.4
-23.44035956 -44.23673426 -3.4
-24.05132278 -40.73173685 -6.95
-16.36152272 -39.11188711 -6.95
-19.38903678 -48.86398126 -6.95
-18.77807356 -52.36897868 -3.4
-20 -45.35898385 -10.5
-12.72304544 -32.86479037 -3.4
2.582327856 -46.15903624 -3.4
-19.38903678 -48.86398126 -6.95
-16.36152272 -39.11188711 -6.95
-15.7505595 -42.61688453 -3.4
-8.097872854 -49.26400746 -3.4
-8.708836072 -45.75901005 -6.95
-5.070358793 -39.51191331 -3.4
-40 0 -10.5
-41.0789911 0 -3.4
-49.21749377 -11.78656805 -3.4
-35.22885825 -8.708177492 -3.4
-40.53949555 0 -6.95
-45.14824243 -5.893284027 -3.4
-44.60874688 -5.893284027 -6.95
-37.61442912 -4.354088746 -6.95
-38.15392467 -4.354088746 -3.4
-42.22317601 -10.24737277 -3.4
-5.514209552 -3.8896768 -3.4
-1.486149823 -6.928202819 -3.4
-6.562657941 -9.734789696 -3.4
-6.936882012 -5.098539829 -9.13351315
-3.500179687 -5.408939809 -3.4
-4.024403882 -8.331496257 -3.4
-6.038433746 -6.812233248 -3.4
-6.225545782 -4.494108314 -6.266756575
-4.211515917 -6.013371324 -6.266756575
-6.749769976 -7.416664762 -6.266756575
-10.97631886 -4.569077337 -3.4
-5.514209552 -3.8896768 -3.4
-6.562657941 -9.734789696 -3.4
-6.936882012 -5.098539829 -9.13351315
-8.245264206 -4.229377068 -3.4
-6.038433746 -6.812233248 -3.4
-8.7694884 -7.151933516 -3.4
-8.956600436 -4.833808583 -6.266756575
-6.225545782 -4.494108314 -6.266756575
-6.749769976 -7.416664762 -6.266756575
-41.0789911 0 -3.4
-35.22885825 -8.708177492 -3.4
-40 0 -10.5
-29.3787254 0 -3.4
-38.15392467 -4.354088746 -3.4
-37.61442912 -4.354088746 -6.95
-40.53949555 0 -6.95
-35.22885825 0 -3.4
-32.30379182 -4.354088746 -3.4
-34.6893627 0 -6.95
-7.453252438 0 -3.4
-14.92273025 0 -3.4
-8.816745334 0 -6.405136994
-10.97631886 -4.569077337 -3.4
-11.18799134 0 -3.4
-11.86973779 0 -4.902568497
-8.134998886 0 -4.902568497
-9.214785649 -2.284538668 -3.4
-12.94952455 -2.284538668 -3.4
-9.896532097 -2.284538668 -4.902568497
-7.453252438 0 -3.4
-8.816745334 0 -6.405136994
-5.514209552 -3.8896768 -3.4
-10.97631886 -4.569077337 -3.4
-8.134998886 0 -4.902568497
-7.165477443 -1.9448384 -4.902568497
-6.483730995 -1.9448384 -3.4
-9.214785649 -2.284538668 -3.4
-9.896532097 -2.284538668 -4.902568497
-8.245264206 -4.229377068 -3.4
-5.514209552 -3.8896768 -3.4
-5.712434052 0 -5.604418866
-8.816745334 0 -6.405136994
-7.453252438 0 -3.4
-5.613321802 -1.9448384 -4.502209433
-7.264589693 0 -6.00477793
-7.165477443 -1.9448384 -4.902568497
-6.483730995 -1.9448384 -3.4
-6.582843245 0 -4.502209433
-8.134998886 0 -4.902568497
-10.97631886 -4.569077337 -3.4
-8.816745334 0 -6.405136994
-5.514209552 -3.8896768 -3.4
-6.936882012 -5.098539829 -9.13351315
-9.896532097 -2.284538668 -4.902568497
-7.165477443 -1.9448384 -4.902568497
-8.245264206 -4.229377068 -3.4
-8.956600436 -4.833808583 -6.266756575
-7.876813673 -2.549269914 -7.769325072
-6.225545782 -4.494108314 -6.266756575
-8.816745334 0 -6.405136994
-5.712434052 0 -5.604418866
-5.514209552 -3.8896768 -3.4
-6.936882012 -5.098539829 -9.13351315
-7.264589693 0 -6.00477793
-5.613321802 -1.9448384 -4.502209433
-7.165477443 -1.9448384 -4.902568497
-7.876813673 -2.549269914 -7.769325072
-6.324658032 -2.549269914 -7.368966008
-6.225545782 -4.494108314 -6.266756575
-12.72304544 -32.86479037 -3.4
-9.599169743 -18.78484362 -3.4
-20 -45.35898385 -10.5
-23.37061834 -19.18052153 -3.4
-11.16110759 -25.82481699 -3.4
-14.79958487 -32.07191373 -6.95
-16.36152272 -39.11188711 -6.95
-18.04683189 -26.02265595 -3.4
-16.48489404 -18.98268257 -3.4
-21.68530917 -32.26975269 -6.95
-20 -45.35898385 -10.5
-53.70193335 -29.34729133 -10.5
-23.37061834 -19.18052153 -3.4
-40 0 -10.5
-36.85096668 -37.35313759 -10.5
-38.53627585 -24.26390643 -6.95
-21.68530917 -32.26975269 -6.95
-30 -22.67949192 -10.5
-46.85096668 -14.67364566 -10.5
-31.68530917 -9.590260764 -6.95
-9.599169743 -18.78484362 -3.4
-20 -45.35898385 -10.5
1.259117512 -26.97648465 -3.4
-12.72304544 -32.86479037 -3.4
-14.79958487 -32.07191373 -6.95
-9.370441244 -36.16773425 -6.95
-4.170026116 -22.88066414 -3.4
-11.16110759 -25.82481699 -3.4
-16.36152272 -39.11188711 -6.95
-5.731963965 -29.92063751 -3.4
-40 0 -10.5
0 0 -10.5
-1 0 -10
-2.406826361 -0.9745615463 -9.875471454
-20 0 -10.5
-0.5 0 -10.25
-20.5 0 -10.25
-21.20341318 -0.4872807731 -10.18773573
-1.20341318 -0.4872807731 -10.18773573
-1.70341318 -0.4872807731 -9.937735727
-40 0 -10.5
-1 0 -10
-8.816745334 0 -6.405136994
-2.406826361 -0.9745615463 -9.875471454
-20.5 0 -10.25
-4.908372667 0 -8.202568497
-24.40837267 0 -8.452568497
-21.20341318 -0.4872807731 -10.18773573
-1.70341318 -0.4872807731 -9.937735727
-5.611785847 -0.4872807731 -8.140304224
-14.82258609 -10.38793373 -3.4
-23.30834065 -7.162864969 -3.4
-17.19268076 -4.215970994 -3.4
-6.936882012 -5.098539829 -9.13351315
-19.06546337 -8.775399351 -3.4
-20.25051071 -5.689417981 -3.4
-16.00763342 -7.301952363 -3.4
-10.87973405 -7.743236781 -6.266756575
-15.12261133 -6.130702399 -6.266756575
-12.06478138 -4.657255411 -6.266756575
-14.82258609 -10.38793373 -3.4
-23.37061834 -19.18052153 -3.4
-23.30834065 -7.162864969 -3.4
-6.936882012 -5.098539829 -9.13351315
-19.09660221 -14.78422763 -3.4
-23.3394795 -13.17169325 -3.4
-19.06546337 -8.775399351 -3.4
-10.87973405 -7.743236781 -6.266756575
-15.15375017 -12.13953068 -6.266756575
-15.12261133 -6.130702399 -6.266756575
-8.816745334 0 -6.405136994
-40 0 -10.5
-2.406826361 -0.9745615463 -9.875471454
-6.936882012 -5.098539829 -9.13351315
-24.40837267 0 -8.452568497
-21.20341318 -0.4872807731 -10.18773573
-5.611785847 -0.4872807731 -8.140304224
-7.876813673 -2.549269914 -7.769325072
-23.46844101 -2.549269914 -9.816756575
-4.671854186 -3.036550688 -9.504492302
-23.30834065 -7.162864969 -3.4
-20.96831662 0 -3.4
-17.19268076 -4.215970994 -3.4
-6.936882012 -5.098539829 -9.13351315
-22.13832864 -3.581432484 -3.4
-19.08049869 -2.107985497 -3.4
-20.25051071 -5.689417981 -3.4
-15.12261133 -6.130702399 -6.266756575
-13.95259932 -2.549269914 -6.266756575
-12.06478138 -4.657255411 -6.266756575
-23.30834065 -7.162864969 -3.4
-23.37061834 -19.18052153 -3.4
-40 0 -10.5
-6.936882012 -5.098539829 -9.13351315
-23.3394795 -13.17169325 -3.4
-31.68530917 -9.590260764 -6.95
-31.65417033 -3.581432484 -6.95
-15.12261133 -6.130702399 -6.266756575
-15.15375017 -12.13953068 -6.266756575
-23.46844101 -2.549269914 -9.816756575
-9.599169743 -18.78484362 -3.4
-23.37061834 -19.18052153 -3.4
-14.82258609 -10.38793373 -3.4
-6.936882012 -5.098539829 -9.13351315
-16.48489404 -18.98268257 -3.4
-19.09660221 -14.78422763 -3.4
-12.21087792 -14.58638868 -3.4
-8.268025877 -11.94169172 -6.266756575
-15.15375017 -12.13953068 -6.266756575
-10.87973405 -7.743236781 -6.266756575
-40 0 -10.5
-23.37061834 -19.18052153 -3.4
-20 -45.35898385 -10.5
-6.936882012 -5.098539829 -9.13351315
-31.68530917 -9.590260764 -6.95
-21.68530917 -32.26975269 -6.95
-30 -22.67949192 -10.5
-23.46844101 -2.549269914 -9.816756575
-15.15375017 -12.13953068 -6.266756575
-13.46844101 -25.22876184 -9.816756575
-20 -45.35898385 -10.5
-23.37061834 -19.18052153 -3.4
-9.599169743 -18.78484362 -3.4
-6.936882012 -5.098539829 -9.13351315
-21.68530917 -32.26975269 -6.95
-16.48489404 -18.98268257 -3.4
-14.79958487 -32.07191373 -6.95
-13.46844101 -25.22876184 -9.816756575
-15.15375017 -12.13953068 -6.266756575
-8.268025877 -11.94169172 -6.266756575
-40 0 -10.5
-20 -45.35898385 -10.5
0 0 -10.5
-6.936882012 -5.098539829 -9.13351315
-30 -22.67949192 -10.5
-10 -22.67949192 -10.5
-20 0 -10.5
-23.46844101 -2.549269914 -9.816756575
-13.46844101 -25.22876184 -9.816756575
-3.468441006 -2.549269914 -9.816756575
-40 0 -10.5
0 0 -10.5
-2.406826361 -0.9745615463 -9.875471454
-6.936882012 -5.098539829 -9.13351315
-20 0 -10.5
-1.20341318 -0.4872807731 -10.18773573
-21.20341318 -0.4872807731 -10.18773573
-23.46844101 -2.549269914 -9.816756575
-3.468441006 -2.549269914 -9.816756575
-4.671854186 -3.036550688 -9.504492302
-53.70193335 -29.34729133 -10.5
-49.21749377 -11.78656805 -3.4
-35.22885825 -8.708177492 -3.4
-40 0 -10.5
-51.45971356 -20.56692969 -6.95
-42.22317601 -10.24737277 -3.4
-44.4653958 -19.02773441 -6.95
-46.85096668 -14.67364566 -10.5
-44.60874688 -5.893284027 -6.95
-37.61442912 -4.354088746 -6.95
-35.22885825 -8.708177492 -3.4
-49.21749377 -11.78656805 -3.4
-53.70193335 -29.34729133 -10.5
-39.58959944 -25.83695265 -3.4
-42.22317601 -10.24737277 -3.4
-51.45971356 -20.56692969 -6.95
-44.4653958 -19.02773441 -6.95
-37.40922884 -17.27256507 -3.4
-44.40354661 -18.81176035 -3.4
-46.6457664 -27.59212199 -6.95
-35.22885825 -8.708177492 -3.4
-23.37061834 -19.18052153 -3.4
-53.70193335 -29.34729133 -10.5
-40 0 -10.5
-29.29973829 -13.94434951 -3.4
-38.53627585 -24.26390643 -6.95
-44.4653958 -19.02773441 -6.95
-37.61442912 -4.354088746 -6.95
-31.68530917 -9.590260764 -6.95
-46.85096668 -14.67364566 -10.5
-53.70193335 -29.34729133 -10.5
-23.37061834 -19.18052153 -3.4
-35.22885825 -8.708177492 -3.4
-39.58959944 -25.83695265 -3.4
-38.53627585 -24.26390643 -6.95
-29.29973829 -13.94434951 -3.4
-44.4653958 -19.02773441 -6.95
-46.6457664 -27.59212199 -6.95
-31.48010889 -22.50873709 -3.4
-37.40922884 -17.27256507 -3.4
-40 -80 -10.5
-46.05189097 -50.27120598 -3.4
-80 -80 -3.4
-40 -80 -3.4
-43.02594549 -65.13560299 -6.95
-63.02594549 -65.13560299 -3.4
-60 -80 -6.95
-40 -80 -6.95
-43.02594549 -65.13560299 -3.4
-60 -80 -3.4
-80 -80 -3.4
-46.05189097 -50.27120598 -3.4
-40 -80 -10.5
-56.80751465 -56.88071741 -10.5
-63.02594549 -65.13560299 -3.4
-43.02594549 -65.13560299 -6.95
-60 -80 -6.95
-68.40375733 -68.4403587 -6.95
-51.42970281 -53.57596169 -6.95
-48.40375733 -68.4403587 -10.5
-1.486149823 -6.928202819 -3.4
-6.936882012 -5.098539829 -9.13351315
-0.1635248549 -14.68488354 -3.4
-6.562657941 -9.734789696 -3.4
-4.211515917 -6.013371324 -6.266756575
-3.550203433 -9.891711685 -6.266756575
-0.8248373387 -10.80654318 -3.4
-4.024403882 -8.331496257 -3.4
-6.749769976 -7.416664762 -6.266756575
-3.363091398 -12.20983662 -3.4
-0.1635248549 -14.68488354 -3.4
-9.599169743 -18.78484362 -3.4
-20 -45.35898385 -10.5
1.259117512 -26.97648465 -3.4
-4.881347299 -16.73486358 -3.4
-14.79958487 -32.07191373 -6.95
-10.08176243 -30.0219337 -6.95
0.5477963283 -20.8306841 -3.4
-4.170026116 -22.88066414 -3.4
-9.370441244 -36.16773425 -6.95
-20 -45.35898385 -10.5
-9.599169743 -18.78484362 -3.4
-0.1635248549 -14.68488354 -3.4
-6.936882012 -5.098539829 -9.13351315
-14.79958487 -32.07191373 -6.95
-4.881347299 -16.73486358 -3.4
-10.08176243 -30.0219337 -6.95
-13.46844101 -25.22876184 -9.816756575
-8.268025877 -11.94169172 -6.266756575
-3.550203433 -9.891711685 -6.266756575
-20 -45.35898385 -10.5
-39.58959944 -25.83695265 -3.4
-46.05189097 -50.27120598 -3.4
-28.10264555 -36.10448984 -3.4
-29.79479972 -35.59796825 -6.95
-42.82074521 -38.05407932 -3.4
-33.02594549 -47.81509491 -6.95
-24.05132278 -40.73173685 -6.95
-33.8461225 -30.97072125 -3.4
-37.07726826 -43.18784791 -3.4
-39.58959944 -25.83695265 -3.4
-20 -45.35898385 -10.5
-46.05189097 -50.27120598 -3.4
-53.70193335 -29.34729133 -10.5
-29.79479972 -35.59796825 -6.95
-33.02594549 -47.81509491 -6.95
-42.82074521 -38.05407932 -3.4
-46.6457664 -27.59212199 -6.95
-36.85096668 -37.35313759 -10.5
-49.87691216 -39.80924865 -6.95
-39.58959944 -25.83695265 -3.4
-20 -45.35898385 -10.5
-23.37061834 -19.18052153 -3.4
-28.10264555 -36.10448984 -3.4
-29.79479972 -35.59796825 -6.95
-21.68530917 -32.26975269 -6.95
-31.48010889 -22.50873709 -3.4
-33.8461225 -30.97072125 -3.4
-24.05132278 -40.73173685 -6.95
-25.73663194 -27.64250568 -3.4
-20 -45.35898385 -10.5
-39.58959944 -25.83695265 -3.4
-23.37061834 -19.18052153 -3.4
-53.70193335 -29.34729133 -10.5
-29.79479972 -35.59796825 -6.95
-31.48010889 -22.50873709 -3.4
-21.68530917 -32.26975269 -6.95
-36.85096668 -37.35313759 -10.5
-46.6457664 -27.59212199 -6.95
-38.53627585 -24.26390643 -6.95
-53.70193335 -29.34729133 -40
-20 -45.35898385 -10.5
-20 0 -25.25
-53.70193335 -29.34729133 -10.5
-36.85096668 -37.35313759 -25.25
-20 -22.67949192 -17.875
-36.85096668 -14.67364566 -32.625
-53.70193335 -29.34729133 -25.25
-36.85096668 -37.35313759 -10.5
-36.85096668 -14.67364566 -17.875
-20 -45.35898385 -40
0 0 -10.5
-20 0 -25.25
-20 -45.35898385 -10.5
-10 -22.67949192 -25.25
-10 0 -17.875
-20 -22.67949192 -32.625
-20 -45.35898385 -25.25
-10 -22.67949192 -10.5
-20 -22.67949192 -17.875
-20 -45.35898385 -40
-20 0 -25.25
0 0 -10.5
0 0 -40
-20 -22.67949192 -32.625
-10 0 -17.875
-10 -22.67949192 -25.25
-10 -22.67949192 -40
-10 0 -32.625
0 0 -25.25
-53.70193335 -29.34729133 -40
-20 0 -25.25
-20 -45.35898385 -10.5
-20 -45.35898385 -40
-36.85096668 -14.67364566 -32.625
-20 -22.67949192 -17.875
-36.85096668 -37.35313759 -25.25
-36.85096668 -37.35313759 -40
-20 -22.67949192 -32.625
-20 -45.35898385 -25.25
-20 -80 -25.25
-20 -45.35898385 -40
-40 -80 -40
-40 -80 -10.5
-20 -62.67949192 -32.625
-30 -62.67949192 -40
-30 -80 -32.625
-30 -80 -17.875
-30 -62.67949192 -25.25
-40 -80 -25.25
-53.70193335 -29.34729133 -40
-53.70193335 -29.34729133 -10.5
-20 0 -25.25
-40 0 -10.5
-53.70193335 -29.34729133 -25.25
-36.85096668 -14.67364566 -17.875
-36.85096668 -14.67364566 -32.625
-46.85096668 -14.67364566 -25.25
-46.85096668 -14.67364566 -10.5
-30 0 -17.875
0 0 -10.5
-20 -45.35898385 -10.5
-40 0 -10.5
-20 0 -25.25
-10 -22.67949192 -10.5
-30 -22.67949192 -10.5
-20 0 -10.5
-10 0 -17.875
-20 -22.67949192 -17.875
-30 0 -17.875
-20 0 -25.25
-20 -45.35898385 -40
-40 0 -40
0 0 -40
-20 -22.67949192 -32.625
-30 -22.67949192 -40
-30 0 -32.625
-10 0 -32.625
-10 -22.67949192 -40
-20 0 -40
-20 -45.35898385 -40
-40 0 -40
-53.70193335 -29.34729133 -40
-20 0 -25.25
-30 -22.67949192 -40
-46.85096668 -14.67364566 -40
-36.85096668 -37.35313759 -40
-20 -22.67949192 -32.625
-30 0 -32.625
-36.85096668 -14.67364566 -32.625
-20 -45.35898385 -10.5
-20 0 -25.25
-53.70193335 -29.34729133 -10.5
-40 0 -10.5
-20 -22.67949192 -17.875
-36.85096668 -14.67364566 -17.875
-36.85096668 -37.35313759 -10.5
-30 -22.67949192 -10.5
-30 0 -17.875
-46.85096668 -14.67364566 -10.5
-20 -80 -25.25
-20 -45.35898385 -10.5
-20 -45.35898385 -40
-40 -80 -10.5
-20 -62.67949192 -17.875
-20 -45.35898385 -25.25
-20 -62.67949192 -32.625
-30 -80 -17.875
-30 -62.67949192 -10.5
-30 -62.67949192 -25.25
-40 0 -10.5
-20 0 -25.25
-53.70193335 -29.34729133 -40
-40 0 -40
-30 0 -17.875
-36.85096668 -14.67364566 -32.625
-46.85096668 -14.67364566 -25.25
-40 0 -25.25
-30 0 -32.625
-46.85096668 -14.67364566 -40
-40 -80 -10.5
-56.80751465 -56.88071741 -10.5
-20 -45.35898385 -40
-56.80751465 -56.88071741 -40
-48.40375733 -68.4403587 -10.5
-38.40375733 -51.11985063 -25.25
-30 -62.67949192 -25.25
-48.40375733 -68.4403587 -25.25
-56.80751465 -56.88071741 -25.25
-38.40375733 -51.11985063 -40
-53.70193335 -29.34729133 -40
-60 0 -25.25
-80 0 -40
-80 -20 -25.25
-56.85096668 -14.67364566 -32.625
-70 0 -32.625
-66.85096668 -14.67364566 -40
-66.85096668 -24.67364566 -32.625
-70 -10 -25.25
-80 -10 -32.625
-60 0 -25.25
-53.70193335 -29.34729133 -10.5
-80 0 -10.5
-80 -20 -25.25
-56.85096668 -14.67364566 -17.875
-66.85096668 -14.67364566 -10.5
-70 0 -17.875
-70 -10 -25.25
-66.85096668 -24.67364566 -17.875
-80 -10 -17.875
-53.70193335 -29.34729133 -40
-80 0 -40
-80 -40 -40
-80 -20 -25.25
-66.85096668 -14.67364566 -40
-80 -20 -40
-66.85096668 -34.67364566 -40
-66.85096668 -24.67364566 -32.625
-80 -10 -32.625
-80 -30 -32.625
-53.70193335 -29.34729133 -10.5
-80 -40 -10.5
-80 0 -10.5
-80 -20 -25.25
-66.85096668 -34.67364566 -10.5
-80 -20 -10.5
-66.85096668 -14.67364566 -10.5
-66.85096668 -24.67364566 -17.875
-80 -30 -17.875
-80 -10 -17.875
-56.80751465 -56.88071741 -40
-40 -80 -40
-20 -45.35898385 -40
-40 -80 -10.5
-48.40375733 -68.4403587 -40
-30 -62.67949192 -40
-38.40375733 -51.11985063 -40
-48.40375733 -68.4403587 -25.25
-40 -80 -25.25
-30 -62.67949192 -25.25
-20 -45.35898385 -40
-56.80751465 -56.88071741 -10.5
-53.70193335 -29.34729133 -40
-56.80751465 -56.88071741 -40
-38.40375733 -51.11985063 -25.25
-55.254724 -43.11400437 -25.25
-36.85096668 -37.35313759 -40
-38.40375733 -51.11985063 -40
-56.80751465 -56.88071741 -25.25
-55.254724 -43.11400437 -40
-53.70193335 -29.34729133 -10.5
-53.70193335 -29.34729133 -40
-20 -45.35898385 -10.5
-56.80751465 -56.88071741 -10.5
-53.70193335 -29.34729133 -25.25
-36.85096668 -37.35313759 -25.25
-36.85096668 -37.35313759 -10.5
-55.254724 -43.11400437 -10.5
-55.254724 -43.11400437 -25.25
-38.40375733 -51.11985063 -10.5
-80 -20 -25.25
-53.70193335 -29.34729133 -40
-60 0 -25.25
-53.70193335 -29.34729133 -10.5
-66.85096668 -24.67364566 -32.625
-56.85096668 -14.67364566 -32.625
-70 -10 -25.25
-66.85096668 -24.67364566 -17.875
-53.70193335 -29.34729133 -25.25
-56.85096668 -14.67364566 -17.875
-20 -80 -25.25
-20 -45.35898385 -40
0 -80 -10.5
0 -80 -40
-20 -62.67949192 -32.625
-10 -62.67949192 -25.25
-10 -80 -17.875
-10 -80 -32.625
-10 -62.67949192 -40
0 -80 -25.25
-80 -60 -25.25
-56.80751465 -56.88071741 -40
-80 -40 -40
-56.80751465 -56.88071741 -10.5
-68.40375733 -58.4403587 -32.625
-68.40375733 -48.4403587 -40
-80 -50 -32.625
-68.40375733 -58.4403587 -17.875
-56.80751465 -56.88071741 -25.25
-68.40375733 -48.4403587 -25.25
-20 -80 -25.25
0 -80 -10.5
-20 -45.35898385 -40
-20 -45.35898385 -10.5
-10 -80 -17.875
-10 -62.67949192 -25.25
-20 -62.67949192 -32.625
-20 -62.67949192 -17.875
-10 -62.67949192 -10.5
-20 -45.35898385 -25.25
-56.80751465 -56.88071741 -40
-56.80751465 -56.88071741 -10.5
-60 -80 -25.25
-40 -80 -10.5
-56.80751465 -56.88071741 -25.25
-58.40375733 -68.4403587 -17.875
-58.40375733 -68.4403587 -32.625
-48.40375733 -68.4403587 -25.25
-48.40375733 -68.4403587 -10.5
-50 -80 -17.875
-80 -80 -40
-80 -40 -40
-80 -60 -25.25
-56.80751465 -56.88071741 -40
-80 -60 -40
-80 -50 -32.625
-80 -70 -32.625
-68.40375733 -68.4403587 -40
-68.40375733 -48.4403587 -40
-68.40375733 -58.4403587 -32.625
-40 -80 -40
-80 -80 -40
-60 -80 -25.25
-56.80751465 -56.88071741 -40
-60 -80 -40
-70 -80 -32.625
-50 -80 -32.625
-48.40375733 -68.4403587 -40
-68.40375733 -68.4403587 -40
-58.40375733 -68.4403587 -32.625
-40 0 -40
-80 0 -40
-53.70193335 -29.34729133 -40
-60 0 -25.25
-60 0 -40
-66.85096668 -14.67364566 -40
-46.85096668 -14.67364566 -40
-50 0 -32.625
-70 0 -32.625
-56.85096668 -14.67364566 -32.625
-53.70193335 -29.34729133 -10.5
-80 0 -10.5
-40 0 -10.5
-60 0 -25.25
-66.85096668 -14.67364566 -10.5
-60 0 -10.5
-46.85096668 -14.67364566 -10.5
-56.85096668 -14.67364566 -17.875
-70 0 -17.875
-50 0 -17.875
-40 -80 -40
-20 -80 -25.25
0 -80 -40
-20 -45.35898385 -40
-30 -80 -32.625
-10 -80 -32.625
-20 -80 -40
-30 -62.67949192 -40
-20 -62.67949192 -32.625
-10 -62.67949192 -40
-80 -40 -40
-80 -40 -10.5
-80 -60 -25.25
-56.80751465 -56.88071741 -10.5
-80 -40 -25.25
-80 -50 -17.875
-80 -50 -32.625
-68.40375733 -48.4403587 -25.25
-68.40375733 -48.4403587 -10.5
-68.40375733 -58.4403587 -17.875
-56.80751465 -56.88071741 -10.5
-80 -80 -10.5
-80 -40 -10.5
-80 -60 -25.25
-68.40375733 -68.4403587 -10.5
-80 -60 -10.5
-68.40375733 -48.4403587 -10.5
-68.40375733 -58.4403587 -17.875
-80 -70 -17.875
-80 -50 -17.875
-56.80751465 -56.88071741 -40
-60 -80 -25.25
-40 -80 -40
-40 -80 -10.5
-58.40375733 -68.4403587 -32.625
-50 -80 -32.625
-48.40375733 -68.4403587 -40
-48.40375733 -68.4403587 -25.25
-50 -80 -17.875
-40 -80 -25.25
-56.80751465 -56.88071741 -10.5
-40 -80 -10.5
-80 -80 -10.5
-60 -80 -25.25
-48.40375733 -68.4403587 -10.5
-60 -80 -10.5
-68.40375733 -68.4403587 -10.5
-58.40375733 -68.4403587 -17.875
-50 -80 -17.875
-70 -80 -17.875
-20 -45.35898385 -10.5
0 -80 -10.5
-40 -80 -10.5
-20 -80 -25.25
-10 -62.67949192 -10.5
-20 -80 -10.5
-30 -62.67949192 -10.5
-20 -62.67949192 -17.875
-10 -80 -17.875
-30 -80 -17.875
-40 -80 -10.5
-20 -45.35898385 -40
-56.80751465 -56.88071741 -10.5
-20 -45.35898385 -10.5
-30 -62.67949192 -25.25
-38.40375733 -51.11985063 -25.25
-48.40375733 -68.4403587 -10.5
-30 -62.67949192 -10.5
-20 -45.35898385 -25.25
-38.40375733 -51.11985063 -10.5
-60 0 -25.25
-53.70193335 -29.34729133 -10.5
-53.70193335 -29.34729133 -40
-40 0 -10.5
-56.85096668 -14.67364566 -17.875
-53.70193335 -29.34729133 -25.25
-56.85096668 -14.67364566 -32.625
-50 0 -17.875
-46.85096668 -14.67364566 -10.5
-46.85096668 -14.67364566 -25.25
-56.80751465 -56.88071741 -10.5
-53.70193335 -29.34729133 -40
-20 -45.35898385 -10.5
-20 -45.35898385 -40
-55.254724 -43.11400437 -25.25
-36.85096668 -37.35313759 -25.25
-38.40375733 -51.11985063 -10.5
-38.40375733 -51.11985063 -25.25
-36.85096668 -37.35313759 -40
-20 -45.35898385 -25.25
-53.70193335 -29.34729133 -40
-53.70193335 -29.34729133 -10.5
-80 -20 -25.25
-80 -40 -10.5
-53.70193335 -29.34729133 -25.25
-66.85096668 -24.67364566 -17.875
-66.85096668 -24.67364566 -32.625
-66.85096668 -34.67364566 -25.25
-66.85096668 -34.67364566 -10.5
-80 -30 -17.875
-80 -20 -25.25
-80 -40 -40
-53.70193335 -29.34729133 -40
-80 -40 -10.5
-80 -30 -32.625
-66.85096668 -34.67364566 -40
-66.85096668 -24.67364566 -32.625
-80 -30 -17.875
-80 -40 -25.25
-66.85096668 -34.67364566 -25.25
-53.70193335 -29.34729133 -40
-80 -40 -40
-56.80751465 -56.88071741 -40
-56.80751465 -56.88071741 -10.5
-66.85096668 -34.67364566 -40
-68.40375733 -48.4403587 -40
-55.254724 -43.11400437 -40
-55.254724 -43.11400437 -25.25
-68.40375733 -48.4403587 -25.25
-56.80751465 -56.88071741 -25.25
-80 -40 -10.5
-53.70193335 -29.34729133 -40
-53.70193335 -29.34729133 -10.5
-56.80751465 -56.88071741 -10.5
-66.85096668 -34.67364566 -25.25
-53.70193335 -29.34729133 -25.25
-66.85096668 -34.67364566 -10.5
-68.40375733 -48.4403587 -10.5
-55.254724 -43.11400437 -25.25
-55.254724 -43.11400437 -10.5
-53.70193335 -29.34729133 -40
-80 -40 -10.5
-80 -40 -40
-56.80751465 -56.88071741 -10.5
-66.85096668 -34.67364566 -25.25
-80 -40 -25.25
-66.85096668 -34.67364566 -40
-55.254724 -43.11400437 -25.25
-68.40375733 -48.4403587 -10.5
-68.40375733 -48.4403587 -25.25
-60 -80 -25.25
-56.80751465 -56.88071741 -40
-80 -60 -25.25
-56.80751465 -56.88071741 -10.5
-58.40375733 -68.4403587 -32.625
-68.40375733 -58.4403587 -32.625
-70 -70 -25.25
-58.40375733 -68.4403587 -17.875
-56.80751465 -56.88071741 -25.25
-68.40375733 -58.4403587 -17.875
-60 0 -25.25
-53.70193335 -29.34729133 -40
-40 0 -40
-40 0 -10.5
-56.85096668 -14.67364566 -32.625
-46.85096668 -14.67364566 -40
-50 0 -32.625
-50 0 -17.875
-46.85096668 -14.67364566 -25.25
-40 0 -25.25
-80 -60 -25.25
-60 -80 -25.25
-80 -80 -40
-56.80751465 -56.88071741 -40
-70 -70 -25.25
-70 -80 -32.625
-80 -70 -32.625
-68.40375733 -58.4403587 -32.625
-58.40375733 -68.4403587 -32.625
-68.40375733 -68.4403587 -40
-80 -60 -25.25
-80 -80 -10.5
-60 -80 -25.25
-56.80751465 -56.88071741 -10.5
-80 -70 -17.875
-70 -80 -17.875
-70 -70 -25.25
-68.40375733 -58.4403587 -17.875
-68.40375733 -68.4403587 -10.5
-58.40375733 -68.4403587 -17.875
-80 0 -40
-60 0 -25.25
-80 0 -10.5
-80 -20 -25.25
-70 0 -32.625
-70 0 -17.875
-80 0 -25.25
-80 -10 -32.625
-70 -10 -25.25
-80 -10 -17.875
-80 -80 -10.5
-60 -80 -25.25
-80 -80 -40
-80 -60 -25.25
-70 -80 -17.875
-70 -80 -32.625
-80 -80 -25.25
-80 -70 -17.875
-70 -70 -25.25
-80 -70 -32.625
8.259621265 -18.55504219 -3.4
1.259117512 -26.97648465 -3.4
-0.1635248549 -14.68488354 -2
-0.1635248549 -14.68488354 -3.4
4.759369388 -22.76576342 -3.4
0.5477963283 -20.8306841 -2.7
4.048048205 -16.61996287 -2.7
4.048048205 -16.61996287 -3.4
0.5477963283 -20.8306841 -3.4
-0.1635248549 -14.68488354 -2.7
5.906920728 -9.432751709 -3.4
8.259621265 -18.55504219 -3.4
-0.1635248549 -14.68488354 -2
-0.1635248549 -14.68488354 -3.4
7.083270997 -13.99389695 -3.4
4.048048205 -16.61996287 -2.7
2.871697937 -12.05881763 -2.7
2.871697937 -12.05881763 -3.4
4.048048205 -16.61996287 -3.4
-0.1635248549 -14.68488354 -2.7
-0.2297172171 -0.9732574172 -9.483948685
-0.7096530313 -0.704551329 -9.57318499
-0.5 -0.8660254038 -10
-0.8564761281 -2.175324925 -8.643739685
-0.4696851242 -0.8389043731 -9.528566838
-0.6048265156 -0.7852883664 -9.786592495
-0.3648586086 -0.9196414105 -9.741974343
-0.5430966726 -1.574291171 -9.063844185
-0.7830645797 -1.439938127 -9.108462337
-0.678238064 -1.520675164 -9.321869843
0.2398875122 -0.9708006909 -7.716330979
0.2394408418 -0.9709109554 -7.208309099
-0.198126696 -0.980176419 -7.46259629
-0.5011380637 -1.897275062 -7.56013902
0.239664177 -0.9708558232 -7.462320039
0.02065707289 -0.9755436872 -7.335452694
0.02088040807 -0.975488555 -7.589463634
-0.1306252758 -1.434037877 -7.638234999
-0.1308486109 -1.434093009 -7.38422406
-0.3496323798 -1.438725741 -7.511367655
-0.1979622597 -0.9802096427 -7.970775368
0.2403890958 -0.9706766107 -8.224737329
0.2398875122 -0.9708006909 -7.716330979
-0.5011380637 -1.897275062 -7.56013902
0.02121341808 -0.9754431267 -8.097756348
0.240138304 -0.9707386508 -7.970534154
0.02096262623 -0.9755051668 -7.843553173
-0.3495501617 -1.438742352 -7.765457194
-0.1303744839 -1.433975836 -7.892438174
-0.1306252758 -1.434037877 -7.638234999
-0.1984458286 -0.9801118575 -6.954682989
-0.198126696 -0.980176419 -7.46259629
0.2394408418 -0.9709109554 -7.208309099
-0.5011380637 -1.897275062 -7.56013902
-0.1982862623 -0.9801441382 -7.20863964
0.02065707289 -0.9755436872 -7.335452694
0.02049750663 -0.9755114064 -7.081496044
-0.3497919461 -1.43869346 -7.257411005
-0.3496323798 -1.438725741 -7.511367655
-0.1308486109 -1.434093009 -7.38422406
-0.1635248549 -14.68488354 -3.4
5.906920728 -9.432751709 -3.4
8.259621265 -18.55504219 -3.4
3.222413342 -22.26428404 -7.784971137
2.871697937 -12.05881763 -3.4
7.083270997 -13.99389695 -3.4
4.048048205 -16.61996287 -3.4
1.529444244 -18.47458379 -5.592485568
4.564667035 -15.84851787 -5.592485568
5.741017304 -20.40966312 -5.592485568
-0.1979622597 -0.9802096427 -7.970775368
-0.197748099 -0.9802528701 -8.4795652
0.2403890958 -0.9706766107 -8.224737329
-0.5011380637 -1.897275062 -7.56013902
-0.1978551793 -0.9802312564 -8.225170284
0.02132049843 -0.9754647404 -8.352151264
0.02121341808 -0.9754431267 -8.097756348
-0.3495501617 -1.438742352 -7.765457194
-0.3494430813 -1.438763966 -8.01985211
-0.1303744839 -1.433975836 -7.892438174
-0.6136338867 -0.7895906871 -9.11145994
-0.7096530313 -0.704551329 -9.57318499
-0.2297172171 -0.9732574172 -9.483948685
-0.8564761281 -2.175324925 -8.643739685
-0.661643459 -0.7470710081 -9.342322465
-0.4696851242 -0.8389043731 -9.528566838
-0.4216755519 -0.8814240522 -9.297704313
-0.7350550074 -1.482457806 -8.877599812
-0.7830645797 -1.439938127 -9.108462337
-0.5430966726 -1.574291171 -9.063844185
0.1744716052 -0.9846622055 -9.146498622
0.2312165806 -0.9729023039 -8.716674526
-0.2105677191 -0.9775792733 -8.965281441
-0.8564761281 -2.175324925 -8.643739685
0.2028440929 -0.9787822547 -8.931586574
0.0103244307 -0.9752407886 -8.840977984
-0.01804805696 -0.9811207394 -9.055890032
-0.3410022614 -1.579993565 -8.895119154
-0.3126297738 -1.574113614 -8.680207106
-0.5335219236 -1.576452099 -8.804510563
-0.2105677191 -0.9775792733 -8.965281441
-0.2297172171 -0.9732574172 -9.483948685
0.1744716052 -0.9846622055 -9.146498622
-0.8564761281 -2.175324925 -8.643739685
-0.2201424681 -0.9754183453 -9.224615063
-0.02762280595 -0.9789598114 -9.315223654
-0.01804805696 -0.9811207394 -9.055890032
-0.5335219236 -1.576452099 -8.804510563
-0.5430966726 -1.574291171 -9.063844185
-0.3410022614 -1.579993565 -8.895119154
-4.464489437 0 -4.862169372
-5.712434052 0 -5.604418866
-3.479216037 0 -6.025798086
-2.093387024 -1.836144702 -5.572462463
-5.088461745 0 -5.233294119
-4.595825045 0 -5.815108476
-3.971852737 0 -5.443983729
-3.27893823 -0.9180723512 -5.217315917
-3.902910538 -0.9180723512 -5.588440664
-2.78630153 -0.9180723512 -5.799130274
1 0 -10
20.96831662 0 -3.4
10.57703397 0 -3.4
2.347262615 -1.487475145 -9.507742122
10.98415831 0 -6.7
15.77267529 0 -3.4
5.788516984 0 -6.7
1.673631307 -0.7437375723 -9.753871061
11.65778962 -0.7437375723 -6.453871061
6.462148291 -0.7437375723 -6.453871061
0.2382800108 -0.9711964973 -6.192615654
0.632075923 -0.7749064638 -6.446337352
0.6319259596 -0.7750287617 -5.938528633
0.1531927158 -2.245050295 -6.18377085
0.4351779669 -0.8730514806 -6.319476503
0.6320009413 -0.7749676128 -6.192432993
0.4351029852 -0.8731126295 -6.065572144
0.1957363633 -1.608123396 -6.188193252
0.3926343194 -1.509978379 -6.315054101
0.3925593377 -1.510039528 -6.061149741
-0.5344790198 -0.8451817422 -6.700770977
-0.6017060239 -0.7987176352 -7.208881129
-0.1984458286 -0.9801118575 -6.954682989
-0.5011380637 -1.897275062 -7.56013902
-0.5680925218 -0.8219496887 -6.954826053
-0.4000759262 -0.8894147463 -7.081782059
-0.3664624242 -0.9126467998 -6.827726983
-0.5178085417 -1.371228402 -7.130454999
-0.5514220438 -1.347996349 -7.384510075
-0.3497919461 -1.43869346 -7.257411005
0.2389892904 -0.9710222032 -6.700463058
0.632075923 -0.7749064638 -6.446337352
0.2382800108 -0.9711964973 -6.192615654
0.1531927158 -2.245050295 -6.18377085
0.4355326067 -0.8729643335 -6.573400205
0.4351779669 -0.8730514806 -6.319476503
0.2386346506 -0.9711093503 -6.446539356
0.1960910031 -1.608036249 -6.442116954
0.3926343194 -1.509978379 -6.315054101
0.1957363633 -1.608123396 -6.188193252
-4.904764825 0 -6.636732994
-5.514209552 -3.8896768 -3.4
-2.078712935 -1.755623947 -7.875885853
-2.093387024 -1.836144702 -5.572462463
-5.209487189 -1.9448384 -5.018366497
-3.796461243 -2.822650373 -5.637942927
-3.49173888 -0.8778119735 -7.256309424
-3.499075924 -0.9180723512 -6.104597728
-3.803798288 -2.862910751 -4.486231231
-2.086049979 -1.795884325 -6.724174158
0.903375947 -0.4288495054 -5.176707263
0.9034178452 -0.4287612355 -4.669068391
0.6308109785 -0.775936537 -4.925035661
1.10799114 -1.912869374 -4.846540236
0.9033968961 -0.4288053704 -4.922887827
0.7671144118 -0.6023488862 -4.797052026
0.7670934628 -0.6023930212 -5.050871462
1.005683544 -1.17085944 -5.01162375
1.005704493 -1.170815305 -4.757804313
0.8694010595 -1.344402956 -4.885787948
-0.2105677191 -0.9775792733 -8.965281441
0.2312165806 -0.9729023039 -8.716674526
-0.197748099 -0.9802528701 -8.4795652
-0.8564761281 -2.175324925 -8.643739685
0.0103244307 -0.9752407886 -8.840977984
0.01673424079 -0.976577587 -8.598119863
-0.2041579091 -0.9789160717 -8.72242332
-0.5335219236 -1.576452099 -8.804510563
-0.3126297738 -1.574113614 -8.680207106
-0.5271121135 -1.577788897 -8.561652442
-0.198126696 -0.980176419 -7.46259629
-0.1979622597 -0.9802096427 -7.970775368
0.2398875122 -0.9708006909 -7.716330979
-0.5011380637 -1.897275062 -7.56013902
-0.1980444779 -0.9801930309 -7.716685829
0.02096262623 -0.9755051668 -7.843553173
0.02088040807 -0.975488555 -7.589463634
-0.3496323798 -1.438725741 -7.511367655
-0.3495501617 -1.438742352 -7.765457194
-0.1306252758 -1.434037877 -7.638234999
-2.078712935 -1.755623947 -7.875885853
-5.514209552 -3.8896768 -3.4
-1.414464197 -3.760391594 -6.701371587
-2.093387024 -1.836144702 -5.572462463
-3.796461243 -2.822650373 -5.637942927
-3.464336875 -3.825034197 -5.050685794
-1.746588566 -2.75800777 -7.28862872
-2.086049979 -1.795884325 -6.724174158
-3.803798288 -2.862910751 -4.486231231
-1.753925611 -2.798268148 -6.136917025
-3.479216037 0 -6.025798086
-5.712434052 0 -5.604418866
-4.904764825 0 -6.636732994
-2.093387024 -1.836144702 -5.572462463
-4.595825045 0 -5.815108476
-5.308599439 0 -6.12057593
-4.191990431 0 -6.33126554
-2.78630153 -0.9180723512 -5.799130274
-3.902910538 -0.9180723512 -5.588440664
-3.499075924 -0.9180723512 -6.104597728
-0.1989174351 -0.9800162519 -6.446848938
-0.1984458286 -0.9801118575 -6.954682989
0.2389892904 -0.9710222032 -6.700463058
0.1531927158 -2.245050295 -6.18377085
-0.1986816318 -0.9800640547 -6.700765963
0.02027173092 -0.9755670303 -6.827573024
0.02003592765 -0.9755192275 -6.573655998
-0.02286235965 -1.612533273 -6.315309894
-0.02262655638 -1.612581076 -6.569226919
0.1960910031 -1.608036249 -6.442116954
-0.9033431953 -0.4289184906 -6.7
-1 0 -6.953846154
-0.9085123882 -0.4178579189 -7.207692308
-1.46903668 0 -6.6613913
-0.9516715976 -0.2144592453 -6.826923077
-0.9542561941 -0.2089289595 -7.080769231
-0.9059277918 -0.4233882047 -6.953846154
-1.186189938 -0.2144592453 -6.68069565
-1.23451834 0 -6.807618727
-1.188774534 -0.2089289595 -6.934541804
0.903352412 -0.4288990788 -6.7000604
0.632348875 -0.7746837421 -6.95414225
0.9034121977 -0.4287731347 -7.207792049
2.481675156 -1.852905221 -5.938320992
0.7678506435 -0.6017914104 -6.827101325
0.7678805364 -0.6017284384 -7.080967149
0.9033823048 -0.4288361067 -6.953926225
1.692513784 -1.14090215 -6.319190696
1.557012016 -1.313794482 -6.446231621
1.692543677 -1.140839178 -6.57305652
-0.2297172171 -0.9732574172 -9.483948685
-0.2105677191 -0.9775792733 -8.965281441
-0.6136338867 -0.7895906871 -9.11145994
-0.8564761281 -2.175324925 -8.643739685
-0.2201424681 -0.9754183453 -9.224615063
-0.4121008029 -0.8835849802 -9.03837069
-0.4216755519 -0.8814240522 -9.297704313
-0.5430966726 -1.574291171 -9.063844185
-0.5335219236 -1.576452099 -8.804510563
-0.7350550074 -1.482457806 -8.877599812
-1.483465168 0 -7.684329858
-1 0 -7.969230769
-0.9033431953 -0.4289184906 -7.715384615
-0.9086213592 -0.4176209114 -8.223076923
-1.241732584 0 -7.826780313
-0.9516715976 -0.2144592453 -7.842307692
-1.193404182 -0.2144592453 -7.699857236
-1.196043264 -0.2088104557 -7.95370339
-0.9543106796 -0.2088104557 -8.096153846
-0.9059822772 -0.423269701 -7.969230769
0.6308109785 -0.775936537 -4.925035661
0.6319717217 -0.774991447 -5.43035807
0.903375947 -0.4288495054 -5.176707263
1.10799114 -1.912869374 -4.846540236
0.6313913501 -0.775463992 -5.177696865
0.7676738344 -0.6019204762 -5.303532666
0.7670934628 -0.6023930212 -5.050871462
0.8694010595 -1.344402956 -4.885787948
0.8699814311 -1.343930411 -5.138449153
1.005683544 -1.17085944 -5.01162375
-0.6017060239 -0.7987176352 -7.208881129
-0.5344790198 -0.8451817422 -6.700770977
-0.9033431953 -0.4289184906 -6.7
-1.678362431 -0.887794238 -7.459285655
-0.5680925218 -0.8219496887 -6.954826053
-0.7189111075 -0.6370501164 -6.700385489
-0.7525246096 -0.6138180629 -6.954440565
-1.140034228 -0.8432559366 -7.334083392
-1.106420726 -0.8664879901 -7.080028316
-1.290852813 -0.6583563643 -7.079642828
-0.5430503447 -0.8397001388 -5.68481288
-0.9033431953 -0.4289184906 -5.684615385
-0.6022323621 -0.7983208515 -6.193441831
-1.830839444 -1.086255379 -6.44097102
-0.72319677 -0.6343093147 -5.684714132
-0.7527877787 -0.6136196711 -5.939028608
-0.5726413534 -0.8190104952 -5.939127356
-1.186944894 -0.962977759 -6.06289195
-1.367091319 -0.7575869348 -6.062793202
-1.216535903 -0.9422881153 -6.317206426
-0.9033431953 -0.4289184906 -5.684615385
-0.5430503447 -0.8397001388 -5.68481288
-0.6397268109 -0.7686023728 -5.177122656
-2.093387024 -1.836144702 -5.572462463
-0.72319677 -0.6343093147 -5.684714132
-0.5913885778 -0.8041512558 -5.430967768
-0.7715350031 -0.5987604317 -5.43086902
-1.498365109 -1.132531597 -5.628538924
-1.318218684 -1.337922421 -5.628637671
-1.366556917 -1.302373538 -5.374792559
-0.5344790198 -0.8451817422 -6.700770977
-0.1984458286 -0.9801118575 -6.954682989
-0.1989174351 -0.9800162519 -6.446848938
-0.9507016797 -2.015844221 -6.387872592
-0.3664624242 -0.9126467998 -6.827726983
-0.1986816318 -0.9800640547 -6.700765963
-0.3666982274 -0.9125989971 -6.573809958
-0.7425903497 -1.430512982 -6.544321785
-0.5745737541 -1.497978039 -6.671277791
-0.5748095574 -1.497930237 -6.417360765
-1.582367502 0 -7.177479321
-0.9085123882 -0.4178579189 -7.207692308
-1 0 -6.953846154
-1.46903668 0 -6.6613913
-1.245439945 -0.2089289595 -7.192585815
-0.9542561941 -0.2089289595 -7.080769231
-1.291183751 0 -7.065662738
-1.525702091 0 -6.919435311
-1.188774534 -0.2089289595 -6.934541804
-1.23451834 0 -6.807618727
-0.198126696 -0.980176419 -7.46259629
-0.1984458286 -0.9801118575 -6.954682989
-0.6017060239 -0.7987176352 -7.208881129
-0.5011380637 -1.897275062 -7.56013902
-0.1982862623 -0.9801441382 -7.20863964
-0.4000759262 -0.8894147463 -7.081782059
-0.39991636 -0.8894470271 -7.335738709
-0.3496323798 -1.438725741 -7.511367655
-0.3497919461 -1.43869346 -7.257411005
-0.5514220438 -1.347996349 -7.384510075
-1.483465168 0 -7.684329858
-1.593062713 0 -8.179502498
-1 0 -7.969230769
-0.9086213592 -0.4176209114 -8.223076923
-1.538263941 0 -7.931916178
-1.296531357 0 -8.074366634
-1.241732584 0 -7.826780313
-1.196043264 -0.2088104557 -7.95370339
-1.250842036 -0.2088104557 -8.201289711
-0.9543106796 -0.2088104557 -8.096153846
0.6319259596 -0.7750287617 -5.938528633
0.2379715433 -0.9712721269 -5.684441688
0.2382800108 -0.9711964973 -6.192615654
0.1531927158 -2.245050295 -6.18377085
0.4349487515 -0.8731504443 -5.811485161
0.2381257771 -0.9712343121 -5.938528671
0.4351029852 -0.8731126295 -6.065572144
0.3925593377 -1.510039528 -6.061149741
0.1955821296 -1.608161211 -5.934106269
0.1957363633 -1.608123396 -6.188193252
-0.6382319836 -0.7698440979 -8.223239791
-0.197748099 -0.9802528701 -8.4795652
-0.1979622597 -0.9802096427 -7.970775368
-0.5011380637 -1.897275062 -7.56013902
-0.4179900413 -0.875048484 -8.351402495
-0.1978551793 -0.9802312564 -8.225170284
-0.4180971217 -0.8750268703 -8.09700758
-0.5696850236 -1.33355958 -7.891689406
-0.3494430813 -1.438763966 -8.01985211
-0.3495501617 -1.438742352 -7.765457194
-0.6136338867 -0.7895906871 -9.11145994
-0.9083618895 -0.4181849802 -9.218414388
-0.7096530313 -0.704551329 -9.57318499
-1.648783531 -0.8324554867 -8.474854064
-0.7609978881 -0.6038878337 -9.164937164
-0.8090074604 -0.5613681546 -9.395799689
-0.661643459 -0.7470710081 -9.342322465
-1.131208709 -0.8110230869 -8.793157002
-1.27857271 -0.6253202335 -8.846634226
-1.179218281 -0.7685034078 -9.024019527
-1.483465168 0 -7.684329858
-0.9033431953 -0.4289184906 -7.715384615
-1 0 -7.461538462
-0.9085123882 -0.4178579189 -7.207692308
-1.193404182 -0.2144592453 -7.699857236
-0.9516715976 -0.2144592453 -7.588461538
-1.241732584 0 -7.57293416
-1.195988778 -0.2089289595 -7.446011083
-0.9059277918 -0.4233882047 -7.461538462
-0.9542561941 -0.2089289595 -7.334615385
-0.6022323621 -0.7983208515 -6.193441831
-0.1996729687 -0.9798625952 -5.938824813
-0.5430503447 -0.8397001388 -5.68481288
-0.9507016797 -2.015844221 -6.387872592
-0.4009526654 -0.8890917234 -6.066133322
-0.3713616567 -0.909781367 -5.811818847
-0.5726413534 -0.8190104952 -5.939127356
-0.7764670209 -1.407082536 -6.290657212
-0.5751873242 -1.497853408 -6.163348703
-0.7468760122 -1.42777218 -6.036342736
-0.6022323621 -0.7983208515 -6.193441831
-0.9033431953 -0.4289184906 -5.684615385
-0.9086639517 -0.4175282301 -6.192307692
-1.830839444 -1.086255379 -6.44097102
-0.7527877787 -0.6136196711 -5.939028608
-0.9060035735 -0.4232233604 -5.938461538
-0.7554481569 -0.6079245408 -6.192874762
-1.216535903 -0.9422881153 -6.317206426
-1.367091319 -0.7575869348 -6.062793202
-1.369751698 -0.7518918046 -6.316639356
-0.5218073032 -0.8530633847 -8.709958976
-0.197748099 -0.9802528701 -8.4795652
-0.6382319836 -0.7698440979 -8.223239791
-0.8564761281 -2.175324925 -8.643739685
-0.3597777011 -0.9166581274 -8.594762088
-0.4179900413 -0.875048484 -8.351402495
-0.5800196434 -0.8114537413 -8.466599384
-0.6891417157 -1.514194155 -8.676849331
-0.5271121135 -1.577788897 -8.561652442
-0.7473540558 -1.472584511 -8.433489738
-0.6136338867 -0.7895906871 -9.11145994
-0.2105677191 -0.9775792733 -8.965281441
-0.5218073032 -0.8530633847 -8.709958976
-0.8564761281 -2.175324925 -8.643739685
-0.4121008029 -0.8835849802 -9.03837069
-0.3661875112 -0.915321329 -8.837620208
-0.567720595 -0.8213270359 -8.910709458
-0.7350550074 -1.482457806 -8.877599812
-0.5335219236 -1.576452099 -8.804510563
-0.6891417157 -1.514194155 -8.676849331
0.632348875 -0.7746837421 -6.95414225
0.903352412 -0.4288990788 -6.7000604
0.632075923 -0.7749064638 -6.446337352
2.481675156 -1.852905221 -5.938320992
0.7678506435 -0.6017914104 -6.827101325
0.7677141675 -0.6019027713 -6.573198876
0.632212399 -0.7747951029 -6.700239801
1.557012016 -1.313794482 -6.446231621
1.692513784 -1.14090215 -6.319190696
1.55687554 -1.313905842 -6.192329172
-1.46903668 0 -6.6613913
-0.9086639517 -0.4175282301 -6.192307692
-0.9033431953 -0.4289184906 -6.7
-1 0 -6.446153846
-1.188850316 -0.2087641151 -6.426849496
-0.9060035735 -0.4232233604 -6.446153846
-1.186189938 -0.2144592453 -6.68069565
-1.23451834 0 -6.553772573
-0.9543319758 -0.2087641151 -6.319230769
-0.9516715976 -0.2144592453 -6.573076923
5.906920728 -9.432751709 -3.4
7.654666388 -3.621100098 -3.4
17.83908043 -12.29946945 -7.46400298
2.481675156 -1.852905221 -5.938320992
6.780793558 -6.526925903 -3.4
12.74687341 -7.960284773 -5.43200149
11.87300058 -10.86611058 -5.43200149
4.194297942 -5.642828465 -4.669160496
5.068170772 -2.73700266 -4.669160496
10.16037779 -7.076187335 -6.701161986
-1.429275152 0 -8.680167065
-1 0 -8.476923077
-0.9086213592 -0.4176209114 -8.223076923
-0.8637483468 -0.5039234003 -8.717971159
-1.214637576 0 -8.578545071
-0.9543106796 -0.2088104557 -8.35
-1.168948255 -0.2088104557 -8.451621994
-1.146511749 -0.2519617001 -8.699069112
-0.9318741734 -0.2519617001 -8.597447118
-0.886184853 -0.4607721559 -8.470524041
-0.9033431953 -0.4289184906 -6.7
-0.9085123882 -0.4178579189 -7.207692308
-0.6017060239 -0.7987176352 -7.208881129
-1.678362431 -0.887794238 -7.459285655
-0.9059277918 -0.4233882047 -6.953846154
-0.7551092061 -0.6082877771 -7.208286718
-0.7525246096 -0.6138180629 -6.954440565
-1.290852813 -0.6583563643 -7.079642828
-1.29343741 -0.6528260784 -7.333488981
-1.140034228 -0.8432559366 -7.334083392
-0.5738086967 -0.8189893648 -7.716571907
-0.9033431953 -0.4289184906 -7.715384615
-0.6382319836 -0.7698440979 -8.223239791
-1.678362431 -0.887794238 -7.459285655
-0.738575946 -0.6239539277 -7.715978261
-0.7707875894 -0.5993812942 -7.969312203
-0.6060203402 -0.7944167313 -7.969905849
-1.126085564 -0.8533918014 -7.587928781
-1.290852813 -0.6583563643 -7.587335135
-1.158297207 -0.8288191679 -7.841262723
0.6319717217 -0.774991447 -5.43035807
0.2379715433 -0.9712721269 -5.684441688
0.6319259596 -0.7750287617 -5.938528633
1.10799114 -1.912869374 -4.846540236
0.4349716325 -0.873131787 -5.557399879
0.4349487515 -0.8731504443 -5.811485161
0.6319488407 -0.7750101044 -5.684443351
0.8699814311 -1.343930411 -5.138449153
0.6729813419 -1.44207075 -5.265490962
0.86995855 -1.343949068 -5.392534435
-1 0 -7.461538462
-1.582367502 0 -7.177479321
-1.483465168 0 -7.684329858
-0.9085123882 -0.4178579189 -7.207692308
-1.291183751 0 -7.319508891
-1.532916335 0 -7.430904589
-1.241732584 0 -7.57293416
-0.9542561941 -0.2089289595 -7.334615385
-1.245439945 -0.2089289595 -7.192585815
-1.195988778 -0.2089289595 -7.446011083
-0.1996729687 -0.9798625952 -5.938824813
-0.6022323621 -0.7983208515 -6.193441831
-0.1989174351 -0.9800162519 -6.446848938
-0.9507016797 -2.015844221 -6.387872592
-0.4009526654 -0.8890917234 -6.066133322
-0.4005748986 -0.8891685517 -6.320145384
-0.1992952019 -0.9799394236 -6.192836876
-0.5751873242 -1.497853408 -6.163348703
-0.7764670209 -1.407082536 -6.290657212
-0.5748095574 -1.497930237 -6.417360765
-4.904764825 0 -6.636732994
-5.712434052 0 -5.604418866
-5.514209552 -3.8896768 -3.4
-2.093387024 -1.836144702 -5.572462463
-5.308599439 0 -6.12057593
-5.613321802 -1.9448384 -4.502209433
-5.209487189 -1.9448384 -5.018366497
-3.499075924 -0.9180723512 -6.104597728
-3.902910538 -0.9180723512 -5.588440664
-3.803798288 -2.862910751 -4.486231231
-1 0 -6.446153846
-1.46903668 0 -6.6613913
-0.9086639517 -0.4175282301 -6.192307692
-1.554306918 0 -6.096537254
-1.23451834 0 -6.553772573
-1.188850316 -0.2087641151 -6.426849496
-0.9543319758 -0.2087641151 -6.319230769
-1.277153459 0 -6.27134555
-1.511671799 0 -6.378964277
-1.231485435 -0.2087641151 -6.144422473
0.6326286909 -0.7744552533 -7.461915559
0.2394408418 -0.9709109554 -7.208309099
0.2398875122 -0.9708006909 -7.716330979
0.9342897623 -2.927968161 -7.047307867
0.4360347664 -0.8726831043 -7.335112329
0.239664177 -0.9708558232 -7.462320039
0.4362581016 -0.8726279721 -7.589123269
0.7834592266 -1.851211707 -7.254611713
0.5868653021 -1.949439558 -7.127808483
0.5870886373 -1.949384426 -7.381819423
-0.197748099 -0.9802528701 -8.4795652
-0.5218073032 -0.8530633847 -8.709958976
-0.2105677191 -0.9775792733 -8.965281441
-0.8564761281 -2.175324925 -8.643739685
-0.3597777011 -0.9166581274 -8.594762088
-0.3661875112 -0.915321329 -8.837620208
-0.2041579091 -0.9789160717 -8.72242332
-0.5271121135 -1.577788897 -8.561652442
-0.6891417157 -1.514194155 -8.676849331
-0.5335219236 -1.576452099 -8.804510563
-0.9086639517 -0.4175282301 -6.192307692
-0.9033431953 -0.4289184906 -5.684615385
-1 0 -5.938461538
-1.554306918 0 -6.096537254
-0.9060035735 -0.4232233604 -5.938461538
-0.9516715976 -0.2144592453 -5.811538462
-0.9543319758 -0.2087641151 -6.065384615
-1.231485435 -0.2087641151 -6.144422473
-1.228825057 -0.2144592453 -5.890576319
-1.277153459 0 -6.017499396
0.903352412 -0.4288990788 -6.7000604
0.9033437744 -0.4289172709 -6.192325248
0.632075923 -0.7749064638 -6.446337352
2.481675156 -1.852905221 -5.938320992
0.9033480932 -0.4289081748 -6.446192824
0.7677098487 -0.6019118673 -6.3193313
0.7677141675 -0.6019027713 -6.573198876
1.692513784 -1.14090215 -6.319190696
1.692509465 -1.140911246 -6.06532312
1.55687554 -1.313905842 -6.192329172
0.903375947 -0.4288495054 -5.176707263
0.6319717217 -0.774991447 -5.43035807
0.903373461 -0.4288547422 -5.684482879
2.481675156 -1.852905221 -5.938320992
0.7676738344 -0.6019204762 -5.303532666
0.7676725914 -0.6019230946 -5.557420475
0.903374704 -0.4288521238 -5.430595071
1.692525552 -1.140877363 -5.557514128
1.556823439 -1.313948334 -5.684339531
1.692524309 -1.140879982 -5.811401936
-0.8637483468 -0.5039234003 -8.717971159
-1 0 -8.984615385
-0.9083618895 -0.4181849802 -9.218414388
-1.33216458 0 -9.161247779
-0.9318741734 -0.2519617001 -8.851293272
-0.9541809447 -0.2090924901 -9.101514886
-0.8860551182 -0.4610541903 -8.968192774
-1.097956463 -0.2519617001 -8.939609469
-1.16608229 0 -9.072931582
-1.120263235 -0.2090924901 -9.189831083
-1.648783531 -0.8324554867 -8.474854064
-0.7096530313 -0.704551329 -9.57318499
-0.6136338867 -0.7895906871 -9.11145994
-0.8564761281 -2.175324925 -8.643739685
-1.179218281 -0.7685034078 -9.024019527
-0.661643459 -0.7470710081 -9.342322465
-1.131208709 -0.8110230869 -8.793157002
-1.25262983 -1.503890206 -8.559296875
-0.7830645797 -1.439938127 -9.108462337
-0.7350550074 -1.482457806 -8.877599812
-0.9086639517 -0.4175282301 -6.192307692
-0.9033431953 -0.4289184906 -5.684615385
-1.554306918 0 -6.096537254
-1.830839444 -1.086255379 -6.44097102
-0.9060035735 -0.4232233604 -5.938461538
-1.228825057 -0.2144592453 -5.890576319
-1.231485435 -0.2087641151 -6.144422473
-1.369751698 -0.7518918046 -6.316639356
-1.367091319 -0.7575869348 -6.062793202
-1.692573181 -0.5431276895 -6.268754137
-0.6382319836 -0.7698440979 -8.223239791
-0.1979622597 -0.9802096427 -7.970775368
-0.5738086967 -0.8189893648 -7.716571907
-0.5011380637 -1.897275062 -7.56013902
-0.4180971217 -0.8750268703 -8.09700758
-0.3858854782 -0.8995995038 -7.843673638
-0.6060203402 -0.7944167313 -7.969905849
-0.5696850236 -1.33355958 -7.891689406
-0.3495501617 -1.438742352 -7.765457194
-0.5374733802 -1.358132213 -7.638355464
-0.5344790198 -0.8451817422 -6.700770977
-0.1989174351 -0.9800162519 -6.446848938
-0.6022323621 -0.7983208515 -6.193441831
-0.9507016797 -2.015844221 -6.387872592
-0.3666982274 -0.9125989971 -6.573809958
-0.4005748986 -0.8891685517 -6.320145384
-0.568355691 -0.8217512969 -6.447106404
-0.7425903497 -1.430512982 -6.544321785
-0.5748095574 -1.497930237 -6.417360765
-0.7764670209 -1.407082536 -6.290657212
-0.198126696 -0.980176419 -7.46259629
-0.6017060239 -0.7987176352 -7.208881129
-0.5738086967 -0.8189893648 -7.716571907
-0.5011380637 -1.897275062 -7.56013902
-0.39991636 -0.8894470271 -7.335738709
-0.5877573603 -0.8088535 -7.462726518
-0.3859676964 -0.8995828919 -7.589584098
-0.3496323798 -1.438725741 -7.511367655
-0.5514220438 -1.347996349 -7.384510075
-0.5374733802 -1.358132213 -7.638355464
-0.5344790198 -0.8451817422 -6.700770977
-0.6022323621 -0.7983208515 -6.193441831
-0.9033431953 -0.4289184906 -6.7
-1.830839444 -1.086255379 -6.44097102
-0.568355691 -0.8217512969 -6.447106404
-0.7527877787 -0.6136196711 -6.446720916
-0.7189111075 -0.6370501164 -6.700385489
-1.182659232 -0.9657185607 -6.570870999
-1.216535903 -0.9422881153 -6.317206426
-1.367091319 -0.7575869348 -6.57048551
-0.2000069879 -0.9797944707 -5.430059715
-0.5430503447 -0.8397001388 -5.68481288
-0.1996729687 -0.9798625952 -5.938824813
-0.8690992756 -1.963429669 -5.175098146
-0.3715286663 -0.9097473048 -5.557436297
-0.3713616567 -0.909781367 -5.811818847
-0.1998399783 -0.979828533 -5.684442264
-0.5345531317 -1.47161207 -5.30257893
-0.7060748101 -1.401564904 -5.429955513
-0.5343861222 -1.471646132 -5.55696148
-0.1989174351 -0.9800162519 -6.446848938
0.2389892904 -0.9710222032 -6.700463058
0.2382800108 -0.9711964973 -6.192615654
0.1531927158 -2.245050295 -6.18377085
0.02003592765 -0.9755192275 -6.573655998
0.2386346506 -0.9711093503 -6.446539356
0.01968128786 -0.9756063746 -6.319732296
-0.02286235965 -1.612533273 -6.315309894
0.1960910031 -1.608036249 -6.442116954
0.1957363633 -1.608123396 -6.188193252
0.6319259596 -0.7750287617 -5.938528633
0.632075923 -0.7749064638 -6.446337352
0.9033437744 -0.4289172709 -6.192325248
2.481675156 -1.852905221 -5.938320992
0.6320009413 -0.7749676128 -6.192432993
0.7677098487 -0.6019118673 -6.3193313
0.767634867 -0.6019730163 -6.06542694
1.556800558 -1.313966991 -5.938424813
1.55687554 -1.313905842 -6.192329172
1.692509465 -1.140911246 -6.06532312
-1.593062713 0 -8.179502498
-1 0 -8.476923077
-0.9086213592 -0.4176209114 -8.223076923
-1.429275152 0 -8.680167065
-1.296531357 0 -8.328212788
-0.9543106796 -0.2088104557 -8.35
-1.250842036 -0.2088104557 -8.201289711
-1.511168932 0 -8.429834782
-1.214637576 0 -8.578545071
-1.168948255 -0.2088104557 -8.451621994
0.6319259596 -0.7750287617 -5.938528633
0.903373461 -0.4288547422 -5.684482879
0.6319717217 -0.774991447 -5.43035807
2.481675156 -1.852905221 -5.938320992
0.7676497103 -0.601941752 -5.811505756
0.7676725914 -0.6019230946 -5.557420475
0.6319488407 -0.7750101044 -5.684443351
1.556800558 -1.313966991 -5.938424813
1.692524309 -1.140879982 -5.811401936
1.556823439 -1.313948334 -5.684339531
0.2379715433 -0.9712721269 -5.684441688
0.2379919343 -0.9712671307 -5.175612967
-0.2000069879 -0.9797944707 -5.430059715
0.1531927158 -2.245050295 -6.18377085
0.2379817388 -0.9712696288 -5.430027328
0.01899247318 -0.9755308007 -5.302836341
0.01898227772 -0.9755332988 -5.557250701
0.1955821296 -1.608161211 -5.934106269
0.195592325 -1.608158713 -5.679691909
-0.02340713605 -1.612422383 -5.806915282
0.632348875 -0.7746837421 -6.95414225
0.2394408418 -0.9709109554 -7.208309099
0.6326286909 -0.7744552533 -7.461915559
0.9342897623 -2.927968161 -7.047307867
0.4358948584 -0.8727973487 -7.081225674
0.4360347664 -0.8726831043 -7.335112329
0.632488783 -0.7745694977 -7.208028905
0.7833193187 -1.851325951 -7.000725058
0.5868653021 -1.949439558 -7.127808483
0.7834592266 -1.851211707 -7.254611713
0.632075923 -0.7749064638 -6.446337352
0.2389892904 -0.9710222032 -6.700463058
0.632348875 -0.7746837421 -6.95414225
0.9342897623 -2.927968161 -7.047307867
0.4355326067 -0.8729643335 -6.573400205
0.4356690827 -0.8728529726 -6.827302654
0.632212399 -0.7747951029 -6.700239801
0.7831828427 -1.851437312 -6.746822609
0.5866395264 -1.949495182 -6.873885462
0.7833193187 -1.851325951 -7.000725058
0.903373461 -0.4288547422 -5.684482879
0.6319259596 -0.7750287617 -5.938528633
0.9033437744 -0.4289172709 -6.192325248
2.481675156 -1.852905221 -5.938320992
0.7676497103 -0.601941752 -5.811505756
0.767634867 -0.6019730163 -6.06542694
0.9033586177 -0.4288860065 -5.938404063
1.692524309 -1.140879982 -5.811401936
1.556800558 -1.313966991 -5.938424813
1.692509465 -1.140911246 -6.06532312
-0.9086639517 -0.4175282301 -6.192307692
-0.9033431953 -0.4289184906 -6.7
-0.6022323621 -0.7983208515 -6.193441831
-1.830839444 -1.086255379 -6.44097102
-0.9060035735 -0.4232233604 -6.446153846
-0.7527877787 -0.6136196711 -6.446720916
-0.7554481569 -0.6079245408 -6.192874762
-1.369751698 -0.7518918046 -6.316639356
-1.367091319 -0.7575869348 -6.57048551
-1.216535903 -0.9422881153 -6.317206426
-3.479216037 0 -6.025798086
-2.751766964 0 -4.927824238
-4.464489437 0 -4.862169372
-2.093387024 -1.836144702 -5.572462463
-3.1154915 0 -5.476811162
-3.6081282 0 -4.894996805
-3.971852737 0 -5.443983729
-2.78630153 -0.9180723512 -5.799130274
-2.422576994 -0.9180723512 -5.250143351
-3.27893823 -0.9180723512 -5.217315917
0.2389892904 -0.9710222032 -6.700463058
0.2394408418 -0.9709109554 -7.208309099
0.632348875 -0.7746837421 -6.95414225
0.9342897623 -2.927968161 -7.047307867
0.2392150661 -0.9709665793 -6.954386078
0.4358948584 -0.8727973487 -7.081225674
0.4356690827 -0.8728529726 -6.827302654
0.5866395264 -1.949495182 -6.873885462
0.5868653021 -1.949439558 -7.127808483
0.7833193187 -1.851325951 -7.000725058
-0.5738086967 -0.8189893648 -7.716571907
-0.1979622597 -0.9802096427 -7.970775368
-0.198126696 -0.980176419 -7.46259629
-0.5011380637 -1.897275062 -7.56013902
-0.3858854782 -0.8995995038 -7.843673638
-0.1980444779 -0.9801930309 -7.716685829
-0.3859676964 -0.8995828919 -7.589584098
-0.5374733802 -1.358132213 -7.638355464
-0.3495501617 -1.438742352 -7.765457194
-0.3496323798 -1.438725741 -7.511367655
-1 0 -7.461538462
-1 0 -6.953846154
-1.582367502 0 -7.177479321
-0.9085123882 -0.4178579189 -7.207692308
-1 0 -7.207692308
-1.291183751 0 -7.065662738
-1.291183751 0 -7.319508891
-0.9542561941 -0.2089289595 -7.334615385
-0.9542561941 -0.2089289595 -7.080769231
-1.245439945 -0.2089289595 -7.192585815
-1.678362431 -0.887794238 -7.459285655
-0.6382319836 -0.7698440979 -8.223239791
-0.5738086967 -0.8189893648 -7.716571907
-0.5011380637 -1.897275062 -7.56013902
-1.158297207 -0.8288191679 -7.841262723
-0.6060203402 -0.7944167313 -7.969905849
-1.126085564 -0.8533918014 -7.587928781
-1.089750247 -1.39253465 -7.509712338
-0.5696850236 -1.33355958 -7.891689406
-0.5374733802 -1.358132213 -7.638355464
-1 0 -7.969230769
-0.9086213592 -0.4176209114 -8.223076923
-1.593062713 0 -8.179502498
-1 0 -8.476923077
-0.9543106796 -0.2088104557 -8.096153846
-1.250842036 -0.2088104557 -8.201289711
-1.296531357 0 -8.074366634
-1 0 -8.223076923
-0.9543106796 -0.2088104557 -8.35
-1.296531357 0 -8.328212788
-1 0 -8.984615385
-0.8637483468 -0.5039234003 -8.717971159
-1.429275152 0 -8.680167065
-1.33216458 0 -9.161247779
-0.9318741734 -0.2519617001 -8.851293272
-1.146511749 -0.2519617001 -8.699069112
-1.214637576 0 -8.832391225
-1.16608229 0 -9.072931582
-1.097956463 -0.2519617001 -8.939609469
-1.380719866 0 -8.920707422
-5.514209552 -3.8896768 -3.4
-1.38119511 -2.364212683 -3.4
-1.414464197 -3.760391594 -6.701371587
-2.093387024 -1.836144702 -5.572462463
-3.447702331 -3.126944741 -3.4
-1.397829654 -3.062302138 -5.050685794
-3.464336875 -3.825034197 -5.050685794
-3.803798288 -2.862910751 -4.486231231
-1.737291067 -2.100178693 -4.486231231
-1.753925611 -2.798268148 -6.136917025
-0.5344790198 -0.8451817422 -6.700770977
-0.1984458286 -0.9801118575 -6.954682989
-0.9507016797 -2.015844221 -6.387872592
-0.5011380637 -1.897275062 -7.56013902
-0.3664624242 -0.9126467998 -6.827726983
-0.5745737541 -1.497978039 -6.671277791
-0.7425903497 -1.430512982 -6.544321785
-0.5178085417 -1.371228402 -7.130454999
-0.3497919461 -1.43869346 -7.257411005
-0.7259198717 -1.956559642 -6.974005806
-1 0 -9.492307692
-0.9083618895 -0.4181849802 -9.218414388
-1.33216458 0 -9.161247779
-0.9265876867 -0.3760787935 -9.619550624
-0.9541809447 -0.2090924901 -9.35536104
-1.120263235 -0.2090924901 -9.189831083
-1.16608229 0 -9.326777735
-0.9632938433 -0.1880393968 -9.555929158
-0.9174747881 -0.3971318869 -9.418982506
-1.129376133 -0.1880393968 -9.390399201
-3.171781743 0 -7.086027919
-2.241895626 0 -7.633898237
-2.20850898 0 -6.632939925
-1.678362431 -0.887794238 -7.459285655
-2.706838685 0 -7.359963078
-2.225202303 0 -7.133419081
-2.690145362 0 -6.859483922
-2.425072087 -0.443897119 -7.272656787
-1.960129029 -0.443897119 -7.546591946
-1.943435706 -0.443897119 -7.04611279
0.9342897623 -2.927968161 -7.047307867
0.2394408418 -0.9709109554 -7.208309099
0.2398875122 -0.9708006909 -7.716330979
-0.5011380637 -1.897275062 -7.56013902
0.5868653021 -1.949439558 -7.127808483
0.239664177 -0.9708558232 -7.462320039
0.5870886373 -1.949384426 -7.381819423
0.2165758493 -2.412621611 -7.303723444
-0.1308486109 -1.434093009 -7.38422406
-0.1306252758 -1.434037877 -7.638234999
-1.830839444 -1.086255379 -6.44097102
-0.6022323621 -0.7983208515 -6.193441831
-0.5430503447 -0.8397001388 -5.68481288
-0.9507016797 -2.015844221 -6.387872592
-1.216535903 -0.9422881153 -6.317206426
-0.5726413534 -0.8190104952 -5.939127356
-1.186944894 -0.962977759 -6.06289195
-1.390770562 -1.5510498 -6.414421806
-0.7764670209 -1.407082536 -6.290657212
-0.7468760122 -1.42777218 -6.036342736
0.002107211665 -3.421699088 -8.291419345
-1.414464197 -3.760391594 -6.701371587
3.222413342 -22.26428404 -7.784971137
0.9342897623 -2.927968161 -7.047307867
-0.7061784929 -3.591045341 -7.496395466
0.9039745725 -13.01233782 -7.243171362
1.612260277 -12.84299156 -8.038195241
0.468198487 -3.174833624 -7.669363606
-0.2400872176 -3.344179877 -6.874339727
2.078351552 -12.5961261 -7.416139502
-0.9086639517 -0.4175282301 -6.192307692
-1.46903668 0 -6.6613913
-0.9033431953 -0.4289184906 -6.7
-1.830839444 -1.086255379 -6.44097102
-1.188850316 -0.2087641151 -6.426849496
-1.186189938 -0.2144592453 -6.68069565
-0.9060035735 -0.4232233604 -6.446153846
-1.369751698 -0.7518918046 -6.316639356
-1.649938062 -0.5431276895 -6.55118116
-1.367091319 -0.7575869348 -6.57048551
0.6319717217 -0.774991447 -5.43035807
0.2379919343 -0.9712671307 -5.175612967
0.2379715433 -0.9712721269 -5.684441688
1.10799114 -1.912869374 -4.846540236
0.434981828 -0.8731292889 -5.302985519
0.2379817388 -0.9712696288 -5.430027328
0.4349716325 -0.873131787 -5.557399879
0.8699814311 -1.343930411 -5.138449153
0.6729915374 -1.442068252 -5.011076602
0.6729813419 -1.44207075 -5.265490962
-0.9033431953 -0.4289184906 -7.715384615
-0.5738086967 -0.8189893648 -7.716571907
-0.6017060239 -0.7987176352 -7.208881129
-1.678362431 -0.887794238 -7.459285655
-0.738575946 -0.6239539277 -7.715978261
-0.5877573603 -0.8088535 -7.462726518
-0.7525246096 -0.6138180629 -7.462132872
-1.290852813 -0.6583563643 -7.587335135
-1.126085564 -0.8533918014 -7.587928781
-1.140034228 -0.8432559366 -7.334083392
3.222413342 -22.26428404 -7.784971137
-2.127870879 -3.60370463 -8.716163934
-1.414464197 -3.760391594 -6.701371587
0.002107211665 -3.421699088 -8.291419345
0.5472712318 -12.93399433 -8.250567535
-1.771167538 -3.682048112 -7.708767761
0.9039745725 -13.01233782 -7.243171362
1.612260277 -12.84299156 -8.038195241
-1.062881834 -3.512701859 -8.503791639
-0.7061784929 -3.591045341 -7.496395466
0.9034121977 -0.4287731347 -7.207792049
1.445135367 0 -6.756410256
0.903352412 -0.4288990788 -6.7000604
2.481675156 -1.852905221 -5.938320992
1.174273782 -0.2143865674 -6.982101153
1.174243889 -0.2144495394 -6.728235328
0.9033823048 -0.4288361067 -6.953926225
1.692543677 -1.140839178 -6.57305652
1.963405262 -0.9264526106 -6.347365624
1.692513784 -1.14090215 -6.319190696
-0.9507016797 -2.015844221 -6.387872592
-0.6017060239 -0.7987176352 -7.208881129
-0.5344790198 -0.8451817422 -6.700770977
-0.5011380637 -1.897275062 -7.56013902
-0.7762038518 -1.407280928 -6.798376861
-0.5680925218 -0.8219496887 -6.954826053
-0.7425903497 -1.430512982 -6.544321785
-0.7259198717 -1.956559642 -6.974005806
-0.5514220438 -1.347996349 -7.384510075
-0.5178085417 -1.371228402 -7.130454999
-0.6017060239 -0.7987176352 -7.208881129
-0.9085123882 -0.4178579189 -7.207692308
-0.9033431953 -0.4289184906 -7.715384615
-1.678362431 -0.887794238 -7.459285655
-0.7551092061 -0.6082877771 -7.208286718
-0.9059277918 -0.4233882047 -7.461538462
-0.7525246096 -0.6138180629 -7.462132872
-1.140034228 -0.8432559366 -7.334083392
-1.29343741 -0.6528260784 -7.333488981
-1.290852813 -0.6583563643 -7.587335135
-1 0 -8.476923077
-0.8637483468 -0.5039234003 -8.717971159
-1.429275152 0 -8.680167065
-1 0 -8.984615385
-0.9318741734 -0.2519617001 -8.597447118
-1.146511749 -0.2519617001 -8.699069112
-1.214637576 0 -8.578545071
-1 0 -8.730769231
-0.9318741734 -0.2519617001 -8.851293272
-1.214637576 0 -8.832391225
-0.1996729687 -0.9798625952 -5.938824813
-0.1989174351 -0.9800162519 -6.446848938
0.2382800108 -0.9711964973 -6.192615654
0.1531927158 -2.245050295 -6.18377085
-0.1992952019 -0.9799394236 -6.192836876
0.01968128786 -0.9756063746 -6.319732296
0.01930352104 -0.9755295463 -6.065720234
-0.02324012646 -1.612456445 -6.061297832
-0.02286235965 -1.612533273 -6.315309894
0.1957363633 -1.608123396 -6.188193252
-1.46903668 0 -6.6613913
-0.9086639517 -0.4175282301 -6.192307692
-1.554306918 0 -6.096537254
-1.830839444 -1.086255379 -6.44097102
-1.188850316 -0.2087641151 -6.426849496
-1.231485435 -0.2087641151 -6.144422473
-1.511671799 0 -6.378964277
-1.649938062 -0.5431276895 -6.55118116
-1.369751698 -0.7518918046 -6.316639356
-1.692573181 -0.5431276895 -6.268754137
-3.34364696 0 -8.062283104
-3.171781743 0 -7.086027919
-4.904764825 0 -6.636732994
-2.078712935 -1.755623947 -7.875885853
-3.257714352 0 -7.574155512
-4.038273284 0 -6.861380457
-4.124205893 0 -7.349508049
-2.711179948 -0.8778119735 -7.969084479
-2.625247339 -0.8778119735 -7.480956886
-3.49173888 -0.8778119735 -7.256309424
-0.2000069879 -0.9797944707 -5.430059715
-0.1996729687 -0.9798625952 -5.938824813
0.2379715433 -0.9712721269 -5.684441688
0.1531927158 -2.245050295 -6.18377085
-0.1998399783 -0.979828533 -5.684442264
0.0191492873 -0.9755673611 -5.811633251
0.01898227772 -0.9755332988 -5.557250701
-0.02340713605 -1.612422383 -5.806915282
-0.02324012646 -1.612456445 -6.061297832
0.1955821296 -1.608161211 -5.934106269
-1 0 -10
-3.34364696 0 -8.062283104
-8.816745334 0 -6.405136994
-2.406826361 -0.9745615463 -9.875471454
-2.17182348 0 -9.031141552
-6.080196147 0 -7.233710049
-4.908372667 0 -8.202568497
-1.70341318 -0.4872807731 -9.937735727
-2.87523666 -0.4872807731 -8.968877279
-5.611785847 -0.4872807731 -8.140304224
-2.20850898 0 -6.632939925
-2.170355614 0 -5.75055421
-3.479216037 0 -6.025798086
-1.830839444 -1.086255379 -6.44097102
-2.189432297 0 -6.191747067
-2.824785826 0 -5.888176148
-2.843862509 0 -6.329369005
-2.019674212 -0.5431276895 -6.536955472
-2.000597529 -0.5431276895 -6.095762615
-2.65502774 -0.5431276895 -6.233384553
-0.1635248549 -14.68488354 -3.4
-1.486149823 -6.928202819 -3.4
5.906920728 -9.432751709 -3.4
3.222413342 -22.26428404 -7.784971137
-0.8248373387 -10.80654318 -3.4
2.210385453 -8.180477264 -3.4
2.871697937 -12.05881763 -3.4
1.529444244 -18.47458379 -5.592485568
0.8681317599 -14.59624343 -5.592485568
4.564667035 -15.84851787 -5.592485568
-0.9507016797 -2.015844221 -6.387872592
-0.1984458286 -0.9801118575 -6.954682989
-0.1989174351 -0.9800162519 -6.446848938
0.1531927158 -2.245050295 -6.18377085
-0.5745737541 -1.497978039 -6.671277791
-0.1986816318 -0.9800640547 -6.700765963
-0.5748095574 -1.497930237 -6.417360765
-0.398754482 -2.130447258 -6.285821721
-0.02262655638 -1.612581076 -6.569226919
-0.02286235965 -1.612533273 -6.315309894
-1.678362431 -0.887794238 -7.459285655
-0.5738086967 -0.8189893648 -7.716571907
-0.6017060239 -0.7987176352 -7.208881129
-0.5011380637 -1.897275062 -7.56013902
-1.126085564 -0.8533918014 -7.587928781
-0.5877573603 -0.8088535 -7.462726518
-1.140034228 -0.8432559366 -7.334083392
-1.089750247 -1.39253465 -7.509712338
-0.5374733802 -1.358132213 -7.638355464
-0.5514220438 -1.347996349 -7.384510075
-2.170355614 0 -5.75055421
-2.751766964 0 -4.927824238
-3.479216037 0 -6.025798086
-2.093387024 -1.836144702 -5.572462463
-2.461061289 0 -5.339189224
-3.1154915 0 -5.476811162
-2.824785826 0 -5.888176148
-2.131871319 -0.9180723512 -5.661508336
-2.422576994 -0.9180723512 -5.250143351
-2.78630153 -0.9180723512 -5.799130274
-0.9086639517 -0.4175282301 -6.192307692
-1 0 -5.938461538
-1 0 -6.446153846
-1.554306918 0 -6.096537254
-0.9543319758 -0.2087641151 -6.065384615
-1 0 -6.192307692
-0.9543319758 -0.2087641151 -6.319230769
-1.231485435 -0.2087641151 -6.144422473
-1.277153459 0 -6.017499396
-1.277153459 0 -6.27134555
1 0 -6.446153846
1.439674436 0 -5.684615385
1 0 -5.938461538
0.9033437744 -0.4289172709 -6.192325248
1.219837218 0 -6.065384615
1.219837218 0 -5.811538462
1 0 -6.192307692
0.9516718872 -0.2144586355 -6.319239547
1.171509105 -0.2144586355 -5.938470316
0.9516718872 -0.2144586355 -6.065393393
1 0 -5.430769231
1 0 -4.923076923
0.903375947 -0.4288495054 -5.176707263
1.439674436 0 -5.684615385
1 0 -5.176923077
0.9516879735 -0.2144247527 -5.049892093
0.9516879735 -0.2144247527 -5.303738247
1.219837218 0 -5.557692308
1.219837218 0 -5.303846154
1.171525191 -0.2144247527 -5.430661324
3.222413342 -22.26428404 -7.784971137
-1.414464197 -3.760391594 -6.701371587
0.1266329963 -3.312719767 -4.941549731
0.9342897623 -2.927968161 -7.047307867
0.9039745725 -13.01233782 -7.243171362
-0.6439156006 -3.536555681 -5.821460659
1.674523169 -12.7885019 -6.363260434
2.078351552 -12.5961261 -7.416139502
-0.2400872176 -3.344179877 -6.874339727
0.5304613793 -3.120343964 -5.994428799
-2.093387024 -1.836144702 -5.572462463
-0.9033431953 -0.4289184906 -5.684615385
-0.5430503447 -0.8397001388 -5.68481288
-1.830839444 -1.086255379 -6.44097102
-1.498365109 -1.132531597 -5.628538924
-0.72319677 -0.6343093147 -5.684714132
-1.318218684 -1.337922421 -5.628637671
-1.962113234 -1.461200041 -6.006716741
-1.367091319 -0.7575869348 -6.062793202
-1.186944894 -0.962977759 -6.06289195
-0.5218073032 -0.8530633847 -8.709958976
-0.8637483468 -0.5039234003 -8.717971159
-0.6136338867 -0.7895906871 -9.11145994
-1.648783531 -0.8324554867 -8.474854064
-0.692777825 -0.6784933925 -8.713965068
-0.7386911167 -0.6467570437 -8.91471555
-0.567720595 -0.8213270359 -8.910709458
-1.085295417 -0.8427594357 -8.59240652
-1.256265939 -0.6681894435 -8.596412612
-1.131208709 -0.8110230869 -8.793157002
-0.6136338867 -0.7895906871 -9.11145994
-0.8637483468 -0.5039234003 -8.717971159
-0.9083618895 -0.4181849802 -9.218414388
-1.648783531 -0.8324554867 -8.474854064
-0.7386911167 -0.6467570437 -8.91471555
-0.8860551182 -0.4610541903 -8.968192774
-0.7609978881 -0.6038878337 -9.164937164
-1.131208709 -0.8110230869 -8.793157002
-1.256265939 -0.6681894435 -8.596412612
-1.27857271 -0.6253202335 -8.846634226
-0.2000069879 -0.9797944707 -5.430059715
-0.6397268109 -0.7686023728 -5.177122656
-0.5430503447 -0.8397001388 -5.68481288
-0.8690992756 -1.963429669 -5.175098146
-0.4198668994 -0.8741984217 -5.303591185
-0.5913885778 -0.8041512558 -5.430967768
-0.3715286663 -0.9097473048 -5.557436297
-0.5345531317 -1.47161207 -5.30257893
-0.7544130432 -1.366016021 -5.176110401
-0.7060748101 -1.401564904 -5.429955513
0.2382800108 -0.9711964973 -6.192615654
0.2379715433 -0.9712721269 -5.684441688
-0.1996729687 -0.9798625952 -5.938824813
0.1531927158 -2.245050295 -6.18377085
0.2381257771 -0.9712343121 -5.938528671
0.0191492873 -0.9755673611 -5.811633251
0.01930352104 -0.9755295463 -6.065720234
0.1957363633 -1.608123396 -6.188193252
0.1955821296 -1.608161211 -5.934106269
-0.02324012646 -1.612456445 -6.061297832
1 0 -10
10.57703397 0 -3.4
2.016961334 0 -7.8
2.347262615 -1.487475145 -9.507742122
5.788516984 0 -6.7
6.296997651 0 -5.6
1.508480667 0 -8.9
1.673631307 -0.7437375723 -9.753871061
6.462148291 -0.7437375723 -6.453871061
2.182111974 -0.7437375723 -8.653871061
-0.9033431953 -0.4289184906 -6.7
-0.5344790198 -0.8451817422 -6.700770977
-1.830839444 -1.086255379 -6.44097102
-1.678362431 -0.887794238 -7.459285655
-0.7189111075 -0.6370501164 -6.700385489
-1.182659232 -0.9657185607 -6.570870999
-1.367091319 -0.7575869348 -6.57048551
-1.290852813 -0.6583563643 -7.079642828
-1.106420726 -0.8664879901 -7.080028316
-1.754600937 -0.9870248085 -6.950128338
0.903373461 -0.4288547422 -5.684482879
1.439674436 0 -5.684615385
0.903375947 -0.4288495054 -5.176707263
2.481675156 -1.852905221 -5.938320992
1.171523948 -0.2144273711 -5.684549132
1.171525191 -0.2144247527 -5.430661324
0.903374704 -0.4288521238 -5.430595071
1.692524309 -1.140879982 -5.811401936
1.960674796 -0.9264526106 -5.811468188
1.692525552 -1.140877363 -5.557514128
-0.9507016797 -2.015844221 -6.387872592
-0.1984458286 -0.9801118575 -6.954682989
0.1531927158 -2.245050295 -6.18377085
-0.5011380637 -1.897275062 -7.56013902
-0.5745737541 -1.497978039 -6.671277791
-0.02262655638 -1.612581076 -6.569226919
-0.398754482 -2.130447258 -6.285821721
-0.7259198717 -1.956559642 -6.974005806
-0.3497919461 -1.43869346 -7.257411005
-0.1739726739 -2.071162679 -6.871954935
0.2379919343 -0.9712671307 -5.175612967
0.6319717217 -0.774991447 -5.43035807
0.6308109785 -0.775936537 -4.925035661
1.10799114 -1.912869374 -4.846540236
0.434981828 -0.8731292889 -5.302985519
0.6313913501 -0.775463992 -5.177696865
0.4344014564 -0.8736018338 -5.050324314
0.6729915374 -1.442068252 -5.011076602
0.8699814311 -1.343930411 -5.138449153
0.8694010595 -1.344402956 -4.885787948
-1.414464197 -3.760391594 -6.701371587
-1.486149823 -6.928202819 -3.4
3.222413342 -22.26428404 -7.784971137
0.1266329963 -3.312719767 -4.941549731
-1.45030701 -5.344297206 -5.050685794
0.8681317599 -14.59624343 -5.592485568
0.9039745725 -13.01233782 -7.243171362
-0.6439156006 -3.536555681 -5.821460659
-0.6797584132 -5.120461293 -4.170774866
1.674523169 -12.7885019 -6.363260434
-0.9033431953 -0.4289184906 -7.715384615
-1.483465168 0 -7.684329858
-1 0 -7.461538462
-1 0 -7.969230769
-1.193404182 -0.2144592453 -7.699857236
-1.241732584 0 -7.57293416
-0.9516715976 -0.2144592453 -7.588461538
-0.9516715976 -0.2144592453 -7.842307692
-1.241732584 0 -7.826780313
-1 0 -7.715384615
-0.8564761281 -2.175324925 -8.643739685
-0.197748099 -0.9802528701 -8.4795652
-0.6382319836 -0.7698440979 -8.223239791
-0.5011380637 -1.897275062 -7.56013902
-0.5271121135 -1.577788897 -8.561652442
-0.4179900413 -0.875048484 -8.351402495
-0.7473540558 -1.472584511 -8.433489738
-0.6788070959 -2.036299993 -8.101939353
-0.3494430813 -1.438763966 -8.01985211
-0.5696850236 -1.33355958 -7.891689406
-1 0 -6.953846154
-1.46903668 0 -6.6613913
-0.9033431953 -0.4289184906 -6.7
-1 0 -6.446153846
-1.23451834 0 -6.807618727
-1.186189938 -0.2144592453 -6.68069565
-0.9516715976 -0.2144592453 -6.826923077
-1 0 -6.7
-1.23451834 0 -6.553772573
-0.9516715976 -0.2144592453 -6.573076923
-1.483465168 0 -7.684329858
-0.9033431953 -0.4289184906 -7.715384615
-0.9085123882 -0.4178579189 -7.207692308
-1.678362431 -0.887794238 -7.459285655
-1.193404182 -0.2144592453 -7.699857236
-0.9059277918 -0.4233882047 -7.461538462
-1.195988778 -0.2089289595 -7.446011083
-1.5809138 -0.443897119 -7.571807756
-1.290852813 -0.6583563643 -7.587335135
-1.29343741 -0.6528260784 -7.333488981
2.481675156 -1.852905221 -5.938320992
0.9034178452 -0.4287612355 -4.669068391
0.903375947 -0.4288495054 -5.176707263
1.10799114 -1.912869374 -4.846540236
1.692546501 -1.140833228 -5.303694691
0.9033968961 -0.4288053704 -4.922887827
1.692525552 -1.140877363 -5.557514128
1.794833148 -1.882887298 -5.392430614
1.005704493 -1.170815305 -4.757804313
1.005683544 -1.17085944 -5.01162375
-2.078712935 -1.755623947 -7.875885853
-2.241895626 0 -7.633898237
-3.171781743 0 -7.086027919
-1.678362431 -0.887794238 -7.459285655
-2.160304281 -0.8778119735 -7.754892045
-2.706838685 0 -7.359963078
-2.625247339 -0.8778119735 -7.480956886
-1.878537683 -1.321709092 -7.667585754
-1.960129029 -0.443897119 -7.546591946
-2.425072087 -0.443897119 -7.272656787
-0.5344790198 -0.8451817422 -6.700770977
-0.6022323621 -0.7983208515 -6.193441831
-1.830839444 -1.086255379 -6.44097102
-0.9507016797 -2.015844221 -6.387872592
-0.568355691 -0.8217512969 -6.447106404
-1.216535903 -0.9422881153 -6.317206426
-1.182659232 -0.9657185607 -6.570870999
-0.7425903497 -1.430512982 -6.544321785
-0.7764670209 -1.407082536 -6.290657212
-1.390770562 -1.5510498 -6.414421806
-3.479216037 0 -6.025798086
-2.170355614 0 -5.75055421
-2.093387024 -1.836144702 -5.572462463
-1.830839444 -1.086255379 -6.44097102
-2.824785826 0 -5.888176148
-2.131871319 -0.9180723512 -5.661508336
-2.78630153 -0.9180723512 -5.799130274
-2.65502774 -0.5431276895 -6.233384553
-2.000597529 -0.5431276895 -6.095762615
-1.962113234 -1.461200041 -6.006716741
-0.9086213592 -0.4176209114 -8.223076923
-0.6382319836 -0.7698440979 -8.223239791
-0.9033431953 -0.4289184906 -7.715384615
-1.648783531 -0.8324554867 -8.474854064
-0.7734266714 -0.5937325047 -8.223158357
-0.7707875894 -0.5993812942 -7.969312203
-0.9059822772 -0.423269701 -7.969230769
-1.278702445 -0.6250381991 -8.348965494
-1.143507757 -0.8011497923 -8.349046928
-1.276063363 -0.6306869886 -8.09511934
1.445135367 0 -6.756410256
0.9033437744 -0.4289172709 -6.192325248
0.903352412 -0.4288990788 -6.7000604
2.481675156 -1.852905221 -5.938320992
1.174239571 -0.2144586355 -6.474367752
0.9033480932 -0.4289081748 -6.446192824
1.174243889 -0.2144495394 -6.728235328
1.963405262 -0.9264526106 -6.347365624
1.692509465 -1.140911246 -6.06532312
1.692513784 -1.14090215 -6.319190696
-0.9085123882 -0.4178579189 -7.207692308
-1.582367502 0 -7.177479321
-1.483465168 0 -7.684329858
-1.678362431 -0.887794238 -7.459285655
-1.245439945 -0.2089289595 -7.192585815
-1.532916335 0 -7.430904589
-1.195988778 -0.2089289595 -7.446011083
-1.29343741 -0.6528260784 -7.333488981
-1.630364967 -0.443897119 -7.318382488
-1.5809138 -0.443897119 -7.571807756
-1.38119511 -2.364212683 -3.4
-1.414464197 -3.760391594 -6.701371587
-2.093387024 -1.836144702 -5.572462463
-0.8690992756 -1.963429669 -5.175098146
-1.397829654 -3.062302138 -5.050685794
-1.753925611 -2.798268148 -6.136917025
-1.737291067 -2.100178693 -4.486231231
-1.125147193 -2.163821176 -4.287549073
-1.141781737 -2.861910631 -5.938234867
-1.48124315 -1.899787186 -5.373780304
-1.678362431 -0.887794238 -7.459285655
-0.6017060239 -0.7987176352 -7.208881129
-0.9507016797 -2.015844221 -6.387872592
-0.5011380637 -1.897275062 -7.56013902
-1.140034228 -0.8432559366 -7.334083392
-0.7762038518 -1.407280928 -6.798376861
-1.314532055 -1.45181923 -6.923579124
-1.089750247 -1.39253465 -7.509712338
-0.5514220438 -1.347996349 -7.384510075
-0.7259198717 -1.956559642 -6.974005806
1.439674436 0 -5.684615385
0.903373461 -0.4288547422 -5.684482879
0.9033437744 -0.4289172709 -6.192325248
2.481675156 -1.852905221 -5.938320992
1.171523948 -0.2144273711 -5.684549132
0.9033586177 -0.4288860065 -5.938404063
1.171509105 -0.2144586355 -5.938470316
1.960674796 -0.9264526106 -5.811468188
1.692524309 -1.140879982 -5.811401936
1.692509465 -1.140911246 -6.06532312
-0.5430503447 -0.8397001388 -5.68481288
-0.6397268109 -0.7686023728 -5.177122656
-2.093387024 -1.836144702 -5.572462463
-0.8690992756 -1.963429669 -5.175098146
-0.5913885778 -0.8041512558 -5.430967768
-1.366556917 -1.302373538 -5.374792559
-1.318218684 -1.337922421 -5.628637671
-0.7060748101 -1.401564904 -5.429955513
-0.7544130432 -1.366016021 -5.176110401
-1.48124315 -1.899787186 -5.373780304
-5.514209552 -3.8896768 -3.4
-1.38119511 -2.364212683 -3.4
-1.486149823 -6.928202819 -3.4
-1.414464197 -3.760391594 -6.701371587
-3.447702331 -3.126944741 -3.4
-1.433672466 -4.646207751 -3.4
-3.500179687 -5.408939809 -3.4
-3.464336875 -3.825034197 -5.050685794
-1.397829654 -3.062302138 -5.050685794
-1.45030701 -5.344297206 -5.050685794
-1.648783531 -0.8324554867 -8.474854064
-0.6136338867 -0.7895906871 -9.11145994
-0.5218073032 -0.8530633847 -8.709958976
-0.8564761281 -2.175324925 -8.643739685
-1.131208709 -0.8110230869 -8.793157002
-0.567720595 -0.8213270359 -8.910709458
-1.085295417 -0.8427594357 -8.59240652
-1.25262983 -1.503890206 -8.559296875
-0.7350550074 -1.482457806 -8.877599812
-0.6891417157 -1.514194155 -8.676849331
2.481675156 -1.852905221 -5.938320992
7.654666388 -3.621100098 -3.4
17.83908043 -12.29946945 -7.46400298
2.347262615 -1.487475145 -9.507742122
5.068170772 -2.73700266 -4.669160496
12.74687341 -7.960284773 -5.43200149
10.16037779 -7.076187335 -6.701161986
2.414468886 -1.670190183 -7.723031557
5.000964501 -2.554287621 -6.453871061
10.09317152 -6.893472296 -8.485872551
1.439674436 0 -5.684615385
0.903375947 -0.4288495054 -5.176707263
1 0 -5.430769231
0.903373461 -0.4288547422 -5.684482879
1.171525191 -0.2144247527 -5.430661324
0.9516879735 -0.2144247527 -5.303738247
1.219837218 0 -5.557692308
1.171523948 -0.2144273711 -5.684549132
0.903374704 -0.4288521238 -5.430595071
0.9516867305 -0.2144273711 -5.557626055
0.903373461 -0.4288547422 -5.684482879
1 0 -5.938461538
1.439674436 0 -5.684615385
0.9033437744 -0.4289172709 -6.192325248
0.9516867305 -0.2144273711 -5.811472209
1.219837218 0 -5.811538462
1.171523948 -0.2144273711 -5.684549132
0.9033586177 -0.4288860065 -5.938404063
0.9516718872 -0.2144586355 -6.065393393
1.171509105 -0.2144586355 -5.938470316
0.6329740559 -0.7741730069 -7.970051966
0.9033431953 -0.4289184906 -7.715384615
0.6326286909 -0.7744552533 -7.461915559
0.8756089518 -1.93792304 -8.546901289
0.7681586256 -0.6015457487 -7.842718291
0.7679859431 -0.601686872 -7.588650087
0.6328013734 -0.7743141301 -7.715983763
0.7542915038 -1.356048023 -8.258476627
0.8894760735 -1.183420765 -8.131142952
0.7541188214 -1.356189147 -8.004408424
-2.241895626 0 -7.633898237
-1.582367502 0 -7.177479321
-2.20850898 0 -6.632939925
-1.678362431 -0.887794238 -7.459285655
-1.912131564 0 -7.405688779
-1.895438241 0 -6.905209623
-2.225202303 0 -7.133419081
-1.960129029 -0.443897119 -7.546591946
-1.630364967 -0.443897119 -7.318382488
-1.943435706 -0.443897119 -7.04611279
0.6329740559 -0.7741730069 -7.970051966
0.9036778342 -0.4282129985 -8.223439157
0.9033431953 -0.4289184906 -7.715384615
0.8756089518 -1.93792304 -8.546901289
0.768325945 -0.6011930027 -8.096745561
0.9035105147 -0.4285657445 -7.969411886
0.7681586256 -0.6015457487 -7.842718291
0.7542915038 -1.356048023 -8.258476627
0.889643393 -1.183068019 -8.385170223
0.8894760735 -1.183420765 -8.131142952
-0.1996729687 -0.9798625952 -5.938824813
-0.5430503447 -0.8397001388 -5.68481288
-0.9507016797 -2.015844221 -6.387872592
-0.8690992756 -1.963429669 -5.175098146
-0.3713616567 -0.909781367 -5.811818847
-0.7468760122 -1.42777218 -6.036342736
-0.5751873242 -1.497853408 -6.163348703
-0.5343861222 -1.471646132 -5.55696148
-0.7060748101 -1.401564904 -5.429955513
-0.9099004776 -1.989636945 -5.781485369
-1.414464197 -3.760391594 -6.701371587
0.002107211665 -3.421699088 -8.291419345
-0.8564761281 -2.175324925 -8.643739685
-0.5011380637 -1.897275062 -7.56013902
-0.7061784929 -3.591045341 -7.496395466
-0.4271844582 -2.798512006 -8.467579515
-1.135470163 -2.967858259 -7.672555636
-0.9578011306 -2.828833328 -7.130755304
-0.249515426 -2.659487075 -7.925779183
-0.6788070959 -2.036299993 -8.101939353
-0.8637483468 -0.5039234003 -8.717971159
-0.5218073032 -0.8530633847 -8.709958976
-0.6382319836 -0.7698440979 -8.223239791
-1.648783531 -0.8324554867 -8.474854064
-0.692777825 -0.6784933925 -8.713965068
-0.5800196434 -0.8114537413 -8.466599384
-0.7509901652 -0.6368837491 -8.470605475
-1.256265939 -0.6681894435 -8.596412612
-1.085295417 -0.8427594357 -8.59240652
-1.143507757 -0.8011497923 -8.349046928
0.002107211665 -3.421699088 -8.291419345
-2.127870879 -3.60370463 -8.716163934
-1.414464197 -3.760391594 -6.701371587
-0.8564761281 -2.175324925 -8.643739685
-1.062881834 -3.512701859 -8.503791639
-1.771167538 -3.682048112 -7.708767761
-0.7061784929 -3.591045341 -7.496395466
-0.4271844582 -2.798512006 -8.467579515
-1.492173503 -2.889514777 -8.67995181
-1.135470163 -2.967858259 -7.672555636
0.6319259596 -0.7750287617 -5.938528633
0.2379715433 -0.9712721269 -5.684441688
0.1531927158 -2.245050295 -6.18377085
1.10799114 -1.912869374 -4.846540236
0.4349487515 -0.8731504443 -5.811485161
0.1955821296 -1.608161211 -5.934106269
0.3925593377 -1.510039528 -6.061149741
0.86995855 -1.343949068 -5.392534435
0.6729813419 -1.44207075 -5.265490962
0.6305919281 -2.078959835 -5.515155543
-1.648783531 -0.8324554867 -8.474854064
-0.5218073032 -0.8530633847 -8.709958976
-0.6382319836 -0.7698440979 -8.223239791
-0.8564761281 -2.175324925 -8.643739685
-1.085295417 -0.8427594357 -8.59240652
-0.5800196434 -0.8114537413 -8.466599384
-1.143507757 -0.8011497923 -8.349046928
-1.25262983 -1.503890206 -8.559296875
-0.6891417157 -1.514194155 -8.676849331
-0.7473540558 -1.472584511 -8.433489738
-2.20850898 0 -6.632939925
-1.46903668 0 -6.6613913
-1.554306918 0 -6.096537254
-1.830839444 -1.086255379 -6.44097102
-1.83877283 0 -6.647165612
-1.511671799 0 -6.378964277
-1.881407949 0 -6.364738589
-2.019674212 -0.5431276895 -6.536955472
-1.649938062 -0.5431276895 -6.55118116
-1.692573181 -0.5431276895 -6.268754137
-0.8564761281 -2.175324925 -8.643739685
-2.078712935 -1.755623947 -7.875885853
-1.414464197 -3.760391594 -6.701371587
-0.5011380637 -1.897275062 -7.56013902
-1.467594531 -1.965474436 -8.259812769
-1.746588566 -2.75800777 -7.28862872
-1.135470163 -2.967858259 -7.672555636
-0.6788070959 -2.036299993 -8.101939353
-1.289925499 -1.826449505 -7.718012437
-0.9578011306 -2.828833328 -7.130755304
-0.9083618895 -0.4181849802 -9.218414388
-1.33216458 0 -9.161247779
-1 0 -8.984615385
-1 0 -9.492307692
-1.120263235 -0.2090924901 -9.189831083
-1.16608229 0 -9.072931582
-0.9541809447 -0.2090924901 -9.101514886
-0.9541809447 -0.2090924901 -9.35536104
-1.16608229 0 -9.326777735
-1 0 -9.238461538
-0.9507016797 -2.015844221 -6.387872592
-0.1989174351 -0.9800162519 -6.446848938
-0.1996729687 -0.9798625952 -5.938824813
0.1531927158 -2.245050295 -6.18377085
-0.5748095574 -1.497930237 -6.417360765
-0.1992952019 -0.9799394236 -6.192836876
-0.5751873242 -1.497853408 -6.163348703
-0.398754482 -2.130447258 -6.285821721
-0.02286235965 -1.612533273 -6.315309894
-0.02324012646 -1.612456445 -6.061297832
-1.414464197 -3.760391594 -6.701371587
-2.127870879 -3.60370463 -8.716163934
-2.078712935 -1.755623947 -7.875885853
-0.8564761281 -2.175324925 -8.643739685
-1.771167538 -3.682048112 -7.708767761
-2.103291907 -2.679664288 -8.296024894
-1.746588566 -2.75800777 -7.28862872
-1.135470163 -2.967858259 -7.672555636
-1.492173503 -2.889514777 -8.67995181
-1.467594531 -1.965474436 -8.259812769
-1.46903668 0 -6.6613913
-0.9033431953 -0.4289184906 -6.7
-1.830839444 -1.086255379 -6.44097102
-1.678362431 -0.887794238 -7.459285655
-1.186189938 -0.2144592453 -6.68069565
-1.367091319 -0.7575869348 -6.57048551
-1.649938062 -0.5431276895 -6.55118116
-1.573699556 -0.443897119 -7.060338478
-1.290852813 -0.6583563643 -7.079642828
-1.754600937 -0.9870248085 -6.950128338
0.9342897623 -2.927968161 -7.047307867
0.632075923 -0.7749064638 -6.446337352
0.2389892904 -0.9710222032 -6.700463058
0.1531927158 -2.245050295 -6.18377085
0.7831828427 -1.851437312 -6.746822609
0.4355326067 -0.8729643335 -6.573400205
0.5866395264 -1.949495182 -6.873885462
0.5437412391 -2.586509228 -6.615539358
0.3926343194 -1.509978379 -6.315054101
0.1960910031 -1.608036249 -6.442116954
-1.554306918 0 -6.096537254
-2.170355614 0 -5.75055421
-2.20850898 0 -6.632939925
-1.830839444 -1.086255379 -6.44097102
-1.862331266 0 -5.923545732
-2.189432297 0 -6.191747067
-1.881407949 0 -6.364738589
-1.692573181 -0.5431276895 -6.268754137
-2.000597529 -0.5431276895 -6.095762615
-2.019674212 -0.5431276895 -6.536955472
0.903375947 -0.4288495054 -5.176707263
0.6319717217 -0.774991447 -5.43035807
2.481675156 -1.852905221 -5.938320992
1.10799114 -1.912869374 -4.846540236
0.7676738344 -0.6019204762 -5.303532666
1.556823439 -1.313948334 -5.684339531
1.692525552 -1.140877363 -5.557514128
1.005683544 -1.17085944 -5.01162375
0.8699814311 -1.343930411 -5.138449153
1.794833148 -1.882887298 -5.392430614
-1.38119511 -2.364212683 -3.4
-1.486149823 -6.928202819 -3.4
-1.414464197 -3.760391594 -6.701371587
0.1266329963 -3.312719767 -4.941549731
-1.433672466 -4.646207751 -3.4
-1.45030701 -5.344297206 -5.050685794
-1.397829654 -3.062302138 -5.050685794
-0.6272810567 -2.838466225 -4.170774866
-0.6797584132 -5.120461293 -4.170774866
-0.6439156006 -3.536555681 -5.821460659
-2.241895626 0 -7.633898237
-1.483465168 0 -7.684329858
-1.582367502 0 -7.177479321
-1.678362431 -0.887794238 -7.459285655
-1.862680397 0 -7.659114047
-1.532916335 0 -7.430904589
-1.912131564 0 -7.405688779
-1.960129029 -0.443897119 -7.546591946
-1.5809138 -0.443897119 -7.571807756
-1.630364967 -0.443897119 -7.318382488
-0.5430503447 -0.8397001388 -5.68481288
-1.830839444 -1.086255379 -6.44097102
-0.9507016797 -2.015844221 -6.387872592
-0.8690992756 -1.963429669 -5.175098146
-1.186944894 -0.962977759 -6.06289195
-1.390770562 -1.5510498 -6.414421806
-0.7468760122 -1.42777218 -6.036342736
-0.7060748101 -1.401564904 -5.429955513
-1.34996936 -1.524842524 -5.808034583
-0.9099004776 -1.989636945 -5.781485369
2.481675156 -1.852905221 -5.938320992
2.291748005 -3.365583757 -3.4
0.1266329963 -3.312719767 -4.941549731
0.9342897623 -2.927968161 -7.047307867
2.386711581 -2.609244489 -4.669160496
1.209190501 -3.339151762 -4.170774866
1.304154076 -2.582812494 -5.439935362
1.707982459 -2.390436691 -6.492814429
1.613018884 -3.146775959 -5.223653933
0.5304613793 -3.120343964 -5.994428799
0.632075923 -0.7749064638 -6.446337352
0.632348875 -0.7746837421 -6.95414225
2.481675156 -1.852905221 -5.938320992
0.9342897623 -2.927968161 -7.047307867
0.632212399 -0.7747951029 -6.700239801
1.557012016 -1.313794482 -6.446231621
1.55687554 -1.313905842 -6.192329172
0.7831828427 -1.851437312 -6.746822609
0.7833193187 -1.851325951 -7.000725058
1.707982459 -2.390436691 -6.492814429
0.1266329963 -3.312719767 -4.941549731
-1.414464197 -3.760391594 -6.701371587
-1.38119511 -2.364212683 -3.4
-0.8690992756 -1.963429669 -5.175098146
-0.6439156006 -3.536555681 -5.821460659
-1.397829654 -3.062302138 -5.050685794
-0.6272810567 -2.838466225 -4.170774866
-0.3712331396 -2.638074718 -5.058323939
-1.141781737 -2.861910631 -5.938234867
-1.125147193 -2.163821176 -4.287549073
0.6319717217 -0.774991447 -5.43035807
0.6319259596 -0.7750287617 -5.938528633
2.481675156 -1.852905221 -5.938320992
1.10799114 -1.912869374 -4.846540236
0.6319488407 -0.7750101044 -5.684443351
1.556800558 -1.313966991 -5.938424813
1.556823439 -1.313948334 -5.684339531
0.8699814311 -1.343930411 -5.138449153
0.86995855 -1.343949068 -5.392534435
1.794833148 -1.882887298 -5.392430614
1 0 -6.446153846
0.9033437744 -0.4289172709 -6.192325248
0.903352412 -0.4288990788 -6.7000604
1.445135367 0 -6.756410256
0.9516718872 -0.2144586355 -6.319239547
0.9033480932 -0.4289081748 -6.446192824
0.951676206 -0.2144495394 -6.573107123
1.222567683 0 -6.601282051
1.174239571 -0.2144586355 -6.474367752
1.174243889 -0.2144495394 -6.728235328
-0.2000069879 -0.9797944707 -5.430059715
-0.1996729687 -0.9798625952 -5.938824813
0.1531927158 -2.245050295 -6.18377085
-0.8690992756 -1.963429669 -5.175098146
-0.1998399783 -0.979828533 -5.684442264
-0.02324012646 -1.612456445 -6.061297832
-0.02340713605 -1.612422383 -5.806915282
-0.5345531317 -1.47161207 -5.30257893
-0.5343861222 -1.471646132 -5.55696148
-0.3579532799 -2.104239982 -5.679434498
1.445135367 0 -6.756410256
0.9034121977 -0.4287731347 -7.207792049
1 0 -6.953846154
1 0 -7.461538462
1.174273782 -0.2143865674 -6.982101153
0.9517060988 -0.2143865674 -7.080819101
1.222567683 0 -6.855128205
1.222567683 0 -7.108974359
0.9517060988 -0.2143865674 -7.334665255
1 0 -7.207692308
-0.9083618895 -0.4181849802 -9.218414388
-0.8637483468 -0.5039234003 -8.717971159
-1.33216458 0 -9.161247779
-1.648783531 -0.8324554867 -8.474854064
-0.8860551182 -0.4610541903 -8.968192774
-1.097956463 -0.2519617001 -8.939609469
-1.120263235 -0.2090924901 -9.189831083
-1.27857271 -0.6253202335 -8.846634226
-1.256265939 -0.6681894435 -8.596412612
-1.490474056 -0.4162277433 -8.818050921
-2.093387024 -1.836144702 -5.572462463
-2.078712935 -1.755623947 -7.875885853
-1.830839444 -1.086255379 -6.44097102
-0.9507016797 -2.015844221 -6.387872592
-2.086049979 -1.795884325 -6.724174158
-1.954776189 -1.420939663 -7.158428437
-1.962113234 -1.461200041 -6.006716741
-1.522044352 -1.925994462 -5.980167527
-1.514707307 -1.885734084 -7.131879223
-1.390770562 -1.5510498 -6.414421806
1 0 -6.953846154
0.903352412 -0.4288990788 -6.7000604
0.9034121977 -0.4287731347 -7.207792049
1.445135367 0 -6.756410256
0.951676206 -0.2144495394 -6.826953277
0.9033823048 -0.4288361067 -6.953926225
0.9517060988 -0.2143865674 -7.080819101
1.222567683 0 -6.855128205
1.174243889 -0.2144495394 -6.728235328
1.174273782 -0.2143865674 -6.982101153
1.973115769 -0.9463218321 -3.4
0.9034178452 -0.4287612355 -4.669068391
2.481675156 -1.852905221 -5.938320992
1.10799114 -1.912869374 -4.846540236
1.438266807 -0.6875415338 -4.034534195
1.692546501 -1.140833228 -5.303694691
2.227395463 -1.399613527 -4.669160496
1.540553455 -1.429595603 -4.123270118
1.005704493 -1.170815305 -4.757804313
1.794833148 -1.882887298 -5.392430614
1.439674436 0 -5.684615385
0.9033437744 -0.4289172709 -6.192325248
1.445135367 0 -6.756410256
2.481675156 -1.852905221 -5.938320992
1.171509105 -0.2144586355 -5.938470316
1.174239571 -0.2144586355 -6.474367752
1.442404901 0 -6.220512821
1.960674796 -0.9264526106 -5.811468188
1.692509465 -1.140911246 -6.06532312
1.963405262 -0.9264526106 -6.347365624
-0.6382319836 -0.7698440979 -8.223239791
-0.9086213592 -0.4176209114 -8.223076923
-0.8637483468 -0.5039234003 -8.717971159
-1.648783531 -0.8324554867 -8.474854064
-0.7734266714 -0.5937325047 -8.223158357
-0.886184853 -0.4607721559 -8.470524041
-0.7509901652 -0.6368837491 -8.470605475
-1.143507757 -0.8011497923 -8.349046928
-1.278702445 -0.6250381991 -8.348965494
-1.256265939 -0.6681894435 -8.596412612
-0.8637483468 -0.5039234003 -8.717971159
-1.429275152 0 -8.680167065
-1.33216458 0 -9.161247779
-1.648783531 -0.8324554867 -8.474854064
-1.146511749 -0.2519617001 -8.699069112
-1.380719866 0 -8.920707422
-1.097956463 -0.2519617001 -8.939609469
-1.256265939 -0.6681894435 -8.596412612
-1.539029341 -0.4162277433 -8.577510564
-1.490474056 -0.4162277433 -8.818050921
-0.5430503447 -0.8397001388 -5.68481288
-2.093387024 -1.836144702 -5.572462463
-1.830839444 -1.086255379 -6.44097102
-0.8690992756 -1.963429669 -5.175098146
-1.318218684 -1.337922421 -5.628637671
-1.962113234 -1.461200041 -6.006716741
-1.186944894 -0.962977759 -6.06289195
-0.7060748101 -1.401564904 -5.429955513
-1.48124315 -1.899787186 -5.373780304
-1.34996936 -1.524842524 -5.808034583
0.2379715433 -0.9712721269 -5.684441688
0.2379919343 -0.9712671307 -5.175612967
0.1531927158 -2.245050295 -6.18377085
1.10799114 -1.912869374 -4.846540236
0.2379817388 -0.9712696288 -5.430027328
0.195592325 -1.608158713 -5.679691909
0.1955821296 -1.608161211 -5.934106269
0.6729813419 -1.44207075 -5.265490962
0.6729915374 -1.442068252 -5.011076602
0.6305919281 -2.078959835 -5.515155543
-0.6382319836 -0.7698440979 -8.223239791
-1.648783531 -0.8324554867 -8.474854064
-0.8564761281 -2.175324925 -8.643739685
-0.5011380637 -1.897275062 -7.56013902
-1.143507757 -0.8011497923 -8.349046928
-1.25262983 -1.503890206 -8.559296875
-0.7473540558 -1.472584511 -8.433489738
-0.5696850236 -1.33355958 -7.891689406
-1.074960797 -1.364865274 -8.017496542
-0.6788070959 -2.036299993 -8.101939353
-1.414464197 -3.760391594 -6.701371587
-2.078712935 -1.755623947 -7.875885853
-2.093387024 -1.836144702 -5.572462463
-0.9507016797 -2.015844221 -6.387872592
-1.746588566 -2.75800777 -7.28862872
-2.086049979 -1.795884325 -6.724174158
-1.753925611 -2.798268148 -6.136917025
-1.182582939 -2.888117907 -6.54462209
-1.514707307 -1.885734084 -7.131879223
-1.522044352 -1.925994462 -5.980167527
0.5921441376 -0.8058320671 -9.058785895
0.3107167467 -0.950502553 -9.541295805
0.7224197185 -0.6914548071 -9.57790225
0.8756089518 -1.93792304 -8.546901289
0.4514304422 -0.87816731 -9.30004085
0.5165682326 -0.8209786801 -9.559599028
0.6572819281 -0.7486434371 -9.318344073
0.7338765447 -1.371877553 -8.802843592
0.5931628492 -1.444212796 -9.044098547
0.7990143351 -1.314688923 -9.06240177
0.6326286909 -0.7744552533 -7.461915559
0.9033431953 -0.4289184906 -7.715384615
0.9342897623 -2.927968161 -7.047307867
0.8756089518 -1.93792304 -8.546901289
0.7679859431 -0.601686872 -7.588650087
0.9188164788 -1.678443326 -7.381346241
0.7834592266 -1.851211707 -7.254611713
0.7541188214 -1.356189147 -8.004408424
0.8894760735 -1.183420765 -8.131142952
0.9049493571 -2.4329456 -7.797104578
-0.9033431953 -0.4289184906 -7.715384615
-0.6382319836 -0.7698440979 -8.223239791
-1.678362431 -0.887794238 -7.459285655
-1.648783531 -0.8324554867 -8.474854064
-0.7707875894 -0.5993812942 -7.969312203
-1.158297207 -0.8288191679 -7.841262723
-1.290852813 -0.6583563643 -7.587335135
-1.276063363 -0.6306869886 -8.09511934
-1.143507757 -0.8011497923 -8.349046928
-1.663572981 -0.8601248623 -7.96706986
-1.429275152 0 -8.680167065
-2.221148465 0 -8.598546585
-1.33216458 0 -9.161247779
-1.648783531 -0.8324554867 -8.474854064
-1.825211808 0 -8.639356825
-1.776656522 0 -8.879897182
-1.380719866 0 -8.920707422
-1.539029341 -0.4162277433 -8.577510564
-1.934965998 -0.4162277433 -8.536700325
-1.490474056 -0.4162277433 -8.818050921
-1.648783531 -0.8324554867 -8.474854064
-0.6382319836 -0.7698440979 -8.223239791
-1.678362431 -0.887794238 -7.459285655
-0.5011380637 -1.897275062 -7.56013902
-1.143507757 -0.8011497923 -8.349046928
-1.158297207 -0.8288191679 -7.841262723
-1.663572981 -0.8601248623 -7.96706986
-1.074960797 -1.364865274 -8.017496542
-0.5696850236 -1.33355958 -7.891689406
-1.089750247 -1.39253465 -7.509712338
0.631992257 -0.7749747009 -8.474901918
0.9036778342 -0.4282129985 -8.223439157
0.6329740559 -0.7741730069 -7.970051966
0.8756089518 -1.93792304 -8.546901289
0.7678350456 -0.6015938497 -8.349170538
0.768325945 -0.6011930027 -8.096745561
0.6324831565 -0.7745738539 -8.222476942
0.7538006044 -1.35644887 -8.510901604
0.889643393 -1.183068019 -8.385170223
0.7542915038 -1.356048023 -8.258476627
-0.9507016797 -2.015844221 -6.387872592
-1.414464197 -3.760391594 -6.701371587
-2.078712935 -1.755623947 -7.875885853
-0.5011380637 -1.897275062 -7.56013902
-1.182582939 -2.888117907 -6.54462209
-1.746588566 -2.75800777 -7.28862872
-1.514707307 -1.885734084 -7.131879223
-0.7259198717 -1.956559642 -6.974005806
-0.9578011306 -2.828833328 -7.130755304
-1.289925499 -1.826449505 -7.718012437
0.1531927158 -2.245050295 -6.18377085
0.9342897623 -2.927968161 -7.047307867
0.002107211665 -3.421699088 -8.291419345
-0.5011380637 -1.897275062 -7.56013902
0.5437412391 -2.586509228 -6.615539358
0.468198487 -3.174833624 -7.669363606
0.07764996373 -2.833374692 -7.237595097
-0.1739726739 -2.071162679 -6.871954935
0.2165758493 -2.412621611 -7.303723444
-0.249515426 -2.659487075 -7.925779183
-0.9507016797 -2.015844221 -6.387872592
-2.093387024 -1.836144702 -5.572462463
-1.414464197 -3.760391594 -6.701371587
-0.8690992756 -1.963429669 -5.175098146
-1.522044352 -1.925994462 -5.980167527
-1.753925611 -2.798268148 -6.136917025
-1.182582939 -2.888117907 -6.54462209
-0.9099004776 -1.989636945 -5.781485369
-1.48124315 -1.899787186 -5.373780304
-1.141781737 -2.861910631 -5.938234867
0.002107211665 -3.421699088 -8.291419345
-1.414464197 -3.760391594 -6.701371587
0.9342897623 -2.927968161 -7.047307867
0.1531927158 -2.245050295 -6.18377085
-0.7061784929 -3.591045341 -7.496395466
-0.2400872176 -3.344179877 -6.874339727
0.468198487 -3.174833624 -7.669363606
0.07764996373 -2.833374692 -7.237595097
-0.6306357408 -3.002720944 -6.442571218
0.5437412391 -2.586509228 -6.615539358
1.439674436 0 -5.684615385
0.9033437744 -0.4289172709 -6.192325248
1 0 -6.446153846
1.445135367 0 -6.756410256
1.171509105 -0.2144586355 -5.938470316
0.9516718872 -0.2144586355 -6.319239547
1.219837218 0 -6.065384615
1.442404901 0 -6.220512821
1.174239571 -0.2144586355 -6.474367752
1.222567683 0 -6.601282051
-0.9086213592 -0.4176209114 -8.223076923
-1.429275152 0 -8.680167065
-0.8637483468 -0.5039234003 -8.717971159
-1.648783531 -0.8324554867 -8.474854064
-1.168948255 -0.2088104557 -8.451621994
-1.146511749 -0.2519617001 -8.699069112
-0.886184853 -0.4607721559 -8.470524041
-1.278702445 -0.6250381991 -8.348965494
-1.539029341 -0.4162277433 -8.577510564
-1.256265939 -0.6681894435 -8.596412612
-2.078712935 -1.755623947 -7.875885853
-2.241895626 0 -7.633898237
-1.678362431 -0.887794238 -7.459285655
-1.648783531 -0.8324554867 -8.474854064
-2.160304281 -0.8778119735 -7.754892045
-1.960129029 -0.443897119 -7.546591946
-1.878537683 -1.321709092 -7.667585754
-1.863748233 -1.294039717 -8.175369959
-1.945339579 -0.4162277433 -8.054376151
-1.663572981 -0.8601248623 -7.96706986
0.1266329963 -3.312719767 -4.941549731
2.481675156 -1.852905221 -5.938320992
0.9342897623 -2.927968161 -7.047307867
1.10799114 -1.912869374 -4.846540236
1.304154076 -2.582812494 -5.439935362
1.707982459 -2.390436691 -6.492814429
0.5304613793 -3.120343964 -5.994428799
0.6173120684 -2.612794571 -4.894044984
1.794833148 -1.882887298 -5.392430614
1.021140451 -2.420418767 -5.946924051
-2.078712935 -1.755623947 -7.875885853
-1.678362431 -0.887794238 -7.459285655
-0.9507016797 -2.015844221 -6.387872592
-0.5011380637 -1.897275062 -7.56013902
-1.878537683 -1.321709092 -7.667585754
-1.314532055 -1.45181923 -6.923579124
-1.514707307 -1.885734084 -7.131879223
-1.289925499 -1.826449505 -7.718012437
-1.089750247 -1.39253465 -7.509712338
-0.7259198717 -1.956559642 -6.974005806
-1.593062713 0 -8.179502498
-2.241895626 0 -7.633898237
-2.221148465 0 -8.598546585
-1.648783531 -0.8324554867 -8.474854064
-1.91747917 0 -7.906700368
-2.231522045 0 -8.116222411
-1.907105589 0 -8.389024542
-1.620923122 -0.4162277433 -8.327178281
-1.945339579 -0.4162277433 -8.054376151
-1.934965998 -0.4162277433 -8.536700325
-3.171781743 0 -7.086027919
-3.34364696 0 -8.062283104
-2.241895626 0 -7.633898237
-2.078712935 -1.755623947 -7.875885853
-3.257714352 0 -7.574155512
-2.792771293 0 -7.848090671
-2.706838685 0 -7.359963078
-2.625247339 -0.8778119735 -7.480956886
-2.711179948 -0.8778119735 -7.969084479
-2.160304281 -0.8778119735 -7.754892045
-1.593062713 0 -8.179502498
-1.429275152 0 -8.680167065
-0.9086213592 -0.4176209114 -8.223076923
-1.648783531 -0.8324554867 -8.474854064
-1.511168932 0 -8.429834782
-1.168948255 -0.2088104557 -8.451621994
-1.250842036 -0.2088104557 -8.201289711
-1.620923122 -0.4162277433 -8.327178281
-1.539029341 -0.4162277433 -8.577510564
-1.278702445 -0.6250381991 -8.348965494
0.903373461 -0.4288547422 -5.684482879
1 0 -5.430769231
1.439674436 0 -5.684615385
1 0 -5.938461538
0.9516867305 -0.2144273711 -5.557626055
1.219837218 0 -5.557692308
1.171523948 -0.2144273711 -5.684549132
0.9516867305 -0.2144273711 -5.811472209
1 0 -5.684615385
1.219837218 0 -5.811538462
-1.830839444 -1.086255379 -6.44097102
-2.078712935 -1.755623947 -7.875885853
-1.678362431 -0.887794238 -7.459285655
-0.9507016797 -2.015844221 -6.387872592
-1.954776189 -1.420939663 -7.158428437
-1.878537683 -1.321709092 -7.667585754
-1.754600937 -0.9870248085 -6.950128338
-1.390770562 -1.5510498 -6.414421806
-1.514707307 -1.885734084 -7.131879223
-1.314532055 -1.45181923 -6.923579124
0.1531927158 -2.245050295 -6.18377085
0.2379919343 -0.9712671307 -5.175612967
-0.8690992756 -1.963429669 -5.175098146
1.10799114 -1.912869374 -4.846540236
0.195592325 -1.608158713 -5.679691909
-0.3155536707 -1.4673484 -5.175355557
-0.3579532799 -2.104239982 -5.679434498
0.6305919281 -2.078959835 -5.515155543
0.6729915374 -1.442068252 -5.011076602
0.1194459324 -1.938149522 -5.010819191
0.9342897623 -2.927968161 -7.047307867
-1.414464197 -3.760391594 -6.701371587
0.1266329963 -3.312719767 -4.941549731
0.1531927158 -2.245050295 -6.18377085
-0.2400872176 -3.344179877 -6.874339727
-0.6439156006 -3.536555681 -5.821460659
0.5304613793 -3.120343964 -5.994428799
0.5437412391 -2.586509228 -6.615539358
-0.6306357408 -3.002720944 -6.442571218
0.139912856 -2.778885031 -5.562660291
-1.483465168 0 -7.684329858
-0.9033431953 -0.4289184906 -7.715384615
-1.678362431 -0.887794238 -7.459285655
-1.648783531 -0.8324554867 -8.474854064
-1.193404182 -0.2144592453 -7.699857236
-1.290852813 -0.6583563643 -7.587335135
-1.5809138 -0.443897119 -7.571807756
-1.56612435 -0.4162277433 -8.079591961
-1.276063363 -0.6306869886 -8.09511934
-1.663572981 -0.8601248623 -7.96706986
-3.34364696 0 -8.062283104
-2.221148465 0 -8.598546585
-2.241895626 0 -7.633898237
-1.648783531 -0.8324554867 -8.474854064
-2.782397712 0 -8.330414845
-2.231522045 0 -8.116222411
-2.792771293 0 -7.848090671
-2.496215246 -0.4162277433 -8.268568584
-1.934965998 -0.4162277433 -8.536700325
-1.945339579 -0.4162277433 -8.054376151
0.1531927158 -2.245050295 -6.18377085
-0.1996729687 -0.9798625952 -5.938824813
-0.9507016797 -2.015844221 -6.387872592
-0.8690992756 -1.963429669 -5.175098146
-0.02324012646 -1.612456445 -6.061297832
-0.5751873242 -1.497853408 -6.163348703
-0.398754482 -2.130447258 -6.285821721
-0.3579532799 -2.104239982 -5.679434498
-0.5343861222 -1.471646132 -5.55696148
-0.9099004776 -1.989636945 -5.781485369
0.6329740559 -0.7741730069 -7.970051966
0.6326286909 -0.7744552533 -7.461915559
0.2398875122 -0.9708006909 -7.716330979
0.8756089518 -1.93792304 -8.546901289
0.6328013734 -0.7743141301 -7.715983763
0.4362581016 -0.8726279721 -7.589123269
0.436430784 -0.8724868489 -7.843191472
0.7542915038 -1.356048023 -8.258476627
0.7541188214 -1.356189147 -8.004408424
0.557748232 -1.454361865 -8.131616134
-1.414464197 -3.760391594 -6.701371587
-1.486149823 -6.928202819 -3.4
-5.514209552 -3.8896768 -3.4
-6.936882012 -5.098539829 -9.13351315
-1.45030701 -5.344297206 -5.050685794
-3.500179687 -5.408939809 -3.4
-3.464336875 -3.825034197 -5.050685794
-4.175673105 -4.429465711 -7.917442368
-4.211515917 -6.013371324 -6.266756575
-6.225545782 -4.494108314 -6.266756575
-2.078712935 -1.755623947 -7.875885853
-2.127870879 -3.60370463 -8.716163934
-1.648783531 -0.8324554867 -8.474854064
-0.8564761281 -2.175324925 -8.643739685
-2.103291907 -2.679664288 -8.296024894
-1.888327205 -2.218080058 -8.595508999
-1.863748233 -1.294039717 -8.175369959
-1.467594531 -1.965474436 -8.259812769
-1.492173503 -2.889514777 -8.67995181
-1.25262983 -1.503890206 -8.559296875
0.2403890958 -0.9706766107 -8.224737329
-0.197748099 -0.9802528701 -8.4795652
0.2312165806 -0.9729023039 -8.716674526
0.8756089518 -1.93792304 -8.546901289
0.02132049843 -0.9754647404 -8.352151264
0.01673424079 -0.976577587 -8.598119863
0.2358028382 -0.9717894573 -8.470705927
0.5579990238 -1.454299825 -8.385819309
0.3389304264 -1.459087955 -8.513233244
0.5534127662 -1.455412672 -8.631787908
-0.9507016797 -2.015844221 -6.387872592
0.1266329963 -3.312719767 -4.941549731
0.1531927158 -2.245050295 -6.18377085
-0.8690992756 -1.963429669 -5.175098146
-0.4120343417 -2.664281994 -5.664711162
0.139912856 -2.778885031 -5.562660291
-0.398754482 -2.130447258 -6.285821721
-0.9099004776 -1.989636945 -5.781485369
-0.3712331396 -2.638074718 -5.058323939
-0.3579532799 -2.104239982 -5.679434498
0.3107167467 -0.950502553 -9.541295805
0.5921441376 -0.8058320671 -9.058785895
0.1744716052 -0.9846622055 -9.146498622
0.8756089518 -1.93792304 -8.546901289
0.4514304422 -0.87816731 -9.30004085
0.3833078714 -0.8952471363 -9.102642259
0.242594176 -0.9675823793 -9.343897214
0.5931628492 -1.444212796 -9.044098547
0.7338765447 -1.371877553 -8.802843592
0.5250402785 -1.461292623 -8.846699956
-2.078712935 -1.755623947 -7.875885853
-5.514209552 -3.8896768 -3.4
-4.904764825 0 -6.636732994
-6.936882012 -5.098539829 -9.13351315
-3.796461243 -2.822650373 -5.637942927
-5.209487189 -1.9448384 -5.018366497
-3.49173888 -0.8778119735 -7.256309424
-4.507797473 -3.427081888 -8.504699501
-6.225545782 -4.494108314 -6.266756575
-5.920823419 -2.549269914 -7.885123072
-1.414464197 -3.760391594 -6.701371587
0.1266329963 -3.312719767 -4.941549731
-0.9507016797 -2.015844221 -6.387872592
-0.8690992756 -1.963429669 -5.175098146
-0.6439156006 -3.536555681 -5.821460659
-0.4120343417 -2.664281994 -5.664711162
-1.182582939 -2.888117907 -6.54462209
-1.141781737 -2.861910631 -5.938234867
-0.3712331396 -2.638074718 -5.058323939
-0.9099004776 -1.989636945 -5.781485369
-1.830839444 -1.086255379 -6.44097102
-2.093387024 -1.836144702 -5.572462463
-0.9507016797 -2.015844221 -6.387872592
-0.8690992756 -1.963429669 -5.175098146
-1.962113234 -1.461200041 -6.006716741
-1.522044352 -1.925994462 -5.980167527
-1.390770562 -1.5510498 -6.414421806
-1.34996936 -1.524842524 -5.808034583
-1.48124315 -1.899787186 -5.373780304
-0.9099004776 -1.989636945 -5.781485369
0.1266329963 -3.312719767 -4.941549731
-1.414464197 -3.760391594 -6.701371587
-0.9507016797 -2.015844221 -6.387872592
0.1531927158 -2.245050295 -6.18377085
-0.6439156006 -3.536555681 -5.821460659
-1.182582939 -2.888117907 -6.54462209
-0.4120343417 -2.664281994 -5.664711162
0.139912856 -2.778885031 -5.562660291
-0.6306357408 -3.002720944 -6.442571218
-0.398754482 -2.130447258 -6.285821721
-1.414464197 -3.760391594 -6.701371587
-5.514209552 -3.8896768 -3.4
-2.078712935 -1.755623947 -7.875885853
-6.936882012 -5.098539829 -9.13351315
-3.464336875 -3.825034197 -5.050685794
-3.796461243 -2.822650373 -5.637942927
-1.746588566 -2.75800777 -7.28862872
-4.175673105 -4.429465711 -7.917442368
-6.225545782 -4.494108314 -6.266756575
-4.507797473 -3.427081888 -8.504699501
1 0 -4.415384615
3.61443509 0 -5.242735043
1.973115769 -0.9463218321 -3.4
1.439674436 0 -5.684615385
2.307217545 0 -4.829059829
2.793775429 -0.4731609161 -4.321367521
1.486557884 -0.4731609161 -3.907692308
1.219837218 0 -5.05
2.527054763 0 -5.463675214
1.706395102 -0.4731609161 -4.542307692
1.439674436 0 -5.684615385
3.61443509 0 -5.242735043
1.973115769 -0.9463218321 -3.4
2.481675156 -1.852905221 -5.938320992
2.527054763 0 -5.463675214
2.793775429 -0.4731609161 -4.321367521
1.706395102 -0.4731609161 -4.542307692
1.960674796 -0.9264526106 -5.811468188
3.048055123 -0.9264526106 -5.590528017
2.227395463 -1.399613527 -4.669160496
-2.127870879 -3.60370463 -8.716163934
-1.414464197 -3.760391594 -6.701371587
-2.078712935 -1.755623947 -7.875885853
-6.936882012 -5.098539829 -9.13351315
-1.771167538 -3.682048112 -7.708767761
-1.746588566 -2.75800777 -7.28862872
-2.103291907 -2.679664288 -8.296024894
-4.532376445 -4.351122229 -8.924838542
-4.175673105 -4.429465711 -7.917442368
-4.507797473 -3.427081888 -8.504699501
-5.514209552 -3.8896768 -3.4
-5.712434052 0 -5.604418866
-4.904764825 0 -6.636732994
-6.936882012 -5.098539829 -9.13351315
-5.613321802 -1.9448384 -4.502209433
-5.308599439 0 -6.12057593
-5.209487189 -1.9448384 -5.018366497
-6.225545782 -4.494108314 -6.266756575
-6.324658032 -2.549269914 -7.368966008
-5.920823419 -2.549269914 -7.885123072
0.2398875122 -0.9708006909 -7.716330979
0.2403890958 -0.9706766107 -8.224737329
0.8756089518 -1.93792304 -8.546901289
-0.5011380637 -1.897275062 -7.56013902
0.240138304 -0.9707386508 -7.970534154
0.5579990238 -1.454299825 -8.385819309
0.557748232 -1.454361865 -8.131616134
-0.1306252758 -1.434037877 -7.638234999
-0.1303744839 -1.433975836 -7.892438174
0.187235444 -1.917599051 -8.053520155
3.61443509 0 -5.242735043
1.439674436 0 -5.684615385
1.445135367 0 -6.756410256
2.481675156 -1.852905221 -5.938320992
2.527054763 0 -5.463675214
1.442404901 0 -6.220512821
2.529785228 0 -5.99957265
3.048055123 -0.9264526106 -5.590528017
1.960674796 -0.9264526106 -5.811468188
1.963405262 -0.9264526106 -6.347365624
-3.34364696 0 -8.062283104
-2.241895626 0 -7.633898237
-2.078712935 -1.755623947 -7.875885853
-1.648783531 -0.8324554867 -8.474854064
-2.792771293 0 -7.848090671
-2.160304281 -0.8778119735 -7.754892045
-2.711179948 -0.8778119735 -7.969084479
-2.496215246 -0.4162277433 -8.268568584
-1.945339579 -0.4162277433 -8.054376151
-1.863748233 -1.294039717 -8.175369959
0.1744716052 -0.9846622055 -9.146498622
0.2312165806 -0.9729023039 -8.716674526
-0.8564761281 -2.175324925 -8.643739685
0.8756089518 -1.93792304 -8.546901289
0.2028440929 -0.9787822547 -8.931586574
-0.3126297738 -1.574113614 -8.680207106
-0.3410022614 -1.579993565 -8.895119154
0.5250402785 -1.461292623 -8.846699956
0.5534127662 -1.455412672 -8.631787908
0.009566411844 -2.056623982 -8.595320487
0.1266329963 -3.312719767 -4.941549731
0.9342897623 -2.927968161 -7.047307867
0.1531927158 -2.245050295 -6.18377085
1.10799114 -1.912869374 -4.846540236
0.5304613793 -3.120343964 -5.994428799
0.5437412391 -2.586509228 -6.615539358
0.139912856 -2.778885031 -5.562660291
0.6173120684 -2.612794571 -4.894044984
1.021140451 -2.420418767 -5.946924051
0.6305919281 -2.078959835 -5.515155543
-2.078712935 -1.755623947 -7.875885853
-4.904764825 0 -6.636732994
-3.34364696 0 -8.062283104
-6.936882012 -5.098539829 -9.13351315
-3.49173888 -0.8778119735 -7.256309424
-4.124205893 0 -7.349508049
-2.711179948 -0.8778119735 -7.969084479
-4.507797473 -3.427081888 -8.504699501
-5.920823419 -2.549269914 -7.885123072
-5.140264486 -2.549269914 -8.597898127
-1.648783531 -0.8324554867 -8.474854064
-2.078712935 -1.755623947 -7.875885853
-0.8564761281 -2.175324925 -8.643739685
-0.5011380637 -1.897275062 -7.56013902
-1.863748233 -1.294039717 -8.175369959
-1.467594531 -1.965474436 -8.259812769
-1.25262983 -1.503890206 -8.559296875
-1.074960797 -1.364865274 -8.017496542
-1.289925499 -1.826449505 -7.718012437
-0.6788070959 -2.036299993 -8.101939353
-1.429275152 0 -8.680167065
-1.593062713 0 -8.179502498
-2.221148465 0 -8.598546585
-1.648783531 -0.8324554867 -8.474854064
-1.511168932 0 -8.429834782
-1.907105589 0 -8.389024542
-1.825211808 0 -8.639356825
-1.539029341 -0.4162277433 -8.577510564
-1.620923122 -0.4162277433 -8.327178281
-1.934965998 -0.4162277433 -8.536700325
0.2403890958 -0.9706766107 -8.224737329
0.6329740559 -0.7741730069 -7.970051966
0.2398875122 -0.9708006909 -7.716330979
0.8756089518 -1.93792304 -8.546901289
0.4366815759 -0.8724248088 -8.097394647
0.436430784 -0.8724868489 -7.843191472
0.240138304 -0.9707386508 -7.970534154
0.5579990238 -1.454299825 -8.385819309
0.7542915038 -1.356048023 -8.258476627
0.557748232 -1.454361865 -8.131616134
1 0 -8.984615385
1 0 -8.476923077
0.903744571 -0.4280721321 -8.730648476
2.016961334 0 -7.8
1 0 -8.730769231
0.9518722855 -0.2140360661 -8.603785776
0.9518722855 -0.2140360661 -8.85763193
1.508480667 0 -8.392307692
1.508480667 0 -8.138461538
1.460352952 -0.2140360661 -8.265324238
1 0 -6.953846154
1 0 -6.446153846
0.903352412 -0.4288990788 -6.7000604
1.445135367 0 -6.756410256
1 0 -6.7
0.951676206 -0.2144495394 -6.573107123
0.951676206 -0.2144495394 -6.826953277
1.222567683 0 -6.855128205
1.222567683 0 -6.601282051
1.174243889 -0.2144495394 -6.728235328
2.016961334 0 -7.8
1.445135367 0 -6.756410256
0.9034121977 -0.4287731347 -7.207792049
2.481675156 -1.852905221 -5.938320992
1.73104835 0 -7.278205128
1.174273782 -0.2143865674 -6.982101153
1.460186766 -0.2143865674 -7.503896024
2.249318245 -0.9264526106 -6.869160496
1.963405262 -0.9264526106 -6.347365624
1.692543677 -1.140839178 -6.57305652
0.5921441376 -0.8058320671 -9.058785895
0.2312165806 -0.9729023039 -8.716674526
0.1744716052 -0.9846622055 -9.146498622
0.8756089518 -1.93792304 -8.546901289
0.4116803591 -0.8893671855 -8.887730211
0.2028440929 -0.9787822547 -8.931586574
0.3833078714 -0.8952471363 -9.102642259
0.7338765447 -1.371877553 -8.802843592
0.5534127662 -1.455412672 -8.631787908
0.5250402785 -1.461292623 -8.846699956
0.2312165806 -0.9729023039 -8.716674526
-0.197748099 -0.9802528701 -8.4795652
-0.8564761281 -2.175324925 -8.643739685
0.8756089518 -1.93792304 -8.546901289
0.01673424079 -0.976577587 -8.598119863
-0.5271121135 -1.577788897 -8.561652442
-0.3126297738 -1.574113614 -8.680207106
0.5534127662 -1.455412672 -8.631787908
0.3389304264 -1.459087955 -8.513233244
0.009566411844 -2.056623982 -8.595320487
-1.678362431 -0.887794238 -7.459285655
-2.078712935 -1.755623947 -7.875885853
-1.648783531 -0.8324554867 -8.474854064
-0.5011380637 -1.897275062 -7.56013902
-1.878537683 -1.321709092 -7.667585754
-1.863748233 -1.294039717 -8.175369959
-1.663572981 -0.8601248623 -7.96706986
-1.089750247 -1.39253465 -7.509712338
-1.289925499 -1.826449505 -7.718012437
-1.074960797 -1.364865274 -8.017496542
1 0 -10
0.8660254038 -0.5 -10
0 0 -10.5
2.347262615 -1.487475145 -9.507742122
0.9330127019 -0.25 -10
0.4330127019 -0.25 -10.25
0.5 0 -10.25
1.673631307 -0.7437375723 -9.753871061
1.606644009 -0.9937375723 -9.753871061
1.173631307 -0.7437375723 -10.00387106
0.9036778342 -0.4282129985 -8.223439157
0.903744571 -0.4280721321 -8.730648476
1 0 -8.476923077
2.016961334 0 -7.8
0.9037112026 -0.4281425653 -8.477043816
0.9518722855 -0.2140360661 -8.603785776
0.9518389171 -0.2141064992 -8.350181117
1.460319584 -0.2141064992 -8.011719578
1.460352952 -0.2140360661 -8.265324238
1.508480667 0 -8.138461538
0.2398875122 -0.9708006909 -7.716330979
0.6326286909 -0.7744552533 -7.461915559
0.9342897623 -2.927968161 -7.047307867
0.8756089518 -1.93792304 -8.546901289
0.4362581016 -0.8726279721 -7.589123269
0.7834592266 -1.851211707 -7.254611713
0.5870886373 -1.949384426 -7.381819423
0.557748232 -1.454361865 -8.131616134
0.7541188214 -1.356189147 -8.004408424
0.9049493571 -2.4329456 -7.797104578
0.9342897623 -2.927968161 -7.047307867
0.2398875122 -0.9708006909 -7.716330979
0.8756089518 -1.93792304 -8.546901289
-0.5011380637 -1.897275062 -7.56013902
0.5870886373 -1.949384426 -7.381819423
0.557748232 -1.454361865 -8.131616134
0.9049493571 -2.4329456 -7.797104578
0.2165758493 -2.412621611 -7.303723444
-0.1306252758 -1.434037877 -7.638234999
0.187235444 -1.917599051 -8.053520155
0.2403890958 -0.9706766107 -8.224737329
0.631992257 -0.7749747009 -8.474901918
0.6329740559 -0.7741730069 -7.970051966
0.8756089518 -1.93792304 -8.546901289
0.4361906764 -0.8728256558 -8.349819623
0.6324831565 -0.7745738539 -8.222476942
0.4366815759 -0.8724248088 -8.097394647
0.5579990238 -1.454299825 -8.385819309
0.7538006044 -1.35644887 -8.510901604
0.7542915038 -1.356048023 -8.258476627
0.2312165806 -0.9729023039 -8.716674526
0.5921441376 -0.8058320671 -9.058785895
0.631992257 -0.7749747009 -8.474901918
0.8756089518 -1.93792304 -8.546901289
0.4116803591 -0.8893671855 -8.887730211
0.6120681973 -0.790403384 -8.766843907
0.4316044188 -0.8739385024 -8.595788222
0.5534127662 -1.455412672 -8.631787908
0.7338765447 -1.371877553 -8.802843592
0.7538006044 -1.35644887 -8.510901604
0.9033431953 -0.4289184906 -7.715384615
0.9036778342 -0.4282129985 -8.223439157
2.016961334 0 -7.8
0.8756089518 -1.93792304 -8.546901289
0.9035105147 -0.4285657445 -7.969411886
1.460319584 -0.2141064992 -8.011719578
1.460152264 -0.2144592453 -7.757692308
0.8894760735 -1.183420765 -8.131142952
0.889643393 -1.183068019 -8.385170223
1.446285143 -0.9689615199 -8.173450644
-1 0 -10
-2.221148465 0 -8.598546585
-3.34364696 0 -8.062283104
-2.406826361 -0.9745615463 -9.875471454
-1.610574232 0 -9.299273293
-2.782397712 0 -8.330414845
-2.17182348 0 -9.031141552
-1.70341318 -0.4872807731 -9.937735727
-2.313987413 -0.4872807731 -9.23700902
-2.87523666 -0.4872807731 -8.968877279
0.631992257 -0.7749747009 -8.474901918
0.2403890958 -0.9706766107 -8.224737329
0.2312165806 -0.9729023039 -8.716674526
0.8756089518 -1.93792304 -8.546901289
0.4361906764 -0.8728256558 -8.349819623
0.2358028382 -0.9717894573 -8.470705927
0.4316044188 -0.8739385024 -8.595788222
0.7538006044 -1.35644887 -8.510901604
0.5579990238 -1.454299825 -8.385819309
0.5534127662 -1.455412672 -8.631787908
-3.34364696 0 -8.062283104
-4.904764825 0 -6.636732994
-8.816745334 0 -6.405136994
-6.936882012 -5.098539829 -9.13351315
-4.124205893 0 -7.349508049
-6.860755079 0 -6.520934994
-6.080196147 0 -7.233710049
-5.140264486 -2.549269914 -8.597898127
-5.920823419 -2.549269914 -7.885123072
-7.876813673 -2.549269914 -7.769325072
3.61443509 0 -5.242735043
1.445135367 0 -6.756410256
2.016961334 0 -7.8
2.481675156 -1.852905221 -5.938320992
2.529785228 0 -5.99957265
1.73104835 0 -7.278205128
2.815698212 0 -6.521367521
3.048055123 -0.9264526106 -5.590528017
1.963405262 -0.9264526106 -6.347365624
2.249318245 -0.9264526106 -6.869160496
0.9033431953 -0.4289184906 -7.715384615
2.016961334 0 -7.8
0.9342897623 -2.927968161 -7.047307867
0.8756089518 -1.93792304 -8.546901289
1.460152264 -0.2144592453 -7.757692308
1.475625548 -1.46398408 -7.423653933
0.9188164788 -1.678443326 -7.381346241
0.8894760735 -1.183420765 -8.131142952
1.446285143 -0.9689615199 -8.173450644
0.9049493571 -2.4329456 -7.797104578
0.002107211665 -3.421699088 -8.291419345
0.9342897623 -2.927968161 -7.047307867
0.8756089518 -1.93792304 -8.546901289
-0.5011380637 -1.897275062 -7.56013902
0.468198487 -3.174833624 -7.669363606
0.9049493571 -2.4329456 -7.797104578
0.4388580817 -2.679811064 -8.419160317
-0.249515426 -2.659487075 -7.925779183
0.2165758493 -2.412621611 -7.303723444
0.187235444 -1.917599051 -8.053520155
2.016961334 0 -7.8
0.9033431953 -0.4289184906 -7.715384615
0.9034121977 -0.4287731347 -7.207792049
1 0 -7.461538462
1.460152264 -0.2144592453 -7.757692308
0.9033776965 -0.4288458126 -7.461588332
1.460186766 -0.2143865674 -7.503896024
1.508480667 0 -7.630769231
0.9516715976 -0.2144592453 -7.588461538
0.9517060988 -0.2143865674 -7.334665255
-0.8564761281 -2.175324925 -8.643739685
0.002107211665 -3.421699088 -8.291419345
0.8756089518 -1.93792304 -8.546901289
-0.5011380637 -1.897275062 -7.56013902
-0.4271844582 -2.798512006 -8.467579515
0.4388580817 -2.679811064 -8.419160317
0.009566411844 -2.056623982 -8.595320487
-0.6788070959 -2.036299993 -8.101939353
-0.249515426 -2.659487075 -7.925779183
0.187235444 -1.917599051 -8.053520155
1 0 -7.969230769
0.9036778342 -0.4282129985 -8.223439157
2.016961334 0 -7.8
0.9033431953 -0.4289184906 -7.715384615
0.9518389171 -0.2141064992 -8.096334963
1.460319584 -0.2141064992 -8.011719578
1.508480667 0 -7.884615385
0.9516715976 -0.2144592453 -7.842307692
0.9035105147 -0.4285657445 -7.969411886
1.460152264 -0.2144592453 -7.757692308
-3.34364696 0 -8.062283104
-8.816745334 0 -6.405136994
-2.406826361 -0.9745615463 -9.875471454
-6.936882012 -5.098539829 -9.13351315
-6.080196147 0 -7.233710049
-5.611785847 -0.4872807731 -8.140304224
-2.87523666 -0.4872807731 -8.968877279
-5.140264486 -2.549269914 -8.597898127
-7.876813673 -2.549269914 -7.769325072
-4.671854186 -3.036550688 -9.504492302
2.016961334 0 -7.8
1 0 -8.476923077
0.9036778342 -0.4282129985 -8.223439157
1 0 -7.969230769
1.508480667 0 -8.138461538
0.9518389171 -0.2141064992 -8.350181117
1.460319584 -0.2141064992 -8.011719578
1.508480667 0 -7.884615385
1 0 -8.223076923
0.9518389171 -0.2141064992 -8.096334963
-0.5 -0.8660254038 -10
-0.8660254038 -0.5 -10
0 0 -10.5
-2.406826361 -0.9745615463 -9.875471454
-0.6830127019 -0.6830127019 -10
-0.4330127019 -0.25 -10.25
-0.25 -0.4330127019 -10.25
-1.45341318 -0.920293475 -9.937735727
-1.636425882 -0.7372807731 -9.937735727
-1.20341318 -0.4872807731 -10.18773573
3.222413342 -22.26428404 -7.784971137
-2.127870879 -3.60370463 -8.716163934
0.002107211665 -3.421699088 -8.291419345
0.6714886536 -2.506029772 -9.955082
0.5472712318 -12.93399433 -8.250567535
-1.062881834 -3.512701859 -8.503791639
1.612260277 -12.84299156 -8.038195241
1.946950998 -12.38515691 -8.870026568
-0.7281911127 -3.054867201 -9.335622967
0.3367979326 -2.96386443 -9.123250672
1.445135367 0 -6.756410256
2.016961334 0 -7.8
0.9034121977 -0.4287731347 -7.207792049
1 0 -7.461538462
1.73104835 0 -7.278205128
1.460186766 -0.2143865674 -7.503896024
1.174273782 -0.2143865674 -6.982101153
1.222567683 0 -7.108974359
1.508480667 0 -7.630769231
0.9517060988 -0.2143865674 -7.334665255
-2.127870879 -3.60370463 -8.716163934
-2.078712935 -1.755623947 -7.875885853
-2.406826361 -0.9745615463 -9.875471454
-6.936882012 -5.098539829 -9.13351315
-2.103291907 -2.679664288 -8.296024894
-2.242769648 -1.365092747 -8.875678654
-2.26734862 -2.289133088 -9.295817694
-4.532376445 -4.351122229 -8.924838542
-4.507797473 -3.427081888 -8.504699501
-4.671854186 -3.036550688 -9.504492302
-2.078712935 -1.755623947 -7.875885853
-3.34364696 0 -8.062283104
-2.406826361 -0.9745615463 -9.875471454
-6.936882012 -5.098539829 -9.13351315
-2.711179948 -0.8778119735 -7.969084479
-2.87523666 -0.4872807731 -8.968877279
-2.242769648 -1.365092747 -8.875678654
-4.507797473 -3.427081888 -8.504699501
-5.140264486 -2.549269914 -8.597898127
-4.671854186 -3.036550688 -9.504492302
0 0 -10.5
0 -1 -10
-0.5 -0.8660254038 -10
0.6714886536 -2.506029772 -9.955082
0 -0.5 -10.25
-0.25 -0.9330127019 -10
-0.25 -0.4330127019 -10.25
0.3357443268 -1.253014886 -10.227541
0.3357443268 -1.753014886 -9.977541
0.08574432678 -1.686027588 -9.977541
0.9033431953 -0.4289184906 -7.715384615
2.016961334 0 -7.8
1 0 -7.969230769
1 0 -7.461538462
1.460152264 -0.2144592453 -7.757692308
1.508480667 0 -7.884615385
0.9516715976 -0.2144592453 -7.842307692
0.9516715976 -0.2144592453 -7.588461538
1.508480667 0 -7.630769231
1 0 -7.715384615
-4.904764825 0 -6.636732994
-5.712434052 0 -5.604418866
-8.816745334 0 -6.405136994
-6.936882012 -5.098539829 -9.13351315
-5.308599439 0 -6.12057593
-7.264589693 0 -6.00477793
-6.860755079 0 -6.520934994
-5.920823419 -2.549269914 -7.885123072
-6.324658032 -2.549269914 -7.368966008
-7.876813673 -2.549269914 -7.769325072
1 0 -8.984615385
0.903744571 -0.4280721321 -8.730648476
0.9035398565 -0.428504058 -9.237686398
2.347262615 -1.487475145 -9.507742122
0.9518722855 -0.2140360661 -8.85763193
0.9036422138 -0.4282880951 -8.984167437
0.9517699282 -0.214252029 -9.111150891
1.673631307 -0.7437375723 -9.246178753
1.625503593 -0.9577736384 -9.119195299
1.625401236 -0.9579896013 -9.37271426
0.9035398565 -0.428504058 -9.237686398
1 0 -9.492307692
1 0 -8.984615385
2.347262615 -1.487475145 -9.507742122
0.9517699282 -0.214252029 -9.364997045
1 0 -9.238461538
0.9517699282 -0.214252029 -9.111150891
1.625401236 -0.9579896013 -9.37271426
1.673631307 -0.7437375723 -9.500024907
1.673631307 -0.7437375723 -9.246178753
0.9035398565 -0.428504058 -9.237686398
0.9303448826 -0.3666856956 -9.629645404
1 0 -9.492307692
2.347262615 -1.487475145 -9.507742122
0.9169423696 -0.3975948768 -9.433665901
0.9651724413 -0.1833428478 -9.560976548
0.9517699282 -0.214252029 -9.364997045
1.625401236 -0.9579896013 -9.37271426
1.638803749 -0.9270804202 -9.568693763
1.673631307 -0.7437375723 -9.500024907
0.8660254038 -0.5 -10
0.7224197185 -0.6914548071 -9.57790225
0.5 -0.8660254038 -10
2.347262615 -1.487475145 -9.507742122
0.7942225611 -0.5957274036 -9.788951125
0.6112098593 -0.7787401055 -9.788951125
0.6830127019 -0.6830127019 -10
1.606644009 -0.9937375723 -9.753871061
1.534841167 -1.089464976 -9.542822186
1.423631307 -1.176750274 -9.753871061
1 0 -8.984615385
1 0 -9.492307692
2.016961334 0 -7.8
2.347262615 -1.487475145 -9.507742122
1 0 -9.238461538
1.508480667 0 -8.646153846
1.508480667 0 -8.392307692
1.673631307 -0.7437375723 -9.246178753
1.673631307 -0.7437375723 -9.500024907
2.182111974 -0.7437375723 -8.653871061
0.9035398565 -0.428504058 -9.237686398
0.903744571 -0.4280721321 -8.730648476
0.5921441376 -0.8058320671 -9.058785895
2.347262615 -1.487475145 -9.507742122
0.9036422138 -0.4282880951 -8.984167437
0.7479443543 -0.6169520996 -8.894717185
0.7478419971 -0.6171680625 -9.148236146
1.625401236 -0.9579896013 -9.37271426
1.625503593 -0.9577736384 -9.119195299
1.469703376 -1.146653606 -9.283264008
0.5921441376 -0.8058320671 -9.058785895
0.7224197185 -0.6914548071 -9.57790225
0.9035398565 -0.428504058 -9.237686398
2.347262615 -1.487475145 -9.507742122
0.6572819281 -0.7486434371 -9.318344073
0.8129797875 -0.5599794326 -9.407794324
0.7478419971 -0.6171680625 -9.148236146
1.469703376 -1.146653606 -9.283264008
1.534841167 -1.089464976 -9.542822186
1.625401236 -0.9579896013 -9.37271426
0.9303448826 -0.3666856956 -9.629645404
0.7224197185 -0.6914548071 -9.57790225
0.8660254038 -0.5 -10
2.347262615 -1.487475145 -9.507742122
0.8263823006 -0.5290702514 -9.603773827
0.7942225611 -0.5957274036 -9.788951125
0.8981851432 -0.4333428478 -9.814822702
1.638803749 -0.9270804202 -9.568693763
1.534841167 -1.089464976 -9.542822186
1.606644009 -0.9937375723 -9.753871061
0.9303448826 -0.3666856956 -9.629645404
0.9035398565 -0.428504058 -9.237686398
0.7224197185 -0.6914548071 -9.57790225
2.347262615 -1.487475145 -9.507742122
0.9169423696 -0.3975948768 -9.433665901
0.8129797875 -0.5599794326 -9.407794324
0.8263823006 -0.5290702514 -9.603773827
1.638803749 -0.9270804202 -9.568693763
1.625401236 -0.9579896013 -9.37271426
1.534841167 -1.089464976 -9.542822186
-0.8660254038 -0.5 -10
-0.5 -0.8660254038 -10
-0.7096530313 -0.704551329 -9.57318499
-2.406826361 -0.9745615463 -9.875471454
-0.6830127019 -0.6830127019 -10
-0.6048265156 -0.7852883664 -9.786592495
-0.7878392175 -0.6022756645 -9.786592495
-1.636425882 -0.7372807731 -9.937735727
-1.45341318 -0.920293475 -9.937735727
-1.558239696 -0.8395564377 -9.724328222
2.016961334 0 -7.8
0.9036778342 -0.4282129985 -8.223439157
0.903744571 -0.4280721321 -8.730648476
2.347262615 -1.487475145 -9.507742122
1.460319584 -0.2141064992 -8.011719578
0.9037112026 -0.4281425653 -8.477043816
1.460352952 -0.2140360661 -8.265324238
2.182111974 -0.7437375723 -8.653871061
1.625470225 -0.9578440716 -8.865590639
1.625503593 -0.9577736384 -9.119195299
0.5 -0.8660254038 -10
0 -1 -10
0 0 -10.5
0.6714886536 -2.506029772 -9.955082
0.25 -0.9330127019 -10
0 -0.5 -10.25
0.25 -0.4330127019 -10.25
0.5857443268 -1.686027588 -9.977541
0.3357443268 -1.753014886 -9.977541
0.3357443268 -1.253014886 -10.227541
2.016961334 0 -7.8
0.903744571 -0.4280721321 -8.730648476
1 0 -8.984615385
2.347262615 -1.487475145 -9.507742122
1.460352952 -0.2140360661 -8.265324238
0.9518722855 -0.2140360661 -8.85763193
1.508480667 0 -8.392307692
2.182111974 -0.7437375723 -8.653871061
1.625503593 -0.9577736384 -9.119195299
1.673631307 -0.7437375723 -9.246178753
2.016961334 0 -7.8
1 0 -9.492307692
1 0 -10
2.347262615 -1.487475145 -9.507742122
1.508480667 0 -8.646153846
1 0 -9.746153846
1.508480667 0 -8.9
2.182111974 -0.7437375723 -8.653871061
1.673631307 -0.7437375723 -9.500024907
1.673631307 -0.7437375723 -9.753871061
0.5921441376 -0.8058320671 -9.058785895
0.7224197185 -0.6914548071 -9.57790225
2.347262615 -1.487475145 -9.507742122
0.8756089518 -1.93792304 -8.546901289
0.6572819281 -0.7486434371 -9.318344073
1.534841167 -1.089464976 -9.542822186
1.469703376 -1.146653606 -9.283264008
0.7338765447 -1.371877553 -8.802843592
0.7990143351 -1.314688923 -9.06240177
1.611435783 -1.712699092 -9.027321705
-0.7096530313 -0.704551329 -9.57318499
-0.9083618895 -0.4181849802 -9.218414388
-0.9265876867 -0.3760787935 -9.619550624
-2.406826361 -0.9745615463 -9.875471454
-0.8090074604 -0.5613681546 -9.395799689
-0.9174747881 -0.3971318869 -9.418982506
-0.818120359 -0.5403150613 -9.596367807
-1.558239696 -0.8395564377 -9.724328222
-1.657594125 -0.6963732633 -9.546942921
-1.666707024 -0.6753201699 -9.747511039
2.347262615 -1.487475145 -9.507742122
2.016961334 0 -7.8
0.9036778342 -0.4282129985 -8.223439157
0.8756089518 -1.93792304 -8.546901289
2.182111974 -0.7437375723 -8.653871061
1.460319584 -0.2141064992 -8.011719578
1.625470225 -0.9578440716 -8.865590639
1.611435783 -1.712699092 -9.027321705
1.446285143 -0.9689615199 -8.173450644
0.889643393 -1.183068019 -8.385170223
-2.078712935 -1.755623947 -7.875885853
-2.127870879 -3.60370463 -8.716163934
-2.406826361 -0.9745615463 -9.875471454
-1.648783531 -0.8324554867 -8.474854064
-2.103291907 -2.679664288 -8.296024894
-2.26734862 -2.289133088 -9.295817694
-2.242769648 -1.365092747 -8.875678654
-1.863748233 -1.294039717 -8.175369959
-1.888327205 -2.218080058 -8.595508999
-2.027804946 -0.9035085165 -9.175162759
-0.8660254038 -0.5 -10
-0.7096530313 -0.704551329 -9.57318499
-0.9265876867 -0.3760787935 -9.619550624
-2.406826361 -0.9745615463 -9.875471454
-0.7878392175 -0.6022756645 -9.786592495
-0.818120359 -0.5403150613 -9.596367807
-0.8963065452 -0.4380393968 -9.809775312
-1.636425882 -0.7372807731 -9.937735727
-1.558239696 -0.8395564377 -9.724328222
-1.666707024 -0.6753201699 -9.747511039
-0.7096530313 -0.704551329 -9.57318499
-0.9083618895 -0.4181849802 -9.218414388
-2.406826361 -0.9745615463 -9.875471454
-1.648783531 -0.8324554867 -8.474854064
-0.8090074604 -0.5613681546 -9.395799689
-1.657594125 -0.6963732633 -9.546942921
-1.558239696 -0.8395564377 -9.724328222
-1.179218281 -0.7685034078 -9.024019527
-1.27857271 -0.6253202335 -8.846634226
-2.027804946 -0.9035085165 -9.175162759
-0.9083618895 -0.4181849802 -9.218414388
-1.33216458 0 -9.161247779
-0.9265876867 -0.3760787935 -9.619550624
-2.406826361 -0.9745615463 -9.875471454
-1.120263235 -0.2090924901 -9.189831083
-1.129376133 -0.1880393968 -9.390399201
-0.9174747881 -0.3971318869 -9.418982506
-1.657594125 -0.6963732633 -9.546942921
-1.86949547 -0.4872807731 -9.518359616
-1.666707024 -0.6753201699 -9.747511039
-2.127870879 -3.60370463 -8.716163934
0.002107211665 -3.421699088 -8.291419345
0.6714886536 -2.506029772 -9.955082
-0.8564761281 -2.175324925 -8.643739685
-1.062881834 -3.512701859 -8.503791639
0.3367979326 -2.96386443 -9.123250672
-0.7281911127 -3.054867201 -9.335622967
-1.492173503 -2.889514777 -8.67995181
-0.4271844582 -2.798512006 -8.467579515
-0.09249373725 -2.340677348 -9.299410843
0.7224197185 -0.6914548071 -9.57790225
0.3107167467 -0.950502553 -9.541295805
0.5 -0.8660254038 -10
0.6714886536 -2.506029772 -9.955082
0.5165682326 -0.8209786801 -9.559599028
0.4053583734 -0.9082639784 -9.770647903
0.6112098593 -0.7787401055 -9.788951125
0.696954186 -1.598742289 -9.766492125
0.4911027002 -1.728266162 -9.748188903
0.5857443268 -1.686027588 -9.977541
-1 0 -10
0 0 -10.5
-0.8660254038 -0.5 -10
-2.406826361 -0.9745615463 -9.875471454
-0.5 0 -10.25
-0.4330127019 -0.25 -10.25
-0.9330127019 -0.25 -10
-1.70341318 -0.4872807731 -9.937735727
-1.20341318 -0.4872807731 -10.18773573
-1.636425882 -0.7372807731 -9.937735727
-0.9083618895 -0.4181849802 -9.218414388
-1.33216458 0 -9.161247779
-2.406826361 -0.9745615463 -9.875471454
-1.648783531 -0.8324554867 -8.474854064
-1.120263235 -0.2090924901 -9.189831083
-1.86949547 -0.4872807731 -9.518359616
-1.657594125 -0.6963732633 -9.546942921
-1.27857271 -0.6253202335 -8.846634226
-1.490474056 -0.4162277433 -8.818050921
-2.027804946 -0.9035085165 -9.175162759
-1.33216458 0 -9.161247779
-2.221148465 0 -8.598546585
-2.406826361 -0.9745615463 -9.875471454
-1.648783531 -0.8324554867 -8.474854064
-1.776656522 0 -8.879897182
-2.313987413 -0.4872807731 -9.23700902
-1.86949547 -0.4872807731 -9.518359616
-1.490474056 -0.4162277433 -8.818050921
-1.934965998 -0.4162277433 -8.536700325
-2.027804946 -0.9035085165 -9.175162759
-1.33216458 0 -9.161247779
-2.221148465 0 -8.598546585
-1 0 -10
-2.406826361 -0.9745615463 -9.875471454
-1.776656522 0 -8.879897182
-1.610574232 0 -9.299273293
-1.16608229 0 -9.580623889
-1.86949547 -0.4872807731 -9.518359616
-2.313987413 -0.4872807731 -9.23700902
-1.70341318 -0.4872807731 -9.937735727
0.7224197185 -0.6914548071 -9.57790225
0.3107167467 -0.950502553 -9.541295805
0.6714886536 -2.506029772 -9.955082
0.8756089518 -1.93792304 -8.546901289
0.5165682326 -0.8209786801 -9.559599028
0.4911027002 -1.728266162 -9.748188903
0.696954186 -1.598742289 -9.766492125
0.7990143351 -1.314688923 -9.06240177
0.5931628492 -1.444212796 -9.044098547
0.7735488027 -2.221976406 -9.250991645
0.5 -0.8660254038 -10
0.3107167467 -0.950502553 -9.541295805
0 -1 -10
0.6714886536 -2.506029772 -9.955082
0.4053583734 -0.9082639784 -9.770647903
0.1553583734 -0.9752512765 -9.770647903
0.25 -0.9330127019 -10
0.5857443268 -1.686027588 -9.977541
0.4911027002 -1.728266162 -9.748188903
0.3357443268 -1.753014886 -9.977541
0.6714886536 -2.506029772 -9.955082
0.1744716052 -0.9846622055 -9.146498622
-0.8564761281 -2.175324925 -8.643739685
0.8756089518 -1.93792304 -8.546901289
0.4229801294 -1.745345989 -9.550790311
-0.3410022614 -1.579993565 -8.895119154
-0.09249373725 -2.340677348 -9.299410843
0.7735488027 -2.221976406 -9.250991645
0.5250402785 -1.461292623 -8.846699956
0.009566411844 -2.056623982 -8.595320487
0.3107167467 -0.950502553 -9.541295805
0.1744716052 -0.9846622055 -9.146498622
0.6714886536 -2.506029772 -9.955082
0.8756089518 -1.93792304 -8.546901289
0.242594176 -0.9675823793 -9.343897214
0.4229801294 -1.745345989 -9.550790311
0.4911027002 -1.728266162 -9.748188903
0.5931628492 -1.444212796 -9.044098547
0.5250402785 -1.461292623 -8.846699956
0.7735488027 -2.221976406 -9.250991645
0.002107211665 -3.421699088 -8.291419345
0.6714886536 -2.506029772 -9.955082
-0.8564761281 -2.175324925 -8.643739685
0.8756089518 -1.93792304 -8.546901289
0.3367979326 -2.96386443 -9.123250672
-0.09249373725 -2.340677348 -9.299410843
-0.4271844582 -2.798512006 -8.467579515
0.4388580817 -2.679811064 -8.419160317
0.7735488027 -2.221976406 -9.250991645
0.009566411844 -2.056623982 -8.595320487
0.7224197185 -0.6914548071 -9.57790225
0.5 -0.8660254038 -10
2.347262615 -1.487475145 -9.507742122
0.6714886536 -2.506029772 -9.955082
0.6112098593 -0.7787401055 -9.788951125
1.423631307 -1.176750274 -9.753871061
1.534841167 -1.089464976 -9.542822186
0.696954186 -1.598742289 -9.766492125
0.5857443268 -1.686027588 -9.977541
1.509375634 -1.996752458 -9.731412061
0 0 -10.5
0.8660254038 -0.5 -10
0.4353486682 -0.4353486682 -10
0.5 -0.8660254038 -10
0.4330127019 -0.25 -10.25
0.650687036 -0.4676743341 -10
0.2176743341 -0.2176743341 -10.25
0.25 -0.4330127019 -10.25
0.6830127019 -0.6830127019 -10
0.4676743341 -0.650687036 -10
-0.8660254038 -0.5 -10
-0.4353486682 -0.4353486682 -10
-0.5 -0.8660254038 -10
0 0 -10.5
-0.650687036 -0.4676743341 -10
-0.4676743341 -0.650687036 -10
-0.6830127019 -0.6830127019 -10
-0.4330127019 -0.25 -10.25
-0.2176743341 -0.2176743341 -10.25
-0.25 -0.4330127019 -10.25
1 0 -10
1 0 -9.492307692
0.9303448826 -0.3666856956 -9.629645404
2.347262615 -1.487475145 -9.507742122
1 0 -9.746153846
0.9651724413 -0.1833428478 -9.560976548
0.9651724413 -0.1833428478 -9.814822702
1.673631307 -0.7437375723 -9.753871061
1.673631307 -0.7437375723 -9.500024907
1.638803749 -0.9270804202 -9.568693763
1 0 -10
0.9303448826 -0.3666856956 -9.629645404
0.8660254038 -0.5 -10
2.347262615 -1.487475145 -9.507742122
0.9651724413 -0.1833428478 -9.814822702
0.8981851432 -0.4333428478 -9.814822702
0.9330127019 -0.25 -10
1.673631307 -0.7437375723 -9.753871061
1.638803749 -0.9270804202 -9.568693763
1.606644009 -0.9937375723 -9.753871061
2.347262615 -1.487475145 -9.507742122
0.7224197185 -0.6914548071 -9.57790225
0.6714886536 -2.506029772 -9.955082
0.8756089518 -1.93792304 -8.546901289
1.534841167 -1.089464976 -9.542822186
0.696954186 -1.598742289 -9.766492125
1.509375634 -1.996752458 -9.731412061
1.611435783 -1.712699092 -9.027321705
0.7990143351 -1.314688923 -9.06240177
0.7735488027 -2.221976406 -9.250991645
17.83908043 -12.29946945 -7.46400298
2.347262615 -1.487475145 -9.507742122
0.6714886536 -2.506029772 -9.955082
0.8756089518 -1.93792304 -8.546901289
10.09317152 -6.893472296 -8.485872551
1.509375634 -1.996752458 -9.731412061
9.25528454 -7.40274961 -8.70954249
9.357344689 -7.118696244 -8.005452134
1.611435783 -1.712699092 -9.027321705
0.7735488027 -2.221976406 -9.250991645
-1 0 -10
-1 0 -9.492307692
-1.33216458 0 -9.161247779
-0.9265876867 -0.3760787935 -9.619550624
-1 0 -9.746153846
-1.16608229 0 -9.326777735
-1.16608229 0 -9.580623889
-0.9632938433 -0.1880393968 -9.809775312
-0.9632938433 -0.1880393968 -9.555929158
-1.129376133 -0.1880393968 -9.390399201
0 -0.4887080008 -10
0 -1 -10
0 0 -10.5
0.5 -0.8660254038 -10
0 -0.7443540004 -10
0 -0.5 -10.25
0 -0.2443540004 -10.25
0.25 -0.6773667023 -10
0.25 -0.9330127019 -10
0.25 -0.4330127019 -10.25
0 0 -10.5
-0.5 -0.8660254038 -10
0 -1 -10
0 -0.4887080008 -10
-0.25 -0.4330127019 -10.25
-0.25 -0.9330127019 -10
0 -0.5 -10.25
0 -0.2443540004 -10.25
-0.25 -0.6773667023 -10
0 -0.7443540004 -10
0 0 -10.5
0.4353486682 -0.4353486682 -10
0 -0.4887080008 -10
0.5 -0.8660254038 -10
0.2176743341 -0.2176743341 -10.25
0.2176743341 -0.4620283345 -10
0 -0.2443540004 -10.25
0.25 -0.4330127019 -10.25
0.4676743341 -0.650687036 -10
0.25 -0.6773667023 -10
-0.5 -0.8660254038 -10
0 0 -10.5
-0.4353486682 -0.4353486682 -10
0 -0.4887080008 -10
-0.25 -0.4330127019 -10.25
-0.2176743341 -0.2176743341 -10.25
-0.4676743341 -0.650687036 -10
-0.25 -0.6773667023 -10
0 -0.2443540004 -10.25
-0.2176743341 -0.4620283345 -10
0.8660254038 -0.5 -10
0 0 -10.5
0.4353486682 -0.4353486682 -10
0.3904299247 0 -10
0.4330127019 -0.25 -10.25
0.2176743341 -0.2176743341 -10.25
0.650687036 -0.4676743341 -10
0.6282276642 -0.25 -10
0.1952149623 0 -10.25
0.4128892965 -0.2176743341 -10
-0.3904299247 0 -10
-0.4353486682 -0.4353486682 -10
-0.8660254038 -0.5 -10
0 0 -10.5
-0.4128892965 -0.2176743341 -10
-0.650687036 -0.4676743341 -10
-0.6282276642 -0.25 -10
-0.1952149623 0 -10.25
-0.2176743341 -0.2176743341 -10.25
-0.4330127019 -0.25 -10.25
-0.9265876867 -0.3760787935 -9.619550624
-1.33216458 0 -9.161247779
-1 0 -10
-2.406826361 -0.9745615463 -9.875471454
-1.129376133 -0.1880393968 -9.390399201
-1.16608229 0 -9.580623889
-0.9632938433 -0.1880393968 -9.809775312
-1.666707024 -0.6753201699 -9.747511039
-1.86949547 -0.4872807731 -9.518359616
-1.70341318 -0.4872807731 -9.937735727
-1 0 -10
-0.8660254038 -0.5 -10
-0.9265876867 -0.3760787935 -9.619550624
-2.406826361 -0.9745615463 -9.875471454
-0.9330127019 -0.25 -10
-0.8963065452 -0.4380393968 -9.809775312
-0.9632938433 -0.1880393968 -9.809775312
-1.70341318 -0.4872807731 -9.937735727
-1.636425882 -0.7372807731 -9.937735727
-1.666707024 -0.6753201699 -9.747511039
0 0 -10.5
0.8660254038 -0.5 -10
1 0 -10
0.3904299247 0 -10
0.4330127019 -0.25 -10.25
0.9330127019 -0.25 -10
0.5 0 -10.25
0.1952149623 0 -10.25
0.6282276642 -0.25 -10
0.6952149623 0 -10
-0.8660254038 -0.5 -10
-1 0 -10
-0.3904299247 0 -10
0 0 -10.5
-0.9330127019 -0.25 -10
-0.6952149623 0 -10
-0.6282276642 -0.25 -10
-0.4330127019 -0.25 -10.25
-0.5 0 -10.25
-0.1952149623 0 -10.25
-0.3904299247 0 -10
0 -0.4887080008 -10
0 0 -10.5
0.3904299247 0 -10
-0.1952149623 -0.2443540004 -10
0 -0.2443540004 -10.25
-0.1952149623 0 -10.25
0 0 -10
0.1952149623 -0.2443540004 -10
0.1952149623 0 -10.25
0.4353486682 -0.4353486682 -10
0 0 -10.5
0 -0.4887080008 -10
0.3904299247 0 -10
0.2176743341 -0.2176743341 -10.25
0 -0.2443540004 -10.25
0.2176743341 -0.4620283345 -10
0.4128892965 -0.2176743341 -10
0.1952149623 0 -10.25
0.1952149623 -0.2443540004 -10
-0.4353486682 -0.4353486682 -10
0 0 -10.5
-0.3904299247 0 -10
0 -0.4887080008 -10
-0.2176743341 -0.2176743341 -10.25
-0.1952149623 0 -10.25
-0.4128892965 -0.2176743341 -10
-0.2176743341 -0.4620283345 -10
0 -0.2443540004 -10.25
-0.1952149623 -0.2443540004 -10
8.259621265 -18.55504219 -3.4
1.259117512 -26.97648465 -3.4
-0.1635248549 -14.68488354 -3.4
3.222413342 -22.26428404 -7.784971137
4.759369388 -22.76576342 -3.4
0.5477963283 -20.8306841 -3.4
4.048048205 -16.61996287 -3.4
5.741017304 -20.40966312 -5.592485568
2.240765427 -24.62038435 -5.592485568
1.529444244 -18.47458379 -5.592485568
8.259621265 -18.55504219 -3.4
20 -35.90730148 -10.5
1.259117512 -26.97648465 -3.4
3.222413342 -22.26428404 -7.784971137
14.12981063 -27.23117184 -6.95
10.62955876 -31.44189307 -6.95
4.759369388 -22.76576342 -3.4
5.741017304 -20.40966312 -5.592485568
11.61120667 -29.08579276 -9.142485568
2.240765427 -24.62038435 -5.592485568
8.259621265 -18.55504219 -3.4
20 -35.90730148 -10.5
3.222413342 -22.26428404 -7.784971137
17.83908043 -12.29946945 -7.46400298
14.12981063 -27.23117184 -6.95
11.61120667 -29.08579276 -9.142485568
5.741017304 -20.40966312 -5.592485568
13.04935085 -15.42725582 -5.43200149
18.91954021 -24.10338546 -8.98200149
10.53074688 -17.28187674 -7.624487058
5.906920728 -9.432751709 -3.4
8.259621265 -18.55504219 -3.4
3.222413342 -22.26428404 -7.784971137
17.83908043 -12.29946945 -7.46400298
7.083270997 -13.99389695 -3.4
5.741017304 -20.40966312 -5.592485568
4.564667035 -15.84851787 -5.592485568
11.87300058 -10.86611058 -5.43200149
13.04935085 -15.42725582 -5.43200149
10.53074688 -17.28187674 -7.624487058
0 0 -10.5
40 0 -10.5
1 0 -10
2.347262615 -1.487475145 -9.507742122
20 0 -10.5
20.5 0 -10.25
0.5 0 -10.25
1.173631307 -0.7437375723 -10.00387106
21.17363131 -0.7437375723 -10.00387106
1.673631307 -0.7437375723 -9.753871061
1 0 -10
40 0 -10.5
20.96831662 0 -3.4
2.347262615 -1.487475145 -9.507742122
20.5 0 -10.25
30.48415831 0 -6.95
10.98415831 0 -6.7
1.673631307 -0.7437375723 -9.753871061
21.17363131 -0.7437375723 -10.00387106
11.65778962 -0.7437375723 -6.453871061
20 -35.90730148 -10.5
3.222413342 -22.26428404 -7.784971137
17.83908043 -12.29946945 -7.46400298
0.6714886536 -2.506029772 -9.955082
11.61120667 -29.08579276 -9.142485568
10.53074688 -17.28187674 -7.624487058
18.91954021 -24.10338546 -8.98200149
10.33574433 -19.20666563 -10.227541
1.946950998 -12.38515691 -8.870026568
9.25528454 -7.40274961 -8.70954249
0 0 -10.5
-20 -45.35898385 -10.5
20 -35.90730148 -10.5
0.6714886536 -2.506029772 -9.955082
-10 -22.67949192 -10.5
0 -40.63314266 -10.5
10 -17.95365074 -10.5
0.3357443268 -1.253014886 -10.227541
-9.664255673 -23.93250681 -10.227541
10.33574433 -19.20666563 -10.227541
2.016961334 0 -7.8
0.9033431953 -0.4289184906 -7.715384615
2.481675156 -1.852905221 -5.938320992
0.9034121977 -0.4287731347 -7.207792049
1.460152264 -0.2144592453 -7.757692308
1.692509176 -1.140911856 -6.826852804
2.249318245 -0.9264526106 -6.869160496
1.460186766 -0.2143865674 -7.503896024
0.9033776965 -0.4288458126 -7.461588332
1.692543677 -1.140839178 -6.57305652
0.9033431953 -0.4289184906 -7.715384615
2.016961334 0 -7.8
2.481675156 -1.852905221 -5.938320992
0.9342897623 -2.927968161 -7.047307867
1.460152264 -0.2144592453 -7.757692308
2.249318245 -0.9264526106 -6.869160496
1.692509176 -1.140911856 -6.826852804
0.9188164788 -1.678443326 -7.381346241
1.475625548 -1.46398408 -7.423653933
1.707982459 -2.390436691 -6.492814429
2.481675156 -1.852905221 -5.938320992
0.6326286909 -0.7744552533 -7.461915559
0.632348875 -0.7746837421 -6.95414225
0.9034121977 -0.4287731347 -7.207792049
1.557151924 -1.313680237 -6.700118276
0.632488783 -0.7745694977 -7.208028905
1.557012016 -1.313794482 -6.446231621
1.692543677 -1.140839178 -6.57305652
0.7680204443 -0.601614194 -7.334853804
0.7678805364 -0.6017284384 -7.080967149
0.6326286909 -0.7744552533 -7.461915559
2.481675156 -1.852905221 -5.938320992
0.632348875 -0.7746837421 -6.95414225
0.9342897623 -2.927968161 -7.047307867
1.557151924 -1.313680237 -6.700118276
1.557012016 -1.313794482 -6.446231621
0.632488783 -0.7745694977 -7.208028905
0.7834592266 -1.851211707 -7.254611713
1.707982459 -2.390436691 -6.492814429
0.7833193187 -1.851325951 -7.000725058
2.481675156 -1.852905221 -5.938320992
0.9033431953 -0.4289184906 -7.715384615
0.6326286909 -0.7744552533 -7.461915559
0.9034121977 -0.4287731347 -7.207792049
1.692509176 -1.140911856 -6.826852804
0.7679859431 -0.601686872 -7.588650087
1.557151924 -1.313680237 -6.700118276
1.692543677 -1.140839178 -6.57305652
0.9033776965 -0.4288458126 -7.461588332
0.7680204443 -0.601614194 -7.334853804
0.9033431953 -0.4289184906 -7.715384615
2.481675156 -1.852905221 -5.938320992
0.6326286909 -0.7744552533 -7.461915559
0.9342897623 -2.927968161 -7.047307867
1.692509176 -1.140911856 -6.826852804
1.557151924 -1.313680237 -6.700118276
0.7679859431 -0.601686872 -7.588650087
0.9188164788 -1.678443326 -7.381346241
1.707982459 -2.390436691 -6.492814429
0.7834592266 -1.851211707 -7.254611713
-1.678362431 -0.887794238 -7.459285655
-0.9085123882 -0.4178579189 -7.207692308
-1.46903668 0 -6.6613913
-0.9033431953 -0.4289184906 -6.7
-1.29343741 -0.6528260784 -7.333488981
-1.188774534 -0.2089289595 -6.934541804
-1.573699556 -0.443897119 -7.060338478
-1.290852813 -0.6583563643 -7.079642828
-0.9059277918 -0.4233882047 -6.953846154
-1.186189938 -0.2144592453 -6.68069565
-0.9085123882 -0.4178579189 -7.207692308
-1.678362431 -0.887794238 -7.459285655
-1.46903668 0 -6.6613913
-1.582367502 0 -7.177479321
-1.29343741 -0.6528260784 -7.333488981
-1.573699556 -0.443897119 -7.060338478
-1.188774534 -0.2089289595 -6.934541804
-1.245439945 -0.2089289595 -7.192585815
-1.630364967 -0.443897119 -7.318382488
-1.525702091 0 -6.919435311
-1.648783531 -0.8324554867 -8.474854064
-1.483465168 0 -7.684329858
-0.9086213592 -0.4176209114 -8.223076923
-1.593062713 0 -8.179502498
-1.56612435 -0.4162277433 -8.079591961
-1.196043264 -0.2088104557 -7.95370339
-1.278702445 -0.6250381991 -8.348965494
-1.620923122 -0.4162277433 -8.327178281
-1.538263941 0 -7.931916178
-1.250842036 -0.2088104557 -8.201289711
-1.483465168 0 -7.684329858
-1.648783531 -0.8324554867 -8.474854064
-0.9086213592 -0.4176209114 -8.223076923
-0.9033431953 -0.4289184906 -7.715384615
-1.56612435 -0.4162277433 -8.079591961
-1.278702445 -0.6250381991 -8.348965494
-1.196043264 -0.2088104557 -7.95370339
-1.193404182 -0.2144592453 -7.699857236
-1.276063363 -0.6306869886 -8.09511934
-0.9059822772 -0.423269701 -7.969230769
-3.479216037 0 -6.025798086
-2.078712935 -1.755623947 -7.875885853
-1.830839444 -1.086255379 -6.44097102
-2.093387024 -1.836144702 -5.572462463
-2.778964486 -0.8778119735 -6.95084197
-1.954776189 -1.420939663 -7.158428437
-2.65502774 -0.5431276895 -6.233384553
-2.78630153 -0.9180723512 -5.799130274
-2.086049979 -1.795884325 -6.724174158
-1.962113234 -1.461200041 -6.006716741
-3.479216037 0 -6.025798086
-2.078712935 -1.755623947 -7.875885853
-4.904764825 0 -6.636732994
-3.171781743 0 -7.086027919
-2.778964486 -0.8778119735 -6.95084197
-3.49173888 -0.8778119735 -7.256309424
-4.191990431 0 -6.33126554
-3.32549889 0 -6.555913003
-2.625247339 -0.8778119735 -7.480956886
-4.038273284 0 -6.861380457
-2.078712935 -1.755623947 -7.875885853
-3.479216037 0 -6.025798086
-4.904764825 0 -6.636732994
-2.093387024 -1.836144702 -5.572462463
-2.778964486 -0.8778119735 -6.95084197
-4.191990431 0 -6.33126554
-3.49173888 -0.8778119735 -7.256309424
-2.086049979 -1.795884325 -6.724174158
-2.78630153 -0.9180723512 -5.799130274
-3.499075924 -0.9180723512 -6.104597728
0.9342897623 -2.927968161 -7.047307867
5.906920728 -9.432751709 -3.4
2.481675156 -1.852905221 -5.938320992
2.291748005 -3.365583757 -3.4
3.420605245 -6.180359935 -5.223653933
4.194297942 -5.642828465 -4.669160496
1.707982459 -2.390436691 -6.492814429
1.613018884 -3.146775959 -5.223653933
4.099334367 -6.399167733 -3.4
2.386711581 -2.609244489 -4.669160496
5.906920728 -9.432751709 -3.4
0.9342897623 -2.927968161 -7.047307867
2.481675156 -1.852905221 -5.938320992
17.83908043 -12.29946945 -7.46400298
3.420605245 -6.180359935 -5.223653933
1.707982459 -2.390436691 -6.492814429
4.194297942 -5.642828465 -4.669160496
11.87300058 -10.86611058 -5.43200149
9.386685095 -7.613718804 -7.255655423
10.16037779 -7.076187335 -6.701161986
0.9342897623 -2.927968161 -7.047307867
5.906920728 -9.432751709 -3.4
3.222413342 -22.26428404 -7.784971137
17.83908043 -12.29946945 -7.46400298
3.420605245 -6.180359935 -5.223653933
4.564667035 -15.84851787 -5.592485568
2.078351552 -12.5961261 -7.416139502
9.386685095 -7.613718804 -7.255655423
11.87300058 -10.86611058 -5.43200149
10.53074688 -17.28187674 -7.624487058
-2.406826361 -0.9745615463 -9.875471454
-1.648783531 -0.8324554867 -8.474854064
-0.8564761281 -2.175324925 -8.643739685
-0.7096530313 -0.704551329 -9.57318499
-2.027804946 -0.9035085165 -9.175162759
-1.25262983 -1.503890206 -8.559296875
-1.631651244 -1.574943235 -9.25960557
-1.558239696 -0.8395564377 -9.724328222
-1.179218281 -0.7685034078 -9.024019527
-0.7830645797 -1.439938127 -9.108462337
-0.8564761281 -2.175324925 -8.643739685
-1.648783531 -0.8324554867 -8.474854064
-2.406826361 -0.9745615463 -9.875471454
-2.127870879 -3.60370463 -8.716163934
-1.25262983 -1.503890206 -8.559296875
-2.027804946 -0.9035085165 -9.175162759
-1.631651244 -1.574943235 -9.25960557
-1.492173503 -2.889514777 -8.67995181
-1.888327205 -2.218080058 -8.595508999
-2.26734862 -2.289133088 -9.295817694
-0.8564761281 -2.175324925 -8.643739685
-0.5 -0.8660254038 -10
-2.406826361 -0.9745615463 -9.875471454
-0.7096530313 -0.704551329 -9.57318499
-0.678238064 -1.520675164 -9.321869843
-1.45341318 -0.920293475 -9.937735727
-1.631651244 -1.574943235 -9.25960557
-0.7830645797 -1.439938127 -9.108462337
-0.6048265156 -0.7852883664 -9.786592495
-1.558239696 -0.8395564377 -9.724328222
-2.406826361 -0.9745615463 -9.875471454
-0.5 -0.8660254038 -10
-0.8564761281 -2.175324925 -8.643739685
-2.127870879 -3.60370463 -8.716163934
-1.45341318 -0.920293475 -9.937735727
-0.678238064 -1.520675164 -9.321869843
-1.631651244 -1.574943235 -9.25960557
-2.26734862 -2.289133088 -9.295817694
-1.313935439 -2.234865017 -9.358081967
-1.492173503 -2.889514777 -8.67995181
7.654666388 -3.621100098 -3.4
2.016961334 0 -7.8
2.481675156 -1.852905221 -5.938320992
3.61443509 0 -5.242735043
4.835813861 -1.810550049 -5.6
2.249318245 -0.9264526106 -6.869160496
5.068170772 -2.73700266 -4.669160496
5.634550739 -1.810550049 -4.321367521
2.815698212 0 -6.521367521
3.048055123 -0.9264526106 -5.590528017
2.016961334 0 -7.8
7.654666388 -3.621100098 -3.4
2.481675156 -1.852905221 -5.938320992
2.347262615 -1.487475145 -9.507742122
4.835813861 -1.810550049 -5.6
5.068170772 -2.73700266 -4.669160496
2.249318245 -0.9264526106 -6.869160496
2.182111974 -0.7437375723 -8.653871061
5.000964501 -2.554287621 -6.453871061
2.414468886 -1.670190183 -7.723031557
2.016961334 0 -7.8
7.654666388 -3.621100098 -3.4
10.57703397 0 -3.4
3.61443509 0 -5.242735043
4.835813861 -1.810550049 -5.6
9.115850178 -1.810550049 -3.4
6.296997651 0 -5.6
2.815698212 0 -6.521367521
5.634550739 -1.810550049 -4.321367521
7.095734529 0 -4.321367521
7.654666388 -3.621100098 -3.4
2.016961334 0 -7.8
10.57703397 0 -3.4
2.347262615 -1.487475145 -9.507742122
4.835813861 -1.810550049 -5.6
6.296997651 0 -5.6
9.115850178 -1.810550049 -3.4
5.000964501 -2.554287621 -6.453871061
2.182111974 -0.7437375723 -8.653871061
6.462148291 -0.7437375723 -6.453871061
-0.9507016797 -2.015844221 -6.387872592
-1.678362431 -0.887794238 -7.459285655
-0.5344790198 -0.8451817422 -6.700770977
-0.6017060239 -0.7987176352 -7.208881129
-1.314532055 -1.45181923 -6.923579124
-1.106420726 -0.8664879901 -7.080028316
-0.7425903497 -1.430512982 -6.544321785
-0.7762038518 -1.407280928 -6.798376861
-1.140034228 -0.8432559366 -7.334083392
-0.5680925218 -0.8219496887 -6.954826053
-0.5344790198 -0.8451817422 -6.700770977
-1.678362431 -0.887794238 -7.459285655
-0.9507016797 -2.015844221 -6.387872592
-1.830839444 -1.086255379 -6.44097102
-1.106420726 -0.8664879901 -7.080028316
-1.314532055 -1.45181923 -6.923579124
-0.7425903497 -1.430512982 -6.544321785
-1.182659232 -0.9657185607 -6.570870999
-1.754600937 -0.9870248085 -6.950128338
-1.390770562 -1.5510498 -6.414421806
2.481675156 -1.852905221 -5.938320992
1.10799114 -1.912869374 -4.846540236
0.1531927158 -2.245050295 -6.18377085
0.9342897623 -2.927968161 -7.047307867
1.794833148 -1.882887298 -5.392430614
0.6305919281 -2.078959835 -5.515155543
1.317433936 -2.048977758 -6.061045921
1.707982459 -2.390436691 -6.492814429
1.021140451 -2.420418767 -5.946924051
0.5437412391 -2.586509228 -6.615539358
0.1531927158 -2.245050295 -6.18377085
1.10799114 -1.912869374 -4.846540236
2.481675156 -1.852905221 -5.938320992
0.6319259596 -0.7750287617 -5.938528633
0.6305919281 -2.078959835 -5.515155543
1.794833148 -1.882887298 -5.392430614
1.317433936 -2.048977758 -6.061045921
0.3925593377 -1.510039528 -6.061149741
0.86995855 -1.343949068 -5.392534435
1.556800558 -1.313966991 -5.938424813
0.1531927158 -2.245050295 -6.18377085
0.632075923 -0.7749064638 -6.446337352
2.481675156 -1.852905221 -5.938320992
0.9342897623 -2.927968161 -7.047307867
0.3926343194 -1.509978379 -6.315054101
1.55687554 -1.313905842 -6.192329172
1.317433936 -2.048977758 -6.061045921
0.5437412391 -2.586509228 -6.615539358
0.7831828427 -1.851437312 -6.746822609
1.707982459 -2.390436691 -6.492814429
2.481675156 -1.852905221 -5.938320992
0.632075923 -0.7749064638 -6.446337352
0.1531927158 -2.245050295 -6.18377085
0.6319259596 -0.7750287617 -5.938528633
1.55687554 -1.313905842 -6.192329172
0.3926343194 -1.509978379 -6.315054101
1.317433936 -2.048977758 -6.061045921
1.556800558 -1.313966991 -5.938424813
0.6320009413 -0.7749676128 -6.192432993
0.3925593377 -1.510039528 -6.061149741
0.2379919343 -0.9712671307 -5.175612967
-0.8690992756 -1.963429669 -5.175098146
-0.2000069879 -0.9797944707 -5.430059715
0.1531927158 -2.245050295 -6.18377085
-0.3155536707 -1.4673484 -5.175355557
-0.5345531317 -1.47161207 -5.30257893
0.01899247318 -0.9755308007 -5.302836341
0.195592325 -1.608158713 -5.679691909
-0.3579532799 -2.104239982 -5.679434498
-0.02340713605 -1.612422383 -5.806915282
-0.5011380637 -1.897275062 -7.56013902
0.2389892904 -0.9710222032 -6.700463058
0.9342897623 -2.927968161 -7.047307867
0.2394408418 -0.9709109554 -7.208309099
-0.1310743866 -1.434148633 -7.130301039
0.5866395264 -1.949495182 -6.873885462
0.2165758493 -2.412621611 -7.303723444
-0.1308486109 -1.434093009 -7.38422406
0.2392150661 -0.9709665793 -6.954386078
0.5868653021 -1.949439558 -7.127808483
0.2389892904 -0.9710222032 -6.700463058
-0.5011380637 -1.897275062 -7.56013902
0.9342897623 -2.927968161 -7.047307867
0.1531927158 -2.245050295 -6.18377085
-0.1310743866 -1.434148633 -7.130301039
0.2165758493 -2.412621611 -7.303723444
0.5866395264 -1.949495182 -6.873885462
0.1960910031 -1.608036249 -6.442116954
-0.1739726739 -2.071162679 -6.871954935
0.5437412391 -2.586509228 -6.615539358
0.2389892904 -0.9710222032 -6.700463058
-0.5011380637 -1.897275062 -7.56013902
-0.1984458286 -0.9801118575 -6.954682989
0.2394408418 -0.9709109554 -7.208309099
-0.1310743866 -1.434148633 -7.130301039
-0.3497919461 -1.43869346 -7.257411005
0.02027173092 -0.9755670303 -6.827573024
0.2392150661 -0.9709665793 -6.954386078
-0.1308486109 -1.434093009 -7.38422406
0.02049750663 -0.9755114064 -7.081496044
-0.5011380637 -1.897275062 -7.56013902
0.2389892904 -0.9710222032 -6.700463058
-0.1984458286 -0.9801118575 -6.954682989
0.1531927158 -2.245050295 -6.18377085
-0.1310743866 -1.434148633 -7.130301039
0.02027173092 -0.9755670303 -6.827573024
-0.3497919461 -1.43869346 -7.257411005
-0.1739726739 -2.071162679 -6.871954935
0.1960910031 -1.608036249 -6.442116954
-0.02262655638 -1.612581076 -6.569226919
-2.20850898 0 -6.632939925
-1.46903668 0 -6.6613913
-1.678362431 -0.887794238 -7.459285655
-1.582367502 0 -7.177479321
-1.83877283 0 -6.647165612
-1.573699556 -0.443897119 -7.060338478
-1.943435706 -0.443897119 -7.04611279
-1.895438241 0 -6.905209623
-1.525702091 0 -6.919435311
-1.630364967 -0.443897119 -7.318382488
-1.46903668 0 -6.6613913
-2.20850898 0 -6.632939925
-1.678362431 -0.887794238 -7.459285655
-1.830839444 -1.086255379 -6.44097102
-1.83877283 0 -6.647165612
-1.943435706 -0.443897119 -7.04611279
-1.573699556 -0.443897119 -7.060338478
-1.649938062 -0.5431276895 -6.55118116
-2.019674212 -0.5431276895 -6.536955472
-1.754600937 -0.9870248085 -6.950128338
2.347262615 -1.487475145 -9.507742122
0.5921441376 -0.8058320671 -9.058785895
0.631992257 -0.7749747009 -8.474901918
0.903744571 -0.4280721321 -8.730648476
1.469703376 -1.146653606 -9.283264008
0.6120681973 -0.790403384 -8.766843907
1.489627436 -1.131224923 -8.99132202
1.625503593 -0.9577736384 -9.119195299
0.7479443543 -0.6169520996 -8.894717185
0.767868414 -0.6015234165 -8.602775197
0.631992257 -0.7749747009 -8.474901918
0.5921441376 -0.8058320671 -9.058785895
2.347262615 -1.487475145 -9.507742122
0.8756089518 -1.93792304 -8.546901289
0.6120681973 -0.790403384 -8.766843907
1.469703376 -1.146653606 -9.283264008
1.489627436 -1.131224923 -8.99132202
0.7538006044 -1.35644887 -8.510901604
0.7338765447 -1.371877553 -8.802843592
1.611435783 -1.712699092 -9.027321705
0.631992257 -0.7749747009 -8.474901918
0.9036778342 -0.4282129985 -8.223439157
2.347262615 -1.487475145 -9.507742122
0.903744571 -0.4280721321 -8.730648476
0.7678350456 -0.6015938497 -8.349170538
1.625470225 -0.9578440716 -8.865590639
1.489627436 -1.131224923 -8.99132202
0.767868414 -0.6015234165 -8.602775197
0.9037112026 -0.4281425653 -8.477043816
1.625503593 -0.9577736384 -9.119195299
2.347262615 -1.487475145 -9.507742122
0.9036778342 -0.4282129985 -8.223439157
0.631992257 -0.7749747009 -8.474901918
0.8756089518 -1.93792304 -8.546901289
1.625470225 -0.9578440716 -8.865590639
0.7678350456 -0.6015938497 -8.349170538
1.489627436 -1.131224923 -8.99132202
1.611435783 -1.712699092 -9.027321705
0.889643393 -1.183068019 -8.385170223
0.7538006044 -1.35644887 -8.510901604
0.1531927158 -2.245050295 -6.18377085
-0.5011380637 -1.897275062 -7.56013902
-1.414464197 -3.760391594 -6.701371587
-0.9507016797 -2.015844221 -6.387872592
-0.1739726739 -2.071162679 -6.871954935
-0.9578011306 -2.828833328 -7.130755304
-0.6306357408 -3.002720944 -6.442571218
-0.398754482 -2.130447258 -6.285821721
-0.7259198717 -1.956559642 -6.974005806
-1.182582939 -2.888117907 -6.54462209
-1.414464197 -3.760391594 -6.701371587
-0.5011380637 -1.897275062 -7.56013902
0.1531927158 -2.245050295 -6.18377085
0.002107211665 -3.421699088 -8.291419345
-0.9578011306 -2.828833328 -7.130755304
-0.1739726739 -2.071162679 -6.871954935
-0.6306357408 -3.002720944 -6.442571218
-0.7061784929 -3.591045341 -7.496395466
-0.249515426 -2.659487075 -7.925779183
0.07764996373 -2.833374692 -7.237595097
-2.241895626 0 -7.633898237
-1.648783531 -0.8324554867 -8.474854064
-1.483465168 0 -7.684329858
-1.678362431 -0.887794238 -7.459285655
-1.945339579 -0.4162277433 -8.054376151
-1.56612435 -0.4162277433 -8.079591961
-1.862680397 0 -7.659114047
-1.960129029 -0.443897119 -7.546591946
-1.663572981 -0.8601248623 -7.96706986
-1.5809138 -0.443897119 -7.571807756
-1.483465168 0 -7.684329858
-1.648783531 -0.8324554867 -8.474854064
-2.241895626 0 -7.633898237
-1.593062713 0 -8.179502498
-1.56612435 -0.4162277433 -8.079591961
-1.945339579 -0.4162277433 -8.054376151
-1.862680397 0 -7.659114047
-1.538263941 0 -7.931916178
-1.620923122 -0.4162277433 -8.327178281
-1.91747917 0 -7.906700368
-6.936882012 -5.098539829 -9.13351315
-2.406826361 -0.9745615463 -9.875471454
-0.5 -0.8660254038 -10
0 0 -10.5
-4.671854186 -3.036550688 -9.504492302
-1.45341318 -0.920293475 -9.937735727
-3.718441006 -2.982282616 -9.566756575
-3.468441006 -2.549269914 -9.816756575
-1.20341318 -0.4872807731 -10.18773573
-0.25 -0.4330127019 -10.25
-0.5 -0.8660254038 -10
-2.406826361 -0.9745615463 -9.875471454
-6.936882012 -5.098539829 -9.13351315
-2.127870879 -3.60370463 -8.716163934
-1.45341318 -0.920293475 -9.937735727
-4.671854186 -3.036550688 -9.504492302
-3.718441006 -2.982282616 -9.566756575
-1.313935439 -2.234865017 -9.358081967
-2.26734862 -2.289133088 -9.295817694
-4.532376445 -4.351122229 -8.924838542
-2.406826361 -0.9745615463 -9.875471454
-3.34364696 0 -8.062283104
-1.648783531 -0.8324554867 -8.474854064
-2.221148465 0 -8.598546585
-2.87523666 -0.4872807731 -8.968877279
-2.496215246 -0.4162277433 -8.268568584
-2.027804946 -0.9035085165 -9.175162759
-2.313987413 -0.4872807731 -9.23700902
-2.782397712 0 -8.330414845
-1.934965998 -0.4162277433 -8.536700325
-3.34364696 0 -8.062283104
-2.406826361 -0.9745615463 -9.875471454
-1.648783531 -0.8324554867 -8.474854064
-2.078712935 -1.755623947 -7.875885853
-2.87523666 -0.4872807731 -8.968877279
-2.027804946 -0.9035085165 -9.175162759
-2.496215246 -0.4162277433 -8.268568584
-2.711179948 -0.8778119735 -7.969084479
-2.242769648 -1.365092747 -8.875678654
-1.863748233 -1.294039717 -8.175369959
-0.5011380637 -1.897275062 -7.56013902
0.8756089518 -1.93792304 -8.546901289
-0.197748099 -0.9802528701 -8.4795652
0.2403890958 -0.9706766107 -8.224737329
0.187235444 -1.917599051 -8.053520155
0.3389304264 -1.459087955 -8.513233244
-0.3494430813 -1.438763966 -8.01985211
-0.1303744839 -1.433975836 -7.892438174
0.5579990238 -1.454299825 -8.385819309
0.02132049843 -0.9754647404 -8.352151264
-0.197748099 -0.9802528701 -8.4795652
0.8756089518 -1.93792304 -8.546901289
-0.5011380637 -1.897275062 -7.56013902
-0.8564761281 -2.175324925 -8.643739685
0.3389304264 -1.459087955 -8.513233244
0.187235444 -1.917599051 -8.053520155
-0.3494430813 -1.438763966 -8.01985211
-0.5271121135 -1.577788897 -8.561652442
0.009566411844 -2.056623982 -8.595320487
-0.6788070959 -2.036299993 -8.101939353
0.5 -0.8660254038 -10
2.347262615 -1.487475145 -9.507742122
0 0 -10.5
0.8660254038 -0.5 -10
1.423631307 -1.176750274 -9.753871061
1.173631307 -0.7437375723 -10.00387106
0.25 -0.4330127019 -10.25
0.6830127019 -0.6830127019 -10
1.606644009 -0.9937375723 -9.753871061
0.4330127019 -0.25 -10.25
0 0 -10.5
2.347262615 -1.487475145 -9.507742122
0.5 -0.8660254038 -10
0.6714886536 -2.506029772 -9.955082
1.173631307 -0.7437375723 -10.00387106
1.423631307 -1.176750274 -9.753871061
0.25 -0.4330127019 -10.25
0.3357443268 -1.253014886 -10.227541
1.509375634 -1.996752458 -9.731412061
0.5857443268 -1.686027588 -9.977541
-0.5 -0.8660254038 -10
0.6714886536 -2.506029772 -9.955082
-0.8564761281 -2.175324925 -8.643739685
-2.127870879 -3.60370463 -8.716163934
0.08574432678 -1.686027588 -9.977541
-0.09249373725 -2.340677348 -9.299410843
-0.678238064 -1.520675164 -9.321869843
-1.313935439 -2.234865017 -9.358081967
-0.7281911127 -3.054867201 -9.335622967
-1.492173503 -2.889514777 -8.67995181
-20 -45.35898385 -10.5
0.6714886536 -2.506029772 -9.955082
3.222413342 -22.26428404 -7.784971137
20 -35.90730148 -10.5
-9.664255673 -23.93250681 -10.227541
1.946950998 -12.38515691 -8.870026568
-8.388793329 -33.81163394 -9.142485568
0 -40.63314266 -10.5
10.33574433 -19.20666563 -10.227541
11.61120667 -29.08579276 -9.142485568
3.222413342 -22.26428404 -7.784971137
1.259117512 -26.97648465 -3.4
-20 -45.35898385 -10.5
20 -35.90730148 -10.5
2.240765427 -24.62038435 -5.592485568
-9.370441244 -36.16773425 -6.95
-8.388793329 -33.81163394 -9.142485568
11.61120667 -29.08579276 -9.142485568
10.62955876 -31.44189307 -6.95
0 -40.63314266 -10.5
-20 -45.35898385 -10.5
0.6714886536 -2.506029772 -9.955082
-2.127870879 -3.60370463 -8.716163934
3.222413342 -22.26428404 -7.784971137
-9.664255673 -23.93250681 -10.227541
-0.7281911127 -3.054867201 -9.335622967
-11.06393544 -24.48134424 -9.608081967
-8.388793329 -33.81163394 -9.142485568
1.946950998 -12.38515691 -8.870026568
0.5472712318 -12.93399433 -8.250567535
1.259117512 -26.97648465 -3.4
-20 -45.35898385 -10.5
-2.127870879 -3.60370463 -8.716163934
3.222413342 -22.26428404 -7.784971137
-9.370441244 -36.16773425 -6.95
-11.06393544 -24.48134424 -9.608081967
-0.4343766837 -15.29009464 -6.058081967
2.240765427 -24.62038435 -5.592485568
-8.388793329 -33.81163394 -9.142485568
0.5472712318 -12.93399433 -8.250567535
-0.1635248549 -14.68488354 -3.4
1.259117512 -26.97648465 -3.4
-2.127870879 -3.60370463 -8.716163934
3.222413342 -22.26428404 -7.784971137
0.5477963283 -20.8306841 -3.4
-0.4343766837 -15.29009464 -6.058081967
-1.145697867 -9.144294086 -6.058081967
1.529444244 -18.47458379 -5.592485568
2.240765427 -24.62038435 -5.592485568
0.5472712318 -12.93399433 -8.250567535
-1.486149823 -6.928202819 -3.4
-0.1635248549 -14.68488354 -3.4
-2.127870879 -3.60370463 -8.716163934
3.222413342 -22.26428404 -7.784971137
-0.8248373387 -10.80654318 -3.4
-1.145697867 -9.144294086 -6.058081967
-1.807010351 -5.265953724 -6.058081967
0.8681317599 -14.59624343 -5.592485568
1.529444244 -18.47458379 -5.592485568
0.5472712318 -12.93399433 -8.250567535
-2.127870879 -3.60370463 -8.716163934
-0.1635248549 -14.68488354 -3.4
-1.486149823 -6.928202819 -3.4
-6.936882012 -5.098539829 -9.13351315
-1.145697867 -9.144294086 -6.058081967
-0.8248373387 -10.80654318 -3.4
-1.807010351 -5.265953724 -6.058081967
-4.532376445 -4.351122229 -8.924838542
-3.550203433 -9.891711685 -6.266756575
-4.211515917 -6.013371324 -6.266756575
-1.414464197 -3.760391594 -6.701371587
-1.486149823 -6.928202819 -3.4
-2.127870879 -3.60370463 -8.716163934
3.222413342 -22.26428404 -7.784971137
-1.45030701 -5.344297206 -5.050685794
-1.807010351 -5.265953724 -6.058081967
-1.771167538 -3.682048112 -7.708767761
0.9039745725 -13.01233782 -7.243171362
0.8681317599 -14.59624343 -5.592485568
0.5472712318 -12.93399433 -8.250567535
-2.127870879 -3.60370463 -8.716163934
-1.486149823 -6.928202819 -3.4
-1.414464197 -3.760391594 -6.701371587
-6.936882012 -5.098539829 -9.13351315
-1.807010351 -5.265953724 -6.058081967
-1.45030701 -5.344297206 -5.050685794
-1.771167538 -3.682048112 -7.708767761
-4.532376445 -4.351122229 -8.924838542
-4.211515917 -6.013371324 -6.266756575
-4.175673105 -4.429465711 -7.917442368
0.8756089518 -1.93792304 -8.546901289
0.9342897623 -2.927968161 -7.047307867
3.222413342 -22.26428404 -7.784971137
17.83908043 -12.29946945 -7.46400298
0.9049493571 -2.4329456 -7.797104578
2.078351552 -12.5961261 -7.416139502
2.049011147 -12.10110354 -8.165936213
9.357344689 -7.118696244 -8.005452134
9.386685095 -7.613718804 -7.255655423
10.53074688 -17.28187674 -7.624487058
3.222413342 -22.26428404 -7.784971137
0.9342897623 -2.927968161 -7.047307867
0.8756089518 -1.93792304 -8.546901289
0.002107211665 -3.421699088 -8.291419345
2.078351552 -12.5961261 -7.416139502
0.9049493571 -2.4329456 -7.797104578
2.049011147 -12.10110354 -8.165936213
1.612260277 -12.84299156 -8.038195241
0.468198487 -3.174833624 -7.669363606
0.4388580817 -2.679811064 -8.419160317
3.222413342 -22.26428404 -7.784971137
0.6714886536 -2.506029772 -9.955082
0.8756089518 -1.93792304 -8.546901289
17.83908043 -12.29946945 -7.46400298
1.946950998 -12.38515691 -8.870026568
0.7735488027 -2.221976406 -9.250991645
2.049011147 -12.10110354 -8.165936213
10.53074688 -17.28187674 -7.624487058
9.25528454 -7.40274961 -8.70954249
9.357344689 -7.118696244 -8.005452134
0.8756089518 -1.93792304 -8.546901289
0.6714886536 -2.506029772 -9.955082
3.222413342 -22.26428404 -7.784971137
0.002107211665 -3.421699088 -8.291419345
0.7735488027 -2.221976406 -9.250991645
1.946950998 -12.38515691 -8.870026568
2.049011147 -12.10110354 -8.165936213
0.4388580817 -2.679811064 -8.419160317
0.3367979326 -2.96386443 -9.123250672
1.612260277 -12.84299156 -8.038195241
0.1266329963 -3.312719767 -4.941549731
-0.8690992756 -1.963429669 -5.175098146
1.10799114 -1.912869374 -4.846540236
0.1531927158 -2.245050295 -6.18377085
-0.3712331396 -2.638074718 -5.058323939
0.1194459324 -1.938149522 -5.010819191
0.6173120684 -2.612794571 -4.894044984
0.139912856 -2.778885031 -5.562660291
-0.3579532799 -2.104239982 -5.679434498
0.6305919281 -2.078959835 -5.515155543
0.8756089518 -1.93792304 -8.546901289
2.481675156 -1.852905221 -5.938320992
2.016961334 0 -7.8
0.9342897623 -2.927968161 -7.047307867
1.678642054 -1.89541413 -7.242611141
2.249318245 -0.9264526106 -6.869160496
1.446285143 -0.9689615199 -8.173450644
0.9049493571 -2.4329456 -7.797104578
1.707982459 -2.390436691 -6.492814429
1.475625548 -1.46398408 -7.423653933
2.481675156 -1.852905221 -5.938320992
0.8756089518 -1.93792304 -8.546901289
2.016961334 0 -7.8
2.347262615 -1.487475145 -9.507742122
1.678642054 -1.89541413 -7.242611141
1.446285143 -0.9689615199 -8.173450644
2.249318245 -0.9264526106 -6.869160496
2.414468886 -1.670190183 -7.723031557
1.611435783 -1.712699092 -9.027321705
2.182111974 -0.7437375723 -8.653871061
2.481675156 -1.852905221 -5.938320992
0.8756089518 -1.93792304 -8.546901289
17.83908043 -12.29946945 -7.46400298
0.9342897623 -2.927968161 -7.047307867
1.678642054 -1.89541413 -7.242611141
9.357344689 -7.118696244 -8.005452134
10.16037779 -7.076187335 -6.701161986
1.707982459 -2.390436691 -6.492814429
0.9049493571 -2.4329456 -7.797104578
9.386685095 -7.613718804 -7.255655423
0.8756089518 -1.93792304 -8.546901289
2.481675156 -1.852905221 -5.938320992
17.83908043 -12.29946945 -7.46400298
2.347262615 -1.487475145 -9.507742122
1.678642054 -1.89541413 -7.242611141
10.16037779 -7.076187335 -6.701161986
9.357344689 -7.118696244 -8.005452134
1.611435783 -1.712699092 -9.027321705
2.414468886 -1.670190183 -7.723031557
10.09317152 -6.893472296 -8.485872551
-20 -45.35898385 -10.5
-2.127870879 -3.60370463 -8.716163934
-0.1635248549 -14.68488354 -3.4
1.259117512 -26.97648465 -3.4
-11.06393544 -24.48134424 -9.608081967
-1.145697867 -9.144294086 -6.058081967
-10.08176243 -30.0219337 -6.95
-9.370441244 -36.16773425 -6.95
-0.4343766837 -15.29009464 -6.058081967
0.5477963283 -20.8306841 -3.4
-0.1635248549 -14.68488354 -3.4
-2.127870879 -3.60370463 -8.716163934
-20 -45.35898385 -10.5
-6.936882012 -5.098539829 -9.13351315
-1.145697867 -9.144294086 -6.058081967
-11.06393544 -24.48134424 -9.608081967
-10.08176243 -30.0219337 -6.95
-3.550203433 -9.891711685 -6.266756575
-4.532376445 -4.351122229 -8.924838542
-13.46844101 -25.22876184 -9.816756575
-0.5 -0.8660254038 -10
0 0 -10.5
-20 -45.35898385 -10.5
-6.936882012 -5.098539829 -9.13351315
-0.25 -0.4330127019 -10.25
-10 -22.67949192 -10.5
-10.25 -23.11250463 -10.25
-3.718441006 -2.982282616 -9.566756575
-3.468441006 -2.549269914 -9.816756575
-13.46844101 -25.22876184 -9.816756575
-20 -45.35898385 -10.5
0 0 -10.5
-0.5 -0.8660254038 -10
0.6714886536 -2.506029772 -9.955082
-10 -22.67949192 -10.5
-0.25 -0.4330127019 -10.25
-10.25 -23.11250463 -10.25
-9.664255673 -23.93250681 -10.227541
0.3357443268 -1.253014886 -10.227541
0.08574432678 -1.686027588 -9.977541
-20 -45.35898385 -10.5
-2.127870879 -3.60370463 -8.716163934
-0.5 -0.8660254038 -10
-6.936882012 -5.098539829 -9.13351315
-11.06393544 -24.48134424 -9.608081967
-1.313935439 -2.234865017 -9.358081967
-10.25 -23.11250463 -10.25
-13.46844101 -25.22876184 -9.816756575
-4.532376445 -4.351122229 -8.924838542
-3.718441006 -2.982282616 -9.566756575
-0.5 -0.8660254038 -10
-2.127870879 -3.60370463 -8.716163934
-20 -45.35898385 -10.5
0.6714886536 -2.506029772 -9.955082
-1.313935439 -2.234865017 -9.358081967
-11.06393544 -24.48134424 -9.608081967
-10.25 -23.11250463 -10.25
0.08574432678 -1.686027588 -9.977541
-0.7281911127 -3.054867201 -9.335622967
-9.664255673 -23.93250681 -10.227541
0.9034178452 -0.4287612355 -4.669068391
1 0 -4.415384615
1.439674436 0 -5.684615385
1 0 -4.923076923
0.9517089226 -0.2143806177 -4.542226503
1.219837218 0 -5.05
1.17154614 -0.2143806177 -5.176841888
0.9517089226 -0.2143806177 -4.796072657
1 0 -4.669230769
1.219837218 0 -5.303846154
0.9034178452 -0.4287612355 -4.669068391
0.903375947 -0.4288495054 -5.176707263
1.439674436 0 -5.684615385
2.481675156 -1.852905221 -5.938320992
0.9033968961 -0.4288053704 -4.922887827
1.171525191 -0.2144247527 -5.430661324
1.17154614 -0.2143806177 -5.176841888
1.692546501 -1.140833228 -5.303694691
1.692525552 -1.140877363 -5.557514128
1.960674796 -0.9264526106 -5.811468188
1.439674436 0 -5.684615385
0.903375947 -0.4288495054 -5.176707263
0.9034178452 -0.4287612355 -4.669068391
1 0 -4.923076923
1.171525191 -0.2144247527 -5.430661324
0.9033968961 -0.4288053704 -4.922887827
1.17154614 -0.2143806177 -5.176841888
1.219837218 0 -5.303846154
0.9516879735 -0.2144247527 -5.049892093
0.9517089226 -0.2143806177 -4.796072657
0.6714886536 -2.506029772 -9.955082
-0.2297172171 -0.9732574172 -9.483948685
0.3107167467 -0.950502553 -9.541295805
0 -1 -10
0.2208857182 -1.739643595 -9.719515343
0.0404997648 -0.9618799851 -9.512622245
0.4911027002 -1.728266162 -9.748188903
0.3357443268 -1.753014886 -9.977541
-0.1148586086 -0.9866287086 -9.741974343
0.1553583734 -0.9752512765 -9.770647903
-0.2297172171 -0.9732574172 -9.483948685
0.6714886536 -2.506029772 -9.955082
-0.5 -0.8660254038 -10
0 -1 -10
0.2208857182 -1.739643595 -9.719515343
0.08574432678 -1.686027588 -9.977541
-0.3648586086 -0.9196414105 -9.741974343
-0.1148586086 -0.9866287086 -9.741974343
0.3357443268 -1.753014886 -9.977541
-0.25 -0.9330127019 -10
0.6714886536 -2.506029772 -9.955082
-0.2297172171 -0.9732574172 -9.483948685
-0.5 -0.8660254038 -10
-0.8564761281 -2.175324925 -8.643739685
0.2208857182 -1.739643595 -9.719515343
-0.3648586086 -0.9196414105 -9.741974343
0.08574432678 -1.686027588 -9.977541
-0.09249373725 -2.340677348 -9.299410843
-0.5430966726 -1.574291171 -9.063844185
-0.678238064 -1.520675164 -9.321869843
-1.678362431 -0.887794238 -7.459285655
-3.479216037 0 -6.025798086
-2.078712935 -1.755623947 -7.875885853
-1.830839444 -1.086255379 -6.44097102
-2.578789234 -0.443897119 -6.742541871
-2.778964486 -0.8778119735 -6.95084197
-1.878537683 -1.321709092 -7.667585754
-1.754600937 -0.9870248085 -6.950128338
-2.65502774 -0.5431276895 -6.233384553
-1.954776189 -1.420939663 -7.158428437
-3.479216037 0 -6.025798086
-1.678362431 -0.887794238 -7.459285655
-2.078712935 -1.755623947 -7.875885853
-3.171781743 0 -7.086027919
-2.578789234 -0.443897119 -6.742541871
-1.878537683 -1.321709092 -7.667585754
-2.778964486 -0.8778119735 -6.95084197
-3.32549889 0 -6.555913003
-2.425072087 -0.443897119 -7.272656787
-2.625247339 -0.8778119735 -7.480956886
-3.479216037 0 -6.025798086
-1.678362431 -0.887794238 -7.459285655
-2.20850898 0 -6.632939925
-1.830839444 -1.086255379 -6.44097102
-2.578789234 -0.443897119 -6.742541871
-1.943435706 -0.443897119 -7.04611279
-2.843862509 0 -6.329369005
-2.65502774 -0.5431276895 -6.233384553
-1.754600937 -0.9870248085 -6.950128338
-2.019674212 -0.5431276895 -6.536955472
-1.678362431 -0.887794238 -7.459285655
-3.479216037 0 -6.025798086
-2.20850898 0 -6.632939925
-3.171781743 0 -7.086027919
-2.578789234 -0.443897119 -6.742541871
-2.843862509 0 -6.329369005
-1.943435706 -0.443897119 -7.04611279
-2.425072087 -0.443897119 -7.272656787
-3.32549889 0 -6.555913003
-2.690145362 0 -6.859483922
0.1266329963 -3.312719767 -4.941549731
5.906920728 -9.432751709 -3.4
-1.486149823 -6.928202819 -3.4
3.222413342 -22.26428404 -7.784971137
3.016776862 -6.372735738 -4.170774866
2.210385453 -8.180477264 -3.4
-0.6797584132 -5.120461293 -4.170774866
1.674523169 -12.7885019 -6.363260434
4.564667035 -15.84851787 -5.592485568
0.8681317599 -14.59624343 -5.592485568
5.906920728 -9.432751709 -3.4
0.1266329963 -3.312719767 -4.941549731
0.9342897623 -2.927968161 -7.047307867
3.222413342 -22.26428404 -7.784971137
3.016776862 -6.372735738 -4.170774866
0.5304613793 -3.120343964 -5.994428799
3.420605245 -6.180359935 -5.223653933
4.564667035 -15.84851787 -5.592485568
1.674523169 -12.7885019 -6.363260434
2.078351552 -12.5961261 -7.416139502
0.1266329963 -3.312719767 -4.941549731
5.906920728 -9.432751709 -3.4
0.9342897623 -2.927968161 -7.047307867
2.291748005 -3.365583757 -3.4
3.016776862 -6.372735738 -4.170774866
3.420605245 -6.180359935 -5.223653933
0.5304613793 -3.120343964 -5.994428799
1.209190501 -3.339151762 -4.170774866
4.099334367 -6.399167733 -3.4
1.613018884 -3.146775959 -5.223653933
1.439674436 0 -5.684615385
0.9034178452 -0.4287612355 -4.669068391
1.973115769 -0.9463218321 -3.4
1 0 -4.415384615
1.17154614 -0.2143806177 -5.176841888
1.438266807 -0.6875415338 -4.034534195
1.706395102 -0.4731609161 -4.542307692
1.219837218 0 -5.05
0.9517089226 -0.2143806177 -4.542226503
1.486557884 -0.4731609161 -3.907692308
0.9034178452 -0.4287612355 -4.669068391
1.439674436 0 -5.684615385
1.973115769 -0.9463218321 -3.4
2.481675156 -1.852905221 -5.938320992
1.17154614 -0.2143806177 -5.176841888
1.706395102 -0.4731609161 -4.542307692
1.438266807 -0.6875415338 -4.034534195
1.692546501 -1.140833228 -5.303694691
1.960674796 -0.9264526106 -5.811468188
2.227395463 -1.399613527 -4.669160496
0 0 -10.5
17.83908043 -12.29946945 -7.46400298
2.347262615 -1.487475145 -9.507742122
0.6714886536 -2.506029772 -9.955082
8.919540213 -6.149734724 -8.98200149
10.09317152 -6.893472296 -8.485872551
1.173631307 -0.7437375723 -10.00387106
0.3357443268 -1.253014886 -10.227541
9.25528454 -7.40274961 -8.70954249
1.509375634 -1.996752458 -9.731412061
17.83908043 -12.29946945 -7.46400298
0 0 -10.5
20 -35.90730148 -10.5
0.6714886536 -2.506029772 -9.955082
8.919540213 -6.149734724 -8.98200149
10 -17.95365074 -10.5
18.91954021 -24.10338546 -8.98200149
9.25528454 -7.40274961 -8.70954249
0.3357443268 -1.253014886 -10.227541
10.33574433 -19.20666563 -10.227541
0.6714886536 -2.506029772 -9.955082
0.1744716052 -0.9846622055 -9.146498622
-0.2297172171 -0.9732574172 -9.483948685
-0.8564761281 -2.175324925 -8.643739685
0.4229801294 -1.745345989 -9.550790311
-0.02762280595 -0.9789598114 -9.315223654
0.2208857182 -1.739643595 -9.719515343
-0.09249373725 -2.340677348 -9.299410843
-0.3410022614 -1.579993565 -8.895119154
-0.5430966726 -1.574291171 -9.063844185
0.1744716052 -0.9846622055 -9.146498622
0.6714886536 -2.506029772 -9.955082
-0.2297172171 -0.9732574172 -9.483948685
0.3107167467 -0.950502553 -9.541295805
0.4229801294 -1.745345989 -9.550790311
0.2208857182 -1.739643595 -9.719515343
-0.02762280595 -0.9789598114 -9.315223654
0.242594176 -0.9675823793 -9.343897214
0.4911027002 -1.728266162 -9.748188903
0.0404997648 -0.9618799851 -9.512622245
-0.90625 -0.4227421643 -1.25
-0.9322576649 -0.3617950335 -1.637187438
-0.7166744409 -0.6974078762 -1.585427089
-1.38119511 -2.364212683 -2
-0.9192538324 -0.3922685989 -1.443593719
-0.8244660529 -0.5296014549 -1.611307263
-0.8114622204 -0.5600750203 -1.417713544
-1.143722555 -1.393477424 -1.625
-1.156726387 -1.363003858 -1.818593719
-1.048934775 -1.530810279 -1.792713544
1.973115769 -0.9463218321 0
0.5874313746 -0.8092739834 -0.9251532641
0.90625 -0.4227421643 -0.75
0.9099875767 -0.414635515 -1.232634665
1.280273572 -0.8777979078 -0.4625766321
0.7468406873 -0.6160080738 -0.8375766321
1.439682884 -0.6845319982 -0.375
1.441551673 -0.6804786736 -0.6163173326
0.7487094756 -0.6119547492 -1.078893965
0.9081187883 -0.4186888397 -0.9913173326
-0.6591606257 -0.7520021739 -0.4646837478
-1.38119511 -2.364212683 0
-0.9322576649 -0.3617950335 -0.3628125623
-0.90625 -0.4227421643 -0.75
-1.020177868 -1.558107428 -0.2323418739
-1.156726387 -1.363003858 -0.1814062811
-0.7957091453 -0.5568986037 -0.413748155
-0.7827053129 -0.5873721691 -0.6073418739
-1.143722555 -1.393477424 -0.375
-0.9192538324 -0.3922685989 -0.5564062811
-0.90625 -0.4227421643 -1.25
-0.7166744409 -0.6974078762 -1.585427089
-0.5863988647 -0.8100224512 -1.072365974
-1.38119511 -2.364212683 -2
-0.8114622204 -0.5600750203 -1.417713544
-0.6515366528 -0.7537151637 -1.328896531
-0.7463244324 -0.6163823078 -1.161182987
-1.143722555 -1.393477424 -1.625
-1.048934775 -1.530810279 -1.792713544
-0.9837969872 -1.587117567 -1.536182987
-1.38119511 -2.364212683 0
-0.6591606257 -0.7520021739 -0.4646837478
-0.5863988647 -0.8100224512 -1.072365974
-0.90625 -0.4227421643 -0.75
-1.020177868 -1.558107428 -0.2323418739
-0.6227797452 -0.7810123125 -0.7685248608
-0.9837969872 -1.587117567 -0.5361829869
-1.143722555 -1.393477424 -0.375
-0.7827053129 -0.5873721691 -0.6073418739
-0.7463244324 -0.6163823078 -0.9111829869
0.5874313746 -0.8092739834 -0.9251532641
0.9099875767 -0.414635515 -1.232634665
1.973115769 -0.9463218321 -2
0.660255921 -0.7510406905 -1.532481096
0.7487094756 -0.6119547492 -1.078893965
1.441551673 -0.6804786736 -1.616317333
1.280273572 -0.8777979078 -1.462576632
0.6238436478 -0.7801573369 -1.22881718
0.7851217488 -0.5828381028 -1.38255788
1.316685845 -0.8486812613 -1.766240548
0.7168226538 -0.6972555364 -0.4141594507
0.5874313746 -0.8092739834 -0.9251532641
0.90625 -0.4227421643 -0.75
1.973115769 -0.9463218321 0
0.6521270142 -0.7532647599 -0.6696563574
0.7468406873 -0.6160080738 -0.8375766321
0.8115363269 -0.5599988504 -0.5820797254
1.344969211 -0.8217886843 -0.2070797254
1.280273572 -0.8777979078 -0.4625766321
1.439682884 -0.6845319982 -0.375
-0.5863988647 -0.8100224512 -1.072365974
-1.38119511 -2.364212683 -2
-0.1491557457 -0.9888137153 -1.111007385
-0.2413741068 -0.9704321411 -0.7435113619
-0.9837969872 -1.587117567 -1.536182987
-0.7651754276 -1.676513199 -1.555503693
-0.3677773052 -0.8994180833 -1.091686679
-0.4138864858 -0.8902272962 -0.9079386678
-0.8112846082 -1.667322412 -1.371755681
-0.1952649262 -0.9796229282 -0.9272593735
-0.9322576649 -0.3617950335 -1.637187438
-1.38119511 -2.364212683 -2
-0.90625 -0.4227421643 -1.25
-1.864576332 0 -0.8333333333
-1.156726387 -1.363003858 -1.818593719
-1.143722555 -1.393477424 -1.625
-0.9192538324 -0.3922685989 -1.443593719
-1.398416998 -0.1808975168 -1.235260386
-1.622885721 -1.182106341 -1.416666667
-1.385413166 -0.2113710822 -1.041666667
-0.1491557457 -0.9888137153 -1.111007385
-0.5863988647 -0.8100224512 -1.072365974
-0.2588190451 -0.9659258263 -1.553009122
-1.38119511 -2.364212683 -2
-0.3677773052 -0.8994180833 -1.091686679
-0.4226089549 -0.8879741388 -1.312687548
-0.2039873954 -0.9773697708 -1.332008254
-0.7651754276 -1.676513199 -1.555503693
-0.9837969872 -1.587117567 -1.536182987
-0.8200070774 -1.665069254 -1.776504561
0.5874313746 -0.8092739834 -0.9251532641
0.2413741068 -0.9704321411 -1.256488638
0.660255921 -0.7510406905 -1.532481096
0.1970592446 -3.299768933 -0.999224377
0.4144027407 -0.8898530622 -1.090820951
0.4508150139 -0.8607364158 -1.394484867
0.6238436478 -0.7801573369 -1.22881718
0.3922453096 -2.054521458 -0.9621888206
0.2192166757 -2.135100537 -1.127856508
0.4286575828 -2.025404812 -1.265852736
-1.864576332 0 -0.8333333333
-0.9322576649 -0.3617950335 -0.3628125623
-1.38119511 -2.364212683 0
-0.90625 -0.4227421643 -0.75
-1.398416998 -0.1808975168 -0.5980729478
-1.156726387 -1.363003858 -0.1814062811
-1.622885721 -1.182106341 -0.4166666667
-1.385413166 -0.2113710822 -0.7916666667
-0.9192538324 -0.3922685989 -0.5564062811
-1.143722555 -1.393477424 -0.375
0.660255921 -0.7510406905 -1.532481096
0.2413741068 -0.9704321411 -1.256488638
0.2588190451 -0.9659258263 -1.675903663
0.1970592446 -3.299768933 -0.999224377
0.4508150139 -0.8607364158 -1.394484867
0.250096576 -0.9681789837 -1.466196151
0.459537483 -0.8584832584 -1.604192379
0.4286575828 -2.025404812 -1.265852736
0.2192166757 -2.135100537 -1.127856508
0.2279391449 -2.13284738 -1.33756402
-0.6591606257 -0.7520021739 -0.4646837478
-1.38119511 -2.364212683 0
-0.5863988647 -0.8100224512 -1.072365974
-0.2413741068 -0.9704321411 -0.7435113619
-1.020177868 -1.558107428 -0.2323418739
-0.9837969872 -1.587117567 -0.5361829869
-0.6227797452 -0.7810123125 -0.7685248608
-0.4502673663 -0.8612171575 -0.6040975548
-0.8112846082 -1.667322412 -0.3717556809
-0.4138864858 -0.8902272962 -0.9079386678
0.5874313746 -0.8092739834 -0.9251532641
0.2588190451 -0.9659258263 -0.446990878
0.1507315012 -0.988574739 -0.8828283323
0.1970592446 -3.299768933 -0.999224377
0.4231252099 -0.8875999048 -0.6860720711
0.2047752731 -0.9772502826 -0.6649096051
0.3690814379 -0.8989243612 -0.9039907982
0.3922453096 -2.054521458 -0.9621888206
0.2279391449 -2.13284738 -0.7231076275
0.1738953729 -2.144171836 -0.9410263546
-1.38119511 -2.364212683 0
-0.6591606257 -0.7520021739 -0.4646837478
-0.2588190451 -0.9659258263 -0.3240963366
-0.2413741068 -0.9704321411 -0.7435113619
-1.020177868 -1.558107428 -0.2323418739
-0.4589898354 -0.8589640001 -0.3943900422
-0.8200070774 -1.665069254 -0.1620481683
-0.8112846082 -1.667322412 -0.3717556809
-0.4502673663 -0.8612171575 -0.6040975548
-0.250096576 -0.9681789837 -0.5338038492
-0.7166744409 -0.6974078762 -1.585427089
-0.2588190451 -0.9659258263 -1.553009122
-0.5863988647 -0.8100224512 -1.072365974
-1.38119511 -2.364212683 -2
-0.487746743 -0.8316668512 -1.569218105
-0.4226089549 -0.8879741388 -1.312687548
-0.6515366528 -0.7537151637 -1.328896531
-1.048934775 -1.530810279 -1.792713544
-0.8200070774 -1.665069254 -1.776504561
-0.9837969872 -1.587117567 -1.536182987
-0.8660254038 -0.5 -2
-0.7166744409 -0.6974078762 -1.585427089
-0.9322576649 -0.3617950335 -1.637187438
-1.38119511 -2.364212683 -2
-0.7913499223 -0.5987039381 -1.792713544
-0.8244660529 -0.5296014549 -1.611307263
-0.8991415343 -0.4308975168 -1.818593719
-1.123610257 -1.432106341 -2
-1.048934775 -1.530810279 -1.792713544
-1.156726387 -1.363003858 -1.818593719
0.5874313746 -0.8092739834 -0.9251532641
0.1507315012 -0.988574739 -0.8828283323
0.2413741068 -0.9704321411 -1.256488638
0.1970592446 -3.299768933 -0.999224377
0.3690814379 -0.8989243612 -0.9039907982
0.196052804 -0.9795034401 -1.069658485
0.4144027407 -0.8898530622 -1.090820951
0.3922453096 -2.054521458 -0.9621888206
0.1738953729 -2.144171836 -0.9410263546
0.2192166757 -2.135100537 -1.127856508
0.9322576649 -0.3617950335 -1.637187438
1.973115769 -0.9463218321 -2
0.9099875767 -0.414635515 -1.232634665
0.660255921 -0.7510406905 -1.532481096
1.452686717 -0.6540584328 -1.818593719
1.441551673 -0.6804786736 -1.616317333
0.9211226208 -0.3882152743 -1.434911051
0.7962567929 -0.556417862 -1.584834267
1.316685845 -0.8486812613 -1.766240548
0.7851217488 -0.5828381028 -1.38255788
0.7168226538 -0.6972555364 -0.4141594507
0.90625 -0.4227421643 -0.75
0.9322576649 -0.3617950335 -0.3628125623
1.973115769 -0.9463218321 0
0.8115363269 -0.5599988504 -0.5820797254
0.9192538324 -0.3922685989 -0.5564062811
0.8245401593 -0.529525285 -0.3884860065
1.344969211 -0.8217886843 -0.2070797254
1.439682884 -0.6845319982 -0.375
1.452686717 -0.6540584328 -0.1814062811
-0.9322576649 -0.3617950335 -1.637187438
-1 0 -1.5
-3.593728995 0 -2
-1.864576332 0 -0.8333333333
-0.9661288324 -0.1808975168 -1.568593719
-2.296864497 0 -1.75
-2.26299333 -0.1808975168 -1.818593719
-1.398416998 -0.1808975168 -1.235260386
-1.432288166 0 -1.166666667
-2.729152663 0 -1.416666667
-1 0 -1
-1.864576332 0 -0.8333333333
-0.90625 -0.4227421643 -1.25
-0.90625 -0.4227421643 -0.75
-1.432288166 0 -0.9166666667
-1.385413166 -0.2113710822 -1.041666667
-0.953125 -0.2113710822 -1.125
-0.953125 -0.2113710822 -0.875
-1.385413166 -0.2113710822 -0.7916666667
-0.90625 -0.4227421643 -1
-0.9322576649 -0.3617950335 -0.3628125623
-0.8660254038 -0.5 0
-1.38119511 -2.364212683 0
-0.6591606257 -0.7520021739 -0.4646837478
-0.8991415343 -0.4308975168 -0.1814062811
-1.123610257 -1.432106341 0
-1.156726387 -1.363003858 -0.1814062811
-0.7957091453 -0.5568986037 -0.413748155
-0.7625930148 -0.6260010869 -0.2323418739
-1.020177868 -1.558107428 -0.2323418739
-0.2588190451 -0.9659258263 -0.3240963366
-0.2413741068 -0.9704321411 -0.7435113619
0.2588190451 -0.9659258263 -0.446990878
0.1970592446 -3.299768933 -0.999224377
-0.250096576 -0.9681789837 -0.5338038492
0.00872246914 -0.9681789837 -0.5952511199
0 -0.9659258263 -0.3855436073
-0.03087990024 -2.13284738 -0.6616603568
-0.0221574311 -2.135100537 -0.8713678694
0.2279391449 -2.13284738 -0.7231076275
0.2588190451 -0.9659258263 -0.446990878
-0.2413741068 -0.9704321411 -0.7435113619
0.1507315012 -0.988574739 -0.8828283323
0.1970592446 -3.299768933 -0.999224377
0.00872246914 -0.9681789837 -0.5952511199
-0.04532130283 -0.9795034401 -0.8131698471
0.2047752731 -0.9772502826 -0.6649096051
0.2279391449 -2.13284738 -0.7231076275
-0.0221574311 -2.135100537 -0.8713678694
0.1738953729 -2.144171836 -0.9410263546
1 0 0
1 0 -0.5
5.207805435 0 0
1.973115769 -0.9463218321 0
1 0 -0.25
3.103902718 0 -0.25
3.103902718 0 0
1.486557884 -0.4731609161 0
1.486557884 -0.4731609161 -0.25
3.590460602 -0.4731609161 0
0.660255921 -0.7510406905 -1.532481096
1.973115769 -0.9463218321 -2
0.5874313746 -0.8092739834 -0.9251532641
0.1970592446 -3.299768933 -0.999224377
1.316685845 -0.8486812613 -1.766240548
1.280273572 -0.8777979078 -1.462576632
0.6238436478 -0.7801573369 -1.22881718
0.4286575828 -2.025404812 -1.265852736
1.085087507 -2.123045383 -1.499612188
0.3922453096 -2.054521458 -0.9621888206
-1 0 -2
-0.9322576649 -0.3617950335 -1.637187438
-3.593728995 0 -2
-0.8660254038 -0.5 -2
-0.9661288324 -0.1808975168 -1.818593719
-2.26299333 -0.1808975168 -1.818593719
-2.296864497 0 -2
-0.9330127019 -0.25 -2
-0.8991415343 -0.4308975168 -1.818593719
-2.229877199 -0.25 -2
5.207805435 0 -2
1.973115769 -0.9463218321 0
1 0 -1
1.973115769 -0.9463218321 -2
3.590460602 -0.4731609161 -1
1.486557884 -0.4731609161 -0.5
3.103902718 0 -1.5
3.590460602 -0.4731609161 -2
1.973115769 -0.9463218321 -1
1.486557884 -0.4731609161 -1.5
-1.864576332 0 -0.8333333333
-1 0 -0.5
-0.9322576649 -0.3617950335 -0.3628125623
-0.90625 -0.4227421643 -0.75
-1.432288166 0 -0.6666666667
-0.9661288324 -0.1808975168 -0.4314062811
-1.398416998 -0.1808975168 -0.5980729478
-1.385413166 -0.2113710822 -0.7916666667
-0.953125 -0.2113710822 -0.625
-0.9192538324 -0.3922685989 -0.5564062811
1.973115769 -0.9463218321 0
1.973115769 -0.9463218321 -2
0.5874313746 -0.8092739834 -0.9251532641
0.9099875767 -0.414635515 -1.232634665
1.973115769 -0.9463218321 -1
1.280273572 -0.8777979078 -1.462576632
1.280273572 -0.8777979078 -0.4625766321
1.441551673 -0.6804786736 -0.6163173326
1.441551673 -0.6804786736 -1.616317333
0.7487094756 -0.6119547492 -1.078893965
1 0 -2
1.973115769 -0.9463218321 -2
5.207805435 0 -2
1 0 -1.5
1.486557884 -0.4731609161 -2
3.590460602 -0.4731609161 -2
3.103902718 0 -2
1 0 -1.75
1.486557884 -0.4731609161 -1.75
3.103902718 0 -1.75
5.207805435 0 0
1 0 -0.5
1 0 -1
1.973115769 -0.9463218321 0
3.103902718 0 -0.25
1 0 -0.75
3.103902718 0 -0.5
3.590460602 -0.4731609161 0
1.486557884 -0.4731609161 -0.25
1.486557884 -0.4731609161 -0.5
-0.9322576649 -0.3617950335 -1.637187438
-3.593728995 0 -2
-1 0 -1.5
-1 0 -2
-2.26299333 -0.1808975168 -1.818593719
-2.296864497 0 -1.75
-0.9661288324 -0.1808975168 -1.568593719
-0.9661288324 -0.1808975168 -1.818593719
-2.296864497 0 -2
-1 0 -1.75
5.207805435 0 -2
1.973115769 -0.9463218321 -2
1 0 -1
1 0 -1.5
3.590460602 -0.4731609161 -2
1.486557884 -0.4731609161 -1.5
3.103902718 0 -1.5
3.103902718 0 -1.75
1.486557884 -0.4731609161 -1.75
1 0 -1.25
0.660255921 -0.7510406905 -1.532481096
0.2588190451 -0.9659258263 -1.675903663
0.5 -0.8660254038 -2
0.1970592446 -3.299768933 -0.999224377
0.459537483 -0.8584832584 -1.604192379
0.3794095226 -0.915975615 -1.837951832
0.5801279605 -0.8085330472 -1.766240548
0.4286575828 -2.025404812 -1.265852736
0.2279391449 -2.13284738 -1.33756402
0.3485296223 -2.082897168 -1.499612188
-0.8660254038 -0.5 0
-0.9322576649 -0.3617950335 -0.3628125623
-1.38119511 -2.364212683 0
-1.864576332 0 -0.8333333333
-0.8991415343 -0.4308975168 -0.1814062811
-1.156726387 -1.363003858 -0.1814062811
-1.123610257 -1.432106341 0
-1.365300868 -0.25 -0.4166666667
-1.398416998 -0.1808975168 -0.5980729478
-1.622885721 -1.182106341 -0.4166666667
0.1507315012 -0.988574739 -0.8828283323
-0.2413741068 -0.9704321411 -0.7435113619
-0.1491557457 -0.9888137153 -1.111007385
0.1970592446 -3.299768933 -0.999224377
-0.04532130283 -0.9795034401 -0.8131698471
-0.1952649262 -0.9796229282 -0.9272593735
0.0007878777457 -0.9886942271 -0.9969178587
0.1738953729 -2.144171836 -0.9410263546
-0.0221574311 -2.135100537 -0.8713678694
0.02395174948 -2.144291324 -1.055115881
-1.38119511 -2.364212683 0
-3.593728995 0 0
-3.593728995 0 -2
-5.514209552 -3.8896768 0
-2.487462052 -1.182106341 0
-3.593728995 0 -1
-2.487462052 -1.182106341 -1
-3.447702331 -3.126944741 0
-4.553969273 -1.9448384 0
-4.553969273 -1.9448384 -1
-1.38119511 -2.364212683 0
-3.593728995 0 -2
-3.593728995 0 0
-1.864576332 0 -0.8333333333
-2.487462052 -1.182106341 -1
-3.593728995 0 -1
-2.487462052 -1.182106341 0
-1.622885721 -1.182106341 -0.4166666667
-2.729152663 0 -1.416666667
-2.729152663 0 -0.4166666667
-1.38119511 -2.364212683 0
-3.593728995 0 -2
-1.38119511 -2.364212683 -2
-5.514209552 -3.8896768 0
-2.487462052 -1.182106341 -1
-2.487462052 -1.182106341 -2
-1.38119511 -2.364212683 -1
-3.447702331 -3.126944741 0
-4.553969273 -1.9448384 -1
-3.447702331 -3.126944741 -1
-3.593728995 0 -2
-1.38119511 -2.364212683 0
-1.38119511 -2.364212683 -2
-1.864576332 0 -0.8333333333
-2.487462052 -1.182106341 -1
-1.38119511 -2.364212683 -1
-2.487462052 -1.182106341 -2
-2.729152663 0 -1.416666667
-1.622885721 -1.182106341 -0.4166666667
-1.622885721 -1.182106341 -1.416666667
-0.2588190451 -0.9659258263 -1.553009122
0.2588190451 -0.9659258263 -1.675903663
0.2413741068 -0.9704321411 -1.256488638
0.1970592446 -3.299768933 -0.999224377
0 -0.9659258263 -1.614456393
0.250096576 -0.9681789837 -1.466196151
-0.00872246914 -0.9681789837 -1.40474888
-0.03087990024 -2.13284738 -1.276116749
0.2279391449 -2.13284738 -1.33756402
0.2192166757 -2.135100537 -1.127856508
-0.1491557457 -0.9888137153 -1.111007385
-0.2588190451 -0.9659258263 -1.553009122
0.2413741068 -0.9704321411 -1.256488638
0.1970592446 -3.299768933 -0.999224377
-0.2039873954 -0.9773697708 -1.332008254
-0.00872246914 -0.9681789837 -1.40474888
0.04610918058 -0.9796229282 -1.183748012
0.02395174948 -2.144291324 -1.055115881
-0.03087990024 -2.13284738 -1.276116749
0.2192166757 -2.135100537 -1.127856508
-0.8660254038 -0.5 0
-3.593728995 0 0
-1 0 0
-1.864576332 0 -0.8333333333
-2.229877199 -0.25 0
-2.296864497 0 0
-0.9330127019 -0.25 0
-1.365300868 -0.25 -0.4166666667
-2.729152663 0 -0.4166666667
-1.432288166 0 -0.4166666667
0.2413741068 -0.9704321411 -1.256488638
0.1507315012 -0.988574739 -0.8828283323
-0.1491557457 -0.9888137153 -1.111007385
0.1970592446 -3.299768933 -0.999224377
0.196052804 -0.9795034401 -1.069658485
0.0007878777457 -0.9886942271 -0.9969178587
0.04610918058 -0.9796229282 -1.183748012
0.2192166757 -2.135100537 -1.127856508
0.1738953729 -2.144171836 -0.9410263546
0.02395174948 -2.144291324 -1.055115881
-0.7166744409 -0.6974078762 -1.585427089
-0.5 -0.8660254038 -2
-0.2588190451 -0.9659258263 -1.553009122
-1.38119511 -2.364212683 -2
-0.6083372204 -0.78171664 -1.792713544
-0.3794095226 -0.915975615 -1.776504561
-0.487746743 -0.8316668512 -1.569218105
-1.048934775 -1.530810279 -1.792713544
-0.9405975548 -1.615119043 -2
-0.8200070774 -1.665069254 -1.776504561
2.291748005 -3.365583757 0
1.973115769 -0.9463218321 0
5.207805435 0 -2
1.973115769 -0.9463218321 -2
2.132431887 -2.155952795 0
3.590460602 -0.4731609161 -1
3.74977672 -1.682791878 -1
2.132431887 -2.155952795 -1
1.973115769 -0.9463218321 -1
3.590460602 -0.4731609161 -2
-1.486149823 -6.928202819 -2
-1.38119511 -2.364212683 -2
-5.514209552 -3.8896768 0
-1.38119511 -2.364212683 0
-1.433672466 -4.646207751 -2
-3.447702331 -3.126944741 -1
-3.500179687 -5.408939809 -1
-1.433672466 -4.646207751 -1
-1.38119511 -2.364212683 -1
-3.447702331 -3.126944741 0
1.973115769 -0.9463218321 -2
0.660255921 -0.7510406905 -1.532481096
0.9322576649 -0.3617950335 -1.637187438
0.8660254038 -0.5 -2
1.316685845 -0.8486812613 -1.766240548
0.7962567929 -0.556417862 -1.584834267
1.452686717 -0.6540584328 -1.818593719
1.419570586 -0.7231609161 -2
0.7631406624 -0.6255203453 -1.766240548
0.8991415343 -0.4308975168 -1.818593719
1 0 -1
5.207805435 0 -2
5.207805435 0 0
1.973115769 -0.9463218321 0
3.103902718 0 -1.5
5.207805435 0 -1
3.103902718 0 -0.5
1.486557884 -0.4731609161 -0.5
3.590460602 -0.4731609161 -1
3.590460602 -0.4731609161 0
2.291748005 -3.365583757 -2
0 -1 -2
-1.38119511 -2.364212683 -2
0.1970592446 -3.299768933 -0.999224377
1.145874003 -2.182791878 -2
-0.6905975548 -1.682106341 -2
0.4552764479 -2.86489822 -2
1.244403625 -3.332676345 -1.499612188
0.09852962231 -2.149884467 -1.499612188
-0.5920679325 -2.831990808 -1.499612188
-0.5 -0.8660254038 0
-0.2588190451 -0.9659258263 -0.3240963366
-1.38119511 -2.364212683 0
-0.6591606257 -0.7520021739 -0.4646837478
-0.3794095226 -0.915975615 -0.1620481683
-0.8200070774 -1.665069254 -0.1620481683
-0.9405975548 -1.615119043 0
-0.5795803129 -0.8090137888 -0.2323418739
-0.4589898354 -0.8589640001 -0.3943900422
-1.020177868 -1.558107428 -0.2323418739
2.291748005 -3.365583757 -2
-1.38119511 -2.364212683 -2
-1.486149823 -6.928202819 -2
0.1970592446 -3.299768933 -0.999224377
0.4552764479 -2.86489822 -2
-1.433672466 -4.646207751 -2
0.4027990914 -5.146893288 -2
1.244403625 -3.332676345 -1.499612188
-0.5920679325 -2.831990808 -1.499612188
-0.644545289 -5.113985876 -1.499612188
-0.90625 -0.4227421643 -1.25
-1 0 -1.5
-0.9322576649 -0.3617950335 -1.637187438
-1.864576332 0 -0.8333333333
-0.953125 -0.2113710822 -1.375
-0.9661288324 -0.1808975168 -1.568593719
-0.9192538324 -0.3922685989 -1.443593719
-1.385413166 -0.2113710822 -1.041666667
-1.432288166 0 -1.166666667
-1.398416998 -0.1808975168 -1.235260386
-5.514209552 -3.8896768 0
-3.593728995 0 -2
-1.38119511 -2.364212683 -2
-5.514209552 -3.8896768 -2
-4.553969273 -1.9448384 -1
-2.487462052 -1.182106341 -2
-3.447702331 -3.126944741 -1
-5.514209552 -3.8896768 -1
-4.553969273 -1.9448384 -2
-3.447702331 -3.126944741 -2
1.973115769 -0.9463218321 0
0.90625 -0.4227421643 -0.75
1 0 -1
0.9099875767 -0.414635515 -1.232634665
1.439682884 -0.6845319982 -0.375
0.953125 -0.2113710822 -0.875
1.486557884 -0.4731609161 -0.5
1.441551673 -0.6804786736 -0.6163173326
0.9081187883 -0.4186888397 -0.9913173326
0.9549937883 -0.2073177575 -1.116317333
1.973115769 -0.9463218321 0
0.5874313746 -0.8092739834 -0.9251532641
1.973115769 -0.9463218321 -2
0.1970592446 -3.299768933 -0.999224377
1.280273572 -0.8777979078 -0.4625766321
1.280273572 -0.8777979078 -1.462576632
1.973115769 -0.9463218321 -1
1.085087507 -2.123045383 -0.4996121885
0.3922453096 -2.054521458 -0.9621888206
1.085087507 -2.123045383 -1.499612188
0.8660254038 -0.5 0
0.7168226538 -0.6972555364 -0.4141594507
0.9322576649 -0.3617950335 -0.3628125623
1.973115769 -0.9463218321 0
0.7914240288 -0.5986277682 -0.2070797254
0.8245401593 -0.529525285 -0.3884860065
0.8991415343 -0.4308975168 -0.1814062811
1.419570586 -0.7231609161 0
1.344969211 -0.8217886843 -0.2070797254
1.452686717 -0.6540584328 -0.1814062811
-0.8660254038 -0.5 0
-1.38119511 -2.364212683 0
-3.593728995 0 0
-1.864576332 0 -0.8333333333
-1.123610257 -1.432106341 0
-2.487462052 -1.182106341 0
-2.229877199 -0.25 0
-1.365300868 -0.25 -0.4166666667
-1.622885721 -1.182106341 -0.4166666667
-2.729152663 0 -0.4166666667
-1.486149823 -6.928202819 -2
-5.514209552 -3.8896768 0
-1.38119511 -2.364212683 -2
-5.514209552 -3.8896768 -2
-3.500179687 -5.408939809 -1
-3.447702331 -3.126944741 -1
-1.433672466 -4.646207751 -2
-3.500179687 -5.408939809 -2
-5.514209552 -3.8896768 -1
-3.447702331 -3.126944741 -2
-3.593728995 0 -2
-3.593728995 0 0
-7.453252438 0 -2
-5.514209552 -3.8896768 0
-3.593728995 0 -1
-5.523490716 0 -1
-5.523490716 0 -2
-4.553969273 -1.9448384 -1
-4.553969273 -1.9448384 0
-6.483730995 -1.9448384 -1
-1 0 -0.5
-1.864576332 0 -0.8333333333
-1 0 -1
-0.90625 -0.4227421643 -0.75
-1.432288166 0 -0.6666666667
-1.432288166 0 -0.9166666667
-1 0 -0.75
-0.953125 -0.2113710822 -0.625
-1.385413166 -0.2113710822 -0.7916666667
-0.953125 -0.2113710822 -0.875
-1 0 0
-0.9322576649 -0.3617950335 -0.3628125623
-0.8660254038 -0.5 0
-1.864576332 0 -0.8333333333
-0.9661288324 -0.1808975168 -0.1814062811
-0.8991415343 -0.4308975168 -0.1814062811
-0.9330127019 -0.25 0
-1.432288166 0 -0.4166666667
-1.398416998 -0.1808975168 -0.5980729478
-1.365300868 -0.25 -0.4166666667
-0.5863988647 -0.8100224512 -1.072365974
-1.38119511 -2.364212683 0
-1.38119511 -2.364212683 -2
-0.2413741068 -0.9704321411 -0.7435113619
-0.9837969872 -1.587117567 -0.5361829869
-1.38119511 -2.364212683 -1
-0.9837969872 -1.587117567 -1.536182987
-0.4138864858 -0.8902272962 -0.9079386678
-0.8112846082 -1.667322412 -0.3717556809
-0.8112846082 -1.667322412 -1.371755681
2.291748005 -3.365583757 0
5.207805435 0 -2
1.973115769 -0.9463218321 0
5.207805435 0 0
3.74977672 -1.682791878 -1
3.590460602 -0.4731609161 -1
2.132431887 -2.155952795 0
3.74977672 -1.682791878 0
5.207805435 0 -1
3.590460602 -0.4731609161 0
2.291748005 -3.365583757 -2
0.5 -0.8660254038 -2
0 -1 -2
0.1970592446 -3.299768933 -0.999224377
1.395874003 -2.11580458 -2
0.25 -0.9330127019 -2
1.145874003 -2.182791878 -2
1.244403625 -3.332676345 -1.499612188
0.3485296223 -2.082897168 -1.499612188
0.09852962231 -2.149884467 -1.499612188
-1.38119511 -2.364212683 0
2.291748005 -3.365583757 0
-1.486149823 -6.928202819 0
0.1970592446 -3.299768933 -0.999224377
0.4552764479 -2.86489822 0
0.4027990914 -5.146893288 0
-1.433672466 -4.646207751 0
-0.5920679325 -2.831990808 -0.4996121885
1.244403625 -3.332676345 -0.4996121885
-0.644545289 -5.113985876 -0.4996121885
-1 0 0
-1 0 -0.5
-0.9322576649 -0.3617950335 -0.3628125623
-1.864576332 0 -0.8333333333
-1 0 -0.25
-0.9661288324 -0.1808975168 -0.4314062811
-0.9661288324 -0.1808975168 -0.1814062811
-1.432288166 0 -0.4166666667
-1.432288166 0 -0.6666666667
-1.398416998 -0.1808975168 -0.5980729478
-1.486149823 -6.928202819 -2
-1.38119511 -2.364212683 -2
-1.38119511 -2.364212683 0
0.1970592446 -3.299768933 -0.999224377
-1.433672466 -4.646207751 -2
-1.38119511 -2.364212683 -1
-1.433672466 -4.646207751 -1
-0.644545289 -5.113985876 -1.499612188
-0.5920679325 -2.831990808 -1.499612188
-0.5920679325 -2.831990808 -0.4996121885
-1.486149823 -6.928202819 -2
-1.38119511 -2.364212683 0
-5.514209552 -3.8896768 0
-1.486149823 -6.928202819 0
-1.433672466 -4.646207751 -1
-3.447702331 -3.126944741 0
-3.500179687 -5.408939809 -1
-1.486149823 -6.928202819 -1
-1.433672466 -4.646207751 0
-3.500179687 -5.408939809 0
-3.593728995 0 -2
-5.514209552 -3.8896768 -2
-5.514209552 -3.8896768 0
-7.453252438 0 -2
-4.553969273 -1.9448384 -2
-5.514209552 -3.8896768 -1
-4.553969273 -1.9448384 -1
-5.523490716 0 -2
-6.483730995 -1.9448384 -2
-6.483730995 -1.9448384 -1
0 -1 0
-0.2588190451 -0.9659258263 -0.3240963366
0.2588190451 -0.9659258263 -0.446990878
0.1970592446 -3.299768933 -0.999224377
-0.1294095226 -0.9829629131 -0.1620481683
0 -0.9659258263 -0.3855436073
0.1294095226 -0.9829629131 -0.223495439
0.09852962231 -2.149884467 -0.4996121885
-0.03087990024 -2.13284738 -0.6616603568
0.2279391449 -2.13284738 -0.7231076275
0.5 -0.8660254038 -2
1.973115769 -0.9463218321 -2
0.660255921 -0.7510406905 -1.532481096
0.1970592446 -3.299768933 -0.999224377
1.236557884 -0.906173618 -2
1.316685845 -0.8486812613 -1.766240548
0.5801279605 -0.8085330472 -1.766240548
0.3485296223 -2.082897168 -1.499612188
1.085087507 -2.123045383 -1.499612188
0.4286575828 -2.025404812 -1.265852736
-1.38119511 -2.364212683 -2
-0.1491557457 -0.9888137153 -1.111007385
-0.2413741068 -0.9704321411 -0.7435113619
0.1970592446 -3.299768933 -0.999224377
-0.7651754276 -1.676513199 -1.555503693
-0.1952649262 -0.9796229282 -0.9272593735
-0.8112846082 -1.667322412 -1.371755681
-0.5920679325 -2.831990808 -1.499612188
0.02395174948 -2.144291324 -1.055115881
-0.0221574311 -2.135100537 -0.8713678694
0 -1 0
0.2588190451 -0.9659258263 -0.446990878
0.5 -0.8660254038 0
0.1970592446 -3.299768933 -0.999224377
0.1294095226 -0.9829629131 -0.223495439
0.3794095226 -0.915975615 -0.223495439
0.25 -0.9330127019 0
0.09852962231 -2.149884467 -0.4996121885
0.2279391449 -2.13284738 -0.7231076275
0.3485296223 -2.082897168 -0.4996121885
5.207805435 0 -2
2.291748005 -3.365583757 -2
2.291748005 -3.365583757 0
1.973115769 -0.9463218321 -2
3.74977672 -1.682791878 -2
2.291748005 -3.365583757 -1
3.74977672 -1.682791878 -1
3.590460602 -0.4731609161 -2
2.132431887 -2.155952795 -2
2.132431887 -2.155952795 -1
-0.8660254038 -0.5 -2
-0.5 -0.8660254038 -2
-0.7166744409 -0.6974078762 -1.585427089
-1.38119511 -2.364212683 -2
-0.6830127019 -0.6830127019 -2
-0.6083372204 -0.78171664 -1.792713544
-0.7913499223 -0.5987039381 -1.792713544
-1.123610257 -1.432106341 -2
-0.9405975548 -1.615119043 -2
-1.048934775 -1.530810279 -1.792713544
-0.5 -0.8660254038 0
-1.38119511 -2.364212683 0
-0.8660254038 -0.5 0
-0.6591606257 -0.7520021739 -0.4646837478
-0.9405975548 -1.615119043 0
-1.123610257 -1.432106341 0
-0.6830127019 -0.6830127019 0
-0.5795803129 -0.8090137888 -0.2323418739
-1.020177868 -1.558107428 -0.2323418739
-0.7625930148 -0.6260010869 -0.2323418739
-1.38119511 -2.364212683 0
0 -1 0
2.291748005 -3.365583757 0
0.1970592446 -3.299768933 -0.999224377
-0.6905975548 -1.682106341 0
1.145874003 -2.182791878 0
0.4552764479 -2.86489822 0
-0.5920679325 -2.831990808 -0.4996121885
0.09852962231 -2.149884467 -0.4996121885
1.244403625 -3.332676345 -0.4996121885
-1.486149823 -6.928202819 -2
2.291748005 -3.365583757 0
2.291748005 -3.365583757 -2
0.1970592446 -3.299768933 -0.999224377
0.4027990914 -5.146893288 -1
2.291748005 -3.365583757 -1
0.4027990914 -5.146893288 -2
-0.644545289 -5.113985876 -1.499612188
1.244403625 -3.332676345 -0.4996121885
1.244403625 -3.332676345 -1.499612188
-1.38119511 -2.364212683 0
-0.2413741068 -0.9704321411 -0.7435113619
-0.2588190451 -0.9659258263 -0.3240963366
0.1970592446 -3.299768933 -0.999224377
-0.8112846082 -1.667322412 -0.3717556809
-0.250096576 -0.9681789837 -0.5338038492
-0.8200070774 -1.665069254 -0.1620481683
-0.5920679325 -2.831990808 -0.4996121885
-0.0221574311 -2.135100537 -0.8713678694
-0.03087990024 -2.13284738 -0.6616603568
-1.486149823 -6.928202819 0
2.291748005 -3.365583757 0
-1.486149823 -6.928202819 -2
0.1970592446 -3.299768933 -0.999224377
0.4027990914 -5.146893288 0
0.4027990914 -5.146893288 -1
-1.486149823 -6.928202819 -1
-0.644545289 -5.113985876 -0.4996121885
1.244403625 -3.332676345 -0.4996121885
-0.644545289 -5.113985876 -1.499612188
-0.90625 -0.4227421643 -1.25
-1 0 -1
-1 0 -1.5
-1.864576332 0 -0.8333333333
-0.953125 -0.2113710822 -1.125
-1 0 -1.25
-0.953125 -0.2113710822 -1.375
-1.385413166 -0.2113710822 -1.041666667
-1.432288166 0 -0.9166666667
-1.432288166 0 -1.166666667
-1.38119511 -2.364212683 -2
-0.2588190451 -0.9659258263 -1.553009122
-0.1491557457 -0.9888137153 -1.111007385
0.1970592446 -3.299768933 -0.999224377
-0.8200070774 -1.665069254 -1.776504561
-0.2039873954 -0.9773697708 -1.332008254
-0.7651754276 -1.676513199 -1.555503693
-0.5920679325 -2.831990808 -1.499612188
-0.03087990024 -2.13284738 -1.276116749
0.02395174948 -2.144291324 -1.055115881
0 -1 0
-1.38119511 -2.364212683 0
-0.5 -0.8660254038 0
-0.2588190451 -0.9659258263 -0.3240963366
-0.6905975548 -1.682106341 0
-0.9405975548 -1.615119043 0
-0.25 -0.9330127019 0
-0.1294095226 -0.9829629131 -0.1620481683
-0.8200070774 -1.665069254 -0.1620481683
-0.3794095226 -0.915975615 -0.1620481683
-0.2588190451 -0.9659258263 -1.553009122
-1.38119511 -2.364212683 -2
-0.5 -0.8660254038 -2
0 -1 -2
-0.8200070774 -1.665069254 -1.776504561
-0.9405975548 -1.615119043 -2
-0.3794095226 -0.915975615 -1.776504561
-0.1294095226 -0.9829629131 -1.776504561
-0.6905975548 -1.682106341 -2
-0.25 -0.9330127019 -2
0.9322576649 -0.3617950335 -0.3628125623
0.90625 -0.4227421643 -0.75
1 0 -0.5
1.973115769 -0.9463218321 0
0.9192538324 -0.3922685989 -0.5564062811
0.953125 -0.2113710822 -0.625
0.9661288324 -0.1808975168 -0.4314062811
1.452686717 -0.6540584328 -0.1814062811
1.439682884 -0.6845319982 -0.375
1.486557884 -0.4731609161 -0.25
0.7168226538 -0.6972555364 -0.4141594507
0.8660254038 -0.5 0
0.5 -0.8660254038 0
1.973115769 -0.9463218321 0
0.7914240288 -0.5986277682 -0.2070797254
0.6830127019 -0.6830127019 0
0.6084113269 -0.7816404701 -0.2070797254
1.344969211 -0.8217886843 -0.2070797254
1.419570586 -0.7231609161 0
1.236557884 -0.906173618 0
0 -1 0
0.5 -0.8660254038 0
2.291748005 -3.365583757 0
0.1970592446 -3.299768933 -0.999224377
0.25 -0.9330127019 0
1.395874003 -2.11580458 0
1.145874003 -2.182791878 0
0.09852962231 -2.149884467 -0.4996121885
0.3485296223 -2.082897168 -0.4996121885
1.244403625 -3.332676345 -0.4996121885
0.5 -0.8660254038 -2
0.660255921 -0.7510406905 -1.532481096
1.973115769 -0.9463218321 -2
0.8660254038 -0.5 -2
0.5801279605 -0.8085330472 -1.766240548
1.316685845 -0.8486812613 -1.766240548
1.236557884 -0.906173618 -2
0.6830127019 -0.6830127019 -2
0.7631406624 -0.6255203453 -1.766240548
1.419570586 -0.7231609161 -2
1.973115769 -0.9463218321 -2
0.9322576649 -0.3617950335 -1.637187438
0.9099875767 -0.414635515 -1.232634665
1 0 -1.5
1.452686717 -0.6540584328 -1.818593719
0.9211226208 -0.3882152743 -1.434911051
1.441551673 -0.6804786736 -1.616317333
1.486557884 -0.4731609161 -1.75
0.9661288324 -0.1808975168 -1.568593719
0.9549937883 -0.2073177575 -1.366317333
-0.2588190451 -0.9659258263 -1.553009122
0 -1 -2
0.2588190451 -0.9659258263 -1.675903663
0.1970592446 -3.299768933 -0.999224377
-0.1294095226 -0.9829629131 -1.776504561
0.1294095226 -0.9829629131 -1.837951832
0 -0.9659258263 -1.614456393
-0.03087990024 -2.13284738 -1.276116749
0.09852962231 -2.149884467 -1.499612188
0.2279391449 -2.13284738 -1.33756402
-1.486149823 -6.928202819 -2
-1.38119511 -2.364212683 0
-1.486149823 -6.928202819 0
0.1970592446 -3.299768933 -0.999224377
-1.433672466 -4.646207751 -1
-1.433672466 -4.646207751 0
-1.486149823 -6.928202819 -1
-0.644545289 -5.113985876 -1.499612188
-0.5920679325 -2.831990808 -0.4996121885
-0.644545289 -5.113985876 -0.4996121885
0 -1 -2
0.5 -0.8660254038 -2
0.2588190451 -0.9659258263 -1.675903663
0.1970592446 -3.299768933 -0.999224377
0.25 -0.9330127019 -2
0.3794095226 -0.915975615 -1.837951832
0.1294095226 -0.9829629131 -1.837951832
0.09852962231 -2.149884467 -1.499612188
0.3485296223 -2.082897168 -1.499612188
0.2279391449 -2.13284738 -1.33756402
1 0 -1
1.973115769 -0.9463218321 -2
1.973115769 -0.9463218321 0
0.9099875767 -0.414635515 -1.232634665
1.486557884 -0.4731609161 -1.5
1.973115769 -0.9463218321 -1
1.486557884 -0.4731609161 -0.5
0.9549937883 -0.2073177575 -1.116317333
1.441551673 -0.6804786736 -1.616317333
1.441551673 -0.6804786736 -0.6163173326
-1.38119511 -2.364212683 0
-0.2588190451 -0.9659258263 -0.3240963366
0 -1 0
0.1970592446 -3.299768933 -0.999224377
-0.8200070774 -1.665069254 -0.1620481683
-0.1294095226 -0.9829629131 -0.1620481683
-0.6905975548 -1.682106341 0
-0.5920679325 -2.831990808 -0.4996121885
-0.03087990024 -2.13284738 -0.6616603568
0.09852962231 -2.149884467 -0.4996121885
2.291748005 -3.365583757 0
1.973115769 -0.9463218321 0
1.973115769 -0.9463218321 -2
0.1970592446 -3.299768933 -0.999224377
2.132431887 -2.155952795 0
1.973115769 -0.9463218321 -1
2.132431887 -2.155952795 -1
1.244403625 -3.332676345 -0.4996121885
1.085087507 -2.123045383 -0.4996121885
1.085087507 -2.123045383 -1.499612188
2.291748005 -3.365583757 -2
1.973115769 -0.9463218321 -2
0.5 -0.8660254038 -2
0.1970592446 -3.299768933 -0.999224377
2.132431887 -2.155952795 -2
1.236557884 -0.906173618 -2
1.395874003 -2.11580458 -2
1.244403625 -3.332676345 -1.499612188
1.085087507 -2.123045383 -1.499612188
0.3485296223 -2.082897168 -1.499612188
2.291748005 -3.365583757 0
0.5 -0.8660254038 0
1.973115769 -0.9463218321 0
0.1970592446 -3.299768933 -0.999224377
1.395874003 -2.11580458 0
1.236557884 -0.906173618 0
2.132431887 -2.155952795 0
1.244403625 -3.332676345 -0.4996121885
0.3485296223 -2.082897168 -0.4996121885
1.085087507 -2.123045383 -0.4996121885
-1.38119511 -2.364212683 0
-1.38119511 -2.364212683 -2
-0.2413741068 -0.9704321411 -0.7435113619
0.1970592446 -3.299768933 -0.999224377
-1.38119511 -2.364212683 -1
-0.8112846082 -1.667322412 -1.371755681
-0.8112846082 -1.667322412 -0.3717556809
-0.5920679325 -2.831990808 -0.4996121885
-0.5920679325 -2.831990808 -1.499612188
-0.0221574311 -2.135100537 -0.8713678694
-1.38119511 -2.364212683 -2
0 -1 -2
-0.2588190451 -0.9659258263 -1.553009122
0.1970592446 -3.299768933 -0.999224377
-0.6905975548 -1.682106341 -2
-0.1294095226 -0.9829629131 -1.776504561
-0.8200070774 -1.665069254 -1.776504561
-0.5920679325 -2.831990808 -1.499612188
0.09852962231 -2.149884467 -1.499612188
-0.03087990024 -2.13284738 -1.276116749
1 0 -0.5
0.90625 -0.4227421643 -0.75
1 0 -1
1.973115769 -0.9463218321 0
0.953125 -0.2113710822 -0.625
0.953125 -0.2113710822 -0.875
1 0 -0.75
1.486557884 -0.4731609161 -0.25
1.439682884 -0.6845319982 -0.375
1.486557884 -0.4731609161 -0.5
0.9099875767 -0.414635515 -1.232634665
1 0 -1
1.973115769 -0.9463218321 -2
1 0 -1.5
0.9549937883 -0.2073177575 -1.116317333
1.486557884 -0.4731609161 -1.5
1.441551673 -0.6804786736 -1.616317333
0.9549937883 -0.2073177575 -1.366317333
1 0 -1.25
1.486557884 -0.4731609161 -1.75
1.973115769 -0.9463218321 -2
0.9322576649 -0.3617950335 -1.637187438
1 0 -2
0.8660254038 -0.5 -2
1.452686717 -0.6540584328 -1.818593719
0.9661288324 -0.1808975168 -1.818593719
1.486557884 -0.4731609161 -2
1.419570586 -0.7231609161 -2
0.8991415343 -0.4308975168 -1.818593719
0.9330127019 -0.25 -2
0.9322576649 -0.3617950335 -0.3628125623
1 0 0
0.8660254038 -0.5 0
1.973115769 -0.9463218321 0
0.9661288324 -0.1808975168 -0.1814062811
0.9330127019 -0.25 0
0.8991415343 -0.4308975168 -0.1814062811
1.452686717 -0.6540584328 -0.1814062811
1.486557884 -0.4731609161 0
1.419570586 -0.7231609161 0
1.973115769 -0.9463218321 -2
2.291748005 -3.365583757 -2
2.291748005 -3.365583757 0
0.1970592446 -3.299768933 -0.999224377
2.132431887 -2.155952795 -2
2.291748005 -3.365583757 -1
2.132431887 -2.155952795 -1
1.085087507 -2.123045383 -1.499612188
1.244403625 -3.332676345 -1.499612188
1.244403625 -3.332676345 -0.4996121885
1 0 0
0.9322576649 -0.3617950335 -0.3628125623
1 0 -0.5
1.973115769 -0.9463218321 0
0.9661288324 -0.1808975168 -0.1814062811
0.9661288324 -0.1808975168 -0.4314062811
1 0 -0.25
1.486557884 -0.4731609161 0
1.452686717 -0.6540584328 -0.1814062811
1.486557884 -0.4731609161 -0.25
1 0 -2
0.9322576649 -0.3617950335 -1.637187438
1.973115769 -0.9463218321 -2
1 0 -1.5
0.9661288324 -0.1808975168 -1.818593719
1.452686717 -0.6540584328 -1.818593719
1.486557884 -0.4731609161 -2
1 0 -1.75
0.9661288324 -0.1808975168 -1.568593719
1.486557884 -0.4731609161 -1.75
-1.38119511 -2.364212683 -2
-1.864576332 0 -0.8333333333
-0.90625 -0.4227421643 -0.75
-0.90625 -0.4227421643 -1.25
-1.622885721 -1.182106341 -1.416666667
-1.385413166 -0.2113710822 -0.7916666667
-1.143722555 -1.393477424 -1.375
-1.143722555 -1.393477424 -1.625
-1.385413166 -0.2113710822 -1.041666667
-0.90625 -0.4227421643 -1
-0.90625 -0.4227421643 -0.75
-1.864576332 0 -0.8333333333
-1.38119511 -2.364212683 -2
-1.38119511 -2.364212683 0
-1.385413166 -0.2113710822 -0.7916666667
-1.622885721 -1.182106341 -1.416666667
-1.143722555 -1.393477424 -1.375
-1.143722555 -1.393477424 -0.375
-1.622885721 -1.182106341 -0.4166666667
-1.38119511 -2.364212683 -1
-0.90625 -0.4227421643 -0.75
-0.5863988647 -0.8100224512 -1.072365974
-1.38119511 -2.364212683 -2
-0.90625 -0.4227421643 -1.25
-0.7463244324 -0.6163823078 -0.9111829869
-0.9837969872 -1.587117567 -1.536182987
-1.143722555 -1.393477424 -1.375
-0.90625 -0.4227421643 -1
-0.7463244324 -0.6163823078 -1.161182987
-1.143722555 -1.393477424 -1.625
-1.38119511 -2.364212683 -2
-0.5863988647 -0.8100224512 -1.072365974
-0.90625 -0.4227421643 -0.75
-1.38119511 -2.364212683 0
-0.9837969872 -1.587117567 -1.536182987
-0.7463244324 -0.6163823078 -0.9111829869
-1.143722555 -1.393477424 -1.375
-1.38119511 -2.364212683 -1
-0.9837969872 -1.587117567 -0.5361829869
-1.143722555 -1.393477424 -0.375
0.1970592446 -3.299768933 -0.999224377
0.5 -0.8660254038 0
0.7168226538 -0.6972555364 -0.4141594507
0.2588190451 -0.9659258263 -0.446990878
0.3485296223 -2.082897168 -0.4996121885
0.6084113269 -0.7816404701 -0.2070797254
0.4569409492 -1.998512235 -0.7066919139
0.2279391449 -2.13284738 -0.7231076275
0.3794095226 -0.915975615 -0.223495439
0.4878208494 -0.8315906813 -0.4305751644
0.7168226538 -0.6972555364 -0.4141594507
0.5 -0.8660254038 0
0.1970592446 -3.299768933 -0.999224377
1.973115769 -0.9463218321 0
0.6084113269 -0.7816404701 -0.2070797254
0.3485296223 -2.082897168 -0.4996121885
0.4569409492 -1.998512235 -0.7066919139
1.344969211 -0.8217886843 -0.2070797254
1.236557884 -0.906173618 0
1.085087507 -2.123045383 -0.4996121885
0.7168226538 -0.6972555364 -0.4141594507
0.5874313746 -0.8092739834 -0.9251532641
0.1970592446 -3.299768933 -0.999224377
0.2588190451 -0.9659258263 -0.446990878
0.6521270142 -0.7532647599 -0.6696563574
0.3922453096 -2.054521458 -0.9621888206
0.4569409492 -1.998512235 -0.7066919139
0.4878208494 -0.8315906813 -0.4305751644
0.4231252099 -0.8875999048 -0.6860720711
0.2279391449 -2.13284738 -0.7231076275
0.1970592446 -3.299768933 -0.999224377
0.5874313746 -0.8092739834 -0.9251532641
0.7168226538 -0.6972555364 -0.4141594507
1.973115769 -0.9463218321 0
0.3922453096 -2.054521458 -0.9621888206
0.6521270142 -0.7532647599 -0.6696563574
0.4569409492 -1.998512235 -0.7066919139
1.085087507 -2.123045383 -0.4996121885
1.280273572 -0.8777979078 -0.4625766321
1.344969211 -0.8217886843 -0.2070797254
-3.593728995 0 -2
-1.38119511 -2.364212683 -2
-0.9322576649 -0.3617950335 -1.637187438
-1.864576332 0 -0.8333333333
-2.487462052 -1.182106341 -2
-1.156726387 -1.363003858 -1.818593719
-2.26299333 -0.1808975168 -1.818593719
-2.729152663 0 -1.416666667
-1.622885721 -1.182106341 -1.416666667
-1.398416998 -0.1808975168 -1.235260386
-0.9322576649 -0.3617950335 -1.637187438
-1.38119511 -2.364212683 -2
-3.593728995 0 -2
-0.8660254038 -0.5 -2
-1.156726387 -1.363003858 -1.818593719
-2.487462052 -1.182106341 -2
-2.26299333 -0.1808975168 -1.818593719
-0.8991415343 -0.4308975168 -1.818593719
-1.123610257 -1.432106341 -2
-2.229877199 -0.25 -2
-0.2533119352 -0.9673846512 -2.366101702
-0.256772376 -0.966471907 -2.929797247
0.2568485059 -0.9664516775 -2.469339576
0.7532064641 -1.981234372 -2.698994257
-0.2550421556 -0.9669282791 -2.647949474
3.806496784e-05 -0.9664617923 -2.699568411
0.00176828533 -0.9669181644 -2.417720639
0.2499472645 -1.474309512 -2.532547979
0.2482170441 -1.47385314 -2.814395752
0.505027485 -1.473843025 -2.584166916
0.2533424162 -0.9673766692 -3.033553027
0.2568485059 -0.9664516775 -2.469339576
-0.256772376 -0.966471907 -2.929797247
0.7532064641 -1.981234372 -2.698994257
0.255095461 -0.9669141734 -2.751446301
3.806496784e-05 -0.9664617923 -2.699568411
-0.001714979899 -0.9669242881 -2.981675137
0.5032744402 -1.474305521 -2.866273642
0.505027485 -1.473843025 -2.584166916
0.2482170441 -1.47385314 -2.814395752
-1.38119511 -2.364212683 -2
-3.593728995 0 -2
-0.8660254038 -0.5 -2
-1.794796548 -1.162157768 -2.450733063
-2.487462052 -1.182106341 -2
-2.229877199 -0.25 -2
-1.123610257 -1.432106341 -2
-1.587995829 -1.763185225 -2.225366531
-2.694262771 -0.5810788839 -2.225366531
-1.330410976 -0.8310788839 -2.225366531
-0.7372389088 -0.675632142 -2.988435311
-0.256772376 -0.966471907 -2.929797247
-0.686737752 -0.726905262 -2.431371687
-1.794796548 -1.162157768 -2.450733063
-0.4970056424 -0.8210520245 -2.959116279
-0.471755064 -0.8466885845 -2.680584467
-0.7119883304 -0.701268702 -2.709903499
-1.266017728 -0.918894955 -2.719584187
-1.025784462 -1.064314837 -2.690265155
-1.24076715 -0.944531515 -2.441052375
1.973115769 -0.9463218321 -3.4
0.7372477789 -0.675622463 -2.411420826
0.9183333333 -0.3958078939 -2.7
0.686737752 -0.726905262 -2.968628313
1.355181774 -0.8109721476 -2.905710413
0.8277905561 -0.5357151785 -2.555710413
1.445724551 -0.671064863 -3.05
1.32992676 -0.8366135471 -3.184314156
0.7119927654 -0.7012638625 -2.690024569
0.8025355427 -0.561356578 -2.834314156
-0.256772376 -0.966471907 -2.929797247
0 -1 -3.4
0.2533424162 -0.9673766692 -3.033553027
0.7532064641 -1.981234372 -2.698994257
-0.128386188 -0.9832359535 -3.164898623
0.1266712081 -0.9836883346 -3.216776514
-0.001714979899 -0.9669242881 -2.981675137
0.2482170441 -1.47385314 -2.814395752
0.3766032321 -1.490617186 -3.049497128
0.5032744402 -1.474305521 -2.866273642
-0.686737752 -0.726905262 -2.431371687
-0.256772376 -0.966471907 -2.929797247
-0.2533119352 -0.9673846512 -2.366101702
-1.38119511 -2.364212683 -2
-0.471755064 -0.8466885845 -2.680584467
-0.2550421556 -0.9669282791 -2.647949474
-0.4700248436 -0.8471449566 -2.398736694
-1.033966431 -1.545558972 -2.215685844
-0.8189837428 -1.665342295 -2.464898623
-0.8172535224 -1.665798667 -2.183050851
0.2568485059 -0.9664516775 -2.469339576
0 -1 -2
-0.2533119352 -0.9673846512 -2.366101702
0.7532064641 -1.981234372 -2.698994257
0.1284242529 -0.9832258388 -2.234669788
-0.1266559676 -0.9836923256 -2.183050851
0.00176828533 -0.9669181644 -2.417720639
0.505027485 -1.473843025 -2.584166916
0.3766032321 -1.490617186 -2.349497128
0.2499472645 -1.474309512 -2.532547979
-1.38119511 -2.364212683 -2
-0.256772376 -0.966471907 -2.929797247
-0.2533119352 -0.9673846512 -2.366101702
0.7532064641 -1.981234372 -2.698994257
-0.8189837428 -1.665342295 -2.464898623
-0.2550421556 -0.9669282791 -2.647949474
-0.8172535224 -1.665798667 -2.183050851
-0.3139943227 -2.172723527 -2.349497128
0.2482170441 -1.47385314 -2.814395752
0.2499472645 -1.474309512 -2.532547979
0.9183333333 -0.3958078939 -2.7
0.7372477789 -0.675622463 -2.411420826
1.973115769 -0.9463218321 -2
0.9399654737 -0.3412695536 -2.330557065
0.8277905561 -0.5357151785 -2.555710413
1.355181774 -0.8109721476 -2.205710413
1.445724551 -0.671064863 -2.35
0.9291494035 -0.3685387238 -2.515278533
0.8386066263 -0.5084460083 -2.370988946
1.456540621 -0.6437956929 -2.165278533
-0.9399654737 -0.3412695536 -3.069442935
-1.864576332 0 -2.7
-0.9183333333 -0.3958078939 -2.7
-1 0 -2.933333333
-1.402270903 -0.1706347768 -2.884721467
-1.391454832 -0.197903947 -2.7
-0.9291494035 -0.3685387238 -2.884721467
-0.9699827369 -0.1706347768 -3.001388134
-1.432288166 0 -2.816666667
-0.9591666667 -0.197903947 -2.816666667
-1.864576332 0 -2.7
-0.9395047774 -0.3425357986 -2.331109835
-0.9183333333 -0.3958078939 -2.7
-1 0 -2.466666667
-1.402040554 -0.1712678993 -2.515554918
-0.9289190554 -0.3691718462 -2.515554918
-1.391454832 -0.197903947 -2.7
-1.432288166 0 -2.583333333
-0.9697523887 -0.1712678993 -2.398888251
-0.9591666667 -0.197903947 -2.583333333
0.9395047774 -0.3425357986 -3.068890165
1.973115769 -0.9463218321 -3.4
0.9183333333 -0.3958078939 -2.7
0.686737752 -0.726905262 -2.968628313
1.456310273 -0.6444288154 -3.234445082
1.445724551 -0.671064863 -3.05
0.9289190554 -0.3691718462 -2.884445082
0.8131212647 -0.5347205303 -3.018759239
1.32992676 -0.8366135471 -3.184314156
0.8025355427 -0.561356578 -2.834314156
2.291748005 -3.365583757 -2
0 -1 -2
0.5 -0.8660254038 -2
0.7532064641 -1.981234372 -2.698994257
1.145874003 -2.182791878 -2
0.25 -0.9330127019 -2
1.395874003 -2.11580458 -2
1.522477235 -2.673409065 -2.349497128
0.3766032321 -1.490617186 -2.349497128
0.6266032321 -1.423629888 -2.349497128
-0.7372389088 -0.675632142 -2.988435311
-0.9183333333 -0.3958078939 -2.7
-0.9399654737 -0.3412695536 -3.069442935
-1.794796548 -1.162157768 -2.450733063
-0.8277861211 -0.535720018 -2.844217656
-0.9291494035 -0.3685387238 -2.884721467
-0.8386021913 -0.5084508478 -3.028939123
-1.266017728 -0.918894955 -2.719584187
-1.356564941 -0.7789828309 -2.575366531
-1.367381011 -0.7517136608 -2.760087999
1.973115769 -0.9463218321 -3.4
1 0 -3.4
1 0 -2.933333333
5.207805435 0 -3.4
1.486557884 -0.4731609161 -3.4
1 0 -3.166666667
1.486557884 -0.4731609161 -3.166666667
3.590460602 -0.4731609161 -3.4
3.103902718 0 -3.4
3.103902718 0 -3.166666667
-1 0 -3.4
-3.593728995 0 -3.4
-0.8660254038 -0.5 -3.4
-1.864576332 0 -2.7
-2.296864497 0 -3.4
-2.229877199 -0.25 -3.4
-0.9330127019 -0.25 -3.4
-1.432288166 0 -3.05
-2.729152663 0 -3.05
-1.365300868 -0.25 -3.05
1.973115769 -0.9463218321 -2
1 0 -2
5.207805435 0 -2
1 0 -2.466666667
1.486557884 -0.4731609161 -2
3.103902718 0 -2
3.590460602 -0.4731609161 -2
1.486557884 -0.4731609161 -2.233333333
1 0 -2.233333333
3.103902718 0 -2.233333333
0.2533424162 -0.9673766692 -3.033553027
0.686737752 -0.726905262 -2.968628313
0.2568485059 -0.9664516775 -2.469339576
0.7532064641 -1.981234372 -2.698994257
0.4700400841 -0.8471409656 -3.00109067
0.4717931289 -0.8466784698 -2.718983944
0.255095461 -0.9669141734 -2.751446301
0.5032744402 -1.474305521 -2.866273642
0.7199721081 -1.354069817 -2.833811285
0.505027485 -1.473843025 -2.584166916
-1.38119511 -2.364212683 -2
0 -1 -2
2.291748005 -3.365583757 -2
0.7532064641 -1.981234372 -2.698994257
-0.6905975548 -1.682106341 -2
1.145874003 -2.182791878 -2
0.4552764479 -2.86489822 -2
-0.3139943227 -2.172723527 -2.349497128
0.3766032321 -1.490617186 -2.349497128
1.522477235 -2.673409065 -2.349497128
-1.864576332 0 -2.7
-3.593728995 0 -3.4
-0.8660254038 -0.5 -3.4
-1.794796548 -1.162157768 -2.450733063
-2.729152663 0 -3.05
-2.229877199 -0.25 -3.4
-1.365300868 -0.25 -3.05
-1.82968644 -0.5810788839 -2.575366531
-2.694262771 -0.5810788839 -2.925366531
-1.330410976 -0.8310788839 -2.925366531
0.7372477789 -0.675622463 -2.411420826
0.2568485059 -0.9664516775 -2.469339576
0.686737752 -0.726905262 -2.968628313
0.7532064641 -1.981234372 -2.698994257
0.4970481424 -0.8210370703 -2.440380201
0.4717931289 -0.8466784698 -2.718983944
0.7119927654 -0.7012638625 -2.690024569
0.7452271215 -1.328428418 -2.555207541
0.505027485 -1.473843025 -2.584166916
0.7199721081 -1.354069817 -2.833811285
-5.514209552 -3.8896768 -3.4
-3.593728995 0 -3.4
-3.593728995 0 -2
-1.794796548 -1.162157768 -2.450733063
-4.553969273 -1.9448384 -3.4
-3.593728995 0 -2.7
-4.553969273 -1.9448384 -2.7
-3.65450305 -2.525917284 -2.925366531
-2.694262771 -0.5810788839 -2.925366531
-2.694262771 -0.5810788839 -2.225366531
1.973115769 -0.9463218321 -2
2.291748005 -3.365583757 -2
0.5 -0.8660254038 -2
0.7532064641 -1.981234372 -2.698994257
2.132431887 -2.155952795 -2
1.395874003 -2.11580458 -2
1.236557884 -0.906173618 -2
1.363161117 -1.463778102 -2.349497128
1.522477235 -2.673409065 -2.349497128
0.6266032321 -1.423629888 -2.349497128
-1.38119511 -2.364212683 -3.4
-3.593728995 0 -3.4
-5.514209552 -3.8896768 -3.4
-1.794796548 -1.162157768 -2.450733063
-2.487462052 -1.182106341 -3.4
-4.553969273 -1.9448384 -3.4
-3.447702331 -3.126944741 -3.4
-1.587995829 -1.763185225 -2.925366531
-2.694262771 -0.5810788839 -2.925366531
-3.65450305 -2.525917284 -2.925366531
-5.514209552 -3.8896768 -3.4
-1.38119511 -2.364212683 -2
-1.38119511 -2.364212683 -3.4
-1.794796548 -1.162157768 -2.450733063
-3.447702331 -3.126944741 -2.7
-1.38119511 -2.364212683 -2.7
-3.447702331 -3.126944741 -3.4
-3.65450305 -2.525917284 -2.925366531
-1.587995829 -1.763185225 -2.225366531
-1.587995829 -1.763185225 -2.925366531
1.973115769 -0.9463218321 -3.4
1 0 -2.933333333
5.207805435 0 -2
5.207805435 0 -3.4
1.486557884 -0.4731609161 -3.166666667
3.103902718 0 -2.466666667
3.590460602 -0.4731609161 -2.7
3.590460602 -0.4731609161 -3.4
3.103902718 0 -3.166666667
5.207805435 0 -2.7
-0.5 -0.8660254038 -3.4
-0.7372389088 -0.675632142 -2.988435311
-1.38119511 -2.364212683 -3.4
-0.256772376 -0.966471907 -2.929797247
-0.6186194544 -0.7708287729 -3.194217656
-1.059217009 -1.519922412 -3.194217656
-0.9405975548 -1.615119043 -3.4
-0.378386188 -0.9162486554 -3.164898623
-0.4970056424 -0.8210520245 -2.959116279
-0.8189837428 -1.665342295 -3.164898623
-0.9183333333 -0.3958078939 -2.7
-0.7372389088 -0.675632142 -2.988435311
-0.686737752 -0.726905262 -2.431371687
-1.794796548 -1.162157768 -2.450733063
-0.8277861211 -0.535720018 -2.844217656
-0.7119883304 -0.701268702 -2.709903499
-0.8025355427 -0.561356578 -2.565685844
-1.356564941 -0.7789828309 -2.575366531
-1.266017728 -0.918894955 -2.719584187
-1.24076715 -0.944531515 -2.441052375
2.291748005 -3.365583757 -3.4
0.5 -0.8660254038 -3.4
0 -1 -3.4
0.7532064641 -1.981234372 -2.698994257
1.395874003 -2.11580458 -3.4
0.25 -0.9330127019 -3.4
1.145874003 -2.182791878 -3.4
1.522477235 -2.673409065 -3.049497128
0.6266032321 -1.423629888 -3.049497128
0.3766032321 -1.490617186 -3.049497128
-0.9183333333 -0.3958078939 -2.7
-1 0 -2.933333333
-1.864576332 0 -2.7
-1 0 -2.466666667
-0.9591666667 -0.197903947 -2.816666667
-1.432288166 0 -2.816666667
-1.391454832 -0.197903947 -2.7
-0.9591666667 -0.197903947 -2.583333333
-1 0 -2.7
-1.432288166 0 -2.583333333
-0.2533119352 -0.9673846512 -2.366101702
-0.5 -0.8660254038 -2
-0.686737752 -0.726905262 -2.431371687
-1.38119511 -2.364212683 -2
-0.3766559676 -0.9167050275 -2.183050851
-0.593368876 -0.7964653329 -2.215685844
-0.4700248436 -0.8471449566 -2.398736694
-0.8172535224 -1.665798667 -2.183050851
-0.9405975548 -1.615119043 -2
-1.033966431 -1.545558972 -2.215685844
-1.38119511 -2.364212683 -3.4
-1.38119511 -2.364212683 -2
2.291748005 -3.365583757 -3.4
0.7532064641 -1.981234372 -2.698994257
-1.38119511 -2.364212683 -2.7
0.4552764479 -2.86489822 -2.7
0.4552764479 -2.86489822 -3.4
-0.3139943227 -2.172723527 -3.049497128
-0.3139943227 -2.172723527 -2.349497128
1.522477235 -2.673409065 -3.049497128
-5.514209552 -3.8896768 -3.4
-1.38119511 -2.364212683 -2
-1.486149823 -6.928202819 -3.4
-1.38119511 -2.364212683 -3.4
-3.447702331 -3.126944741 -2.7
-1.433672466 -4.646207751 -2.7
-3.500179687 -5.408939809 -3.4
-3.447702331 -3.126944741 -3.4
-1.38119511 -2.364212683 -2.7
-1.433672466 -4.646207751 -3.4
1.973115769 -0.9463218321 -3.4
0.9395047774 -0.3425357986 -3.068890165
0.8660254038 -0.5 -3.4
0.686737752 -0.726905262 -2.968628313
1.456310273 -0.6444288154 -3.234445082
0.9027650906 -0.4212678993 -3.234445082
1.419570586 -0.7231609161 -3.4
1.32992676 -0.8366135471 -3.184314156
0.8131212647 -0.5347205303 -3.018759239
0.7763815779 -0.613452631 -3.184314156
2.291748005 -3.365583757 -2
5.207805435 0 -2
1.973115769 -0.9463218321 -3.4
1.973115769 -0.9463218321 -2
3.74977672 -1.682791878 -2
3.590460602 -0.4731609161 -2.7
2.132431887 -2.155952795 -2.7
2.132431887 -2.155952795 -2
3.590460602 -0.4731609161 -2
1.973115769 -0.9463218321 -2.7
-1.486149823 -6.928202819 -3.4
2.291748005 -3.365583757 -2
5.906920728 -9.432751709 -3.4
2.291748005 -3.365583757 -3.4
0.4027990914 -5.146893288 -2.7
4.099334367 -6.399167733 -2.7
2.210385453 -8.180477264 -3.4
0.4027990914 -5.146893288 -3.4
2.291748005 -3.365583757 -2.7
4.099334367 -6.399167733 -3.4
-0.9183333333 -0.3958078939 -2.7
-0.686737752 -0.726905262 -2.431371687
-0.9395047774 -0.3425357986 -2.331109835
-1.794796548 -1.162157768 -2.450733063
-0.8025355427 -0.561356578 -2.565685844
-0.8131212647 -0.5347205303 -2.381240761
-0.9289190554 -0.3691718462 -2.515554918
-1.356564941 -0.7789828309 -2.575366531
-1.24076715 -0.944531515 -2.441052375
-1.367150663 -0.7523467832 -2.390921449
0.7372477789 -0.675622463 -2.411420826
0.8660254038 -0.5 -2
1.973115769 -0.9463218321 -2
0.9399654737 -0.3412695536 -2.330557065
0.8016365913 -0.5878112315 -2.205710413
1.419570586 -0.7231609161 -2
1.355181774 -0.8109721476 -2.205710413
0.8386066263 -0.5084460083 -2.370988946
0.9029954387 -0.4206347768 -2.165278533
1.456540621 -0.6437956929 -2.165278533
0 -1 -3.4
-1.38119511 -2.364212683 -3.4
2.291748005 -3.365583757 -3.4
0.7532064641 -1.981234372 -2.698994257
-0.6905975548 -1.682106341 -3.4
0.4552764479 -2.86489822 -3.4
1.145874003 -2.182791878 -3.4
0.3766032321 -1.490617186 -3.049497128
-0.3139943227 -2.172723527 -3.049497128
1.522477235 -2.673409065 -3.049497128
-0.8660254038 -0.5 -3.4
-3.593728995 0 -3.4
-1.38119511 -2.364212683 -3.4
-1.794796548 -1.162157768 -2.450733063
-2.229877199 -0.25 -3.4
-2.487462052 -1.182106341 -3.4
-1.123610257 -1.432106341 -3.4
-1.330410976 -0.8310788839 -2.925366531
-2.694262771 -0.5810788839 -2.925366531
-1.587995829 -1.763185225 -2.925366531
2.291748005 -3.365583757 -2
5.906920728 -9.432751709 -3.4
-1.486149823 -6.928202819 -2
-1.486149823 -6.928202819 -3.4
4.099334367 -6.399167733 -2.7
2.210385453 -8.180477264 -2.7
0.4027990914 -5.146893288 -2
0.4027990914 -5.146893288 -2.7
2.210385453 -8.180477264 -3.4
-1.486149823 -6.928202819 -2.7
-5.514209552 -3.8896768 -2
-5.514209552 -3.8896768 -3.4
-1.38119511 -2.364212683 -2
-1.486149823 -6.928202819 -2
-5.514209552 -3.8896768 -2.7
-3.447702331 -3.126944741 -2.7
-3.447702331 -3.126944741 -2
-3.500179687 -5.408939809 -2
-3.500179687 -5.408939809 -2.7
-1.433672466 -4.646207751 -2
-0.9399654737 -0.3412695536 -3.069442935
-0.9183333333 -0.3958078939 -2.7
-1.864576332 0 -2.7
-1.794796548 -1.162157768 -2.450733063
-0.9291494035 -0.3685387238 -2.884721467
-1.391454832 -0.197903947 -2.7
-1.402270903 -0.1706347768 -2.884721467
-1.367381011 -0.7517136608 -2.760087999
-1.356564941 -0.7789828309 -2.575366531
-1.82968644 -0.5810788839 -2.575366531
-1.38119511 -2.364212683 -2
-1.486149823 -6.928202819 -3.4
-1.38119511 -2.364212683 -3.4
2.291748005 -3.365583757 -3.4
-1.433672466 -4.646207751 -2.7
-1.433672466 -4.646207751 -3.4
-1.38119511 -2.364212683 -2.7
0.4552764479 -2.86489822 -2.7
0.4027990914 -5.146893288 -3.4
0.4552764479 -2.86489822 -3.4
-5.514209552 -3.8896768 -3.4
-3.593728995 0 -3.4
-7.453252438 0 -3.4
-3.593728995 0 -2
-4.553969273 -1.9448384 -3.4
-5.523490716 0 -3.4
-6.483730995 -1.9448384 -3.4
-4.553969273 -1.9448384 -2.7
-3.593728995 0 -2.7
-5.523490716 0 -2.7
-0.256772376 -0.966471907 -2.929797247
-1.38119511 -2.364212683 -3.4
0 -1 -3.4
0.7532064641 -1.981234372 -2.698994257
-0.8189837428 -1.665342295 -3.164898623
-0.6905975548 -1.682106341 -3.4
-0.128386188 -0.9832359535 -3.164898623
0.2482170441 -1.47385314 -2.814395752
-0.3139943227 -2.172723527 -3.049497128
0.3766032321 -1.490617186 -3.049497128
-0.2533119352 -0.9673846512 -2.366101702
0 -1 -2
-1.38119511 -2.364212683 -2
0.7532064641 -1.981234372 -2.698994257
-0.1266559676 -0.9836923256 -2.183050851
-0.6905975548 -1.682106341 -2
-0.8172535224 -1.665798667 -2.183050851
0.2499472645 -1.474309512 -2.532547979
0.3766032321 -1.490617186 -2.349497128
-0.3139943227 -2.172723527 -2.349497128
1.973115769 -0.9463218321 -2
0.7372477789 -0.675622463 -2.411420826
0.9183333333 -0.3958078939 -2.7
1.973115769 -0.9463218321 -3.4
1.355181774 -0.8109721476 -2.205710413
0.8277905561 -0.5357151785 -2.555710413
1.445724551 -0.671064863 -2.35
1.973115769 -0.9463218321 -2.7
1.355181774 -0.8109721476 -2.905710413
1.445724551 -0.671064863 -3.05
7.654666388 -3.621100098 -3.4
5.207805435 0 -3.4
2.291748005 -3.365583757 -2
5.207805435 0 -2
6.431235911 -1.810550049 -3.4
3.74977672 -1.682791878 -2.7
4.973207196 -3.493341928 -2.7
6.431235911 -1.810550049 -2.7
5.207805435 0 -2.7
3.74977672 -1.682791878 -2
1.973115769 -0.9463218321 -3.4
0.5 -0.8660254038 -3.4
2.291748005 -3.365583757 -3.4
0.7532064641 -1.981234372 -2.698994257
1.236557884 -0.906173618 -3.4
1.395874003 -2.11580458 -3.4
2.132431887 -2.155952795 -3.4
1.363161117 -1.463778102 -3.049497128
0.6266032321 -1.423629888 -3.049497128
1.522477235 -2.673409065 -3.049497128
7.654666388 -3.621100098 -3.4
5.906920728 -9.432751709 -3.4
2.291748005 -3.365583757 -2
2.291748005 -3.365583757 -3.4
6.780793558 -6.526925903 -3.4
4.099334367 -6.399167733 -2.7
4.973207196 -3.493341928 -2.7
4.973207196 -3.493341928 -3.4
4.099334367 -6.399167733 -3.4
2.291748005 -3.365583757 -2.7
-1.38119511 -2.364212683 -2
-0.686737752 -0.726905262 -2.431371687
-0.256772376 -0.966471907 -2.929797247
-1.794796548 -1.162157768 -2.450733063
-1.033966431 -1.545558972 -2.215685844
-0.471755064 -0.8466885845 -2.680584467
-0.8189837428 -1.665342295 -2.464898623
-1.587995829 -1.763185225 -2.225366531
-1.24076715 -0.944531515 -2.441052375
-1.025784462 -1.064314837 -2.690265155
-1 0 -3.4
-0.8660254038 -0.5 -3.4
-0.9399654737 -0.3412695536 -3.069442935
-1.864576332 0 -2.7
-0.9330127019 -0.25 -3.4
-0.9029954387 -0.4206347768 -3.234721467
-0.9699827369 -0.1706347768 -3.234721467
-1.432288166 0 -3.05
-1.365300868 -0.25 -3.05
-1.402270903 -0.1706347768 -2.884721467
-0.8660254038 -0.5 -3.4
-0.9399654737 -0.3412695536 -3.069442935
-1.864576332 0 -2.7
-1.794796548 -1.162157768 -2.450733063
-0.9029954387 -0.4206347768 -3.234721467
-1.402270903 -0.1706347768 -2.884721467
-1.365300868 -0.25 -3.05
-1.330410976 -0.8310788839 -2.925366531
-1.367381011 -0.7517136608 -2.760087999
-1.82968644 -0.5810788839 -2.575366531
-1.38119511 -2.364212683 -2
2.291748005 -3.365583757 -2
2.291748005 -3.365583757 -3.4
0.7532064641 -1.981234372 -2.698994257
0.4552764479 -2.86489822 -2
2.291748005 -3.365583757 -2.7
0.4552764479 -2.86489822 -2.7
-0.3139943227 -2.172723527 -2.349497128
1.522477235 -2.673409065 -2.349497128
1.522477235 -2.673409065 -3.049497128
2.291748005 -3.365583757 -2
1.973115769 -0.9463218321 -3.4
5.207805435 0 -2
5.207805435 0 -3.4
2.132431887 -2.155952795 -2.7
3.590460602 -0.4731609161 -2.7
3.74977672 -1.682791878 -2
3.74977672 -1.682791878 -2.7
3.590460602 -0.4731609161 -3.4
5.207805435 0 -2.7
-0.8660254038 -0.5 -3.4
-0.7372389088 -0.675632142 -2.988435311
-0.9399654737 -0.3412695536 -3.069442935
-1.794796548 -1.162157768 -2.450733063
-0.8016321563 -0.587816071 -3.194217656
-0.8386021913 -0.5084508478 -3.028939123
-0.9029954387 -0.4206347768 -3.234721467
-1.330410976 -0.8310788839 -2.925366531
-1.266017728 -0.918894955 -2.719584187
-1.367381011 -0.7517136608 -2.760087999
0.686737752 -0.726905262 -2.968628313
1.973115769 -0.9463218321 -3.4
0.7372477789 -0.675622463 -2.411420826
0.7532064641 -1.981234372 -2.698994257
1.32992676 -0.8366135471 -3.184314156
1.355181774 -0.8109721476 -2.905710413
0.7119927654 -0.7012638625 -2.690024569
0.7199721081 -1.354069817 -2.833811285
1.363161117 -1.463778102 -3.049497128
0.7452271215 -1.328428418 -2.555207541
-1.38119511 -2.364212683 -3.4
-0.256772376 -0.966471907 -2.929797247
-0.7372389088 -0.675632142 -2.988435311
-1.794796548 -1.162157768 -2.450733063
-0.8189837428 -1.665342295 -3.164898623
-0.4970056424 -0.8210520245 -2.959116279
-1.059217009 -1.519922412 -3.194217656
-1.587995829 -1.763185225 -2.925366531
-1.025784462 -1.064314837 -2.690265155
-1.266017728 -0.918894955 -2.719584187
7.654666388 -3.621100098 -3.4
2.291748005 -3.365583757 -2
5.207805435 0 -3.4
2.291748005 -3.365583757 -3.4
4.973207196 -3.493341928 -2.7
3.74977672 -1.682791878 -2.7
6.431235911 -1.810550049 -3.4
4.973207196 -3.493341928 -3.4
2.291748005 -3.365583757 -2.7
3.74977672 -1.682791878 -3.4
-5.514209552 -3.8896768 -3.4
-1.486149823 -6.928202819 -3.4
-1.38119511 -2.364212683 -2
-1.486149823 -6.928202819 -2
-3.500179687 -5.408939809 -3.4
-1.433672466 -4.646207751 -2.7
-3.447702331 -3.126944741 -2.7
-3.500179687 -5.408939809 -2.7
-1.486149823 -6.928202819 -2.7
-1.433672466 -4.646207751 -2
-3.593728995 0 -2
-5.514209552 -3.8896768 -2
-7.453252438 0 -3.4
-5.514209552 -3.8896768 -3.4
-4.553969273 -1.9448384 -2
-6.483730995 -1.9448384 -2.7
-5.523490716 0 -2.7
-4.553969273 -1.9448384 -2.7
-5.514209552 -3.8896768 -2.7
-6.483730995 -1.9448384 -3.4
-0.9183333333 -0.3958078939 -2.7
-0.9395047774 -0.3425357986 -2.331109835
-1.864576332 0 -2.7
-1.794796548 -1.162157768 -2.450733063
-0.9289190554 -0.3691718462 -2.515554918
-1.402040554 -0.1712678993 -2.515554918
-1.391454832 -0.197903947 -2.7
-1.356564941 -0.7789828309 -2.575366531
-1.367150663 -0.7523467832 -2.390921449
-1.82968644 -0.5810788839 -2.575366531
-0.256772376 -0.966471907 -2.929797247
-1.38119511 -2.364212683 -2
-1.38119511 -2.364212683 -3.4
0.7532064641 -1.981234372 -2.698994257
-0.8189837428 -1.665342295 -2.464898623
-1.38119511 -2.364212683 -2.7
-0.8189837428 -1.665342295 -3.164898623
0.2482170441 -1.47385314 -2.814395752
-0.3139943227 -2.172723527 -2.349497128
-0.3139943227 -2.172723527 -3.049497128
-0.9395047774 -0.3425357986 -2.331109835
-1.864576332 0 -2.7
-1 0 -2
-1 0 -2.466666667
-1.402040554 -0.1712678993 -2.515554918
-1.432288166 0 -2.35
-0.9697523887 -0.1712678993 -2.165554918
-0.9697523887 -0.1712678993 -2.398888251
-1.432288166 0 -2.583333333
-1 0 -2.233333333
-1 0 -3.4
-1.864576332 0 -2.7
-0.9399654737 -0.3412695536 -3.069442935
-1 0 -2.933333333
-1.432288166 0 -3.05
-1.402270903 -0.1706347768 -2.884721467
-0.9699827369 -0.1706347768 -3.234721467
-1 0 -3.166666667
-1.432288166 0 -2.816666667
-0.9699827369 -0.1706347768 -3.001388134
-1.38119511 -2.364212683 -2
2.291748005 -3.365583757 -2
-1.486149823 -6.928202819 -3.4
2.291748005 -3.365583757 -3.4
0.4552764479 -2.86489822 -2
0.4027990914 -5.146893288 -2.7
-1.433672466 -4.646207751 -2.7
0.4552764479 -2.86489822 -2.7
2.291748005 -3.365583757 -2.7
0.4027990914 -5.146893288 -3.4
-1.38119511 -2.364212683 -3.4
-0.8660254038 -0.5 -3.4
-0.7372389088 -0.675632142 -2.988435311
-0.5 -0.8660254038 -3.4
-1.123610257 -1.432106341 -3.4
-0.8016321563 -0.587816071 -3.194217656
-1.059217009 -1.519922412 -3.194217656
-0.9405975548 -1.615119043 -3.4
-0.6830127019 -0.6830127019 -3.4
-0.6186194544 -0.7708287729 -3.194217656
1.973115769 -0.9463218321 -3.4
5.207805435 0 -3.4
2.291748005 -3.365583757 -2
2.291748005 -3.365583757 -3.4
3.590460602 -0.4731609161 -3.4
3.74977672 -1.682791878 -2.7
2.132431887 -2.155952795 -2.7
2.132431887 -2.155952795 -3.4
3.74977672 -1.682791878 -3.4
2.291748005 -3.365583757 -2.7
-1.486149823 -6.928202819 -3.4
-1.38119511 -2.364212683 -2
-1.486149823 -6.928202819 -2
2.291748005 -3.365583757 -2
-1.433672466 -4.646207751 -2.7
-1.433672466 -4.646207751 -2
-1.486149823 -6.928202819 -2.7
0.4027990914 -5.146893288 -2.7
0.4552764479 -2.86489822 -2
0.4027990914 -5.146893288 -2
0 -1 -3.4
0.5 -0.8660254038 -3.4
0.2533424162 -0.9673766692 -3.033553027
0.7532064641 -1.981234372 -2.698994257
0.25 -0.9330127019 -3.4
0.3766712081 -0.9167010365 -3.216776514
0.1266712081 -0.9836883346 -3.216776514
0.3766032321 -1.490617186 -3.049497128
0.6266032321 -1.423629888 -3.049497128
0.5032744402 -1.474305521 -2.866273642
-3.593728995 0 -2
-7.453252438 0 -3.4
-5.514209552 -3.8896768 -2
-7.453252438 0 -2
-5.523490716 0 -2.7
-6.483730995 -1.9448384 -2.7
-4.553969273 -1.9448384 -2
-5.523490716 0 -2
-7.453252438 0 -2.7
-6.483730995 -1.9448384 -2
-1.38119511 -2.364212683 -2
-0.2533119352 -0.9673846512 -2.366101702
-0.5 -0.8660254038 -2
0 -1 -2
-0.8172535224 -1.665798667 -2.183050851
-0.3766559676 -0.9167050275 -2.183050851
-0.9405975548 -1.615119043 -2
-0.6905975548 -1.682106341 -2
-0.1266559676 -0.9836923256 -2.183050851
-0.25 -0.9330127019 -2
0.686737752 -0.726905262 -2.968628313
0.2533424162 -0.9673766692 -3.033553027
0.5 -0.8660254038 -3.4
0.7532064641 -1.981234372 -2.698994257
0.4700400841 -0.8471409656 -3.00109067
0.3766712081 -0.9167010365 -3.216776514
0.593368876 -0.7964653329 -3.184314156
0.7199721081 -1.354069817 -2.833811285
0.5032744402 -1.474305521 -2.866273642
0.6266032321 -1.423629888 -3.049497128
0 -1 -3.4
-0.5 -0.8660254038 -3.4
-1.38119511 -2.364212683 -3.4
-0.256772376 -0.966471907 -2.929797247
-0.25 -0.9330127019 -3.4
-0.9405975548 -1.615119043 -3.4
-0.6905975548 -1.682106341 -3.4
-0.128386188 -0.9832359535 -3.164898623
-0.378386188 -0.9162486554 -3.164898623
-0.8189837428 -1.665342295 -3.164898623
0.5 -0.8660254038 -2
0.8660254038 -0.5 -2
1.973115769 -0.9463218321 -2
0.7372477789 -0.675622463 -2.411420826
0.6830127019 -0.6830127019 -2
1.419570586 -0.7231609161 -2
1.236557884 -0.906173618 -2
0.6186238894 -0.7708239334 -2.205710413
0.8016365913 -0.5878112315 -2.205710413
1.355181774 -0.8109721476 -2.205710413
1 0 -2.466666667
0.9183333333 -0.3958078939 -2.7
1.973115769 -0.9463218321 -2
0.9399654737 -0.3412695536 -2.330557065
0.9591666667 -0.197903947 -2.583333333
1.445724551 -0.671064863 -2.35
1.486557884 -0.4731609161 -2.233333333
0.9699827369 -0.1706347768 -2.398611866
0.9291494035 -0.3685387238 -2.515278533
1.456540621 -0.6437956929 -2.165278533
1 0 -2.933333333
1.973115769 -0.9463218321 -3.4
0.9183333333 -0.3958078939 -2.7
0.9395047774 -0.3425357986 -3.068890165
1.486557884 -0.4731609161 -3.166666667
1.445724551 -0.671064863 -3.05
0.9591666667 -0.197903947 -2.816666667
0.9697523887 -0.1712678993 -3.001111749
1.456310273 -0.6444288154 -3.234445082
0.9289190554 -0.3691718462 -2.884445082
1.973115769 -0.9463218321 -3.4
0.8660254038 -0.5 -3.4
0.5 -0.8660254038 -3.4
0.686737752 -0.726905262 -2.968628313
1.419570586 -0.7231609161 -3.4
0.6830127019 -0.6830127019 -3.4
1.236557884 -0.906173618 -3.4
1.32992676 -0.8366135471 -3.184314156
0.7763815779 -0.613452631 -3.184314156
0.593368876 -0.7964653329 -3.184314156
0.2568485059 -0.9664516775 -2.469339576
0.7372477789 -0.675622463 -2.411420826
0.5 -0.8660254038 -2
0.7532064641 -1.981234372 -2.698994257
0.4970481424 -0.8210370703 -2.440380201
0.6186238894 -0.7708239334 -2.205710413
0.3784242529 -0.9162385407 -2.234669788
0.505027485 -1.473843025 -2.584166916
0.7452271215 -1.328428418 -2.555207541
0.6266032321 -1.423629888 -2.349497128
2.291748005 -3.365583757 -2
1.973115769 -0.9463218321 -2
1.973115769 -0.9463218321 -3.4
0.7532064641 -1.981234372 -2.698994257
2.132431887 -2.155952795 -2
1.973115769 -0.9463218321 -2.7
2.132431887 -2.155952795 -2.7
1.522477235 -2.673409065 -2.349497128
1.363161117 -1.463778102 -2.349497128
1.363161117 -1.463778102 -3.049497128
-0.7372389088 -0.675632142 -2.988435311
-0.8660254038 -0.5 -3.4
-1.38119511 -2.364212683 -3.4
-1.794796548 -1.162157768 -2.450733063
-0.8016321563 -0.587816071 -3.194217656
-1.123610257 -1.432106341 -3.4
-1.059217009 -1.519922412 -3.194217656
-1.266017728 -0.918894955 -2.719584187
-1.330410976 -0.8310788839 -2.925366531
-1.587995829 -1.763185225 -2.925366531
0.5 -0.8660254038 -2
0 -1 -2
0.2568485059 -0.9664516775 -2.469339576
0.7532064641 -1.981234372 -2.698994257
0.25 -0.9330127019 -2
0.1284242529 -0.9832258388 -2.234669788
0.3784242529 -0.9162385407 -2.234669788
0.6266032321 -1.423629888 -2.349497128
0.3766032321 -1.490617186 -2.349497128
0.505027485 -1.473843025 -2.584166916
-3.593728995 0 -3.4
-1.864576332 0 -2.7
-3.593728995 0 -2
-1.794796548 -1.162157768 -2.450733063
-2.729152663 0 -3.05
-2.729152663 0 -2.35
-3.593728995 0 -2.7
-2.694262771 -0.5810788839 -2.925366531
-1.82968644 -0.5810788839 -2.575366531
-2.694262771 -0.5810788839 -2.225366531
-0.8660254038 -0.5 -2
-0.9395047774 -0.3425357986 -2.331109835
-0.686737752 -0.726905262 -2.431371687
-1.794796548 -1.162157768 -2.450733063
-0.9027650906 -0.4212678993 -2.165554918
-0.8131212647 -0.5347205303 -2.381240761
-0.7763815779 -0.613452631 -2.215685844
-1.330410976 -0.8310788839 -2.225366531
-1.367150663 -0.7523467832 -2.390921449
-1.24076715 -0.944531515 -2.441052375
0.5 -0.8660254038 -3.4
1.973115769 -0.9463218321 -3.4
0.686737752 -0.726905262 -2.968628313
0.7532064641 -1.981234372 -2.698994257
1.236557884 -0.906173618 -3.4
1.32992676 -0.8366135471 -3.184314156
0.593368876 -0.7964653329 -3.184314156
0.6266032321 -1.423629888 -3.049497128
1.363161117 -1.463778102 -3.049497128
0.7199721081 -1.354069817 -2.833811285
0.7372477789 -0.675622463 -2.411420826
1.973115769 -0.9463218321 -3.4
1.973115769 -0.9463218321 -2
0.7532064641 -1.981234372 -2.698994257
1.355181774 -0.8109721476 -2.905710413
1.973115769 -0.9463218321 -2.7
1.355181774 -0.8109721476 -2.205710413
0.7452271215 -1.328428418 -2.555207541
1.363161117 -1.463778102 -3.049497128
1.363161117 -1.463778102 -2.349497128
0.5 -0.8660254038 -2
0.7372477789 -0.675622463 -2.411420826
1.973115769 -0.9463218321 -2
0.7532064641 -1.981234372 -2.698994257
0.6186238894 -0.7708239334 -2.205710413
1.355181774 -0.8109721476 -2.205710413
1.236557884 -0.906173618 -2
0.6266032321 -1.423629888 -2.349497128
0.7452271215 -1.328428418 -2.555207541
1.363161117 -1.463778102 -2.349497128
-0.256772376 -0.966471907 -2.929797247
-1.38119511 -2.364212683 -3.4
-1.38119511 -2.364212683 -2
-1.794796548 -1.162157768 -2.450733063
-0.8189837428 -1.665342295 -3.164898623
-1.38119511 -2.364212683 -2.7
-0.8189837428 -1.665342295 -2.464898623
-1.025784462 -1.064314837 -2.690265155
-1.587995829 -1.763185225 -2.925366531
-1.587995829 -1.763185225 -2.225366531
0.8660254038 -0.5 -2
1 0 -2
1.973115769 -0.9463218321 -2
0.9399654737 -0.3412695536 -2.330557065
0.9330127019 -0.25 -2
1.486557884 -0.4731609161 -2
1.419570586 -0.7231609161 -2
0.9029954387 -0.4206347768 -2.165278533
0.9699827369 -0.1706347768 -2.165278533
1.456540621 -0.6437956929 -2.165278533
1 0 -3.4
0.8660254038 -0.5 -3.4
1.973115769 -0.9463218321 -3.4
0.9395047774 -0.3425357986 -3.068890165
0.9330127019 -0.25 -3.4
1.419570586 -0.7231609161 -3.4
1.486557884 -0.4731609161 -3.4
0.9697523887 -0.1712678993 -3.234445082
0.9027650906 -0.4212678993 -3.234445082
1.456310273 -0.6444288154 -3.234445082
2.291748005 -3.365583757 -2
1.973115769 -0.9463218321 -3.4
2.291748005 -3.365583757 -3.4
0.7532064641 -1.981234372 -2.698994257
2.132431887 -2.155952795 -2.7
2.132431887 -2.155952795 -3.4
2.291748005 -3.365583757 -2.7
1.522477235 -2.673409065 -2.349497128
1.363161117 -1.463778102 -3.049497128
1.522477235 -2.673409065 -3.049497128
1 0 -2.466666667
1.973115769 -0.9463218321 -2
1 0 -2
0.9399654737 -0.3412695536 -2.330557065
1.486557884 -0.4731609161 -2.233333333
1.486557884 -0.4731609161 -2
1 0 -2.233333333
0.9699827369 -0.1706347768 -2.398611866
1.456540621 -0.6437956929 -2.165278533
0.9699827369 -0.1706347768 -2.165278533
1.973115769 -0.9463218321 -3.4
1 0 -2.933333333
1 0 -3.4
0.9395047774 -0.3425357986 -3.068890165
1.486557884 -0.4731609161 -3.166666667
1 0 -3.166666667
1.486557884 -0.4731609161 -3.4
1.456310273 -0.6444288154 -3.234445082
0.9697523887 -0.1712678993 -3.001111749
0.9697523887 -0.1712678993 -3.234445082
-1.864576332 0 -2.7
-3.593728995 0 -2
-0.8660254038 -0.5 -2
-1 0 -2
-2.729152663 0 -2.35
-2.229877199 -0.25 -2
-1.365300868 -0.25 -2.35
-1.432288166 0 -2.35
-2.296864497 0 -2
-0.9330127019 -0.25 -2
-0.8660254038 -0.5 -2
-3.593728995 0 -2
-1.864576332 0 -2.7
-1.794796548 -1.162157768 -2.450733063
-2.229877199 -0.25 -2
-2.729152663 0 -2.35
-1.365300868 -0.25 -2.35
-1.330410976 -0.8310788839 -2.225366531
-2.694262771 -0.5810788839 -2.225366531
-1.82968644 -0.5810788839 -2.575366531
-0.8660254038 -0.5 -2
-0.9395047774 -0.3425357986 -2.331109835
-1.864576332 0 -2.7
-1 0 -2
-0.9027650906 -0.4212678993 -2.165554918
-1.402040554 -0.1712678993 -2.515554918
-1.365300868 -0.25 -2.35
-0.9330127019 -0.25 -2
-0.9697523887 -0.1712678993 -2.165554918
-1.432288166 0 -2.35
-1.864576332 0 -2.7
-0.9395047774 -0.3425357986 -2.331109835
-0.8660254038 -0.5 -2
-1.794796548 -1.162157768 -2.450733063
-1.402040554 -0.1712678993 -2.515554918
-0.9027650906 -0.4212678993 -2.165554918
-1.365300868 -0.25 -2.35
-1.82968644 -0.5810788839 -2.575366531
-1.367150663 -0.7523467832 -2.390921449
-1.330410976 -0.8310788839 -2.225366531
1.973115769 -0.9463218321 -2
5.207805435 0 -2
1 0 -2.933333333
1 0 -2.466666667
3.590460602 -0.4731609161 -2
3.103902718 0 -2.466666667
1.486557884 -0.4731609161 -2.466666667
1.486557884 -0.4731609161 -2.233333333
3.103902718 0 -2.233333333
1 0 -2.7
1 0 -2.933333333
5.207805435 0 -2
1.973115769 -0.9463218321 -2
1.973115769 -0.9463218321 -3.4
3.103902718 0 -2.466666667
3.590460602 -0.4731609161 -2
1.486557884 -0.4731609161 -2.466666667
1.486557884 -0.4731609161 -3.166666667
3.590460602 -0.4731609161 -2.7
1.973115769 -0.9463218321 -2.7
1 0 -2.933333333
0.9183333333 -0.3958078939 -2.7
1.973115769 -0.9463218321 -2
1 0 -2.466666667
0.9591666667 -0.197903947 -2.816666667
1.445724551 -0.671064863 -2.35
1.486557884 -0.4731609161 -2.466666667
1 0 -2.7
0.9591666667 -0.197903947 -2.583333333
1.486557884 -0.4731609161 -2.233333333
1.973115769 -0.9463218321 -2
0.9183333333 -0.3958078939 -2.7
1 0 -2.933333333
1.973115769 -0.9463218321 -3.4
1.445724551 -0.671064863 -2.35
0.9591666667 -0.197903947 -2.816666667
1.486557884 -0.4731609161 -2.466666667
1.973115769 -0.9463218321 -2.7
1.445724551 -0.671064863 -3.05
1.486557884 -0.4731609161 -3.166666667
-5.514209552 -3.8896768 -3.4
-1.38119511 -2.364212683 -2
-3.593728995 0 -2
-5.514209552 -3.8896768 -2
-3.447702331 -3.126944741 -2.7
-2.487462052 -1.182106341 -2
-4.553969273 -1.9448384 -2.7
-5.514209552 -3.8896768 -2.7
-3.447702331 -3.126944741 -2
-4.553969273 -1.9448384 -2
-1.38119511 -2.364212683 -2
-5.514209552 -3.8896768 -3.4
-3.593728995 0 -2
-1.794796548 -1.162157768 -2.450733063
-3.447702331 -3.126944741 -2.7
-4.553969273 -1.9448384 -2.7
-2.487462052 -1.182106341 -2
-1.587995829 -1.763185225 -2.225366531
-3.65450305 -2.525917284 -2.925366531
-2.694262771 -0.5810788839 -2.225366531
-0.686737752 -0.726905262 -2.431371687
-0.8660254038 -0.5 -2
-1.38119511 -2.364212683 -2
-0.5 -0.8660254038 -2
-0.7763815779 -0.613452631 -2.215685844
-1.123610257 -1.432106341 -2
-1.033966431 -1.545558972 -2.215685844
-0.593368876 -0.7964653329 -2.215685844
-0.6830127019 -0.6830127019 -2
-0.9405975548 -1.615119043 -2
-1.38119511 -2.364212683 -2
-0.8660254038 -0.5 -2
-0.686737752 -0.726905262 -2.431371687
-1.794796548 -1.162157768 -2.450733063
-1.123610257 -1.432106341 -2
-0.7763815779 -0.613452631 -2.215685844
-1.033966431 -1.545558972 -2.215685844
-1.587995829 -1.763185225 -2.225366531
-1.330410976 -0.8310788839 -2.225366531
-1.24076715 -0.944531515 -2.441052375
-0.9094206078 -0.4158775758 -5.176923077
-0.6397268109 -0.7686023728 -5.177122656
-0.8643805697 -0.5028381756 -4.682011371
-2.093387024 -1.836144702 -5.572462463
-0.7745737094 -0.5922399743 -5.177022866
-0.7520536903 -0.6357202742 -4.929567013
-0.8869005888 -0.4593578757 -4.929467224
-1.501403816 -1.126011139 -5.37469277
-1.366556917 -1.302373538 -5.374792559
-1.478883797 -1.169491439 -5.127236917
0.7221779549 -0.691707309 -3.821806365
0.3099657156 -0.9507477348 -3.858465849
0.5911402716 -0.8065687691 -4.340874266
1.10799114 -1.912869374 -4.846540236
0.5160718353 -0.8212275219 -3.840136107
0.4505529936 -0.8786582519 -4.099670057
0.6566591133 -0.7491380391 -4.081340315
0.9150845477 -1.302288342 -4.334173301
0.708978428 -1.431808554 -4.352503042
0.849565706 -1.359719072 -4.593707251
-0.5234340253 -0.852066207 -4.690042781
-0.8643805697 -0.5028381756 -4.682011371
-0.6397268109 -0.7686023728 -5.177122656
-0.8690992756 -1.963429669 -5.175098146
-0.6939072975 -0.6774521913 -4.686027076
-0.7520536903 -0.6357202742 -4.929567013
-0.5815804181 -0.8103342899 -4.933582718
-0.6962666504 -1.407747938 -4.932570464
-0.8667399226 -1.233133922 -4.928554759
-0.7544130432 -1.366016021 -5.176110401
-0.2122923108 -0.9772062089 -4.434469173
-0.6144532556 -0.7889532284 -4.288476667
-0.5234340253 -0.852066207 -4.690042781
-0.8690992756 -1.963429669 -5.175098146
-0.4133727832 -0.8830797187 -4.36147292
-0.5689436405 -0.8205097177 -4.489259724
-0.367863168 -0.914636208 -4.562255977
-0.5406957932 -1.470317939 -4.80478366
-0.7417762656 -1.376191449 -4.731787407
-0.6962666504 -1.407747938 -4.932570464
-0.9094206078 -0.4158775758 -5.176923077
-0.9033431953 -0.4289184906 -5.684615385
-0.6397268109 -0.7686023728 -5.177122656
-2.093387024 -1.836144702 -5.572462463
-0.9063819016 -0.4223980332 -5.430769231
-0.7715350031 -0.5987604317 -5.43086902
-0.7745737094 -0.5922399743 -5.177022866
-1.501403816 -1.126011139 -5.37469277
-1.498365109 -1.132531597 -5.628538924
-1.366556917 -1.302373538 -5.374792559
0.9034178452 -0.4287612355 -4.669068391
0.5911402716 -0.8065687691 -4.340874266
0.6308109785 -0.775936537 -4.925035661
1.10799114 -1.912869374 -4.846540236
0.7472790584 -0.6176650023 -4.504971328
0.6109756251 -0.791252653 -4.632954963
0.7671144118 -0.6023488862 -4.797052026
1.005704493 -1.170815305 -4.757804313
0.849565706 -1.359719072 -4.593707251
0.8694010595 -1.344402956 -4.885787948
-5.514209552 -3.8896768 -3.4
-5.712434052 0 -5.604418866
-4.464489437 0 -4.862169372
-2.093387024 -1.836144702 -5.572462463
-5.613321802 -1.9448384 -4.502209433
-5.088461745 0 -5.233294119
-4.989349494 -1.9448384 -4.131084686
-3.803798288 -2.862910751 -4.486231231
-3.902910538 -0.9180723512 -5.588440664
-3.27893823 -0.9180723512 -5.217315917
-1.492694661 0 -5.279902395
-0.9033431953 -0.4289184906 -5.684615385
-0.9094206078 -0.4158775758 -5.176923077
-2.093387024 -1.836144702 -5.572462463
-1.198018928 -0.2144592453 -5.48225889
-0.9063819016 -0.4223980332 -5.430769231
-1.201057635 -0.2079387879 -5.228412736
-1.793040843 -0.9180723512 -5.426182429
-1.498365109 -1.132531597 -5.628538924
-1.501403816 -1.126011139 -5.37469277
-3.593728995 0 -3.4
-0.8660254038 -0.5 -3.4
-1.38119511 -2.364212683 -3.4
-2.723715438 -1.389847136 -4.220944939
-2.229877199 -0.25 -3.4
-1.123610257 -1.432106341 -3.4
-2.487462052 -1.182106341 -3.4
-3.158722216 -0.6949235679 -3.81047247
-1.794870421 -0.9449235679 -3.81047247
-2.052455274 -1.877029909 -3.81047247
0.2379919343 -0.9712671307 -5.175612967
0.229007106 -0.9734247508 -4.683082658
-0.1999441719 -0.9798072913 -4.920251998
1.10799114 -1.912869374 -4.846540236
0.2334995201 -0.9723459407 -4.929347813
0.01453146708 -0.976616021 -4.801667328
0.01902388119 -0.975537211 -5.047932483
0.6729915374 -1.442068252 -5.011076602
0.6684991232 -1.443147062 -4.764811447
0.4540234843 -1.446338333 -4.883396117
-1.492694661 0 -5.279902395
-1.554306918 0 -6.096537254
-0.9033431953 -0.4289184906 -5.684615385
-1.830839444 -1.086255379 -6.44097102
-1.52350079 0 -5.688219824
-1.228825057 -0.2144592453 -5.890576319
-1.198018928 -0.2144592453 -5.48225889
-1.661767052 -0.5431276895 -5.860436707
-1.692573181 -0.5431276895 -6.268754137
-1.367091319 -0.7575869348 -6.062793202
0.3099657156 -0.9507477348 -3.858465849
0.1722875502 -0.9850466994 -4.253031967
0.5911402716 -0.8065687691 -4.340874266
1.10799114 -1.912869374 -4.846540236
0.2411266329 -0.9678972171 -4.055748908
0.3817139109 -0.8958077343 -4.296953116
0.4505529936 -0.8786582519 -4.099670057
0.708978428 -1.431808554 -4.352503042
0.6401393453 -1.448958037 -4.549786101
0.849565706 -1.359719072 -4.593707251
-0.1999441719 -0.9798072913 -4.920251998
-0.2122923108 -0.9772062089 -4.434469173
-0.5234340253 -0.852066207 -4.690042781
-0.8690992756 -1.963429669 -5.175098146
-0.2061182413 -0.9785067501 -4.677360585
-0.367863168 -0.914636208 -4.562255977
-0.3616890986 -0.9159367492 -4.80514739
-0.5345217237 -1.47161848 -5.047675072
-0.5406957932 -1.470317939 -4.80478366
-0.6962666504 -1.407747938 -4.932570464
-2.093387024 -1.836144702 -5.572462463
-2.751766964 0 -4.927824238
-4.464489437 0 -4.862169372
-2.723715438 -1.389847136 -4.220944939
-2.422576994 -0.9180723512 -5.250143351
-3.6081282 0 -4.894996805
-3.27893823 -0.9180723512 -5.217315917
-2.408551231 -1.612995919 -4.896703701
-2.737741201 -0.6949235679 -4.574384589
-3.594102437 -0.6949235679 -4.541557156
10.57703397 0 -3.4
7.654666388 -3.621100098 -3.4
5.207805435 0 -3.4
3.61443509 0 -5.242735043
9.115850178 -1.810550049 -3.4
6.431235911 -1.810550049 -3.4
7.892419701 0 -3.4
7.095734529 0 -4.321367521
5.634550739 -1.810550049 -4.321367521
4.411120263 0 -4.321367521
0.3099657156 -0.9507477348 -3.858465849
0.7221779549 -0.691707309 -3.821806365
0.5 -0.8660254038 -3.4
1.10799114 -1.912869374 -4.846540236
0.5160718353 -0.8212275219 -3.840136107
0.6110889775 -0.7788663564 -3.610903182
0.4049828578 -0.9083865693 -3.629232924
0.708978428 -1.431808554 -4.352503042
0.9150845477 -1.302288342 -4.334173301
0.8039955702 -1.389447389 -4.123270118
5.906920728 -9.432751709 -3.4
2.291748005 -3.365583757 -3.4
7.654666388 -3.621100098 -3.4
2.481675156 -1.852905221 -5.938320992
4.099334367 -6.399167733 -3.4
4.973207196 -3.493341928 -3.4
6.780793558 -6.526925903 -3.4
4.194297942 -5.642828465 -4.669160496
2.386711581 -2.609244489 -4.669160496
5.068170772 -2.73700266 -4.669160496
1.973115769 -0.9463218321 -3.4
0.9304901863 -0.3663168208 -3.769959613
0.9033431953 -0.4289184906 -4.161538462
0.7221779549 -0.691707309 -3.821806365
1.451802978 -0.6563193265 -3.584979807
0.9169166908 -0.3976176557 -3.965749037
1.438229482 -0.6876201614 -3.780769231
1.347646862 -0.8190145706 -3.610903182
0.8263340706 -0.5290120649 -3.795882989
0.8127605751 -0.5603128998 -3.991672413
-0.6144532556 -0.7889532284 -4.288476667
-0.9083618895 -0.4181849802 -4.181585612
-0.8643805697 -0.5028381756 -4.682011371
-2.723715438 -1.389847136 -4.220944939
-0.7614075726 -0.6035691043 -4.235031139
-0.8863712296 -0.4605115779 -4.431798491
-0.7394169126 -0.645895702 -4.485244019
-1.669084347 -1.089400182 -4.254710803
-1.816038664 -0.9040160581 -4.201265276
-1.794048004 -0.9463426557 -4.451478155
1.973115769 -0.9463218321 -3.4
1 0 -4.415384615
5.207805435 0 -3.4
3.61443509 0 -5.242735043
1.486557884 -0.4731609161 -3.907692308
3.103902718 0 -3.907692308
3.590460602 -0.4731609161 -3.4
2.793775429 -0.4731609161 -4.321367521
2.307217545 0 -4.829059829
4.411120263 0 -4.321367521
-0.9033431953 -0.4289184906 -5.684615385
-1 0 -5.430769231
-1.492694661 0 -5.279902395
-0.9094206078 -0.4158775758 -5.176923077
-0.9516715976 -0.2144592453 -5.557692308
-1.246347331 0 -5.355335813
-1.198018928 -0.2144592453 -5.48225889
-0.9063819016 -0.4223980332 -5.430769231
-0.9547103039 -0.2079387879 -5.303846154
-1.201057635 -0.2079387879 -5.228412736
-4.464489437 0 -4.862169372
-5.514209552 -3.8896768 -3.4
-2.093387024 -1.836144702 -5.572462463
-2.723715438 -1.389847136 -4.220944939
-4.989349494 -1.9448384 -4.131084686
-3.803798288 -2.862910751 -4.486231231
-3.27893823 -0.9180723512 -5.217315917
-3.594102437 -0.6949235679 -4.541557156
-4.118962495 -2.639761968 -3.81047247
-2.408551231 -1.612995919 -4.896703701
-2.170355614 0 -5.75055421
-1.554306918 0 -6.096537254
-1.492694661 0 -5.279902395
-1.830839444 -1.086255379 -6.44097102
-1.862331266 0 -5.923545732
-1.52350079 0 -5.688219824
-1.831525138 0 -5.515228302
-2.000597529 -0.5431276895 -6.095762615
-1.692573181 -0.5431276895 -6.268754137
-1.661767052 -0.5431276895 -5.860436707
-1.492694661 0 -5.279902395
-0.9033431953 -0.4289184906 -5.684615385
-1 0 -5.938461538
-1 0 -5.430769231
-1.198018928 -0.2144592453 -5.48225889
-0.9516715976 -0.2144592453 -5.811538462
-1.246347331 0 -5.609181967
-1.246347331 0 -5.355335813
-0.9516715976 -0.2144592453 -5.557692308
-1 0 -5.684615385
-0.2122923108 -0.9772062089 -4.434469173
-0.2307736601 -0.9730074603 -3.915919195
-0.6144532556 -0.7889532284 -4.288476667
0.1673914484 -2.048372972 -4.170276376
-0.2215329854 -0.9751068346 -4.175194184
-0.4226134579 -0.8809803444 -4.102197931
-0.4133727832 -0.8830797187 -4.36147292
-0.02245043118 -1.51278959 -4.302372774
-0.03169110583 -1.510690216 -4.043097785
-0.2235309036 -1.4186631 -4.229376521
0.1722875502 -0.9850466994 -4.253031967
0.229007106 -0.9734247508 -4.683082658
0.5911402716 -0.8065687691 -4.340874266
1.10799114 -1.912869374 -4.846540236
0.2006473281 -0.9792357251 -4.468057312
0.4100736888 -0.8899967599 -4.511978462
0.3817139109 -0.8958077343 -4.296953116
0.6401393453 -1.448958037 -4.549786101
0.6684991232 -1.443147062 -4.764811447
0.849565706 -1.359719072 -4.593707251
-2.170355614 0 -5.75055421
-1.492694661 0 -5.279902395
-2.751766964 0 -4.927824238
-2.093387024 -1.836144702 -5.572462463
-1.831525138 0 -5.515228302
-2.122230813 0 -5.103863317
-2.461061289 0 -5.339189224
-2.131871319 -0.9180723512 -5.661508336
-1.793040843 -0.9180723512 -5.426182429
-2.422576994 -0.9180723512 -5.250143351
-0.7098042943 -0.7043989379 -3.82683187
-0.9083618895 -0.4181849802 -4.181585612
-0.6144532556 -0.7889532284 -4.288476667
-2.723715438 -1.389847136 -4.220944939
-0.8090830919 -0.5612919591 -4.004208741
-0.7614075726 -0.6035691043 -4.235031139
-0.662128775 -0.7466760832 -4.057654268
-1.716759866 -1.047123037 -4.023888405
-1.816038664 -0.9040160581 -4.201265276
-1.669084347 -1.089400182 -4.254710803
1.973115769 -0.9463218321 -3.4
5.207805435 0 -3.4
1 0 -3.907692308
1 0 -3.4
3.590460602 -0.4731609161 -3.4
3.103902718 0 -3.653846154
1.486557884 -0.4731609161 -3.653846154
1.486557884 -0.4731609161 -3.4
3.103902718 0 -3.4
1 0 -3.653846154
-3.593728995 0 -3.4
-5.514209552 -3.8896768 -3.4
-4.464489437 0 -4.862169372
-2.723715438 -1.389847136 -4.220944939
-4.553969273 -1.9448384 -3.4
-4.989349494 -1.9448384 -4.131084686
-4.029109216 0 -4.131084686
-3.158722216 -0.6949235679 -3.81047247
-4.118962495 -2.639761968 -3.81047247
-3.594102437 -0.6949235679 -4.541557156
-0.6397268109 -0.7686023728 -5.177122656
-0.8643805697 -0.5028381756 -4.682011371
-2.093387024 -1.836144702 -5.572462463
-0.8690992756 -1.963429669 -5.175098146
-0.7520536903 -0.6357202742 -4.929567013
-1.478883797 -1.169491439 -5.127236917
-1.366556917 -1.302373538 -5.374792559
-0.7544130432 -1.366016021 -5.176110401
-0.8667399226 -1.233133922 -4.928554759
-1.48124315 -1.899787186 -5.373780304
1.973115769 -0.9463218321 -3.4
5.207805435 0 -3.4
1 0 -4.415384615
1 0 -3.907692308
3.590460602 -0.4731609161 -3.4
3.103902718 0 -3.907692308
1.486557884 -0.4731609161 -3.907692308
1.486557884 -0.4731609161 -3.653846154
3.103902718 0 -3.653846154
1 0 -4.161538462
-1.554306918 0 -6.096537254
-0.9033431953 -0.4289184906 -5.684615385
-1 0 -5.938461538
-1.492694661 0 -5.279902395
-1.228825057 -0.2144592453 -5.890576319
-0.9516715976 -0.2144592453 -5.811538462
-1.277153459 0 -6.017499396
-1.52350079 0 -5.688219824
-1.198018928 -0.2144592453 -5.48225889
-1.246347331 0 -5.609181967
-0.1999441719 -0.9798072913 -4.920251998
-0.5234340253 -0.852066207 -4.690042781
-0.6397268109 -0.7686023728 -5.177122656
-0.8690992756 -1.963429669 -5.175098146
-0.3616890986 -0.9159367492 -4.80514739
-0.5815804181 -0.8103342899 -4.933582718
-0.4198354914 -0.874204832 -5.048687327
-0.5345217237 -1.47161848 -5.047675072
-0.6962666504 -1.407747938 -4.932570464
-0.7544130432 -1.366016021 -5.176110401
-0.8643805697 -0.5028381756 -4.682011371
-0.9094206078 -0.4158775758 -5.176923077
-2.093387024 -1.836144702 -5.572462463
-2.723715438 -1.389847136 -4.220944939
-0.8869005888 -0.4593578757 -4.929467224
-1.501403816 -1.126011139 -5.37469277
-1.478883797 -1.169491439 -5.127236917
-1.794048004 -0.9463426557 -4.451478155
-1.816568023 -0.9028623558 -4.698934008
-2.408551231 -1.612995919 -4.896703701
-0.7098042943 -0.7043989379 -3.82683187
-0.9265876867 -0.3760787935 -3.780449376
-0.9083618895 -0.4181849802 -4.181585612
-2.723715438 -1.389847136 -4.220944939
-0.8181959905 -0.5402388657 -3.803640623
-0.9174747881 -0.3971318869 -3.981017494
-0.8090830919 -0.5612919591 -4.004208741
-1.716759866 -1.047123037 -4.023888405
-1.825151562 -0.8829629647 -4.000697158
-1.816038664 -0.9040160581 -4.201265276
-1.38119511 -2.364212683 -3.4
-5.514209552 -3.8896768 -3.4
-3.593728995 0 -3.4
-2.723715438 -1.389847136 -4.220944939
-3.447702331 -3.126944741 -3.4
-4.553969273 -1.9448384 -3.4
-2.487462052 -1.182106341 -3.4
-2.052455274 -1.877029909 -3.81047247
-4.118962495 -2.639761968 -3.81047247
-3.158722216 -0.6949235679 -3.81047247
-2.093387024 -1.836144702 -5.572462463
-5.514209552 -3.8896768 -3.4
-1.38119511 -2.364212683 -3.4
-2.723715438 -1.389847136 -4.220944939
-3.803798288 -2.862910751 -4.486231231
-3.447702331 -3.126944741 -3.4
-1.737291067 -2.100178693 -4.486231231
-2.408551231 -1.612995919 -4.896703701
-4.118962495 -2.639761968 -3.81047247
-2.052455274 -1.877029909 -3.81047247
-4.464489437 0 -4.862169372
-2.751766964 0 -4.927824238
-3.593728995 0 -3.4
-2.723715438 -1.389847136 -4.220944939
-3.6081282 0 -4.894996805
-3.172747979 0 -4.163912119
-4.029109216 0 -4.131084686
-3.594102437 -0.6949235679 -4.541557156
-2.737741201 -0.6949235679 -4.574384589
-3.158722216 -0.6949235679 -3.81047247
-0.6397268109 -0.7686023728 -5.177122656
-0.2000069879 -0.9797944707 -5.430059715
-0.1999441719 -0.9798072913 -4.920251998
-0.8690992756 -1.963429669 -5.175098146
-0.4198668994 -0.8741984217 -5.303591185
-0.1999755799 -0.979800881 -5.175155856
-0.4198354914 -0.874204832 -5.048687327
-0.7544130432 -1.366016021 -5.176110401
-0.5345531317 -1.47161207 -5.30257893
-0.5345217237 -1.47161848 -5.047675072
-0.2122923108 -0.9772062089 -4.434469173
-0.1999441719 -0.9798072913 -4.920251998
0.229007106 -0.9734247508 -4.683082658
0.1673914484 -2.048372972 -4.170276376
-0.2061182413 -0.9785067501 -4.677360585
0.01453146708 -0.976616021 -4.801667328
0.008357397626 -0.9753154798 -4.558775915
-0.02245043118 -1.51278959 -4.302372774
-0.01627636172 -1.514090131 -4.545264187
0.1981992772 -1.510898861 -4.426679517
-1.573056785 0 -4.255375705
-0.8643805697 -0.5028381756 -4.682011371
-1 0 -4.415384615
-0.9083618895 -0.4181849802 -4.181585612
-1.218718678 -0.2514190878 -4.468693538
-0.9321902848 -0.2514190878 -4.548697993
-1.286528393 0 -4.33538016
-1.240709337 -0.2090924901 -4.218480658
-0.8863712296 -0.4605115779 -4.431798491
-0.9541809447 -0.2090924901 -4.298485114
0.6308109785 -0.775936537 -4.925035661
0.5911402716 -0.8065687691 -4.340874266
0.229007106 -0.9734247508 -4.683082658
1.10799114 -1.912869374 -4.846540236
0.6109756251 -0.791252653 -4.632954963
0.4100736888 -0.8899967599 -4.511978462
0.4299090423 -0.8746806439 -4.804059159
0.8694010595 -1.344402956 -4.885787948
0.849565706 -1.359719072 -4.593707251
0.6684991232 -1.443147062 -4.764811447
-1.492694661 0 -5.279902395
-0.9033431953 -0.4289184906 -5.684615385
-2.093387024 -1.836144702 -5.572462463
-1.830839444 -1.086255379 -6.44097102
-1.198018928 -0.2144592453 -5.48225889
-1.498365109 -1.132531597 -5.628538924
-1.793040843 -0.9180723512 -5.426182429
-1.661767052 -0.5431276895 -5.860436707
-1.367091319 -0.7575869348 -6.062793202
-1.962113234 -1.461200041 -6.006716741
-1.573056785 0 -4.255375705
-1 0 -4.923076923
-1 0 -4.415384615
-0.8643805697 -0.5028381756 -4.682011371
-1.286528393 0 -4.589226314
-1 0 -4.669230769
-1.286528393 0 -4.33538016
-1.218718678 -0.2514190878 -4.468693538
-0.9321902848 -0.2514190878 -4.802544147
-0.9321902848 -0.2514190878 -4.548697993
2.291748005 -3.365583757 -3.4
-1.38119511 -2.364212683 -3.4
0 -1 -3.4
0.1673914484 -2.048372972 -4.170276376
0.4552764479 -2.86489822 -3.4
-0.6905975548 -1.682106341 -3.4
1.145874003 -2.182791878 -3.4
1.229569727 -2.706978364 -3.785138188
-0.6069018306 -2.206292827 -3.785138188
0.08369572422 -1.524186486 -3.785138188
0.6308109785 -0.775936537 -4.925035661
0.229007106 -0.9734247508 -4.683082658
0.2379919343 -0.9712671307 -5.175612967
1.10799114 -1.912869374 -4.846540236
0.4299090423 -0.8746806439 -4.804059159
0.2334995201 -0.9723459407 -4.929347813
0.4344014564 -0.8736018338 -5.050324314
0.8694010595 -1.344402956 -4.885787948
0.6684991232 -1.443147062 -4.764811447
0.6729915374 -1.442068252 -5.011076602
-2.093387024 -1.836144702 -5.572462463
-0.9094206078 -0.4158775758 -5.176923077
-1.492694661 0 -5.279902395
-2.723715438 -1.389847136 -4.220944939
-1.501403816 -1.126011139 -5.37469277
-1.201057635 -0.2079387879 -5.228412736
-1.793040843 -0.9180723512 -5.426182429
-2.408551231 -1.612995919 -4.896703701
-1.816568023 -0.9028623558 -4.698934008
-2.10820505 -0.6949235679 -4.750423667
1.973115769 -0.9463218321 -3.4
0.9034178452 -0.4287612355 -4.669068391
0.9033431953 -0.4289184906 -4.161538462
1 0 -4.415384615
1.438266807 -0.6875415338 -4.034534195
0.9033805202 -0.428839863 -4.415303426
1.438229482 -0.6876201614 -3.780769231
1.486557884 -0.4731609161 -3.907692308
0.9517089226 -0.2143806177 -4.542226503
0.9516715976 -0.2144592453 -4.288461538
0.229007106 -0.9734247508 -4.683082658
0.1722875502 -0.9850466994 -4.253031967
-0.2122923108 -0.9772062089 -4.434469173
0.1673914484 -2.048372972 -4.170276376
0.2006473281 -0.9792357251 -4.468057312
-0.02000238031 -0.9811264542 -4.34375057
0.008357397626 -0.9753154798 -4.558775915
0.1981992772 -1.510898861 -4.426679517
0.1698394993 -1.516709836 -4.211654171
-0.02245043118 -1.51278959 -4.302372774
0.2379919343 -0.9712671307 -5.175612967
-0.1999441719 -0.9798072913 -4.920251998
-0.8690992756 -1.963429669 -5.175098146
1.10799114 -1.912869374 -4.846540236
0.01902388119 -0.975537211 -5.047932483
-0.5345217237 -1.47161848 -5.047675072
-0.3155536707 -1.4673484 -5.175355557
0.6729915374 -1.442068252 -5.011076602
0.4540234843 -1.446338333 -4.883396117
0.1194459324 -1.938149522 -5.010819191
0.8660254038 -0.5 -3.4
0.9304901863 -0.3663168208 -3.769959613
1.973115769 -0.9463218321 -3.4
0.7221779549 -0.691707309 -3.821806365
0.898257795 -0.4331584104 -3.584979807
1.451802978 -0.6563193265 -3.584979807
1.419570586 -0.7231609161 -3.4
0.7941016794 -0.5958536545 -3.610903182
0.8263340706 -0.5290120649 -3.795882989
1.347646862 -0.8190145706 -3.610903182
0.1722875502 -0.9850466994 -4.253031967
0.3099657156 -0.9507477348 -3.858465849
-0.2307736601 -0.9730074603 -3.915919195
0.1673914484 -2.048372972 -4.170276376
0.2411266329 -0.9678972171 -4.055748908
0.03959602774 -0.9618775975 -3.887192522
-0.02924305497 -0.9790270799 -4.084475581
0.1698394993 -1.516709836 -4.211654171
0.238678582 -1.499560353 -4.014371112
-0.03169110583 -1.510690216 -4.043097785
-1.573056785 0 -4.255375705
-1 0 -3.907692308
-0.9265876867 -0.3760787935 -3.780449376
-0.9083618895 -0.4181849802 -4.181585612
-1.286528393 0 -4.081534006
-0.9632938433 -0.1880393968 -3.844070842
-1.249822236 -0.1880393968 -4.01791254
-1.240709337 -0.2090924901 -4.218480658
-0.9541809447 -0.2090924901 -4.04463896
-0.9174747881 -0.3971318869 -3.981017494
-2.093387024 -1.836144702 -5.572462463
-2.170355614 0 -5.75055421
-1.492694661 0 -5.279902395
-1.830839444 -1.086255379 -6.44097102
-2.131871319 -0.9180723512 -5.661508336
-1.831525138 0 -5.515228302
-1.793040843 -0.9180723512 -5.426182429
-1.962113234 -1.461200041 -6.006716741
-2.000597529 -0.5431276895 -6.095762615
-1.661767052 -0.5431276895 -5.860436707
2.291748005 -3.365583757 -3.4
0 -1 -3.4
0.5 -0.8660254038 -3.4
0.1673914484 -2.048372972 -4.170276376
1.145874003 -2.182791878 -3.4
0.25 -0.9330127019 -3.4
1.395874003 -2.11580458 -3.4
1.229569727 -2.706978364 -3.785138188
0.08369572422 -1.524186486 -3.785138188
0.3336957242 -1.457199188 -3.785138188
-1.492694661 0 -5.279902395
-1.573056785 0 -4.255375705
-2.751766964 0 -4.927824238
-2.723715438 -1.389847136 -4.220944939
-1.532875723 0 -4.76763905
-2.162411875 0 -4.591599972
-2.122230813 0 -5.103863317
-2.10820505 -0.6949235679 -4.750423667
-2.148386112 -0.6949235679 -4.238160322
-2.737741201 -0.6949235679 -4.574384589
-5.712434052 0 -5.604418866
-5.514209552 -3.8896768 -3.4
-4.464489437 0 -4.862169372
-7.453252438 0 -3.4
-5.613321802 -1.9448384 -4.502209433
-4.989349494 -1.9448384 -4.131084686
-5.088461745 0 -5.233294119
-6.582843245 0 -4.502209433
-6.483730995 -1.9448384 -3.4
-5.958870937 0 -4.131084686
-0.8643805697 -0.5028381756 -4.682011371
-0.9083618895 -0.4181849802 -4.181585612
-1.573056785 0 -4.255375705
-2.723715438 -1.389847136 -4.220944939
-0.8863712296 -0.4605115779 -4.431798491
-1.240709337 -0.2090924901 -4.218480658
-1.218718678 -0.2514190878 -4.468693538
-1.794048004 -0.9463426557 -4.451478155
-1.816038664 -0.9040160581 -4.201265276
-2.148386112 -0.6949235679 -4.238160322
-4.464489437 0 -4.862169372
-7.453252438 0 -3.4
-5.514209552 -3.8896768 -3.4
-3.593728995 0 -3.4
-5.958870937 0 -4.131084686
-6.483730995 -1.9448384 -3.4
-4.989349494 -1.9448384 -4.131084686
-4.029109216 0 -4.131084686
-5.523490716 0 -3.4
-4.553969273 -1.9448384 -3.4
0.5 -0.8660254038 -3.4
0.7221779549 -0.691707309 -3.821806365
1.973115769 -0.9463218321 -3.4
1.10799114 -1.912869374 -4.846540236
0.6110889775 -0.7788663564 -3.610903182
1.347646862 -0.8190145706 -3.610903182
1.236557884 -0.906173618 -3.4
0.8039955702 -1.389447389 -4.123270118
0.9150845477 -1.302288342 -4.334173301
1.540553455 -1.429595603 -4.123270118
-0.2307736601 -0.9730074603 -3.915919195
-0.2122923108 -0.9772062089 -4.434469173
0.1722875502 -0.9850466994 -4.253031967
0.1673914484 -2.048372972 -4.170276376
-0.2215329854 -0.9751068346 -4.175194184
-0.02000238031 -0.9811264542 -4.34375057
-0.02924305497 -0.9790270799 -4.084475581
-0.03169110583 -1.510690216 -4.043097785
-0.02245043118 -1.51278959 -4.302372774
0.1698394993 -1.516709836 -4.211654171
2.291748005 -3.365583757 -3.4
-1.486149823 -6.928202819 -3.4
-1.38119511 -2.364212683 -3.4
0.1266329963 -3.312719767 -4.941549731
0.4027990914 -5.146893288 -3.4
-1.433672466 -4.646207751 -3.4
0.4552764479 -2.86489822 -3.4
1.209190501 -3.339151762 -4.170774866
-0.6797584132 -5.120461293 -4.170774866
-0.6272810567 -2.838466225 -4.170774866
0.1266329963 -3.312719767 -4.941549731
-1.38119511 -2.364212683 -3.4
2.291748005 -3.365583757 -3.4
0.1673914484 -2.048372972 -4.170276376
-0.6272810567 -2.838466225 -4.170774866
0.4552764479 -2.86489822 -3.4
1.209190501 -3.339151762 -4.170774866
0.1470122224 -2.68054637 -4.555913054
-0.6069018306 -2.206292827 -3.785138188
1.229569727 -2.706978364 -3.785138188
-1.492694661 0 -5.279902395
-0.9094206078 -0.4158775758 -5.176923077
-1 0 -5.430769231
-1 0 -4.923076923
-1.201057635 -0.2079387879 -5.228412736
-0.9547103039 -0.2079387879 -5.303846154
-1.246347331 0 -5.355335813
-1.246347331 0 -5.101489659
-0.9547103039 -0.2079387879 -5.05
-1 0 -5.176923077
-1.492694661 0 -5.279902395
-2.751766964 0 -4.927824238
-2.093387024 -1.836144702 -5.572462463
-2.723715438 -1.389847136 -4.220944939
-2.122230813 0 -5.103863317
-2.422576994 -0.9180723512 -5.250143351
-1.793040843 -0.9180723512 -5.426182429
-2.10820505 -0.6949235679 -4.750423667
-2.737741201 -0.6949235679 -4.574384589
-2.408551231 -1.612995919 -4.896703701
0.5 -0.8660254038 -3.4
0.3099657156 -0.9507477348 -3.858465849
1.10799114 -1.912869374 -4.846540236
0.1673914484 -2.048372972 -4.170276376
0.4049828578 -0.9083865693 -3.629232924
0.708978428 -1.431808554 -4.352503042
0.8039955702 -1.389447389 -4.123270118
0.3336957242 -1.457199188 -3.785138188
0.238678582 -1.499560353 -4.014371112
0.6376912944 -1.980621173 -4.508408306
-0.2122923108 -0.9772062089 -4.434469173
-0.6144532556 -0.7889532284 -4.288476667
-0.8690992756 -1.963429669 -5.175098146
0.1673914484 -2.048372972 -4.170276376
-0.4133727832 -0.8830797187 -4.36147292
-0.7417762656 -1.376191449 -4.731787407
-0.5406957932 -1.470317939 -4.80478366
-0.02245043118 -1.51278959 -4.302372774
-0.2235309036 -1.4186631 -4.229376521
-0.3508539136 -2.00590132 -4.672687261
-1 0 -3.4
-0.9265876867 -0.3760787935 -3.780449376
-1.573056785 0 -4.255375705
-1 0 -3.907692308
-0.9632938433 -0.1880393968 -3.590224688
-1.249822236 -0.1880393968 -4.01791254
-1.286528393 0 -3.827687852
-1 0 -3.653846154
-0.9632938433 -0.1880393968 -3.844070842
-1.286528393 0 -4.081534006
-0.9083618895 -0.4181849802 -4.181585612
-0.9265876867 -0.3760787935 -3.780449376
-1.573056785 0 -4.255375705
-2.723715438 -1.389847136 -4.220944939
-0.9174747881 -0.3971318869 -3.981017494
-1.249822236 -0.1880393968 -4.01791254
-1.240709337 -0.2090924901 -4.218480658
-1.816038664 -0.9040160581 -4.201265276
-1.825151562 -0.8829629647 -4.000697158
-2.148386112 -0.6949235679 -4.238160322
1.973115769 -0.9463218321 -3.4
0.5 -0.8660254038 -3.4
1.10799114 -1.912869374 -4.846540236
0.1673914484 -2.048372972 -4.170276376
1.236557884 -0.906173618 -3.4
0.8039955702 -1.389447389 -4.123270118
1.540553455 -1.429595603 -4.123270118
1.070253609 -1.497347402 -3.785138188
0.3336957242 -1.457199188 -3.785138188
0.6376912944 -1.980621173 -4.508408306
1.10799114 -1.912869374 -4.846540236
0.3099657156 -0.9507477348 -3.858465849
0.1722875502 -0.9850466994 -4.253031967
0.1673914484 -2.048372972 -4.170276376
0.708978428 -1.431808554 -4.352503042
0.2411266329 -0.9678972171 -4.055748908
0.6401393453 -1.448958037 -4.549786101
0.6376912944 -1.980621173 -4.508408306
0.238678582 -1.499560353 -4.014371112
0.1698394993 -1.516709836 -4.211654171
-2.093387024 -1.836144702 -5.572462463
-0.8643805697 -0.5028381756 -4.682011371
-2.723715438 -1.389847136 -4.220944939
-0.8690992756 -1.963429669 -5.175098146
-1.478883797 -1.169491439 -5.127236917
-1.794048004 -0.9463426557 -4.451478155
-2.408551231 -1.612995919 -4.896703701
-1.48124315 -1.899787186 -5.373780304
-0.8667399226 -1.233133922 -4.928554759
-1.796407357 -1.676638402 -4.698021543
-1 0 -3.907692308
-1.573056785 0 -4.255375705
-1 0 -4.415384615
-0.9083618895 -0.4181849802 -4.181585612
-1.286528393 0 -4.081534006
-1.286528393 0 -4.33538016
-1 0 -4.161538462
-0.9541809447 -0.2090924901 -4.04463896
-1.240709337 -0.2090924901 -4.218480658
-0.9541809447 -0.2090924901 -4.298485114
2.291748005 -3.365583757 -3.4
1.973115769 -0.9463218321 -3.4
5.207805435 0 -3.4
3.61443509 0 -5.242735043
2.132431887 -2.155952795 -3.4
3.590460602 -0.4731609161 -3.4
3.74977672 -1.682791878 -3.4
2.953091548 -1.682791878 -4.321367521
2.793775429 -0.4731609161 -4.321367521
4.411120263 0 -4.321367521
1.10799114 -1.912869374 -4.846540236
0.229007106 -0.9734247508 -4.683082658
-0.1999441719 -0.9798072913 -4.920251998
0.1673914484 -2.048372972 -4.170276376
0.6684991232 -1.443147062 -4.764811447
0.01453146708 -0.976616021 -4.801667328
0.4540234843 -1.446338333 -4.883396117
0.6376912944 -1.980621173 -4.508408306
0.1981992772 -1.510898861 -4.426679517
-0.01627636172 -1.514090131 -4.545264187
1.973115769 -0.9463218321 -3.4
1 0 -3.907692308
0.9033431953 -0.4289184906 -4.161538462
0.9304901863 -0.3663168208 -3.769959613
1.486557884 -0.4731609161 -3.653846154
0.9516715976 -0.2144592453 -4.034615385
1.438229482 -0.6876201614 -3.780769231
1.451802978 -0.6563193265 -3.584979807
0.9652450932 -0.1831584104 -3.838825961
0.9169166908 -0.3976176557 -3.965749037
0.8660254038 -0.5 -3.4
1.973115769 -0.9463218321 -3.4
0.5 -0.8660254038 -3.4
0.7221779549 -0.691707309 -3.821806365
1.419570586 -0.7231609161 -3.4
1.236557884 -0.906173618 -3.4
0.6830127019 -0.6830127019 -3.4
0.7941016794 -0.5958536545 -3.610903182
1.347646862 -0.8190145706 -3.610903182
0.6110889775 -0.7788663564 -3.610903182
-2.751766964 0 -4.927824238
-1.573056785 0 -4.255375705
-3.593728995 0 -3.4
-2.723715438 -1.389847136 -4.220944939
-2.162411875 0 -4.591599972
-2.58339289 0 -3.827687852
-3.172747979 0 -4.163912119
-2.737741201 -0.6949235679 -4.574384589
-2.148386112 -0.6949235679 -4.238160322
-3.158722216 -0.6949235679 -3.81047247
2.291748005 -3.365583757 -3.4
1.973115769 -0.9463218321 -3.4
3.61443509 0 -5.242735043
2.481675156 -1.852905221 -5.938320992
2.132431887 -2.155952795 -3.4
2.793775429 -0.4731609161 -4.321367521
2.953091548 -1.682791878 -4.321367521
2.386711581 -2.609244489 -4.669160496
2.227395463 -1.399613527 -4.669160496
3.048055123 -0.9264526106 -5.590528017
-0.9265876867 -0.3760787935 -3.780449376
-0.7098042943 -0.7043989379 -3.82683187
-0.8660254038 -0.5 -3.4
-2.723715438 -1.389847136 -4.220944939
-0.8181959905 -0.5402388657 -3.803640623
-0.7879148491 -0.602199469 -3.613415935
-0.8963065452 -0.4380393968 -3.590224688
-1.825151562 -0.8829629647 -4.000697158
-1.716759866 -1.047123037 -4.023888405
-1.794870421 -0.9449235679 -3.81047247
-0.8690992756 -1.963429669 -5.175098146
-0.1999441719 -0.9798072913 -4.920251998
-0.2122923108 -0.9772062089 -4.434469173
0.1673914484 -2.048372972 -4.170276376
-0.5345217237 -1.47161848 -5.047675072
-0.2061182413 -0.9785067501 -4.677360585
-0.5406957932 -1.470317939 -4.80478366
-0.3508539136 -2.00590132 -4.672687261
-0.01627636172 -1.514090131 -4.545264187
-0.02245043118 -1.51278959 -4.302372774
2.291748005 -3.365583757 -3.4
2.481675156 -1.852905221 -5.938320992
0.1266329963 -3.312719767 -4.941549731
1.10799114 -1.912869374 -4.846540236
2.386711581 -2.609244489 -4.669160496
1.304154076 -2.582812494 -5.439935362
1.209190501 -3.339151762 -4.170774866
1.699869573 -2.639226566 -4.123270118
1.794833148 -1.882887298 -5.392430614
0.6173120684 -2.612794571 -4.894044984
0.5 -0.8660254038 -3.4
0 -1 -3.4
0.3099657156 -0.9507477348 -3.858465849
0.1673914484 -2.048372972 -4.170276376
0.25 -0.9330127019 -3.4
0.1549828578 -0.9753738674 -3.629232924
0.4049828578 -0.9083865693 -3.629232924
0.3336957242 -1.457199188 -3.785138188
0.08369572422 -1.524186486 -3.785138188
0.238678582 -1.499560353 -4.014371112
1.10799114 -1.912869374 -4.846540236
0.1722875502 -0.9850466994 -4.253031967
0.229007106 -0.9734247508 -4.683082658
0.1673914484 -2.048372972 -4.170276376
0.6401393453 -1.448958037 -4.549786101
0.2006473281 -0.9792357251 -4.468057312
0.6684991232 -1.443147062 -4.764811447
0.6376912944 -1.980621173 -4.508408306
0.1698394993 -1.516709836 -4.211654171
0.1981992772 -1.510898861 -4.426679517
1.973115769 -0.9463218321 -3.4
2.291748005 -3.365583757 -3.4
0.5 -0.8660254038 -3.4
0.1673914484 -2.048372972 -4.170276376
2.132431887 -2.155952795 -3.4
1.395874003 -2.11580458 -3.4
1.236557884 -0.906173618 -3.4
1.070253609 -1.497347402 -3.785138188
1.229569727 -2.706978364 -3.785138188
0.3336957242 -1.457199188 -3.785138188
-0.2307736601 -0.9730074603 -3.915919195
0 -1 -3.4
-0.5 -0.8660254038 -3.4
0.1673914484 -2.048372972 -4.170276376
-0.1153868301 -0.9865037302 -3.657959597
-0.25 -0.9330127019 -3.4
-0.3653868301 -0.919516432 -3.657959597
-0.03169110583 -1.510690216 -4.043097785
0.08369572422 -1.524186486 -3.785138188
-0.1663042758 -1.457199188 -3.785138188
0.3099657156 -0.9507477348 -3.858465849
0 -1 -3.4
-0.2307736601 -0.9730074603 -3.915919195
0.1673914484 -2.048372972 -4.170276376
0.1549828578 -0.9753738674 -3.629232924
-0.1153868301 -0.9865037302 -3.657959597
0.03959602774 -0.9618775975 -3.887192522
0.238678582 -1.499560353 -4.014371112
0.08369572422 -1.524186486 -3.785138188
-0.03169110583 -1.510690216 -4.043097785
1.10799114 -1.912869374 -4.846540236
2.291748005 -3.365583757 -3.4
1.973115769 -0.9463218321 -3.4
0.1673914484 -2.048372972 -4.170276376
1.699869573 -2.639226566 -4.123270118
2.132431887 -2.155952795 -3.4
1.540553455 -1.429595603 -4.123270118
0.6376912944 -1.980621173 -4.508408306
1.229569727 -2.706978364 -3.785138188
1.070253609 -1.497347402 -3.785138188
-1.38119511 -2.364212683 -3.4
-2.093387024 -1.836144702 -5.572462463
-2.723715438 -1.389847136 -4.220944939
-0.8690992756 -1.963429669 -5.175098146
-1.737291067 -2.100178693 -4.486231231
-2.408551231 -1.612995919 -4.896703701
-2.052455274 -1.877029909 -3.81047247
-1.125147193 -2.163821176 -4.287549073
-1.48124315 -1.899787186 -5.373780304
-1.796407357 -1.676638402 -4.698021543
-0.1999441719 -0.9798072913 -4.920251998
-0.8690992756 -1.963429669 -5.175098146
1.10799114 -1.912869374 -4.846540236
0.1673914484 -2.048372972 -4.170276376
-0.5345217237 -1.47161848 -5.047675072
0.1194459324 -1.938149522 -5.010819191
0.4540234843 -1.446338333 -4.883396117
-0.01627636172 -1.514090131 -4.545264187
-0.3508539136 -2.00590132 -4.672687261
0.6376912944 -1.980621173 -4.508408306
2.291748005 -3.365583757 -3.4
1.973115769 -0.9463218321 -3.4
2.481675156 -1.852905221 -5.938320992
1.10799114 -1.912869374 -4.846540236
2.132431887 -2.155952795 -3.4
2.227395463 -1.399613527 -4.669160496
2.386711581 -2.609244489 -4.669160496
1.699869573 -2.639226566 -4.123270118
1.540553455 -1.429595603 -4.123270118
1.794833148 -1.882887298 -5.392430614
-1.38119511 -2.364212683 -3.4
0.1266329963 -3.312719767 -4.941549731
-0.8690992756 -1.963429669 -5.175098146
0.1673914484 -2.048372972 -4.170276376
-0.6272810567 -2.838466225 -4.170774866
-0.3712331396 -2.638074718 -5.058323939
-1.125147193 -2.163821176 -4.287549073
-0.6069018306 -2.206292827 -3.785138188
0.1470122224 -2.68054637 -4.555913054
-0.3508539136 -2.00590132 -4.672687261
0.9033431953 -0.4289184906 -4.161538462
1 0 -3.907692308
1.973115769 -0.9463218321 -3.4
1 0 -4.415384615
0.9516715976 -0.2144592453 -4.034615385
1.486557884 -0.4731609161 -3.653846154
1.438229482 -0.6876201614 -3.780769231
0.9516715976 -0.2144592453 -4.288461538
1 0 -4.161538462
1.486557884 -0.4731609161 -3.907692308
-0.5 -0.8660254038 -3.4
0 -1 -3.4
-1.38119511 -2.364212683 -3.4
0.1673914484 -2.048372972 -4.170276376
-0.25 -0.9330127019 -3.4
-0.6905975548 -1.682106341 -3.4
-0.9405975548 -1.615119043 -3.4
-0.1663042758 -1.457199188 -3.785138188
0.08369572422 -1.524186486 -3.785138188
-0.6069018306 -2.206292827 -3.785138188
0.8660254038 -0.5 -3.4
1 0 -3.4
1.973115769 -0.9463218321 -3.4
0.9304901863 -0.3663168208 -3.769959613
0.9330127019 -0.25 -3.4
1.486557884 -0.4731609161 -3.4
1.419570586 -0.7231609161 -3.4
0.898257795 -0.4331584104 -3.584979807
0.9652450932 -0.1831584104 -3.584979807
1.451802978 -0.6563193265 -3.584979807
0.1266329963 -3.312719767 -4.941549731
2.291748005 -3.365583757 -3.4
1.10799114 -1.912869374 -4.846540236
0.1673914484 -2.048372972 -4.170276376
1.209190501 -3.339151762 -4.170774866
1.699869573 -2.639226566 -4.123270118
0.6173120684 -2.612794571 -4.894044984
0.1470122224 -2.68054637 -4.555913054
1.229569727 -2.706978364 -3.785138188
0.6376912944 -1.980621173 -4.508408306
1 0 -3.907692308
1.973115769 -0.9463218321 -3.4
1 0 -3.4
0.9304901863 -0.3663168208 -3.769959613
1.486557884 -0.4731609161 -3.653846154
1.486557884 -0.4731609161 -3.4
1 0 -3.653846154
0.9652450932 -0.1831584104 -3.838825961
1.451802978 -0.6563193265 -3.584979807
0.9652450932 -0.1831584104 -3.584979807
-1.573056785 0 -4.255375705
-2.723715438 -1.389847136 -4.220944939
-0.9094206078 -0.4158775758 -5.176923077
-0.8643805697 -0.5028381756 -4.682011371
-2.148386112 -0.6949235679 -4.238160322
-1.816568023 -0.9028623558 -4.698934008
-1.241238697 -0.2079387879 -4.716149391
-1.218718678 -0.2514190878 -4.468693538
-1.794048004 -0.9463426557 -4.451478155
-0.8869005888 -0.4593578757 -4.929467224
-0.9094206078 -0.4158775758 -5.176923077
-2.723715438 -1.389847136 -4.220944939
-1.573056785 0 -4.255375705
-1.492694661 0 -5.279902395
-1.816568023 -0.9028623558 -4.698934008
-2.148386112 -0.6949235679 -4.238160322
-1.241238697 -0.2079387879 -4.716149391
-1.201057635 -0.2079387879 -5.228412736
-2.10820505 -0.6949235679 -4.750423667
-1.532875723 0 -4.76763905
-0.9094206078 -0.4158775758 -5.176923077
-1 0 -4.923076923
-1.573056785 0 -4.255375705
-0.8643805697 -0.5028381756 -4.682011371
-0.9547103039 -0.2079387879 -5.05
-1.286528393 0 -4.589226314
-1.241238697 -0.2079387879 -4.716149391
-0.8869005888 -0.4593578757 -4.929467224
-0.9321902848 -0.2514190878 -4.802544147
-1.218718678 -0.2514190878 -4.468693538
-1.573056785 0 -4.255375705
-1 0 -4.923076923
-0.9094206078 -0.4158775758 -5.176923077
-1.492694661 0 -5.279902395
-1.286528393 0 -4.589226314
-0.9547103039 -0.2079387879 -5.05
-1.241238697 -0.2079387879 -4.716149391
-1.532875723 0 -4.76763905
-1.246347331 0 -5.101489659
-1.201057635 -0.2079387879 -5.228412736
-0.9265876867 -0.3760787935 -3.780449376
-1.573056785 0 -4.255375705
-3.593728995 0 -3.4
-1 0 -3.4
-1.249822236 -0.1880393968 -4.01791254
-2.58339289 0 -3.827687852
-2.260158341 -0.1880393968 -3.590224688
-0.9632938433 -0.1880393968 -3.590224688
-1.286528393 0 -3.827687852
-2.296864497 0 -3.4
-3.593728995 0 -3.4
-1.573056785 0 -4.255375705
-0.9265876867 -0.3760787935 -3.780449376
-2.723715438 -1.389847136 -4.220944939
-2.58339289 0 -3.827687852
-1.249822236 -0.1880393968 -4.01791254
-2.260158341 -0.1880393968 -3.590224688
-3.158722216 -0.6949235679 -3.81047247
-2.148386112 -0.6949235679 -4.238160322
-1.825151562 -0.8829629647 -4.000697158
-3.593728995 0 -3.4
-0.8660254038 -0.5 -3.4
-0.9265876867 -0.3760787935 -3.780449376
-1 0 -3.4
-2.229877199 -0.25 -3.4
-0.8963065452 -0.4380393968 -3.590224688
-2.260158341 -0.1880393968 -3.590224688
-2.296864497 0 -3.4
-0.9330127019 -0.25 -3.4
-0.9632938433 -0.1880393968 -3.590224688
-0.9265876867 -0.3760787935 -3.780449376
-0.8660254038 -0.5 -3.4
-3.593728995 0 -3.4
-2.723715438 -1.389847136 -4.220944939
-0.8963065452 -0.4380393968 -3.590224688
-2.229877199 -0.25 -3.4
-2.260158341 -0.1880393968 -3.590224688
-1.825151562 -0.8829629647 -4.000697158
-1.794870421 -0.9449235679 -3.81047247
-3.158722216 -0.6949235679 -3.81047247
0.9033431953 -0.4289184906 -4.161538462
0.9034178452 -0.4287612355 -4.669068391
1.10799114 -1.912869374 -4.846540236
0.5911402716 -0.8065687691 -4.340874266
0.9033805202 -0.428839863 -4.415303426
1.005704493 -1.170815305 -4.757804313
1.005667168 -1.170893932 -4.504039349
0.7472417334 -0.6177436298 -4.251206364
0.7472790584 -0.6176650023 -4.504971328
0.849565706 -1.359719072 -4.593707251
1.10799114 -1.912869374 -4.846540236
0.9034178452 -0.4287612355 -4.669068391
0.9033431953 -0.4289184906 -4.161538462
1.973115769 -0.9463218321 -3.4
1.005704493 -1.170815305 -4.757804313
0.9033805202 -0.428839863 -4.415303426
1.005667168 -1.170893932 -4.504039349
1.540553455 -1.429595603 -4.123270118
1.438266807 -0.6875415338 -4.034534195
1.438229482 -0.6876201614 -3.780769231
1.10799114 -1.912869374 -4.846540236
0.7221779549 -0.691707309 -3.821806365
0.9033431953 -0.4289184906 -4.161538462
0.5911402716 -0.8065687691 -4.340874266
0.9150845477 -1.302288342 -4.334173301
0.8127605751 -0.5603128998 -3.991672413
1.005667168 -1.170893932 -4.504039349
0.849565706 -1.359719072 -4.593707251
0.6566591133 -0.7491380391 -4.081340315
0.7472417334 -0.6177436298 -4.251206364
0.9033431953 -0.4289184906 -4.161538462
0.7221779549 -0.691707309 -3.821806365
1.10799114 -1.912869374 -4.846540236
1.973115769 -0.9463218321 -3.4
0.8127605751 -0.5603128998 -3.991672413
0.9150845477 -1.302288342 -4.334173301
1.005667168 -1.170893932 -4.504039349
1.438229482 -0.6876201614 -3.780769231
1.347646862 -0.8190145706 -3.610903182
1.540553455 -1.429595603 -4.123270118
-0.2000069879 -0.9797944707 -5.430059715
-0.8690992756 -1.963429669 -5.175098146
0.2379919343 -0.9712671307 -5.175612967
-0.1999441719 -0.9798072913 -4.920251998
-0.5345531317 -1.47161207 -5.30257893
-0.3155536707 -1.4673484 -5.175355557
0.01899247318 -0.9755308007 -5.302836341
-0.1999755799 -0.979800881 -5.175155856
-0.5345217237 -1.47161848 -5.047675072
0.01902388119 -0.975537211 -5.047932483
-0.8643805697 -0.5028381756 -4.682011371
-0.6144532556 -0.7889532284 -4.288476667
-0.8690992756 -1.963429669 -5.175098146
-0.5234340253 -0.852066207 -4.690042781
-0.7394169126 -0.645895702 -4.485244019
-0.7417762656 -1.376191449 -4.731787407
-0.8667399226 -1.233133922 -4.928554759
-0.6939072975 -0.6774521913 -4.686027076
-0.5689436405 -0.8205097177 -4.489259724
-0.6962666504 -1.407747938 -4.932570464
-0.6144532556 -0.7889532284 -4.288476667
-0.8643805697 -0.5028381756 -4.682011371
-0.8690992756 -1.963429669 -5.175098146
-2.723715438 -1.389847136 -4.220944939
-0.7394169126 -0.645895702 -4.485244019
-0.8667399226 -1.233133922 -4.928554759
-0.7417762656 -1.376191449 -4.731787407
-1.669084347 -1.089400182 -4.254710803
-1.794048004 -0.9463426557 -4.451478155
-1.796407357 -1.676638402 -4.698021543
2.291748005 -3.365583757 -3.4
7.654666388 -3.621100098 -3.4
3.61443509 0 -5.242735043
5.207805435 0 -3.4
4.973207196 -3.493341928 -3.4
5.634550739 -1.810550049 -4.321367521
2.953091548 -1.682791878 -4.321367521
3.74977672 -1.682791878 -3.4
6.431235911 -1.810550049 -3.4
4.411120263 0 -4.321367521
3.61443509 0 -5.242735043
7.654666388 -3.621100098 -3.4
2.291748005 -3.365583757 -3.4
2.481675156 -1.852905221 -5.938320992
5.634550739 -1.810550049 -4.321367521
4.973207196 -3.493341928 -3.4
2.953091548 -1.682791878 -4.321367521
3.048055123 -0.9264526106 -5.590528017
5.068170772 -2.73700266 -4.669160496
2.386711581 -2.609244489 -4.669160496
-0.7098042943 -0.7043989379 -3.82683187
-0.8660254038 -0.5 -3.4
-1.38119511 -2.364212683 -3.4
-0.5 -0.8660254038 -3.4
-0.7879148491 -0.602199469 -3.613415935
-1.123610257 -1.432106341 -3.4
-1.045499702 -1.53430581 -3.613415935
-0.6049021472 -0.7852121709 -3.613415935
-0.6830127019 -0.6830127019 -3.4
-0.9405975548 -1.615119043 -3.4
-0.8660254038 -0.5 -3.4
-0.7098042943 -0.7043989379 -3.82683187
-1.38119511 -2.364212683 -3.4
-2.723715438 -1.389847136 -4.220944939
-0.7879148491 -0.602199469 -3.613415935
-1.045499702 -1.53430581 -3.613415935
-1.123610257 -1.432106341 -3.4
-1.794870421 -0.9449235679 -3.81047247
-1.716759866 -1.047123037 -4.023888405
-2.052455274 -1.877029909 -3.81047247
-0.6144532556 -0.7889532284 -4.288476667
-0.8690992756 -1.963429669 -5.175098146
-1.38119511 -2.364212683 -3.4
-2.723715438 -1.389847136 -4.220944939
-0.7417762656 -1.376191449 -4.731787407
-1.125147193 -2.163821176 -4.287549073
-0.9978241826 -1.576582956 -3.844238333
-1.669084347 -1.089400182 -4.254710803
-1.796407357 -1.676638402 -4.698021543
-2.052455274 -1.877029909 -3.81047247
-1.38119511 -2.364212683 -3.4
-0.8690992756 -1.963429669 -5.175098146
-0.6144532556 -0.7889532284 -4.288476667
0.1673914484 -2.048372972 -4.170276376
-1.125147193 -2.163821176 -4.287549073
-0.7417762656 -1.376191449 -4.731787407
-0.9978241826 -1.576582956 -3.844238333
-0.6069018306 -2.206292827 -3.785138188
-0.3508539136 -2.00590132 -4.672687261
-0.2235309036 -1.4186631 -4.229376521
-1.38119511 -2.364212683 -3.4
-0.7098042943 -0.7043989379 -3.82683187
-0.6144532556 -0.7889532284 -4.288476667
-2.723715438 -1.389847136 -4.220944939
-1.045499702 -1.53430581 -3.613415935
-0.662128775 -0.7466760832 -4.057654268
-0.9978241826 -1.576582956 -3.844238333
-2.052455274 -1.877029909 -3.81047247
-1.716759866 -1.047123037 -4.023888405
-1.669084347 -1.089400182 -4.254710803
1.10799114 -1.912869374 -4.846540236
-0.8690992756 -1.963429669 -5.175098146
0.1266329963 -3.312719767 -4.941549731
0.1673914484 -2.048372972 -4.170276376
0.1194459324 -1.938149522 -5.010819191
-0.3712331396 -2.638074718 -5.058323939
0.6173120684 -2.612794571 -4.894044984
0.6376912944 -1.980621173 -4.508408306
-0.3508539136 -2.00590132 -4.672687261
0.1470122224 -2.68054637 -4.555913054
5.906920728 -9.432751709 -3.4
0.1266329963 -3.312719767 -4.941549731
-1.486149823 -6.928202819 -3.4
2.291748005 -3.365583757 -3.4
3.016776862 -6.372735738 -4.170774866
-0.6797584132 -5.120461293 -4.170774866
2.210385453 -8.180477264 -3.4
4.099334367 -6.399167733 -3.4
1.209190501 -3.339151762 -4.170774866
0.4027990914 -5.146893288 -3.4
-1.38119511 -2.364212683 -3.4
-0.2307736601 -0.9730074603 -3.915919195
-0.5 -0.8660254038 -3.4
0.1673914484 -2.048372972 -4.170276376
-0.8059843849 -1.668610072 -3.657959597
-0.3653868301 -0.919516432 -3.657959597
-0.9405975548 -1.615119043 -3.4
-0.6069018306 -2.206292827 -3.785138188
-0.03169110583 -1.510690216 -4.043097785
-0.1663042758 -1.457199188 -3.785138188
-0.2307736601 -0.9730074603 -3.915919195
-1.38119511 -2.364212683 -3.4
-0.5 -0.8660254038 -3.4
-0.7098042943 -0.7043989379 -3.82683187
-0.8059843849 -1.668610072 -3.657959597
-0.9405975548 -1.615119043 -3.4
-0.3653868301 -0.919516432 -3.657959597
-0.4702889772 -0.8387031991 -3.871375532
-1.045499702 -1.53430581 -3.613415935
-0.6049021472 -0.7852121709 -3.613415935
-0.2307736601 -0.9730074603 -3.915919195
-1.38119511 -2.364212683 -3.4
-0.6144532556 -0.7889532284 -4.288476667
0.1673914484 -2.048372972 -4.170276376
-0.8059843849 -1.668610072 -3.657959597
-0.9978241826 -1.576582956 -3.844238333
-0.4226134579 -0.8809803444 -4.102197931
-0.03169110583 -1.510690216 -4.043097785
-0.6069018306 -2.206292827 -3.785138188
-0.2235309036 -1.4186631 -4.229376521
-1.38119511 -2.364212683 -3.4
-0.2307736601 -0.9730074603 -3.915919195
-0.6144532556 -0.7889532284 -4.288476667
-0.7098042943 -0.7043989379 -3.82683187
-0.8059843849 -1.668610072 -3.657959597
-0.4226134579 -0.8809803444 -4.102197931
-0.9978241826 -1.576582956 -3.844238333
-1.045499702 -1.53430581 -3.613415935
-0.4702889772 -0.8387031991 -3.871375532
-0.662128775 -0.7466760832 -4.057654268
-1 0 8.9625
-0.975 0 9
-1 0 9.475
-0.9345940353 -0.3557161639 9.210787505
-0.9875 0 8.98125
-0.9875 0 9.2375
-1 0 9.21875
-0.9672970176 -0.1778580819 9.086643753
-0.9547970176 -0.1778580819 9.105393753
-0.9672970176 -0.1778580819 9.342893753
-0.9047163309 -0.3634740165 10.12884869
-0.6580942056 -0.7194004563 10.04732821
-0.8443747687 -0.4875 10.5
-0.7061343771 -0.7080778498 10.08118069
-0.7814052682 -0.5414372364 10.08808845
-0.7512344871 -0.6034502282 10.27366411
-0.8745455498 -0.4254870082 10.31442434
-0.805425354 -0.5357759332 10.10501469
-0.6821142914 -0.7137391531 10.06425445
-0.7752545729 -0.5977889249 10.29059034
-0.8841482528 -0.4109828063 9.729013854
-0.8864708317 -0.4627844687 9.693488499
-0.8788461538 -0.4222018923 9.25
-0.6203671475 -0.7521765766 9.505648067
-0.8853095423 -0.4368836375 9.711251176
-0.8826584928 -0.4424931805 9.471744249
-0.8814972033 -0.4165923493 9.489506927
-0.7522577001 -0.5815796914 9.61733096
-0.7534189896 -0.6074805226 9.599568283
-0.7496066507 -0.5871892344 9.377824034
-0.9015039063 -0.4327709637 8.70625
-1 0 8.9625
-0.9345940353 -0.3557161639 9.210787505
-0.8789007195 -0.4220882907 8.750217488
-0.9507519531 -0.2163854818 8.834375
-0.9672970176 -0.1778580819 9.086643753
-0.9180489708 -0.3942435638 8.958518753
-0.8902023129 -0.4274296272 8.728233744
-0.9394503598 -0.2110441454 8.856358744
-0.9067473774 -0.3889022273 8.980502497
-1 0 8.9625
-0.975 0 8.5
-0.975 0 9
-0.8789007195 -0.4220882907 8.750217488
-0.9875 0 8.73125
-0.975 0 8.75
-0.9875 0 8.98125
-0.9394503598 -0.2110441454 8.856358744
-0.9269503598 -0.2110441454 8.625108744
-0.9269503598 -0.2110441454 8.875108744
-0.8443747687 -0.4875 10.5
-0.7061343771 -0.7080778498 10.08118069
-0.6580942056 -0.7194004563 10.04732821
-0.4875 -0.8443747687 10.5
-0.7752545729 -0.5977889249 10.29059034
-0.6821142914 -0.7137391531 10.06425445
-0.7512344871 -0.6034502282 10.27366411
-0.6659373843 -0.6659373843 10.5
-0.5968171886 -0.7762263093 10.29059034
-0.5727971028 -0.7818876125 10.27366411
-0.8864708317 -0.4627844687 9.693488499
-0.6580942056 -0.7194004563 10.04732821
-0.6203671475 -0.7521765766 9.505648067
-0.8841482528 -0.4109828063 9.729013854
-0.7722825187 -0.5910924625 9.870408357
-0.6392306765 -0.7357885165 9.776488141
-0.7534189896 -0.6074805226 9.599568283
-0.8853095423 -0.4368836375 9.711251176
-0.7711212292 -0.5651916313 9.888171034
-0.7522577001 -0.5815796914 9.61733096
-1 0 9.475
-0.975 0 9
-0.975 0 9.5
-0.9345940353 -0.3557161639 9.210787505
-0.9875 0 9.2375
-0.975 0 9.25
-0.9875 0 9.4875
-0.9672970176 -0.1778580819 9.342893753
-0.9547970176 -0.1778580819 9.105393753
-0.9547970176 -0.1778580819 9.355393753
-0.7061343771 -0.7080778498 10.08118069
-0.8864708317 -0.4627844687 9.693488499
-0.6580942056 -0.7194004563 10.04732821
-0.564428944 -0.8254816577 9.694763781
-0.7963026044 -0.5854311593 9.887334593
-0.7722825187 -0.5910924625 9.870408357
-0.6821142914 -0.7137391531 10.06425445
-0.6352816605 -0.7667797538 9.887972234
-0.7254498878 -0.6441330632 9.69412614
-0.6112615748 -0.772441057 9.871045998
-1 0 9.9875
-0.975 0 10
-1 0 10.5
-0.9293672821 -0.3691564098 10.12560379
-0.9875 0 9.99375
-0.9875 0 10.25
-1 0 10.24375
-0.9646836411 -0.1845782049 10.0565519
-0.9521836411 -0.1845782049 10.0628019
-0.9646836411 -0.1845782049 10.3128019
-1 0 9.9875
-0.975 0 9.5
-0.975 0 10
-0.8841482528 -0.4109828063 9.729013854
-0.9875 0 9.74375
-0.975 0 9.75
-0.9875 0 9.99375
-0.9420741264 -0.2054914031 9.858256927
-0.9295741264 -0.2054914031 9.614506927
-0.9295741264 -0.2054914031 9.864506927
-0.7061343771 -0.7080778498 10.08118069
-0.8660254038 -0.5 10.5
-0.4875 -0.8443747687 10.5
-0.8443747687 -0.4875 10.5
-0.7860798905 -0.6040389249 10.29059034
-0.6767627019 -0.6721873843 10.5
-0.5968171886 -0.7762263093 10.29059034
-0.7752545729 -0.5977889249 10.29059034
-0.8552000862 -0.49375 10.5
-0.6659373843 -0.6659373843 10.5
-0.5 -0.8660254038 10.5
-0.8660254038 -0.5 10.5
-0.4875 -0.8443747687 10.5
-0.7061343771 -0.7080778498 10.08118069
-0.6830127019 -0.6830127019 10.5
-0.6767627019 -0.6721873843 10.5
-0.49375 -0.8552000862 10.5
-0.6030671886 -0.7870516268 10.29059034
-0.7860798905 -0.6040389249 10.29059034
-0.5968171886 -0.7762263093 10.29059034
-0.975 0 10
-0.975 0 10.5
-1 0 10.5
-0.9047163309 -0.3634740165 10.12884869
-0.975 0 10.25
-0.9875 0 10.5
-0.9875 0 10.25
-0.9398581654 -0.1817370082 10.06442434
-0.9398581654 -0.1817370082 10.31442434
-0.9523581654 -0.1817370082 10.31442434
-0.9047163309 -0.3634740165 10.12884869
-1 0 10.5
-0.975 0 10
-0.9293672821 -0.3691564098 10.12560379
-0.9523581654 -0.1817370082 10.31442434
-0.9875 0 10.25
-0.9398581654 -0.1817370082 10.06442434
-0.9170418065 -0.3663152131 10.12722624
-0.9646836411 -0.1845782049 10.3128019
-0.9521836411 -0.1845782049 10.0628019
-0.8841482528 -0.4109828063 9.729013854
-0.6580942056 -0.7194004563 10.04732821
-0.9047163309 -0.3634740165 10.12884869
-0.7061343771 -0.7080778498 10.08118069
-0.7711212292 -0.5651916313 9.888171034
-0.7814052682 -0.5414372364 10.08808845
-0.8944322918 -0.3872284114 9.92893127
-0.795141315 -0.559530328 9.90509727
-0.6821142914 -0.7137391531 10.06425445
-0.805425354 -0.5357759332 10.10501469
-1 0 9.475
-0.9345940353 -0.3557161639 9.210787505
-0.975 0 9.5
-0.8864708317 -0.4627844687 9.693488499
-0.9672970176 -0.1778580819 9.342893753
-0.9547970176 -0.1778580819 9.355393753
-0.9875 0 9.4875
-0.9432354159 -0.2313922343 9.584244249
-0.9105324335 -0.4092503163 9.452138002
-0.9307354159 -0.2313922343 9.596744249
-0.975 0 9.5
-0.8788461538 -0.4222018923 9.25
-0.8841482528 -0.4109828063 9.729013854
-0.8864708317 -0.4627844687 9.693488499
-0.9269230769 -0.2111009462 9.375
-0.8814972033 -0.4165923493 9.489506927
-0.9295741264 -0.2054914031 9.614506927
-0.9307354159 -0.2313922343 9.596744249
-0.8826584928 -0.4424931805 9.471744249
-0.8853095423 -0.4368836375 9.711251176
-0.975 0 9
-0.9345940353 -0.3557161639 9.210787505
-1 0 8.9625
-0.8789007195 -0.4220882907 8.750217488
-0.9547970176 -0.1778580819 9.105393753
-0.9672970176 -0.1778580819 9.086643753
-0.9875 0 8.98125
-0.9269503598 -0.2110441454 8.875108744
-0.9067473774 -0.3889022273 8.980502497
-0.9394503598 -0.2110441454 8.856358744
-0.9345940353 -0.3557161639 9.210787505
-0.8788461538 -0.4222018923 9.25
-0.975 0 9.5
-0.8864708317 -0.4627844687 9.693488499
-0.9067200946 -0.3889590281 9.230393753
-0.9269230769 -0.2111009462 9.375
-0.9547970176 -0.1778580819 9.355393753
-0.9105324335 -0.4092503163 9.452138002
-0.8826584928 -0.4424931805 9.471744249
-0.9307354159 -0.2313922343 9.596744249
-1 0 8.9625
-0.9015039063 -0.4327709637 8.70625
-0.975 0 8.5
-0.8789007195 -0.4220882907 8.750217488
-0.9507519531 -0.2163854818 8.834375
-0.9382519531 -0.2163854818 8.603125
-0.9875 0 8.73125
-0.9394503598 -0.2110441454 8.856358744
-0.8902023129 -0.4274296272 8.728233744
-0.9269503598 -0.2110441454 8.625108744
-0.9293672821 -0.3691564098 10.12560379
-0.8864708317 -0.4627844687 9.693488499
-0.8841482528 -0.4109828063 9.729013854
-0.7061343771 -0.7080778498 10.08118069
-0.9079190569 -0.4159704392 9.909546146
-0.8853095423 -0.4368836375 9.711251176
-0.9067577675 -0.390069608 9.927308823
-0.8177508296 -0.5386171298 10.10339224
-0.7963026044 -0.5854311593 9.887334593
-0.795141315 -0.559530328 9.90509727
-0.9293672821 -0.3691564098 10.12560379
-0.975 0 10
-0.9047163309 -0.3634740165 10.12884869
-0.8841482528 -0.4109828063 9.729013854
-0.9521836411 -0.1845782049 10.0628019
-0.9398581654 -0.1817370082 10.06442434
-0.9170418065 -0.3663152131 10.12722624
-0.9067577675 -0.390069608 9.927308823
-0.9295741264 -0.2054914031 9.864506927
-0.8944322918 -0.3872284114 9.92893127
-0.8841482528 -0.4109828063 9.729013854
-0.9047163309 -0.3634740165 10.12884869
-0.9293672821 -0.3691564098 10.12560379
-0.7061343771 -0.7080778498 10.08118069
-0.8944322918 -0.3872284114 9.92893127
-0.9170418065 -0.3663152131 10.12722624
-0.9067577675 -0.390069608 9.927308823
-0.795141315 -0.559530328 9.90509727
-0.805425354 -0.5357759332 10.10501469
-0.8177508296 -0.5386171298 10.10339224
-0.975 0 10
-0.9293672821 -0.3691564098 10.12560379
-1 0 9.9875
-0.8841482528 -0.4109828063 9.729013854
-0.9521836411 -0.1845782049 10.0628019
-0.9646836411 -0.1845782049 10.0565519
-0.9875 0 9.99375
-0.9295741264 -0.2054914031 9.864506927
-0.9067577675 -0.390069608 9.927308823
-0.9420741264 -0.2054914031 9.858256927
-0.6580942056 -0.7194004563 10.04732821
-0.8841482528 -0.4109828063 9.729013854
-0.8864708317 -0.4627844687 9.693488499
-0.7061343771 -0.7080778498 10.08118069
-0.7711212292 -0.5651916313 9.888171034
-0.8853095423 -0.4368836375 9.711251176
-0.7722825187 -0.5910924625 9.870408357
-0.6821142914 -0.7137391531 10.06425445
-0.795141315 -0.559530328 9.90509727
-0.7963026044 -0.5854311593 9.887334593
-0.8788461538 -0.4222018923 9.25
-0.8864708317 -0.4627844687 9.693488499
-0.9345940353 -0.3557161639 9.210787505
-0.6296425865 -0.7768849421 9.216699027
-0.8826584928 -0.4424931805 9.471744249
-0.9105324335 -0.4092503163 9.452138002
-0.9067200946 -0.3889590281 9.230393753
-0.7542443702 -0.5995434172 9.233349513
-0.7580567091 -0.6198347054 9.455093763
-0.7821183109 -0.566300553 9.213743266
-0.975 0 8.5
-1 0 8.9625
-1 0 8.45
-0.9015039063 -0.4327709637 8.70625
-0.9875 0 8.73125
-1 0 8.70625
-0.9875 0 8.475
-0.9382519531 -0.2163854818 8.603125
-0.9507519531 -0.2163854818 8.834375
-0.9507519531 -0.2163854818 8.578125
-1 0 9.9875
-0.8841482528 -0.4109828063 9.729013854
-0.9293672821 -0.3691564098 10.12560379
-0.8864708317 -0.4627844687 9.693488499
-0.9420741264 -0.2054914031 9.858256927
-0.9067577675 -0.390069608 9.927308823
-0.9646836411 -0.1845782049 10.0565519
-0.9432354159 -0.2313922343 9.840494249
-0.8853095423 -0.4368836375 9.711251176
-0.9079190569 -0.4159704392 9.909546146
-0.975 0 9.5
-0.9345940353 -0.3557161639 9.210787505
-0.975 0 9
-0.8788461538 -0.4222018923 9.25
-0.9547970176 -0.1778580819 9.355393753
-0.9547970176 -0.1778580819 9.105393753
-0.975 0 9.25
-0.9269230769 -0.2111009462 9.375
-0.9067200946 -0.3889590281 9.230393753
-0.9269230769 -0.2111009462 9.125
-0.564428944 -0.8254816577 9.694763781
-0.6580942056 -0.7194004563 10.04732821
-0.6203671475 -0.7521765766 9.505648067
-0.8864708317 -0.4627844687 9.693488499
-0.6112615748 -0.772441057 9.871045998
-0.6392306765 -0.7357885165 9.776488141
-0.5923980457 -0.7888291171 9.600205924
-0.7254498878 -0.6441330632 9.69412614
-0.7722825187 -0.5910924625 9.870408357
-0.7534189896 -0.6074805226 9.599568283
-0.9345940353 -0.3557161639 9.210787505
-0.8789007195 -0.4220882907 8.750217488
-0.975 0 9
-0.8788461538 -0.4222018923 9.25
-0.9067473774 -0.3889022273 8.980502497
-0.9269503598 -0.2110441454 8.875108744
-0.9547970176 -0.1778580819 9.105393753
-0.9067200946 -0.3889590281 9.230393753
-0.8788734367 -0.4221450915 9.000108744
-0.9269230769 -0.2111009462 9.125
-0.8788461538 -0.4222018923 9.25
-0.6203671475 -0.7521765766 9.505648067
-0.8864708317 -0.4627844687 9.693488499
-0.6296425865 -0.7768849421 9.216699027
-0.7496066507 -0.5871892344 9.377824034
-0.7534189896 -0.6074805226 9.599568283
-0.8826584928 -0.4424931805 9.471744249
-0.7542443702 -0.5995434172 9.233349513
-0.625004867 -0.7645307593 9.361173547
-0.7580567091 -0.6198347054 9.455093763
-0.8864708317 -0.4627844687 9.693488499
-0.6296425865 -0.7768849421 9.216699027
-0.6203671475 -0.7521765766 9.505648067
-0.564428944 -0.8254816577 9.694763781
-0.7580567091 -0.6198347054 9.455093763
-0.625004867 -0.7645307593 9.361173547
-0.7534189896 -0.6074805226 9.599568283
-0.7254498878 -0.6441330632 9.69412614
-0.5970357652 -0.8011832999 9.455731404
-0.5923980457 -0.7888291171 9.600205924
-0.6296425865 -0.7768849421 9.216699027
-0.6203671475 -0.7521765766 9.505648067
-0.6094436199 -0.7610541861 9.000842543
-0.8788461538 -0.4222018923 9.25
-0.625004867 -0.7645307593 9.361173547
-0.6149053837 -0.7566153813 9.253245305
-0.6195431032 -0.7689695641 9.108770785
-0.7542443702 -0.5995434172 9.233349513
-0.7496066507 -0.5871892344 9.377824034
-0.7441448869 -0.5916280392 9.125421272
-0.8864708317 -0.4627844687 9.693488499
-1 0 9.9875
-0.975 0 9.5
-1 0 9.475
-0.9432354159 -0.2313922343 9.840494249
-0.9875 0 9.74375
-0.9307354159 -0.2313922343 9.596744249
-0.9432354159 -0.2313922343 9.584244249
-1 0 9.73125
-0.9875 0 9.4875
-1 0 9.9875
-0.8864708317 -0.4627844687 9.693488499
-0.975 0 9.5
-0.8841482528 -0.4109828063 9.729013854
-0.9432354159 -0.2313922343 9.840494249
-0.9307354159 -0.2313922343 9.596744249
-0.9875 0 9.74375
-0.9420741264 -0.2054914031 9.858256927
-0.8853095423 -0.4368836375 9.711251176
-0.9295741264 -0.2054914031 9.614506927
-1 0 10.5
-0.8443747687 -0.4875 10.5
-0.9047163309 -0.3634740165 10.12884869
-0.975 0 10.5
-0.9221873843 -0.24375 10.5
-0.8745455498 -0.4254870082 10.31442434
-0.9523581654 -0.1817370082 10.31442434
-0.9875 0 10.5
-0.9096873843 -0.24375 10.5
-0.9398581654 -0.1817370082 10.31442434
-0.8789007195 -0.4220882907 8.750217488
-0.6094436199 -0.7610541861 9.000842543
-0.6296425865 -0.7768849421 9.216699027
-0.9015039063 -0.4327709637 8.70625
-0.7441721697 -0.5915712384 8.875530016
-0.6195431032 -0.7689695641 9.108770785
-0.754271653 -0.5994866164 8.983458257
-0.8902023129 -0.4274296272 8.728233744
-0.7554737631 -0.5969125749 8.853546272
-0.7655732464 -0.6048279529 8.961474513
-0.6296425865 -0.7768849421 9.216699027
-0.6094436199 -0.7610541861 9.000842543
-0.8789007195 -0.4220882907 8.750217488
-0.8788461538 -0.4222018923 9.25
-0.6195431032 -0.7689695641 9.108770785
-0.7441721697 -0.5915712384 8.875530016
-0.754271653 -0.5994866164 8.983458257
-0.7542443702 -0.5995434172 9.233349513
-0.7441448869 -0.5916280392 9.125421272
-0.8788734367 -0.4221450915 9.000108744
-0.6296425865 -0.7768849421 9.216699027
-0.9345940353 -0.3557161639 9.210787505
-0.8789007195 -0.4220882907 8.750217488
-0.9015039063 -0.4327709637 8.70625
-0.7821183109 -0.566300553 9.213743266
-0.9067473774 -0.3889022273 8.980502497
-0.754271653 -0.5994866164 8.983458257
-0.7655732464 -0.6048279529 8.961474513
-0.9180489708 -0.3942435638 8.958518753
-0.8902023129 -0.4274296272 8.728233744
-0.8789007195 -0.4220882907 8.750217488
-0.9345940353 -0.3557161639 9.210787505
-0.6296425865 -0.7768849421 9.216699027
-0.8788461538 -0.4222018923 9.25
-0.9067473774 -0.3889022273 8.980502497
-0.7821183109 -0.566300553 9.213743266
-0.754271653 -0.5994866164 8.983458257
-0.8788734367 -0.4221450915 9.000108744
-0.9067200946 -0.3889590281 9.230393753
-0.7542443702 -0.5995434172 9.233349513
-0.9047163309 -0.3634740165 10.12884869
-0.8660254038 -0.5 10.5
-0.7061343771 -0.7080778498 10.08118069
-0.8443747687 -0.4875 10.5
-0.8853708673 -0.4317370082 10.31442434
-0.7860798905 -0.6040389249 10.29059034
-0.805425354 -0.5357759332 10.10501469
-0.8745455498 -0.4254870082 10.31442434
-0.8552000862 -0.49375 10.5
-0.7752545729 -0.5977889249 10.29059034
-0.8660254038 -0.5 10.5
-0.9047163309 -0.3634740165 10.12884869
-0.7061343771 -0.7080778498 10.08118069
-0.9293672821 -0.3691564098 10.12560379
-0.8853708673 -0.4317370082 10.31442434
-0.805425354 -0.5357759332 10.10501469
-0.7860798905 -0.6040389249 10.29059034
-0.897696343 -0.4345782049 10.3128019
-0.9170418065 -0.3663152131 10.12722624
-0.8177508296 -0.5386171298 10.10339224
-0.8660254038 -0.5 10.5
-0.9047163309 -0.3634740165 10.12884869
-1 0 10.5
-0.8443747687 -0.4875 10.5
-0.8853708673 -0.4317370082 10.31442434
-0.9523581654 -0.1817370082 10.31442434
-0.9330127019 -0.25 10.5
-0.8552000862 -0.49375 10.5
-0.8745455498 -0.4254870082 10.31442434
-0.9221873843 -0.24375 10.5
-0.9047163309 -0.3634740165 10.12884869
-0.8660254038 -0.5 10.5
-1 0 10.5
-0.9293672821 -0.3691564098 10.12560379
-0.8853708673 -0.4317370082 10.31442434
-0.9330127019 -0.25 10.5
-0.9523581654 -0.1817370082 10.31442434
-0.9170418065 -0.3663152131 10.12722624
-0.897696343 -0.4345782049 10.3128019
-0.9646836411 -0.1845782049 10.3128019
1 0 9.9875
0.8962193432 -0.3839477685 9.75
0.907997998 -0.4189745047 9.72969638
0.9293672822 -0.3691564098 10.12560379
0.9481096716 -0.1919738842 9.86875
0.9021086706 -0.4014611366 9.73984819
0.953998999 -0.2094872524 9.85859819
0.9646836411 -0.1845782049 10.0565519
0.9127933127 -0.3765520891 9.937801897
0.9186826401 -0.3940654573 9.927650087
0.912673023 -0.3430057625 7.749918514
0.8788461538 -0.4222018923 8.25
0.9015783723 -0.4326158095 8.193990253
0.975 0 8
0.8957595884 -0.3826038274 7.999959257
0.8902122631 -0.4274088509 8.221995126
0.9071256976 -0.387810786 7.971954383
0.9438365115 -0.1715028813 7.874959257
0.9269230769 -0.2111009462 8.125
0.9382891861 -0.2163079048 8.096995126
-0.878816375 -0.4222638736 7.750121991
-0.6094886995 -0.7610180846 7.500191201
-0.6092405983 -0.761216719 8.000120375
-0.8675911387 -0.4972782079 7.736412971
-0.7441525373 -0.5916409791 7.625156596
-0.6093646489 -0.7611174018 7.750155788
-0.7440284867 -0.5917402963 7.875121183
-0.8732037569 -0.4597710407 7.743267481
-0.7385399191 -0.6291481462 7.618302086
-0.7384158685 -0.6292474634 7.868266673
0.9028155343 -0.4300280352 9.218534335
1 0 9.475
1 0 8.9625
0.975 0 9
0.9514077671 -0.2150140176 9.346767167
1 0 9.21875
0.9514077671 -0.2150140176 9.090517167
0.9389077671 -0.2150140176 9.109267167
0.9875 0 9.2375
0.9875 0 8.98125
-0.6237965432 -0.781586766 5.122295037
-0.8790343298 -0.4218099655 4.750033916
-0.8788461538 -0.4222018923 5.25
-0.6103297059 -0.760343771 5.00010251
-0.7514154365 -0.6016983658 4.936164476
-0.8789402418 -0.4220059289 5.000016958
-0.7513213485 -0.6018943291 5.186147519
-0.6170631245 -0.7709652685 5.061198773
-0.7446820178 -0.5910768683 4.875068213
-0.7445879299 -0.5912728317 5.125051255
0.975 0 8.5
1 0 8.45
0.8788461538 -0.4222018923 8.25
0.975 0 8
0.9875 0 8.475
0.9394230769 -0.2111009462 8.35
0.9269230769 -0.2111009462 8.375
0.975 0 8.25
0.9875 0 8.225
0.9269230769 -0.2111009462 8.125
-0.975 0 8.5
-0.8789007195 -0.4220882907 8.750217488
-0.9015039063 -0.4327709637 8.70625
-0.8788461538 -0.4222018923 8.25
-0.9269503598 -0.2110441454 8.625108744
-0.8902023129 -0.4274296272 8.728233744
-0.9382519531 -0.2163854818 8.603125
-0.9269230769 -0.2111009462 8.375
-0.8788734367 -0.4221450915 8.500108744
-0.89017503 -0.427486428 8.478125
-0.9015039063 -0.4327709637 8.70625
-0.8788461538 -0.4222018923 8.25
-0.8789007195 -0.4220882907 8.750217488
-0.609349871 -0.7611292496 8.5
-0.89017503 -0.427486428 8.478125
-0.8788734367 -0.4221450915 8.500108744
-0.8902023129 -0.4274296272 8.728233744
-0.7554268886 -0.5969501067 8.603125
-0.7440980124 -0.591665571 8.375
-0.7441252953 -0.5916087702 8.625108744
-0.6099565206 -0.7606431772 6.500404122
-0.8702385679 -0.4926305259 6.602794901
-0.8788461538 -0.4222018923 6.25
-0.6384248664 -0.7696841495 6.131577533
-0.7400975442 -0.6266368515 6.551599512
-0.8745423609 -0.4574162091 6.426397451
-0.7444013372 -0.5914225348 6.375202061
-0.6241906935 -0.7651636633 6.315990828
-0.7543317171 -0.6311573377 6.367186217
-0.7586355101 -0.5959430209 6.190788767
-0.6424637777 -0.7663160538 8.216276532
-0.1997137513 -0.9798542838 7.960521542
-0.6092405983 -0.761216719 8.000120375
-0.2195245265 -0.9499652532 8.249926326
-0.4210887645 -0.8730851688 8.088399037
-0.4044771748 -0.8705355014 7.980320958
-0.625852188 -0.7637663864 8.108198454
-0.4309941521 -0.8581406535 8.233101429
-0.2096191389 -0.9649097685 8.105223934
-0.4143825624 -0.8555909861 8.12502335
1 0 8.9625
0.975 0 8.5
0.912772493 -0.3427409751 8.749793398
0.975 0 9
0.9875 0 8.73125
0.9438862465 -0.1713704875 8.624896699
0.9563862465 -0.1713704875 8.856146699
0.9875 0 8.98125
0.975 0 8.75
0.9438862465 -0.1713704875 8.874896699
0.6454899266 -0.7637687835 9.492963542
0.9028155343 -0.4300280352 9.218534335
0.8788461538 -0.4222018923 9.25
0.907997998 -0.4189745047 9.72969638
0.7741527304 -0.5968984093 9.355748939
0.8908308441 -0.4261149637 9.234267167
0.7621680402 -0.5929853379 9.371481771
0.7767439623 -0.5913716441 9.611329961
0.9054067662 -0.42450127 9.474115357
0.8934220759 -0.4205881985 9.48984819
-0.8933876353 -0.4492866936 7.168897803
-0.6129029095 -0.7901582269 7.375266868
-0.6646926829 -0.7471168833 6.919476942
-0.6098568236 -0.7607231131 7.000079879
-0.7531452724 -0.6197224602 7.272082336
-0.6387977962 -0.7686375551 7.147371905
-0.7790401591 -0.5982017884 7.044187372
-0.7516222294 -0.6050049033 7.084488841
-0.6113798665 -0.77544067 7.187673373
-0.6372747533 -0.7539199982 6.95977841
0.8788461538 -0.4222018923 9.25
0.9028155343 -0.4300280352 9.218534335
1 0 9.475
0.907997998 -0.4189745047 9.72969638
0.8908308441 -0.4261149637 9.234267167
0.9514077671 -0.2150140176 9.346767167
0.9394230769 -0.2111009462 9.3625
0.8934220759 -0.4205881985 9.48984819
0.9054067662 -0.42450127 9.474115357
0.953998999 -0.2094872524 9.60234819
-0.878816375 -0.4222638736 7.750121991
-0.8675911387 -0.4972782079 7.736412971
-0.8788461538 -0.4222018923 7.25
-0.6094886995 -0.7610180846 7.500191201
-0.8732037569 -0.4597710407 7.743267481
-0.8732186463 -0.4597400501 7.493206485
-0.8788312644 -0.422232883 7.500060995
-0.7441525373 -0.5916409791 7.625156596
-0.7385399191 -0.6291481462 7.618302086
-0.7441674267 -0.5916099885 7.3750956
-0.5449097323 -0.838494713 7.777479838
-0.2195010396 -0.9499706804 7.750025587
-0.6092405983 -0.761216719 8.000120375
-0.1997137513 -0.9798542838 7.960521542
-0.3822053859 -0.8942326967 7.763752712
-0.414370819 -0.8555936997 7.875072981
-0.5770751653 -0.799855716 7.888800107
-0.3723117418 -0.9091744984 7.86900069
-0.2096073955 -0.9649124821 7.855273564
-0.4044771748 -0.8705355014 7.980320958
-0.564428944 -0.8254816577 9.694763781
-0.2098066283 -0.9777429001 9.468528812
-0.6203671475 -0.7521765766 9.505648067
-0.2274014426 -0.9481105336 9.754723569
-0.3871177861 -0.9016122789 9.581646296
-0.4150868879 -0.8649597383 9.487088439
-0.5923980457 -0.7888291171 9.600205924
-0.3959151933 -0.8867960957 9.724743675
-0.2186040354 -0.9629267169 9.611626191
-0.423884295 -0.8501435551 9.630185818
0.912772493 -0.3427409751 8.749793398
0.8788461538 -0.4222018923 9.25
0.9028155343 -0.4300280352 9.218534335
0.975 0 9
0.8958093234 -0.3824714337 8.999896699
0.8908308441 -0.4261149637 9.234267167
0.9077940137 -0.3863845051 8.984163867
0.9438862465 -0.1713704875 8.874896699
0.9269230769 -0.2111009462 9.125
0.9389077671 -0.2150140176 9.109267167
-1 0 7.425
-0.8788461538 -0.4222018923 7.25
-0.975 0 7.5
-0.878816375 -0.4222638736 7.750121991
-0.9394230769 -0.2111009462 7.3375
-0.9269230769 -0.2111009462 7.375
-0.9875 0 7.4625
-0.9394081875 -0.2111319368 7.587560995
-0.8788312644 -0.422232883 7.500060995
-0.9269081875 -0.2111319368 7.625060995
1 0 9.475
0.975 0 9
0.8788461538 -0.4222018923 9.25
0.975 0 9.5
0.9875 0 9.2375
0.9269230769 -0.2111009462 9.125
0.9394230769 -0.2111009462 9.3625
0.9875 0 9.4875
0.975 0 9.25
0.9269230769 -0.2111009462 9.375
-0.2128800189 -0.9770783477 8.45380681
-0.609349871 -0.7611292496 8.5
-0.5651385362 -0.8249960212 8.710856988
-0.2194421052 -0.9499842959 8.750386018
-0.411114945 -0.8691037987 8.476903405
-0.5872442036 -0.7930626354 8.605428494
-0.3890092775 -0.9010371844 8.582331899
-0.216161062 -0.9635313218 8.602096414
-0.4143959881 -0.8555567728 8.625193009
-0.3922903207 -0.8874901585 8.730621503
1 0 10.5
0.9293672822 -0.3691564098 10.12560379
0.8660254038 -0.5 10.5
0.9071227462 -0.3574259691 10.13807671
0.9646836411 -0.1845782049 10.3128019
0.897696343 -0.4345782049 10.3128019
0.9330127019 -0.25 10.5
0.9535613731 -0.1787129846 10.31903835
0.9182450142 -0.3632911894 10.13184025
0.886574075 -0.4287129846 10.31903835
-0.564428944 -0.8254816577 9.694763781
-0.2274014426 -0.9481105336 9.754723569
-0.6580942056 -0.7194004563 10.04732821
-0.2304593685 -0.973081949 10.01392188
-0.3959151933 -0.8867960957 9.724743675
-0.4427478241 -0.833755495 9.901025892
-0.6112615748 -0.772441057 9.871045998
-0.3974441562 -0.8992818034 9.854342831
-0.2289304055 -0.9605962413 9.884322725
-0.444276787 -0.8462412027 10.03062505
-0.2128800189 -0.9770783477 8.45380681
-0.6424637777 -0.7663160538 8.216276532
-0.609349871 -0.7611292496 8.5
-0.2195245265 -0.9499652532 8.249926326
-0.4276718983 -0.8716972007 8.335041671
-0.6259068244 -0.7637226517 8.358138266
-0.411114945 -0.8691037987 8.476903405
-0.2162022727 -0.9635218004 8.351866568
-0.4309941521 -0.8581406535 8.233101429
-0.4144371988 -0.8555472514 8.374963163
0.9293672822 -0.3691564098 10.12560379
1 0 10.5
1 0 9.9875
0.975 0 10
0.9646836411 -0.1845782049 10.3128019
1 0 10.24375
0.9646836411 -0.1845782049 10.0565519
0.9521836411 -0.1845782049 10.0628019
0.9875 0 10.25
0.9875 0 9.99375
0.9126496686 -0.3430678975 6.74992555
0.9013328486 -0.433127113 7.168814654
1 0 6.9125
0.975 0 7
0.9069912586 -0.3880975053 6.959370102
0.9506664243 -0.2165635565 7.040657327
0.9563248343 -0.1715339488 6.831212775
0.9438248343 -0.1715339488 6.874962775
0.9381664243 -0.2165635565 7.084407327
0.9875 0 6.95625
0.9293672822 -0.3691564098 10.12560379
0.9071227462 -0.3574259691 10.13807671
1 0 10.5
0.975 0 10
0.9182450142 -0.3632911894 10.13184025
0.9535613731 -0.1787129846 10.31903835
0.9646836411 -0.1845782049 10.3128019
0.9521836411 -0.1845782049 10.0628019
0.9410613731 -0.1787129846 10.06903835
0.9875 0 10.25
0.6242791185 -0.7489329624 9.70749038
0.2393462667 -0.9451657868 10.0494947
0.2490102718 -0.9685008439 9.738197861
0.6791118216 -0.7340348315 10.05048021
0.4318126926 -0.8470493746 9.878492541
0.2441782692 -0.9568333153 9.893846282
0.4366446951 -0.8587169031 9.722844121
0.65169547 -0.741483897 9.878985295
0.4592290441 -0.8396003092 10.04998746
0.4640610467 -0.8512678377 9.894339036
1 0 7.9375
0.912673023 -0.3430057625 7.749918514
0.9015783723 -0.4326158095 8.193990253
0.975 0 8
0.9563365115 -0.1715028813 7.843709257
0.9071256976 -0.387810786 7.971954383
0.9507891861 -0.2163079048 8.065745126
0.9875 0 7.96875
0.9438365115 -0.1715028813 7.874959257
0.9382891861 -0.2163079048 8.096995126
1 0 9.9875
0.975 0 9.5
0.8962193432 -0.3839477685 9.75
0.975 0 10
0.9875 0 9.74375
0.9356096716 -0.1919738842 9.625
0.9481096716 -0.1919738842 9.86875
0.9875 0 9.99375
0.975 0 9.75
0.9356096716 -0.1919738842 9.875
1 0 8.9625
0.912772493 -0.3427409751 8.749793398
0.9028155343 -0.4300280352 9.218534335
0.975 0 9
0.9563862465 -0.1713704875 8.856146699
0.9077940137 -0.3863845051 8.984163867
0.9514077671 -0.2150140176 9.090517167
0.9875 0 8.98125
0.9438862465 -0.1713704875 8.874896699
0.9389077671 -0.2150140176 9.109267167
0.975 0 10.5
1 0 10.5
0.8443747687 -0.4875 10.5
0.9071227462 -0.3574259691 10.13807671
0.9875 0 10.5
0.9221873843 -0.24375 10.5
0.9096873843 -0.24375 10.5
0.9410613731 -0.1787129846 10.31903835
0.9535613731 -0.1787129846 10.31903835
0.8757487574 -0.4224629846 10.31903835
0.9071227462 -0.3574259691 10.13807671
1 0 10.5
0.8443747687 -0.4875 10.5
0.8660254038 -0.5 10.5
0.9535613731 -0.1787129846 10.31903835
0.9221873843 -0.24375 10.5
0.8757487574 -0.4224629846 10.31903835
0.886574075 -0.4287129846 10.31903835
0.9330127019 -0.25 10.5
0.8552000862 -0.49375 10.5
-0.6094436199 -0.7610541861 9.000842543
-0.2200566406 -0.9498421316 9.251685326
-0.6296425865 -0.7768849421 9.216699027
-0.2110861621 -0.9774674584 8.96530149
-0.4147501302 -0.8554481588 9.126263935
-0.4248496136 -0.8633635368 9.234192176
-0.6195431032 -0.7689695641 9.108770785
-0.410264891 -0.8692608222 8.983072017
-0.2155714014 -0.963654795 9.108493408
-0.4203643743 -0.8771762002 9.091000258
1 0 10.5
0.9071227462 -0.3574259691 10.13807671
0.975 0 10.5
0.975 0 10
0.9535613731 -0.1787129846 10.31903835
0.9410613731 -0.1787129846 10.31903835
0.9875 0 10.5
0.9875 0 10.25
0.9410613731 -0.1787129846 10.06903835
0.975 0 10.25
0.5 -0.8660254038 10.5
0.6989398508 -0.6797853227 10.13644285
0.4875 -0.8443747687 10.5
0.8443747687 -0.4875 10.5
0.5994699254 -0.7729053632 10.31822143
0.5932199254 -0.7620800457 10.31822143
0.49375 -0.8552000862 10.5
0.6721873843 -0.6767627019 10.5
0.7716573097 -0.5836426613 10.31822143
0.6659373843 -0.6659373843 10.5
0.6989398508 -0.6797853227 10.13644285
0.5 -0.8660254038 10.5
0.8660254038 -0.5 10.5
0.8443747687 -0.4875 10.5
0.5994699254 -0.7729053632 10.31822143
0.6830127019 -0.6830127019 10.5
0.7824826273 -0.5898926613 10.31822143
0.7716573097 -0.5836426613 10.31822143
0.6721873843 -0.6767627019 10.5
0.8552000862 -0.49375 10.5
-1 0 7.9375
-0.878816375 -0.4222638736 7.750121991
-0.975 0 8
-0.932968804 -0.3599572346 8.209287901
-0.9394081875 -0.2111319368 7.843810995
-0.9269081875 -0.2111319368 7.875060995
-0.9875 0 7.96875
-0.966484402 -0.1799786173 8.07339395
-0.9058925895 -0.3911105541 7.979704946
-0.953984402 -0.1799786173 8.10464395
-0.252348569 -0.9417776806 10.17127283
-0.4875 -0.8443747687 10.5
0 -1 10.5
0 -0.975 10.5
-0.3699242845 -0.8930762247 10.33563642
-0.24375 -0.9221873843 10.5
-0.1261742845 -0.9708888403 10.33563642
-0.1261742845 -0.9583888403 10.33563642
-0.24375 -0.9096873843 10.5
0 -0.9875 10.5
-1 0 8.45
-0.932968804 -0.3599572346 8.209287901
-0.975 0 8.5
-0.9015039063 -0.4327709637 8.70625
-0.966484402 -0.1799786173 8.32964395
-0.953984402 -0.1799786173 8.35464395
-0.9875 0 8.475
-0.9507519531 -0.2163854818 8.578125
-0.9172363551 -0.3963640991 8.45776895
-0.9382519531 -0.2163854818 8.603125
0.2588190451 -0.9659258263 10.16359271
0 -1 10.5
0.4875 -0.8443747687 10.5
0 -0.975 10.5
0.1294095226 -0.9829629131 10.33179636
0.24375 -0.9221873843 10.5
0.3731595226 -0.9051502975 10.33179636
0.1294095226 -0.9704629131 10.33179636
0 -0.9875 10.5
0.24375 -0.9096873843 10.5
0.2588190451 -0.9659258263 10.16359271
0.4875 -0.8443747687 10.5
0 -1 10.5
0.5 -0.8660254038 10.5
0.3731595226 -0.9051502975 10.33179636
0.24375 -0.9221873843 10.5
0.1294095226 -0.9829629131 10.33179636
0.3794095226 -0.915975615 10.33179636
0.49375 -0.8552000862 10.5
0.25 -0.9330127019 10.5
1 0 9.475
0.9028155343 -0.4300280352 9.218534335
0.8788461538 -0.4222018923 9.25
0.975 0 9
0.9514077671 -0.2150140176 9.346767167
0.8908308441 -0.4261149637 9.234267167
0.9394230769 -0.2111009462 9.3625
0.9875 0 9.2375
0.9389077671 -0.2150140176 9.109267167
0.9269230769 -0.2111009462 9.125
1 0 8.45
0.9015783723 -0.4326158095 8.193990253
0.8788461538 -0.4222018923 8.25
0.975 0 8
0.9507891861 -0.2163079048 8.321995126
0.8902122631 -0.4274088509 8.221995126
0.9394230769 -0.2111009462 8.35
0.9875 0 8.225
0.9382891861 -0.2163079048 8.096995126
0.9269230769 -0.2111009462 8.125
-0.975 0 8.5
-0.9015039063 -0.4327709637 8.70625
-0.932968804 -0.3599572346 8.209287901
-0.8788461538 -0.4222018923 8.25
-0.9382519531 -0.2163854818 8.603125
-0.9172363551 -0.3963640991 8.45776895
-0.953984402 -0.1799786173 8.35464395
-0.9269230769 -0.2111009462 8.375
-0.89017503 -0.427486428 8.478125
-0.9059074789 -0.3910795634 8.22964395
0.5 -0.8660254038 10.5
0.2588190451 -0.9659258263 10.16359271
0.4875 -0.8443747687 10.5
0.6791118216 -0.7340348315 10.05048021
0.3794095226 -0.915975615 10.33179636
0.3731595226 -0.9051502975 10.33179636
0.49375 -0.8552000862 10.5
0.5895559108 -0.8000301176 10.27524011
0.4689654333 -0.8499803289 10.10703646
0.5833059108 -0.7892048001 10.27524011
1 0 7.425
0.8788461538 -0.4222018923 7.25
0.9014170074 -0.432951936 7.681772888
0.975 0 7.5
0.9394230769 -0.2111009462 7.3375
0.8901315806 -0.4275769141 7.465886444
0.9507085037 -0.216475968 7.553386444
0.9875 0 7.4625
0.9269230769 -0.2111009462 7.375
0.9382085037 -0.216475968 7.590886444
-0.2194421052 -0.9499842959 8.750386018
-0.6094436199 -0.7610541861 9.000842543
-0.5651385362 -0.8249960212 8.710856988
-0.2110861621 -0.9774674584 8.96530149
-0.4144428625 -0.855519241 8.875614281
-0.587291078 -0.7930251036 8.855849766
-0.3922903207 -0.8874901585 8.730621503
-0.2152641336 -0.9637258771 8.857843754
-0.410264891 -0.8692608222 8.983072017
-0.3881123491 -0.9012317398 8.838079239
0.6989398508 -0.6797853227 10.13644285
0.9293672822 -0.3691564098 10.12560379
0.8962193432 -0.3839477685 9.75
0.9071227462 -0.3574259691 10.13807671
0.8141535665 -0.5244708662 10.13102332
0.9127933127 -0.3765520891 9.937801897
0.797579597 -0.5318665456 9.943221427
0.8030312985 -0.5186056459 10.13725978
0.9182450142 -0.3632911894 10.13184025
0.9016710447 -0.3706868688 9.944038355
-0.252348569 -0.9417776806 10.17127283
-0.5 -0.8660254038 10.5
0 -1 10.5
-0.4875 -0.8443747687 10.5
-0.3761742845 -0.9039015422 10.33563642
-0.25 -0.9330127019 10.5
-0.1261742845 -0.9708888403 10.33563642
-0.3699242845 -0.8930762247 10.33563642
-0.49375 -0.8552000862 10.5
-0.24375 -0.9221873843 10.5
0.8788461538 -0.4222018923 7.25
1 0 7.425
0.9013328486 -0.433127113 7.168814654
0.975 0 7
0.9394230769 -0.2111009462 7.3375
0.9506664243 -0.2165635565 7.296907327
0.8900895012 -0.4276645027 7.209407327
0.9269230769 -0.2111009462 7.125
0.9875 0 7.2125
0.9381664243 -0.2165635565 7.084407327
0.5 -0.8660254038 10.5
0.6791118216 -0.7340348315 10.05048021
0.4875 -0.8443747687 10.5
0.6989398508 -0.6797853227 10.13644285
0.5895559108 -0.8000301176 10.27524011
0.5833059108 -0.7892048001 10.27524011
0.49375 -0.8552000862 10.5
0.5994699254 -0.7729053632 10.31822143
0.6890258362 -0.7069100771 10.09346153
0.5932199254 -0.7620800457 10.31822143
-0.6296425865 -0.7768849421 9.216699027
-0.2200566406 -0.9498421316 9.251685326
-0.6203671475 -0.7521765766 9.505648067
-0.2098066283 -0.9777429001 9.468528812
-0.4248496136 -0.8633635368 9.234192176
-0.420211894 -0.8510093541 9.378666697
-0.625004867 -0.7645307593 9.361173547
-0.4197246074 -0.8773139211 9.342613919
-0.2149316345 -0.9637925158 9.360107069
-0.4150868879 -0.8649597383 9.487088439
0.8962193432 -0.3839477685 9.75
0.9071227462 -0.3574259691 10.13807671
0.9293672822 -0.3691564098 10.12560379
0.975 0 10
0.9016710447 -0.3706868688 9.944038355
0.9182450142 -0.3632911894 10.13184025
0.9127933127 -0.3765520891 9.937801897
0.9356096716 -0.1919738842 9.875
0.9410613731 -0.1787129846 10.06903835
0.9521836411 -0.1845782049 10.0628019
0.9293672822 -0.3691564098 10.12560379
1 0 9.9875
0.8962193432 -0.3839477685 9.75
0.975 0 10
0.9646836411 -0.1845782049 10.0565519
0.9481096716 -0.1919738842 9.86875
0.9127933127 -0.3765520891 9.937801897
0.9521836411 -0.1845782049 10.0628019
0.9875 0 9.99375
0.9356096716 -0.1919738842 9.875
0.8660254038 -0.5 10.5
0.9293672822 -0.3691564098 10.12560379
0.6989398508 -0.6797853227 10.13644285
0.9071227462 -0.3574259691 10.13807671
0.897696343 -0.4345782049 10.3128019
0.8141535665 -0.5244708662 10.13102332
0.7824826273 -0.5898926613 10.31822143
0.886574075 -0.4287129846 10.31903835
0.9182450142 -0.3632911894 10.13184025
0.8030312985 -0.5186056459 10.13725978
0.6989398508 -0.6797853227 10.13644285
0.8443747687 -0.4875 10.5
0.8660254038 -0.5 10.5
0.9071227462 -0.3574259691 10.13807671
0.7716573097 -0.5836426613 10.31822143
0.8552000862 -0.49375 10.5
0.7824826273 -0.5898926613 10.31822143
0.8030312985 -0.5186056459 10.13725978
0.8757487574 -0.4224629846 10.31903835
0.886574075 -0.4287129846 10.31903835
0.230713935 -0.9730216237 7.682627658
-0.1924208301 -0.9813125008 7.442231177
0.207915524 -0.9525734276 7.499737179
0.2307344612 -0.9730167565 7.169861497
0.01914655244 -0.9771670622 7.562429417
0.007747346958 -0.9669429642 7.470984178
0.2193147295 -0.9627975256 7.591182419
0.2307241981 -0.9730191901 7.426244578
0.01915681557 -0.9771646286 7.306046337
0.2193249926 -0.962795092 7.334799338
-1 0 6.9125
-0.975 0 6.5
-0.975 0 7
-0.8789496634 -0.4219863613 6.750085592
-0.9875 0 6.70625
-0.975 0 6.75
-0.9875 0 6.95625
-0.9394748317 -0.2109931806 6.831292796
-0.9269748317 -0.2109931806 6.625042796
-0.9269748317 -0.2109931806 6.875042796
-0.2214153201 -0.9495263325 5.75019275
-0.6101456436 -0.7604914816 6.000124348
-0.6101929593 -0.7604535176 5.500270166
-0.5651741527 -0.824971622 5.630960904
-0.4157804818 -0.855008907 5.875158549
-0.6101693014 -0.7604724996 5.750197257
-0.4158041397 -0.854989925 5.625231458
-0.3932947364 -0.8872489772 5.690576827
-0.5876598982 -0.7927315518 5.815542626
-0.587683556 -0.7927125698 5.565615535
-0.8675911387 -0.4972782079 7.736412971
-0.878816375 -0.4222638736 7.750121991
-1 0 7.9375
-0.932968804 -0.3599572346 8.209287901
-0.8732037569 -0.4597710407 7.743267481
-0.9394081875 -0.2111319368 7.843810995
-0.9337955694 -0.2486391039 7.836956485
-0.9002799714 -0.4286177212 7.972850436
-0.9058925895 -0.3911105541 7.979704946
-0.966484402 -0.1799786173 8.07339395
0.6791118216 -0.7340348315 10.05048021
0.5 -0.8660254038 10.5
0.8660254038 -0.5 10.5
0.6989398508 -0.6797853227 10.13644285
0.5895559108 -0.8000301176 10.27524011
0.6830127019 -0.6830127019 10.5
0.7725686127 -0.6170174157 10.27524011
0.6890258362 -0.7069100771 10.09346153
0.5994699254 -0.7729053632 10.31822143
0.7824826273 -0.5898926613 10.31822143
0.2307344612 -0.9730167565 7.169861497
0.6250155466 -0.7806123023 7.425684791
0.6248686988 -0.7807298568 6.911707017
0.5325267668 -0.8167253165 7.249751731
0.4278750039 -0.8768145294 7.297773144
0.6249421227 -0.7806710795 7.168695904
0.42780158 -0.8768733066 7.040784257
0.381630614 -0.8948710365 7.209806614
0.5787711567 -0.7986688094 7.337718261
0.5786977328 -0.7987275867 7.080729374
-1 0 7.425
-0.8788461538 -0.4222018923 7.25
-0.8675911387 -0.4972782079 7.736412971
-0.8933876353 -0.4492866936 7.168897803
-0.9394230769 -0.2111009462 7.3375
-0.8732186463 -0.4597400501 7.493206485
-0.9337955694 -0.2486391039 7.580706485
-0.9466938177 -0.2246433468 7.296948901
-0.8861168946 -0.435744293 7.209448901
-0.880489387 -0.4732824507 7.452655387
-0.975 0 8
-0.932968804 -0.3599572346 8.209287901
-0.878816375 -0.4222638736 7.750121991
-0.8788461538 -0.4222018923 8.25
-0.953984402 -0.1799786173 8.10464395
-0.9058925895 -0.3911105541 7.979704946
-0.9269081875 -0.2111319368 7.875060995
-0.9269230769 -0.2111009462 8.125
-0.9059074789 -0.3910795634 8.22964395
-0.8788312644 -0.422232883 8.000060995
-0.6099565206 -0.7606431772 6.500404122
-0.2212652659 -0.9495613103 6.250184327
-0.2210566965 -0.9496098867 6.750183493
-0.2082000723 -0.9780862589 6.38159685
-0.4156108932 -0.8551022438 6.375294225
-0.2211609812 -0.9495855985 6.50018391
-0.4155066085 -0.855126532 6.625293807
-0.4090782964 -0.8693647181 6.441000486
-0.2147326691 -0.9638237846 6.315890589
-0.2146283844 -0.9638480728 6.565890171
-1 0 5.8875
-0.975 0 6
-1 0 6.4
-0.9329752713 -0.3599404717 6.130624487
-0.9875 0 5.94375
-0.9875 0 6.2
-1 0 6.14375
-0.9664876356 -0.1799702359 6.009062243
-0.9539876356 -0.1799702359 6.065312243
-0.9664876356 -0.1799702359 6.265312243
-1 0 7.425
-0.975 0 7
-0.975 0 7.5
-0.8788461538 -0.4222018923 7.25
-0.9875 0 7.2125
-0.975 0 7.25
-0.9875 0 7.4625
-0.9394230769 -0.2111009462 7.3375
-0.9269230769 -0.2111009462 7.125
-0.9269230769 -0.2111009462 7.375
-0.6101456436 -0.7604914816 6.000124348
-0.9015039063 -0.4327709637 5.63125
-0.5651741527 -0.824971622 5.630960904
-0.6384248664 -0.7696841495 6.131577533
-0.7558247749 -0.5966312227 5.815687174
-0.7333390295 -0.6288712928 5.631105452
-0.5876598982 -0.7927315518 5.815542626
-0.624285255 -0.7650878156 6.065850941
-0.7699643863 -0.6012275566 5.881413767
-0.6017995096 -0.7973278857 5.881269219
-0.8789496634 -0.4219863613 6.750085592
-1 0 6.9125
-0.8702385679 -0.4926305259 6.602794901
-0.8933876353 -0.4492866936 7.168897803
-0.9394748317 -0.2109931806 6.831292796
-0.9351192839 -0.2463152629 6.757647451
-0.8745941157 -0.4573084436 6.676440247
-0.8861686494 -0.4356365274 6.959491697
-0.9466938177 -0.2246433468 7.040698901
-0.8818131016 -0.4709586097 6.885846352
-0.252348569 -0.9417776806 10.17127283
-0.2304593685 -0.973081949 10.01392188
-0.2274014426 -0.9481105336 9.754723569
0.2393462667 -0.9451657868 10.0494947
-0.2414039687 -0.9574298148 10.09259736
-0.2289304055 -0.9605962413 9.884322725
-0.2398750058 -0.9449441071 9.9629982
-0.006501151127 -0.9434717337 10.11038377
0.004443449112 -0.9591238679 10.03170829
0.005972412079 -0.9466381602 9.902109136
-0.6237965432 -0.781586766 5.122295037
-0.9015039063 -0.4327709637 4.60625
-0.8790343298 -0.4218099655 4.750033916
-0.6103297059 -0.760343771 5.00010251
-0.7626502247 -0.6071788648 4.864272519
-0.890269118 -0.4272904646 4.678141958
-0.7514154365 -0.6016983658 4.936164476
-0.6170631245 -0.7709652685 5.061198773
-0.7559168061 -0.5965573674 4.803176255
-0.7446820178 -0.5910768683 4.875068213
-0.8788461538 -0.4222018923 5.25
-0.6101929593 -0.7604535176 5.500270166
-0.9015039063 -0.4327709637 5.63125
-0.6237965432 -0.781586766 5.122295037
-0.7445195566 -0.5913277049 5.375135083
-0.7558484328 -0.5966122406 5.565760083
-0.89017503 -0.427486428 5.440625
-0.7513213485 -0.6018943291 5.186147519
-0.6169947512 -0.7710201418 5.311282602
-0.7626502247 -0.6071788648 5.376772519
-1 0 5.375
-0.936435833 -0.3508388957 5.119459007
-1 0 4.8625
-0.975 0 5
-0.9682179165 -0.1754194479 5.247229504
-0.9682179165 -0.1754194479 4.990979504
-1 0 5.11875
-0.9875 0 5.1875
-0.9557179165 -0.1754194479 5.059729504
-0.9875 0 4.93125
-0.936435833 -0.3508388957 5.119459007
-0.8788461538 -0.4222018923 5.25
-0.8790343298 -0.4218099655 4.750033916
-0.975 0 5
-0.9076409934 -0.386520394 5.184729504
-0.8789402418 -0.4220059289 5.000016958
-0.9077350814 -0.3863244306 4.934746462
-0.9557179165 -0.1754194479 5.059729504
-0.9269230769 -0.2111009462 5.125
-0.9270171649 -0.2109049828 4.875016958
0.2246689517 -0.9744351503 6.14135841
-0.2082000723 -0.9780862589 6.38159685
0.2248867556 -0.9743849071 6.65722854
0.2072764243 -0.9527126975 6.499778413
0.008234439706 -0.9762607046 6.26147763
0.008343341682 -0.976235583 6.519412695
0.2247778537 -0.9744100287 6.399293475
0.215972688 -0.9635739239 6.320568412
-0.0004618239921 -0.9653994782 6.440687632
0.21608159 -0.9635488023 6.578503476
1 0 6.9125
0.975 0 6.5
0.9126496686 -0.3430678975 6.74992555
0.975 0 7
0.9875 0 6.70625
0.9438248343 -0.1715339488 6.624962775
0.9563248343 -0.1715339488 6.831212775
0.9875 0 6.95625
0.975 0 6.75
0.9438248343 -0.1715339488 6.874962775
1 0 7.425
0.975 0 7
0.8788461538 -0.4222018923 7.25
0.975 0 7.5
0.9875 0 7.2125
0.9269230769 -0.2111009462 7.125
0.9394230769 -0.2111009462 7.3375
0.9875 0 7.4625
0.975 0 7.25
0.9269230769 -0.2111009462 7.375
0.6226237727 -0.7825213337 6.399837011
0.6041524316 -0.7652612883 6.749622929
0.6248686988 -0.7807298568 6.911707017
0.9010928457 -0.4336262025 6.656223231
0.6133881021 -0.773891311 6.57472997
0.6145105652 -0.7729955725 6.830664973
0.6237462357 -0.7816255953 6.655772014
0.7618583092 -0.6080737681 6.528030121
0.7526226387 -0.5994437454 6.70292308
0.7629807722 -0.6071780296 6.783965124
-0.932968804 -0.3599572346 8.209287901
-0.8788461538 -0.4222018923 8.25
-0.9015039063 -0.4327709637 8.70625
-0.6424637777 -0.7663160538 8.216276532
-0.9059074789 -0.3910795634 8.22964395
-0.89017503 -0.427486428 8.478125
-0.9172363551 -0.3963640991 8.45776895
-0.7877162909 -0.5631366442 8.212782216
-0.7606549658 -0.5942589731 8.233138266
-0.771983842 -0.5995435087 8.461263266
-0.9015039063 -0.4327709637 8.70625
-0.6424637777 -0.7663160538 8.216276532
-0.8788461538 -0.4222018923 8.25
-0.609349871 -0.7611292496 8.5
-0.771983842 -0.5995435087 8.461263266
-0.7606549658 -0.5942589731 8.233138266
-0.89017503 -0.427486428 8.478125
-0.7554268886 -0.5969501067 8.603125
-0.6259068244 -0.7637226517 8.358138266
-0.7440980124 -0.591665571 8.375
-0.975 0 8.5
-1 0 8.45
-0.975 0 8
-0.932968804 -0.3599572346 8.209287901
-0.9875 0 8.475
-0.9875 0 8.225
-0.975 0 8.25
-0.953984402 -0.1799786173 8.35464395
-0.966484402 -0.1799786173 8.32964395
-0.953984402 -0.1799786173 8.10464395
-0.975 0 8
-1 0 7.9375
-0.975 0 7.5
-0.878816375 -0.4222638736 7.750121991
-0.9875 0 7.96875
-0.9875 0 7.71875
-0.975 0 7.75
-0.9269081875 -0.2111319368 7.875060995
-0.9394081875 -0.2111319368 7.843810995
-0.9269081875 -0.2111319368 7.625060995
-0.9329752713 -0.3599404717 6.130624487
-0.8788461538 -0.4222018923 6.25
-0.8789979967 -0.4218856738 5.750070697
-0.975 0 6
-0.9059107126 -0.391071182 6.190312243
-0.8789220753 -0.4220437831 6.000035348
-0.905986634 -0.3909130728 5.940347592
-0.9539876356 -0.1799702359 6.065312243
-0.9269230769 -0.2111009462 6.125
-0.9269989984 -0.2109428369 5.875035348
-0.975 0 8
-1 0 8.45
-1 0 7.9375
-0.932968804 -0.3599572346 8.209287901
-0.9875 0 8.225
-1 0 8.19375
-0.9875 0 7.96875
-0.953984402 -0.1799786173 8.10464395
-0.966484402 -0.1799786173 8.32964395
-0.966484402 -0.1799786173 8.07339395
-0.6424637777 -0.7663160538 8.216276532
-0.5449097323 -0.838494713 7.777479838
-0.8675911387 -0.4972782079 7.736412971
-0.6092405983 -0.761216719 8.000120375
-0.593686755 -0.8024053834 7.996878185
-0.7062504355 -0.6678864604 7.756946404
-0.7550274582 -0.6317971308 7.976344751
-0.625852188 -0.7637663864 8.108198454
-0.5770751653 -0.799855716 7.888800107
-0.7384158685 -0.6292474634 7.868266673
-1 0 7.425
-0.975 0 7.5
-1 0 7.9375
-0.878816375 -0.4222638736 7.750121991
-0.9875 0 7.4625
-0.9875 0 7.71875
-1 0 7.68125
-0.9394081875 -0.2111319368 7.587560995
-0.9269081875 -0.2111319368 7.625060995
-0.9394081875 -0.2111319368 7.843810995
-0.975 0 5.5
-0.8788461538 -0.4222018923 5.25
-0.8789979967 -0.4218856738 5.750070697
-0.9015039063 -0.4327709637 5.63125
-0.9269230769 -0.2111009462 5.375
-0.8789220753 -0.4220437831 5.500035348
-0.9269989984 -0.2109428369 5.625035348
-0.9382519531 -0.2163854818 5.565625
-0.89017503 -0.427486428 5.440625
-0.8902509515 -0.4273283188 5.690660348
-0.8675911387 -0.4972782079 7.736412971
-0.6094886995 -0.7610180846 7.500191201
-0.5449097323 -0.838494713 7.777479838
-0.6129029095 -0.7901582269 7.375266868
-0.7385399191 -0.6291481462 7.618302086
-0.5771992159 -0.7997563988 7.638835519
-0.7062504355 -0.6678864604 7.756946404
-0.7402470241 -0.6437182174 7.55583992
-0.6111958045 -0.7755881558 7.437729035
-0.5789063209 -0.8143264699 7.576373353
-0.8788461538 -0.4222018923 7.25
-1 0 7.425
-0.8675911387 -0.4972782079 7.736412971
-0.878816375 -0.4222638736 7.750121991
-0.9394230769 -0.2111009462 7.3375
-0.9337955694 -0.2486391039 7.580706485
-0.8732186463 -0.4597400501 7.493206485
-0.8788312644 -0.422232883 7.500060995
-0.9394081875 -0.2111319368 7.587560995
-0.8732037569 -0.4597710407 7.743267481
-1 0 7.9375
-0.8675911387 -0.4972782079 7.736412971
-1 0 7.425
-0.878816375 -0.4222638736 7.750121991
-0.9337955694 -0.2486391039 7.836956485
-0.9337955694 -0.2486391039 7.580706485
-1 0 7.68125
-0.9394081875 -0.2111319368 7.843810995
-0.8732037569 -0.4597710407 7.743267481
-0.9394081875 -0.2111319368 7.587560995
1 0 6.9125
0.9013328486 -0.433127113 7.168814654
1 0 7.425
0.975 0 7
0.9506664243 -0.2165635565 7.040657327
0.9506664243 -0.2165635565 7.296907327
1 0 7.16875
0.9875 0 6.95625
0.9381664243 -0.2165635565 7.084407327
0.9875 0 7.2125
-0.975 0 5.5
-1 0 5.8875
-1 0 5.375
-0.9015039063 -0.4327709637 5.63125
-0.9875 0 5.69375
-1 0 5.63125
-0.9875 0 5.4375
-0.9382519531 -0.2163854818 5.565625
-0.9507519531 -0.2163854818 5.759375
-0.9507519531 -0.2163854818 5.503125
-0.9015039063 -0.4327709637 5.63125
-0.6101456436 -0.7604914816 6.000124348
-0.8789979967 -0.4218856738 5.750070697
-0.6384248664 -0.7696841495 6.131577533
-0.7558247749 -0.5966312227 5.815687174
-0.7445718201 -0.5911885777 5.875097523
-0.8902509515 -0.4273283188 5.690660348
-0.7699643863 -0.6012275566 5.881413767
-0.624285255 -0.7650878156 6.065850941
-0.7587114316 -0.5957849116 5.940824115
-0.8789979967 -0.4218856738 5.750070697
-0.9329752713 -0.3599404717 6.130624487
-0.9015039063 -0.4327709637 5.63125
-0.6384248664 -0.7696841495 6.131577533
-0.905986634 -0.3909130728 5.940347592
-0.9172395888 -0.3963557177 5.880937243
-0.8902509515 -0.4273283188 5.690660348
-0.7587114316 -0.5957849116 5.940824115
-0.7857000688 -0.5648123106 6.13110101
-0.7699643863 -0.6012275566 5.881413767
-0.6098568236 -0.7607231131 7.000079879
-0.8788461538 -0.4222018923 7.25
-0.8789496634 -0.4219863613 6.750085592
-0.8933876353 -0.4492866936 7.168897803
-0.7443514887 -0.5914625027 7.125039939
-0.8788979086 -0.4220941268 7.000042796
-0.7444032435 -0.5913547372 6.875082735
-0.7516222294 -0.6050049033 7.084488841
-0.8861168946 -0.435744293 7.209448901
-0.8861686494 -0.4356365274 6.959491697
-0.932968804 -0.3599572346 8.209287901
-0.975 0 8
-0.975 0 8.5
-0.8788461538 -0.4222018923 8.25
-0.953984402 -0.1799786173 8.10464395
-0.975 0 8.25
-0.953984402 -0.1799786173 8.35464395
-0.9059074789 -0.3910795634 8.22964395
-0.9269230769 -0.2111009462 8.125
-0.9269230769 -0.2111009462 8.375
-0.8675911387 -0.4972782079 7.736412971
-0.6094886995 -0.7610180846 7.500191201
-0.6092405983 -0.761216719 8.000120375
-0.5449097323 -0.838494713 7.777479838
-0.7385399191 -0.6291481462 7.618302086
-0.6093646489 -0.7611174018 7.750155788
-0.7384158685 -0.6292474634 7.868266673
-0.7062504355 -0.6678864604 7.756946404
-0.5771992159 -0.7997563988 7.638835519
-0.5770751653 -0.799855716 7.888800107
-0.6424637777 -0.7663160538 8.216276532
-0.609349871 -0.7611292496 8.5
-0.9015039063 -0.4327709637 8.70625
-0.5651385362 -0.8249960212 8.710856988
-0.6259068244 -0.7637226517 8.358138266
-0.7554268886 -0.5969501067 8.603125
-0.771983842 -0.5995435087 8.461263266
-0.603801157 -0.7956560375 8.46356676
-0.5872442036 -0.7930626354 8.605428494
-0.7333212212 -0.6288834924 8.708553494
-0.220581487 -0.9497203839 7.250146092
-0.6129029095 -0.7901582269 7.375266868
-0.2191966452 -0.9756807012 6.914827433
-0.1924208301 -0.9813125008 7.442231177
-0.4167421983 -0.8699393054 7.31270648
-0.4160497774 -0.882919464 7.14504715
-0.2198890661 -0.9627005426 7.082486762
-0.2065011585 -0.9655164423 7.346188634
-0.4026618698 -0.8857353638 7.408749022
-0.2058087376 -0.978496601 7.178529305
-0.1997137513 -0.9798542838 7.960521542
0.2087920143 -0.952381696 7.999759397
0.2274177002 -0.9737973042 8.195021608
0.230713935 -0.9730216237 7.682627658
0.004539131459 -0.9661179899 7.980140469
0.2181048572 -0.9630895001 8.097390502
0.01385197445 -0.976825794 8.077771575
0.01550009181 -0.9764379538 7.8215746
0.2197529746 -0.9627016598 7.841193528
0.2290658176 -0.9734094639 7.938824633
-0.9015039063 -0.4327709637 8.70625
-0.6094436199 -0.7610541861 9.000842543
-0.6296425865 -0.7768849421 9.216699027
-0.5651385362 -0.8249960212 8.710856988
-0.7554737631 -0.5969125749 8.853546272
-0.6195431032 -0.7689695641 9.108770785
-0.7655732464 -0.6048279529 8.961474513
-0.7333212212 -0.6288834924 8.708553494
-0.587291078 -0.7930251036 8.855849766
-0.5973905613 -0.8009404816 8.963778007
-0.5 -0.8660254038 10.5
-0.252348569 -0.9417776806 10.17127283
0 -1 10.5
-0.2304593685 -0.973081949 10.01392188
-0.3761742845 -0.9039015422 10.33563642
-0.1261742845 -0.9708888403 10.33563642
-0.25 -0.9330127019 10.5
-0.3652296842 -0.9195536764 10.25696094
-0.2414039687 -0.9574298148 10.09259736
-0.1152296842 -0.9865409745 10.25696094
-0.6092405983 -0.761216719 8.000120375
-0.2195010396 -0.9499706804 7.750025587
-0.2195245265 -0.9499652532 8.249926326
-0.1997137513 -0.9798542838 7.960521542
-0.414370819 -0.8555936997 7.875072981
-0.2195127831 -0.9499679668 7.999975956
-0.4143825624 -0.8555909861 8.12502335
-0.4044771748 -0.8705355014 7.980320958
-0.2096073955 -0.9649124821 7.855273564
-0.2096191389 -0.9649097685 8.105223934
-0.2194421052 -0.9499842959 8.750386018
-0.6094436199 -0.7610541861 9.000842543
-0.609349871 -0.7611292496 8.5
-0.5651385362 -0.8249960212 8.710856988
-0.4144428625 -0.855519241 8.875614281
-0.6093967455 -0.7610917179 8.750421272
-0.4143959881 -0.8555567728 8.625193009
-0.3922903207 -0.8874901585 8.730621503
-0.587291078 -0.7930251036 8.855849766
-0.5872442036 -0.7930626354 8.605428494
0.2288347178 -0.9734652906 9.220768131
0.626689244 -0.7792692676 8.963208913
0.5510854712 -0.804319466 9.245219774
0.6454899266 -0.7637687835 9.492963542
0.4277619809 -0.8763672791 9.091988522
0.5888873576 -0.7917943668 9.104214344
0.3899600945 -0.8888923783 9.232993953
0.4371623222 -0.868617037 9.356865837
0.6360895853 -0.7715190256 9.228086228
0.5982876989 -0.7840441248 9.369091658
-0.8702385679 -0.4926305259 6.602794901
-0.8788461538 -0.4222018923 6.25
-0.8789496634 -0.4219863613 6.750085592
-0.6099565206 -0.7606431772 6.500404122
-0.8745423609 -0.4574162091 6.426397451
-0.8788979086 -0.4220941268 6.500042796
-0.8745941157 -0.4573084436 6.676440247
-0.7400975442 -0.6266368515 6.551599512
-0.7444013372 -0.5914225348 6.375202061
-0.744453092 -0.5913147693 6.625244857
-0.975 0 6.5
-0.8788461538 -0.4222018923 6.25
-0.8789496634 -0.4219863613 6.750085592
-0.8702385679 -0.4926305259 6.602794901
-0.9269230769 -0.2111009462 6.375
-0.8788979086 -0.4220941268 6.500042796
-0.9269748317 -0.2109931806 6.625042796
-0.9226192839 -0.2463152629 6.551397451
-0.8745423609 -0.4574162091 6.426397451
-0.8745941157 -0.4573084436 6.676440247
-0.6094436199 -0.7610541861 9.000842543
-0.2194421052 -0.9499842959 8.750386018
-0.2200566406 -0.9498421316 9.251685326
-0.2110861621 -0.9774674584 8.96530149
-0.4144428625 -0.855519241 8.875614281
-0.2197493729 -0.9499132137 9.001035672
-0.4147501302 -0.8554481588 9.126263935
-0.410264891 -0.8692608222 8.983072017
-0.2152641336 -0.9637258771 8.857843754
-0.2155714014 -0.963654795 9.108493408
-0.8702385679 -0.4926305259 6.602794901
-0.6099565206 -0.7606431772 6.500404122
-0.5570216226 -0.8304979904 6.549773315
-0.6384248664 -0.7696841495 6.131577533
-0.7400975442 -0.6266368515 6.551599512
-0.5834890716 -0.7955705838 6.525088719
-0.7136300952 -0.6615642581 6.576284108
-0.7543317171 -0.6311573377 6.367186217
-0.6241906935 -0.7651636633 6.315990828
-0.5977232445 -0.8000910699 6.340675424
-0.2144017583 -0.9767455585 5.885766196
-0.2214153201 -0.9495263325 5.75019275
-0.2212652659 -0.9495613103 6.250184327
0.2071170144 -0.9527473654 5.999827627
-0.2179085392 -0.9631359455 5.817979473
-0.221340293 -0.9495438214 6.000188539
-0.2178335121 -0.9631534344 6.067975262
-0.003642371938 -0.964746462 5.942796911
-0.007149152856 -0.9511368489 5.875010188
-0.00707412574 -0.9511543379 6.125005977
-0.8702385679 -0.4926305259 6.602794901
-0.9329752713 -0.3599404717 6.130624487
-0.8788461538 -0.4222018923 6.25
-0.6384248664 -0.7696841495 6.131577533
-0.9016069196 -0.4262854988 6.366709694
-0.9059107126 -0.391071182 6.190312243
-0.8745423609 -0.4574162091 6.426397451
-0.7543317171 -0.6311573377 6.367186217
-0.7857000688 -0.5648123106 6.13110101
-0.7586355101 -0.5959430209 6.190788767
-0.8788461538 -0.4222018923 5.25
-0.9015039063 -0.4327709637 5.63125
-0.936435833 -0.3508388957 5.119459007
-0.6237965432 -0.781586766 5.122295037
-0.89017503 -0.427486428 5.440625
-0.9189698696 -0.3918049297 5.375354504
-0.9076409934 -0.386520394 5.184729504
-0.7513213485 -0.6018943291 5.186147519
-0.7626502247 -0.6071788648 5.376772519
-0.7801161881 -0.5662128308 5.120877022
-0.6094886995 -0.7610180846 7.500191201
-0.2195010396 -0.9499706804 7.750025587
-0.6092405983 -0.761216719 8.000120375
-0.5449097323 -0.838494713 7.777479838
-0.4144948696 -0.8554943825 7.625108394
-0.414370819 -0.8555936997 7.875072981
-0.6093646489 -0.7611174018 7.750155788
-0.5771992159 -0.7997563988 7.638835519
-0.3822053859 -0.8942326967 7.763752712
-0.5770751653 -0.799855716 7.888800107
-0.5651385362 -0.8249960212 8.710856988
-0.6424637777 -0.7663160538 8.216276532
-0.609349871 -0.7611292496 8.5
-0.2128800189 -0.9770783477 8.45380681
-0.603801157 -0.7956560375 8.46356676
-0.6259068244 -0.7637226517 8.358138266
-0.5872442036 -0.7930626354 8.605428494
-0.3890092775 -0.9010371844 8.582331899
-0.4276718983 -0.8716972007 8.335041671
-0.411114945 -0.8691037987 8.476903405
-0.9015039063 -0.4327709637 5.63125
-0.6101929593 -0.7604535176 5.500270166
-0.5651741527 -0.824971622 5.630960904
-0.6237965432 -0.781586766 5.122295037
-0.7558484328 -0.5966122406 5.565760083
-0.587683556 -0.7927125698 5.565615535
-0.7333390295 -0.6288712928 5.631105452
-0.7626502247 -0.6071788648 5.376772519
-0.6169947512 -0.7710201418 5.311282602
-0.594485348 -0.803279194 5.376627971
-0.8790343298 -0.4218099655 4.750033916
-0.936435833 -0.3508388957 5.119459007
-0.9015039063 -0.4327709637 4.60625
-0.6237965432 -0.781586766 5.122295037
-0.9077350814 -0.3863244306 4.934746462
-0.9189698696 -0.3918049297 4.862854504
-0.890269118 -0.4272904646 4.678141958
-0.7514154365 -0.6016983658 4.936164476
-0.7801161881 -0.5662128308 5.120877022
-0.7626502247 -0.6071788648 4.864272519
-0.6237965432 -0.781586766 5.122295037
-0.8788461538 -0.4222018923 5.25
-0.8790343298 -0.4218099655 4.750033916
-0.936435833 -0.3508388957 5.119459007
-0.7513213485 -0.6018943291 5.186147519
-0.8789402418 -0.4220059289 5.000016958
-0.7514154365 -0.6016983658 4.936164476
-0.7801161881 -0.5662128308 5.120877022
-0.9076409934 -0.386520394 5.184729504
-0.9077350814 -0.3863244306 4.934746462
-0.2215483084 -0.9494953118 5.250186611
-0.6101929593 -0.7604535176 5.500270166
-0.6103297059 -0.760343771 5.00010251
-0.6237965432 -0.781586766 5.122295037
-0.4158706338 -0.8549744147 5.375228389
-0.6102613326 -0.7603986443 5.250186338
-0.4159390071 -0.8549195414 5.125144561
-0.4226724258 -0.8655410389 5.186240824
-0.6169947512 -0.7710201418 5.311282602
-0.6170631245 -0.7709652685 5.061198773
0.2211111843 -0.9752486064 5.119474132
0.6215019039 -0.7834126521 4.86273584
0.5320712941 -0.817022116 5.249770793
0.6223565507 -0.782733878 5.374964709
0.4213065441 -0.8793306292 4.991104986
0.576786599 -0.800217384 5.056253316
0.3765912392 -0.8961353612 5.184622463
0.4217338675 -0.8789912422 5.247219421
0.6219292273 -0.783073265 5.118850275
0.5772139224 -0.799877997 5.312367751
0.9126496686 -0.3430678975 6.74992555
0.8788461538 -0.4222018923 7.25
0.9013328486 -0.433127113 7.168814654
0.975 0 7
0.8957479112 -0.3826348949 6.999962775
0.8900895012 -0.4276645027 7.209407327
0.9069912586 -0.3880975053 6.959370102
0.9438248343 -0.1715339488 6.874962775
0.9269230769 -0.2111009462 7.125
0.9381664243 -0.2165635565 7.084407327
-0.2212652659 -0.9495613103 6.250184327
-0.6099565206 -0.7606431772 6.500404122
-0.6101456436 -0.7604914816 6.000124348
-0.6384248664 -0.7696841495 6.131577533
-0.4156108932 -0.8551022438 6.375294225
-0.6100510821 -0.7605673294 6.250264235
-0.4157054547 -0.855026396 6.125154338
-0.4298450662 -0.8596227299 6.19088093
-0.6241906935 -0.7651636633 6.315990828
-0.624285255 -0.7650878156 6.065850941
-0.2212652659 -0.9495613103 6.250184327
-0.6384248664 -0.7696841495 6.131577533
-0.2144017583 -0.9767455585 5.885766196
-0.2082000723 -0.9780862589 6.38159685
-0.4298450662 -0.8596227299 6.19088093
-0.4264133123 -0.873214854 6.008671864
-0.2178335121 -0.9631534344 6.067975262
-0.2147326691 -0.9638237846 6.315890589
-0.4233124693 -0.8738852042 6.256587192
-0.2113009153 -0.9774159087 6.133681523
-0.5651741527 -0.824971622 5.630960904
-0.2144017583 -0.9767455585 5.885766196
-0.2167020545 -0.9762377884 5.376416122
-0.2214153201 -0.9495263325 5.75019275
-0.3897879555 -0.9008585902 5.75836355
-0.2155519064 -0.9764916735 5.631091159
-0.3909381036 -0.9006047052 5.503688513
-0.3932947364 -0.8872489772 5.690576827
-0.2179085392 -0.9631359455 5.817979473
-0.2190586873 -0.9628820604 5.563304436
-0.6237965432 -0.781586766 5.122295037
-0.2180471115 -0.9759382445 4.864591213
-0.2215483084 -0.9494953118 5.250186611
-0.2167020545 -0.9762377884 5.376416122
-0.4209218273 -0.8787625053 4.993443125
-0.2197977099 -0.9627167782 5.057388912
-0.4226724258 -0.8655410389 5.186240824
-0.4202492988 -0.8789122772 5.24935558
-0.217374583 -0.9760880165 5.120503668
-0.2191251814 -0.9628665501 5.313301367
-0.6646926829 -0.7471168833 6.919476942
-0.6098568236 -0.7607231131 7.000079879
-0.6129029095 -0.7901582269 7.375266868
-0.2191966452 -0.9756807012 6.914827433
-0.6372747533 -0.7539199982 6.95977841
-0.6113798665 -0.77544067 7.187673373
-0.6387977962 -0.7686375551 7.147371905
-0.4419446641 -0.8613987922 6.917152187
-0.4145267344 -0.8682019071 6.957453656
-0.4160497774 -0.882919464 7.14504715
-0.5570216226 -0.8304979904 6.549773315
-0.2082000723 -0.9780862589 6.38159685
-0.6099565206 -0.7606431772 6.500404122
-0.2210566965 -0.9496098867 6.750183493
-0.3826108474 -0.9042921246 6.465685083
-0.4090782964 -0.8693647181 6.441000486
-0.5834890716 -0.7955705838 6.525088719
-0.3890391596 -0.8900539385 6.649978404
-0.2146283844 -0.9638480728 6.565890171
-0.4155066085 -0.855126532 6.625293807
-0.5570216226 -0.8304979904 6.549773315
-0.2191966452 -0.9756807012 6.914827433
-0.2082000723 -0.9780862589 6.38159685
-0.2210566965 -0.9496098867 6.750183493
-0.3881091339 -0.9030893458 6.732300374
-0.2136983587 -0.9768834801 6.648212141
-0.3826108474 -0.9042921246 6.465685083
-0.3890391596 -0.8900539385 6.649978404
-0.2201266709 -0.962645294 6.832505463
-0.2146283844 -0.9638480728 6.565890171
-0.6129029095 -0.7901582269 7.375266868
-0.2191966452 -0.9756807012 6.914827433
-0.6098568236 -0.7607231131 7.000079879
-0.220581487 -0.9497203839 7.250146092
-0.4160497774 -0.882919464 7.14504715
-0.4145267344 -0.8682019071 6.957453656
-0.6113798665 -0.77544067 7.187673373
-0.4167421983 -0.8699393054 7.31270648
-0.2198890661 -0.9627005426 7.082486762
-0.4152191553 -0.8552217485 7.125112985
-0.220581487 -0.9497203839 7.250146092
-0.6094886995 -0.7610180846 7.500191201
-0.6098568236 -0.7607231131 7.000079879
-0.6129029095 -0.7901582269 7.375266868
-0.4150350933 -0.8553692343 7.375168646
-0.6096727615 -0.7608705988 7.25013554
-0.4152191553 -0.8552217485 7.125112985
-0.4167421983 -0.8699393054 7.31270648
-0.6111958045 -0.7755881558 7.437729035
-0.6113798665 -0.77544067 7.187673373
-0.5449097323 -0.838494713 7.777479838
-0.6092405983 -0.761216719 8.000120375
-0.6424637777 -0.7663160538 8.216276532
-0.1997137513 -0.9798542838 7.960521542
-0.5770751653 -0.799855716 7.888800107
-0.625852188 -0.7637663864 8.108198454
-0.593686755 -0.8024053834 7.996878185
-0.3723117418 -0.9091744984 7.86900069
-0.4044771748 -0.8705355014 7.980320958
-0.4210887645 -0.8730851688 8.088399037
-0.2195245265 -0.9499652532 8.249926326
-0.609349871 -0.7611292496 8.5
-0.6092405983 -0.761216719 8.000120375
-0.6424637777 -0.7663160538 8.216276532
-0.4144371988 -0.8555472514 8.374963163
-0.6092952347 -0.7611729843 8.250060188
-0.4143825624 -0.8555909861 8.12502335
-0.4309941521 -0.8581406535 8.233101429
-0.6259068244 -0.7637226517 8.358138266
-0.625852188 -0.7637663864 8.108198454
-0.6098568236 -0.7607231131 7.000079879
-0.2210566965 -0.9496098867 6.750183493
-0.220581487 -0.9497203839 7.250146092
-0.2191966452 -0.9756807012 6.914827433
-0.4154567601 -0.8551664999 6.875131686
-0.2208190918 -0.9496651353 7.000164792
-0.4152191553 -0.8552217485 7.125112985
-0.4145267344 -0.8682019071 6.957453656
-0.2201266709 -0.962645294 6.832505463
-0.2198890661 -0.9627005426 7.082486762
-0.2304593685 -0.973081949 10.01392188
0.2393462667 -0.9451657868 10.0494947
0.2588190451 -0.9659258263 10.16359271
0.2490102718 -0.9685008439 9.738197861
0.004443449112 -0.9591238679 10.03170829
0.2490826559 -0.9555458066 10.10654371
0.0141798383 -0.9695038876 10.0887573
0.009275451629 -0.9707913964 9.876059871
0.2441782692 -0.9568333153 9.893846282
0.2539146584 -0.9672133351 9.950895287
-0.5449097323 -0.838494713 7.777479838
-0.1924208301 -0.9813125008 7.442231177
-0.2195010396 -0.9499706804 7.750025587
-0.1997137513 -0.9798542838 7.960521542
-0.3686652812 -0.9099036069 7.609855507
-0.2059609348 -0.9656415906 7.596128382
-0.3822053859 -0.8942326967 7.763752712
-0.3723117418 -0.9091744984 7.86900069
-0.1960672907 -0.9805833923 7.701376359
-0.2096073955 -0.9649124821 7.855273564
-0.2098066283 -0.9777429001 9.468528812
0.2161396174 -0.950741114 9.509998223
0.2490102718 -0.9685008439 9.738197861
0.2288347178 -0.9734652906 9.220768131
0.003166494574 -0.964242007 9.489263517
0.2325749446 -0.9596209789 9.624098042
0.01960182173 -0.973121872 9.603363337
0.009514044768 -0.9756040953 9.344648471
0.2224871676 -0.9621032023 9.365383177
0.2389224948 -0.9709830672 9.479482996
0.9017381641 -0.432282643 8.706397362
0.6262967221 -0.7795847715 8.450696006
0.8788461538 -0.4222018923 8.25
0.9015783723 -0.4326158095 8.193990253
0.7640174431 -0.6059337073 8.578546684
0.752571438 -0.6008933319 8.350348003
0.890292159 -0.4272422677 8.478198681
0.9016582682 -0.4324492263 8.450193807
0.7639375472 -0.6061002905 8.322343129
0.8902122631 -0.4274088509 8.221995126
-0.6424637777 -0.7663160538 8.216276532
-0.2128800189 -0.9770783477 8.45380681
-0.1997137513 -0.9798542838 7.960521542
-0.2195245265 -0.9499652532 8.249926326
-0.4276718983 -0.8716972007 8.335041671
-0.2062968851 -0.9784663158 8.207164176
-0.4210887645 -0.8730851688 8.088399037
-0.4309941521 -0.8581406535 8.233101429
-0.2162022727 -0.9635218004 8.351866568
-0.2096191389 -0.9649097685 8.105223934
0.2307344612 -0.9730167565 7.169861497
0.207915524 -0.9525734276 7.499737179
0.230713935 -0.9730216237 7.682627658
0.5325267668 -0.8167253165 7.249751731
0.2193249926 -0.962795092 7.334799338
0.2193147295 -0.9627975256 7.591182419
0.2307241981 -0.9730191901 7.426244578
0.381630614 -0.8948710365 7.209806614
0.3702211454 -0.884649372 7.374744455
0.3816203509 -0.8948734701 7.466189695
0.2161396174 -0.950741114 9.509998223
-0.2274014426 -0.9481105336 9.754723569
-0.2200566406 -0.9498421316 9.251685326
-0.2098066283 -0.9777429001 9.468528812
-0.005630912558 -0.9494258238 9.632360896
-0.2237290416 -0.9489763326 9.503204448
-0.001958511584 -0.9502916228 9.380841775
0.003166494574 -0.964242007 9.489263517
-0.2186040354 -0.9629267169 9.611626191
-0.2149316345 -0.9637925158 9.360107069
-0.6296425865 -0.7768849421 9.216699027
-0.5651385362 -0.8249960212 8.710856988
-0.6094436199 -0.7610541861 9.000842543
-0.2110861621 -0.9774674584 8.96530149
-0.5973905613 -0.8009404816 8.963778007
-0.587291078 -0.7930251036 8.855849766
-0.6195431032 -0.7689695641 9.108770785
-0.4203643743 -0.8771762002 9.091000258
-0.3881123491 -0.9012317398 8.838079239
-0.410264891 -0.8692608222 8.983072017
-0.2194421052 -0.9499842959 8.750386018
-0.5651385362 -0.8249960212 8.710856988
-0.2128800189 -0.9770783477 8.45380681
-0.2110861621 -0.9774674584 8.96530149
-0.3922903207 -0.8874901585 8.730621503
-0.3890092775 -0.9010371844 8.582331899
-0.216161062 -0.9635313218 8.602096414
-0.2152641336 -0.9637258771 8.857843754
-0.3881123491 -0.9012317398 8.838079239
-0.2119830905 -0.977272903 8.70955415
-0.2200566406 -0.9498421316 9.251685326
-0.6203671475 -0.7521765766 9.505648067
-0.6094436199 -0.7610541861 9.000842543
-0.6296425865 -0.7768849421 9.216699027
-0.420211894 -0.8510093541 9.378666697
-0.6149053837 -0.7566153813 9.253245305
-0.4147501302 -0.8554481588 9.126263935
-0.4248496136 -0.8633635368 9.234192176
-0.625004867 -0.7645307593 9.361173547
-0.6195431032 -0.7689695641 9.108770785
0.5331280372 -0.8163329565 8.249614322
0.2274177002 -0.9737973042 8.195021608
0.6256029364 -0.780141632 7.938296898
0.6262967221 -0.7795847715 8.450696006
0.3802728687 -0.8950651304 8.222317965
0.4265103183 -0.8769694681 8.066659253
0.5793654868 -0.7982372942 8.09395561
0.5797123796 -0.797958864 8.350155164
0.4268572111 -0.8766910378 8.322858807
0.6259498292 -0.7798632017 8.194496452
-0.6203671475 -0.7521765766 9.505648067
-0.564428944 -0.8254816577 9.694763781
-0.6296425865 -0.7768849421 9.216699027
-0.2098066283 -0.9777429001 9.468528812
-0.5923980457 -0.7888291171 9.600205924
-0.5970357652 -0.8011832999 9.455731404
-0.625004867 -0.7645307593 9.361173547
-0.4150868879 -0.8649597383 9.487088439
-0.3871177861 -0.9016122789 9.581646296
-0.4197246074 -0.8773139211 9.342613919
-0.6203671475 -0.7521765766 9.505648067
-0.2274014426 -0.9481105336 9.754723569
-0.6580942056 -0.7194004563 10.04732821
-0.564428944 -0.8254816577 9.694763781
-0.423884295 -0.8501435551 9.630185818
-0.4427478241 -0.833755495 9.901025892
-0.6392306765 -0.7357885165 9.776488141
-0.5923980457 -0.7888291171 9.600205924
-0.3959151933 -0.8867960957 9.724743675
-0.6112615748 -0.772441057 9.871045998
-0.564428944 -0.8254816577 9.694763781
-0.6580942056 -0.7194004563 10.04732821
-0.7061343771 -0.7080778498 10.08118069
-0.2304593685 -0.973081949 10.01392188
-0.6112615748 -0.772441057 9.871045998
-0.6821142914 -0.7137391531 10.06425445
-0.6352816605 -0.7667797538 9.887972234
-0.3974441562 -0.8992818034 9.854342831
-0.444276787 -0.8462412027 10.03062505
-0.4682968728 -0.8405798994 10.04755128
-0.6580942056 -0.7194004563 10.04732821
-0.2274014426 -0.9481105336 9.754723569
-0.252348569 -0.9417776806 10.17127283
-0.2304593685 -0.973081949 10.01392188
-0.4427478241 -0.833755495 9.901025892
-0.2398750058 -0.9449441071 9.9629982
-0.4552213873 -0.8305890685 10.10930052
-0.444276787 -0.8462412027 10.03062505
-0.2289304055 -0.9605962413 9.884322725
-0.2414039687 -0.9574298148 10.09259736
-0.6296425865 -0.7768849421 9.216699027
-0.2110861621 -0.9774674584 8.96530149
-0.2200566406 -0.9498421316 9.251685326
-0.2098066283 -0.9777429001 9.468528812
-0.4203643743 -0.8771762002 9.091000258
-0.2155714014 -0.963654795 9.108493408
-0.4248496136 -0.8633635368 9.234192176
-0.4197246074 -0.8773139211 9.342613919
-0.2104463952 -0.9776051792 9.216915151
-0.2149316345 -0.9637925158 9.360107069
0.8788461538 -0.4222018923 9.25
0.5510854712 -0.804319466 9.245219774
0.6055258671 -0.7641749959 8.748953608
0.626689244 -0.7792692676 8.963208913
0.7149658125 -0.6132606792 9.247609887
0.5783056691 -0.784247231 8.997086691
0.7421860105 -0.5931884441 8.999476804
0.7527676989 -0.60073558 9.106604457
0.5888873576 -0.7917943668 9.104214344
0.6161075555 -0.7717221318 8.856081261
-0.2098066283 -0.9777429001 9.468528812
-0.2274014426 -0.9481105336 9.754723569
-0.564428944 -0.8254816577 9.694763781
-0.2304593685 -0.973081949 10.01392188
-0.2186040354 -0.9629267169 9.611626191
-0.3959151933 -0.8867960957 9.724743675
-0.3871177861 -0.9016122789 9.581646296
-0.2201329984 -0.9754124246 9.741225346
-0.2289304055 -0.9605962413 9.884322725
-0.3974441562 -0.8992818034 9.854342831
0.207915524 -0.9525734276 7.499737179
-0.2195010396 -0.9499706804 7.750025587
-0.220581487 -0.9497203839 7.250146092
-0.1924208301 -0.9813125008 7.442231177
-0.005792757792 -0.951272054 7.624881383
-0.2200412633 -0.9498455322 7.500085839
-0.006332981493 -0.9511469057 7.374941635
0.007747346958 -0.9669429642 7.470984178
-0.2059609348 -0.9656415906 7.596128382
-0.2065011585 -0.9655164423 7.346188634
-0.609349871 -0.7611292496 8.5
-0.2195245265 -0.9499652532 8.249926326
-0.2194421052 -0.9499842959 8.750386018
-0.2128800189 -0.9770783477 8.45380681
-0.4144371988 -0.8555472514 8.374963163
-0.2194833159 -0.9499747745 8.500156172
-0.4143959881 -0.8555567728 8.625193009
-0.411114945 -0.8691037987 8.476903405
-0.2162022727 -0.9635218004 8.351866568
-0.216161062 -0.9635313218 8.602096414
0.5331280372 -0.8163329565 8.249614322
0.8788461538 -0.4222018923 8.25
0.6055258671 -0.7641749959 8.748953608
0.6262967221 -0.7795847715 8.450696006
0.7059870955 -0.6192674244 8.249807161
0.7421860105 -0.5931884441 8.499476804
0.5693269521 -0.7902539762 8.499283965
0.5797123796 -0.797958864 8.350155164
0.752571438 -0.6008933319 8.350348003
0.6159112946 -0.7718798837 8.599824807
0.6791118216 -0.7340348315 10.05048021
0.6454899266 -0.7637687835 9.492963542
0.6242791185 -0.7489329624 9.70749038
0.907997998 -0.4189745047 9.72969638
0.6623008741 -0.7489018075 9.771721876
0.6348845225 -0.756350873 9.600226961
0.65169547 -0.741483897 9.878985295
0.7935549098 -0.5765046681 9.890088295
0.7767439623 -0.5913716441 9.611329961
0.7661385582 -0.5839537336 9.71859338
0.2282362272 -0.973605785 8.707857646
-0.2110861621 -0.9774674584 8.96530149
0.2288347178 -0.9734652906 9.220768131
0.2086842234 -0.9524053207 9.00044492
0.008575032523 -0.9755366217 8.836579568
0.008874277866 -0.9754663745 9.093034811
0.2285354725 -0.9735355378 8.964312889
0.2184602253 -0.9630055529 8.854151283
-0.001200969359 -0.9649363895 8.982873205
0.2187594706 -0.9629353056 9.110606526
0.2246689517 -0.9744351503 6.14135841
0.6226237727 -0.7825213337 6.399837011
0.6230943824 -0.7821466554 5.887001171
0.532252402 -0.8169041441 6.249769755
0.4236463622 -0.878478242 6.270597711
0.6228590775 -0.7823339946 6.143419091
0.4238816671 -0.8782909029 6.014179791
0.3784606768 -0.8956696472 6.195564083
0.5774380873 -0.7997127389 6.324803383
0.5776733922 -0.7995253997 6.068385463
-0.2144017583 -0.9767455585 5.885766196
0.2071170144 -0.9527473654 5.999827627
0.2246689517 -0.9744351503 6.14135841
0.2227602487 -0.9748732592 5.631077762
-0.003642371938 -0.964746462 5.942796911
0.215892983 -0.9635912579 6.070593018
0.005133596698 -0.9755903544 6.013562303
0.004179245233 -0.9758094089 5.758421979
0.2149386316 -0.9638103123 5.815452694
0.2237146002 -0.9746542048 5.886218086
-0.2128800189 -0.9770783477 8.45380681
0.2084156115 -0.9524641373 8.499791764
0.2282362272 -0.973605785 8.707857646
0.2274177002 -0.9737973042 8.195021608
-0.00223220372 -0.9647712425 8.476799287
0.2183259193 -0.9630349612 8.603824705
0.007678104121 -0.9753420664 8.580832228
0.007268840664 -0.9754378259 8.324414209
0.2179166559 -0.9631307208 8.347406686
0.2278269637 -0.9737015446 8.451439627
1 0 7.9375
0.975 0 7.5
0.912673023 -0.3430057625 7.749918514
0.975 0 8
0.9875 0 7.71875
0.9438365115 -0.1715028813 7.624959257
0.9563365115 -0.1715028813 7.843709257
0.9875 0 7.96875
0.975 0 7.75
0.9438365115 -0.1715028813 7.874959257
-0.1997137513 -0.9798542838 7.960521542
-0.2195010396 -0.9499706804 7.750025587
-0.2195245265 -0.9499652532 8.249926326
0.2087920143 -0.952381696 7.999759397
-0.2096073955 -0.9649124821 7.855273564
-0.2195127831 -0.9499679668 7.999975956
-0.2096191389 -0.9649097685 8.105223934
0.004539131459 -0.9661179899 7.980140469
-0.005354512665 -0.9511761882 7.874892492
-0.005366256146 -0.9511734746 8.124842861
0.230713935 -0.9730216237 7.682627658
0.6044136289 -0.765055008 7.749587291
0.6256029364 -0.780141632 7.938296898
0.6250155466 -0.7806123023 7.425684791
0.4175637819 -0.8690383159 7.716107475
0.6150082826 -0.77259832 7.843942095
0.4281584357 -0.8765816278 7.810462278
0.4278647408 -0.876816963 7.554156225
0.6147145877 -0.7728336551 7.587636041
0.6253092415 -0.7803769671 7.681990845
0.230713935 -0.9730216237 7.682627658
0.6250155466 -0.7806123023 7.425684791
0.2307344612 -0.9730167565 7.169861497
0.5325267668 -0.8167253165 7.249751731
0.4278647408 -0.876816963 7.554156225
0.4278750039 -0.8768145294 7.297773144
0.2307241981 -0.9730191901 7.426244578
0.3816203509 -0.8948734701 7.466189695
0.5787711567 -0.7986688094 7.337718261
0.381630614 -0.8948710365 7.209806614
0.207000663 -0.9527726515 5.499782413
0.2227602487 -0.9748732592 5.631077762
-0.2167020545 -0.9762377884 5.376416122
0.2211111843 -0.9752486064 5.119474132
0.2148804559 -0.9638229554 5.565430088
0.003029097132 -0.9755555238 5.503746942
-0.004850695721 -0.96450522 5.438099268
0.2140559237 -0.9640106289 5.309628273
0.2219357165 -0.9750609328 5.375275947
0.002204564892 -0.9757431974 5.247945127
-0.2191966452 -0.9756807012 6.914827433
0.207491312 -0.9526659202 6.999813906
0.2307344612 -0.9730167565 7.169861497
0.2248867556 -0.9743849071 6.65722854
-0.005852666611 -0.9641733107 6.957320669
0.2191128866 -0.9628413383 7.084837702
0.005768908024 -0.9743487289 7.042344465
0.002845055228 -0.9750328042 6.786027986
0.2161890338 -0.9635254136 6.828521223
0.2278106084 -0.9737008318 6.913545019
-0.2180471115 -0.9759382445 4.864591213
0.2068703825 -0.9528009471 4.999828537
0.2211111843 -0.9752486064 5.119474132
0.2196639672 -0.975575595 4.607237432
-0.005588364493 -0.9643695958 4.932209875
0.2139907834 -0.9640247767 5.059651335
0.00153203639 -0.9755934255 4.992032673
0.0008084278355 -0.9757569198 4.735914323
0.2132671748 -0.9641882711 4.803532984
0.2203875757 -0.9754121007 4.863355782
0.6039383575 -0.7654302452 5.749623319
0.8788461538 -0.4222018923 5.25
0.9126305293 -0.3431188088 5.749925627
0.9007650767 -0.434306662 5.631199503
0.7413922557 -0.5938160688 5.499811659
0.8957383416 -0.3826603506 5.499962813
0.7582844434 -0.554274527 5.749774473
0.7523517171 -0.5998684536 5.690411411
0.8898056153 -0.4282542772 5.440599752
0.906697803 -0.3887127354 5.690562565
0.626689244 -0.7792692676 8.963208913
0.6262967221 -0.7795847715 8.450696006
0.6055258671 -0.7641749959 8.748953608
0.9017381641 -0.432282643 8.706397362
0.626492983 -0.7794270196 8.70695246
0.6159112946 -0.7718798837 8.599824807
0.6161075555 -0.7717221318 8.856081261
0.764213704 -0.6057759553 8.834803138
0.7640174431 -0.6059337073 8.578546684
0.7536320156 -0.5982288194 8.727675485
0.8788461538 -0.4222018923 7.25
0.912673023 -0.3430057625 7.749918514
0.9014170074 -0.432951936 7.681772888
0.975 0 7.5
0.8957595884 -0.3826038274 7.499959257
0.9070450152 -0.3879788492 7.715845701
0.8901315806 -0.4275769141 7.465886444
0.9269230769 -0.2111009462 7.375
0.9438365115 -0.1715028813 7.624959257
0.9382085037 -0.216475968 7.590886444
0.5320712941 -0.817022116 5.249770793
0.8788461538 -0.4222018923 5.25
0.6039383575 -0.7654302452 5.749623319
0.6223565507 -0.782733878 5.374964709
0.705458724 -0.6196120041 5.249885396
0.7413922557 -0.5938160688 5.499811659
0.5680048258 -0.7912261806 5.499697056
0.5772139224 -0.799877997 5.312367751
0.7506013523 -0.6024678852 5.312482355
0.6131474541 -0.7740820616 5.562294014
0.6248686988 -0.7807298568 6.911707017
0.2248867556 -0.9743849071 6.65722854
0.6041524316 -0.7652612883 6.749622929
0.6226237727 -0.7825213337 6.399837011
0.4248777272 -0.8775573819 6.784467778
0.4145195936 -0.8698230977 6.703425734
0.6145105652 -0.7729955725 6.830664973
0.6237462357 -0.7816255953 6.655772014
0.4237552641 -0.8784531204 6.528532775
0.6133881021 -0.773891311 6.57472997
0.6039383575 -0.7654302452 5.749623319
0.2227602487 -0.9748732592 5.631077762
0.6223565507 -0.782733878 5.374964709
0.6230943824 -0.7821466554 5.887001171
0.4133493031 -0.8701517522 5.690350541
0.4225583997 -0.8788035686 5.503021236
0.6131474541 -0.7740820616 5.562294014
0.61351637 -0.7737884503 5.818312245
0.4229273156 -0.8785099573 5.759039467
0.6227254666 -0.7824402667 5.63098294
0.6055258671 -0.7641749959 8.748953608
0.2282362272 -0.973605785 8.707857646
0.6262967221 -0.7795847715 8.450696006
0.626689244 -0.7792692676 8.963208913
0.4168810471 -0.8688903904 8.728405627
0.4272664746 -0.8765952783 8.579276826
0.6159112946 -0.7718798837 8.599824807
0.6161075555 -0.7717221318 8.856081261
0.4274627356 -0.8764375263 8.83553328
0.626492983 -0.7794270196 8.70695246
0.8788461538 -0.4222018923 8.25
0.5331280372 -0.8163329565 8.249614322
0.6044136289 -0.765055008 7.749587291
0.6256029364 -0.780141632 7.938296898
0.7059870955 -0.6192674244 8.249807161
0.568770833 -0.7906939823 7.999600807
0.7416298914 -0.5936284501 7.999793646
0.7522245451 -0.6011717621 8.094148449
0.5793654868 -0.7982372942 8.09395561
0.6150082826 -0.77259832 7.843942095
0.6055258671 -0.7641749959 8.748953608
0.2086842234 -0.9524053207 9.00044492
0.2084156115 -0.9524641373 8.499791764
0.2282362272 -0.973605785 8.707857646
0.4071050452 -0.8582901583 8.874699264
0.2085499174 -0.952434729 8.750118342
0.4069707393 -0.8583195666 8.624372686
0.4168810471 -0.8688903904 8.728405627
0.2184602253 -0.9630055529 8.854151283
0.2183259193 -0.9630349612 8.603824705
0.2588190451 -0.9659258263 10.16359271
0.2490102718 -0.9685008439 9.738197861
0.2393462667 -0.9451657868 10.0494947
0.6791118216 -0.7340348315 10.05048021
0.2539146584 -0.9672133351 9.950895287
0.2441782692 -0.9568333153 9.893846282
0.2490826559 -0.9555458066 10.10654371
0.4689654333 -0.8499803289 10.10703646
0.4640610467 -0.8512678377 9.894339036
0.4592290441 -0.8396003092 10.04998746
0.6242791185 -0.7489329624 9.70749038
0.2490102718 -0.9685008439 9.738197861
0.6454899266 -0.7637687835 9.492963542
0.6791118216 -0.7340348315 10.05048021
0.4366446951 -0.8587169031 9.722844121
0.4472500992 -0.8661348137 9.615580702
0.6348845225 -0.756350873 9.600226961
0.65169547 -0.741483897 9.878985295
0.4640610467 -0.8512678377 9.894339036
0.6623008741 -0.7489018075 9.771721876
0.2393462667 -0.9451657868 10.0494947
0.6791118216 -0.7340348315 10.05048021
0.6242791185 -0.7489329624 9.70749038
0.6989398508 -0.6797853227 10.13644285
0.4592290441 -0.8396003092 10.04998746
0.65169547 -0.741483897 9.878985295
0.4318126926 -0.8470493746 9.878492541
0.4691430588 -0.8124755548 10.09296878
0.6890258362 -0.7069100771 10.09346153
0.6616094846 -0.7143591426 9.921966617
0.8788461538 -0.4222018923 6.25
0.532252402 -0.8169041441 6.249769755
0.6039383575 -0.7654302452 5.749623319
0.6230943824 -0.7821466554 5.887001171
0.7055492779 -0.6195530182 6.249884878
0.5680953797 -0.7911671947 5.999696537
0.7413922557 -0.5938160688 5.999811659
0.7509702681 -0.6021742739 6.068500585
0.5776733922 -0.7995253997 6.068385463
0.61351637 -0.7737884503 5.818312245
0.9126496686 -0.3430678975 6.74992555
0.9010928457 -0.4336262025 6.656223231
1 0 6.9125
0.9013328486 -0.433127113 7.168814654
0.9068712572 -0.38834705 6.70307439
0.9505464228 -0.2168131012 6.784361615
0.9563248343 -0.1715339488 6.831212775
0.9069912586 -0.3880975053 6.959370102
0.9012128471 -0.4333766577 6.912518943
0.9506664243 -0.2165635565 7.040657327
0.6230943824 -0.7821466554 5.887001171
0.6223565507 -0.782733878 5.374964709
0.6039383575 -0.7654302452 5.749623319
0.9007650767 -0.434306662 5.631199503
0.6227254666 -0.7824402667 5.63098294
0.6131474541 -0.7740820616 5.562294014
0.61351637 -0.7737884503 5.818312245
0.7619297295 -0.6082266587 5.759100337
0.7615608137 -0.60852027 5.503082106
0.7523517171 -0.5998684536 5.690411411
0.9015783723 -0.4326158095 8.193990253
0.912673023 -0.3430057625 7.749918514
1 0 7.9375
0.9014170074 -0.432951936 7.681772888
0.9071256976 -0.387810786 7.971954383
0.9563365115 -0.1715028813 7.843709257
0.9507891861 -0.2163079048 8.065745126
0.9014976898 -0.4327838727 7.93788157
0.9070450152 -0.3879788492 7.715845701
0.9507085037 -0.216475968 7.809636444
0.5510854712 -0.804319466 9.245219774
0.8788461538 -0.4222018923 9.25
0.6242791185 -0.7489329624 9.70749038
0.6454899266 -0.7637687835 9.492963542
0.7149658125 -0.6132606792 9.247609887
0.7515626362 -0.5855674274 9.47874519
0.5876822948 -0.7766262142 9.476355077
0.5982876989 -0.7840441248 9.369091658
0.7621680402 -0.5929853379 9.371481771
0.6348845225 -0.756350873 9.600226961
1 0 8.45
0.9017381641 -0.432282643 8.706397362
0.8788461538 -0.4222018923 8.25
0.9015783723 -0.4326158095 8.193990253
0.950869082 -0.2161413215 8.578198681
0.890292159 -0.4272422677 8.478198681
0.9394230769 -0.2111009462 8.35
0.9507891861 -0.2163079048 8.321995126
0.9016582682 -0.4324492263 8.450193807
0.8902122631 -0.4274088509 8.221995126
0.6791118216 -0.7340348315 10.05048021
0.6989398508 -0.6797853227 10.13644285
0.8660254038 -0.5 10.5
0.9293672822 -0.3691564098 10.12560379
0.6890258362 -0.7069100771 10.09346153
0.7824826273 -0.5898926613 10.31822143
0.7725686127 -0.6170174157 10.27524011
0.8042395519 -0.5515956206 10.088042
0.8141535665 -0.5244708662 10.13102332
0.897696343 -0.4345782049 10.3128019
0.9028155343 -0.4300280352 9.218534335
1 0 8.9625
0.9017381641 -0.432282643 8.706397362
0.912772493 -0.3427409751 8.749793398
0.9514077671 -0.2150140176 9.090517167
0.950869082 -0.2161413215 8.834448681
0.9022768492 -0.4311553391 8.962465849
0.9077940137 -0.3863845051 8.984163867
0.9563862465 -0.1713704875 8.856146699
0.9072553285 -0.3875118091 8.72809538
0.9017381641 -0.432282643 8.706397362
1 0 8.9625
1 0 8.45
0.912772493 -0.3427409751 8.749793398
0.950869082 -0.2161413215 8.834448681
1 0 8.70625
0.950869082 -0.2161413215 8.578198681
0.9072553285 -0.3875118091 8.72809538
0.9563862465 -0.1713704875 8.856146699
0.9563862465 -0.1713704875 8.599896699
0.6256029364 -0.780141632 7.938296898
0.6250155466 -0.7806123023 7.425684791
0.6044136289 -0.765055008 7.749587291
0.9014170074 -0.432951936 7.681772888
0.6253092415 -0.7803769671 7.681990845
0.6147145877 -0.7728336551 7.587636041
0.6150082826 -0.77259832 7.843942095
0.7635099719 -0.606546784 7.810034893
0.763216277 -0.6067821191 7.55372884
0.7529153181 -0.599003472 7.715680089
0.9126305293 -0.3431188088 5.749925627
0.9007650767 -0.434306662 5.631199503
1 0 5.8875
0.9007370037 -0.4343648813 6.143684485
0.906697803 -0.3887127354 5.690562565
0.9503825383 -0.217153331 5.759349752
0.9563152647 -0.1715594044 5.818712813
0.9066837665 -0.3887418451 5.946805056
0.9007510402 -0.4343357717 5.887441994
0.9503685019 -0.2171824407 6.015592243
0.8788461538 -0.4222018923 7.25
0.5325267668 -0.8167253165 7.249751731
0.6041524316 -0.7652612883 6.749622929
0.6248686988 -0.7807298568 6.911707017
0.7056864603 -0.6194636044 7.249875866
0.5683395992 -0.7909933024 6.99968733
0.7414992927 -0.5937315903 6.999811465
0.7518574263 -0.6014658746 7.080853508
0.5786977328 -0.7987275867 7.080729374
0.6145105652 -0.7729955725 6.830664973
0.5325267668 -0.8167253165 7.249751731
0.8788461538 -0.4222018923 7.25
0.6044136289 -0.765055008 7.749587291
0.6250155466 -0.7806123023 7.425684791
0.7056864603 -0.6194636044 7.249875866
0.7416298914 -0.5936284501 7.499793646
0.5684701978 -0.7908901623 7.499669511
0.5787711567 -0.7986688094 7.337718261
0.7519308502 -0.6014070973 7.337842396
0.6147145877 -0.7728336551 7.587636041
0.6250155466 -0.7806123023 7.425684791
0.9014170074 -0.432951936 7.681772888
0.9013328486 -0.433127113 7.168814654
0.8788461538 -0.4222018923 7.25
0.763216277 -0.6067821191 7.55372884
0.901374928 -0.4330395245 7.425293771
0.7631741976 -0.6068697076 7.297249723
0.7519308502 -0.6014070973 7.337842396
0.8901315806 -0.4275769141 7.465886444
0.8900895012 -0.4276645027 7.209407327
0.9014170074 -0.432951936 7.681772888
1 0 7.425
0.9013328486 -0.433127113 7.168814654
0.8788461538 -0.4222018923 7.25
0.9507085037 -0.216475968 7.553386444
0.9506664243 -0.2165635565 7.296907327
0.901374928 -0.4330395245 7.425293771
0.8901315806 -0.4275769141 7.465886444
0.9394230769 -0.2111009462 7.3375
0.8900895012 -0.4276645027 7.209407327
0.532252402 -0.8169041441 6.249769755
0.8788461538 -0.4222018923 6.25
0.6041524316 -0.7652612883 6.749622929
0.6226237727 -0.7825213337 6.399837011
0.7055492779 -0.6195530182 6.249884878
0.7414992927 -0.5937315903 6.499811465
0.5682024168 -0.7910827162 6.499696342
0.5774380873 -0.7997127389 6.324803383
0.7507349633 -0.602361613 6.324918506
0.6133881021 -0.773891311 6.57472997
1 0 6.4
0.9007370037 -0.4343648813 6.143684485
0.9010928457 -0.4336262025 6.656223231
0.8788461538 -0.4222018923 6.25
0.9503685019 -0.2171824407 6.271842243
0.9009149247 -0.4339955419 6.399953858
0.9505464228 -0.2168131012 6.528111615
0.9394230769 -0.2111009462 6.325
0.8897915788 -0.4282833868 6.196842243
0.8899694998 -0.4279140474 6.453111615
0.9007370037 -0.4343648813 6.143684485
0.6226237727 -0.7825213337 6.399837011
0.9010928457 -0.4336262025 6.656223231
0.8788461538 -0.4222018923 6.25
0.7616803882 -0.6084431075 6.271760748
0.7618583092 -0.6080737681 6.528030121
0.9009149247 -0.4339955419 6.399953858
0.8897915788 -0.4282833868 6.196842243
0.7507349633 -0.602361613 6.324918506
0.8899694998 -0.4279140474 6.453111615
0.912772493 -0.3427409751 8.749793398
1 0 8.9625
1 0 8.45
0.975 0 8.5
0.9563862465 -0.1713704875 8.856146699
1 0 8.70625
0.9563862465 -0.1713704875 8.599896699
0.9438862465 -0.1713704875 8.624896699
0.9875 0 8.73125
0.9875 0 8.475
0.975 0 6
1 0 5.8875
0.9126305293 -0.3431188088 5.749925627
0.975 0 5.5
0.9875 0 5.94375
0.9563152647 -0.1715594044 5.818712813
0.9438152647 -0.1715594044 5.874962813
0.975 0 5.75
0.9875 0 5.69375
0.9438152647 -0.1715594044 5.624962813
1 0 6.4
0.975 0 6
0.8788461538 -0.4222018923 6.25
0.975 0 6.5
0.9875 0 6.2
0.9269230769 -0.2111009462 6.125
0.9394230769 -0.2111009462 6.325
0.9875 0 6.45
0.975 0 6.25
0.9269230769 -0.2111009462 6.375
1 0 7.9375
0.9015783723 -0.4326158095 8.193990253
1 0 8.45
0.975 0 8
0.9507891861 -0.2163079048 8.065745126
0.9507891861 -0.2163079048 8.321995126
1 0 8.19375
0.9875 0 7.96875
0.9382891861 -0.2163079048 8.096995126
0.9875 0 8.225
0.6223565507 -0.782733878 5.374964709
0.8788461538 -0.4222018923 5.25
0.6039383575 -0.7654302452 5.749623319
0.9007650767 -0.434306662 5.631199503
0.7506013523 -0.6024678852 5.312482355
0.7413922557 -0.5938160688 5.499811659
0.6131474541 -0.7740820616 5.562294014
0.7615608137 -0.60852027 5.503082106
0.8898056153 -0.4282542772 5.440599752
0.7523517171 -0.5998684536 5.690411411
0.975 0 5.5
0.975 0 5
1 0 5.375
0.8788461538 -0.4222018923 5.25
0.975 0 5.25
0.9875 0 5.1875
0.9875 0 5.4375
0.9269230769 -0.2111009462 5.375
0.9269230769 -0.2111009462 5.125
0.9394230769 -0.2111009462 5.3125
0.9007650767 -0.434306662 5.631199503
0.8788461538 -0.4222018923 5.25
1 0 5.375
0.9002361768 -0.4354019133 5.118683721
0.8898056153 -0.4282542772 5.440599752
0.9394230769 -0.2111009462 5.3125
0.9503825383 -0.217153331 5.503099752
0.9005006267 -0.4348542876 5.374941612
0.8895411653 -0.4288019028 5.18434186
0.9501180884 -0.2177009566 5.24684186
0.6223565507 -0.782733878 5.374964709
0.8788461538 -0.4222018923 5.25
0.9007650767 -0.434306662 5.631199503
0.9002361768 -0.4354019133 5.118683721
0.7506013523 -0.6024678852 5.312482355
0.8898056153 -0.4282542772 5.440599752
0.7615608137 -0.60852027 5.503082106
0.7612963637 -0.6090678956 5.246824215
0.8895411653 -0.4288019028 5.18434186
0.9005006267 -0.4348542876 5.374941612
-0.6237965432 -0.781586766 5.122295037
-0.6101929593 -0.7604535176 5.500270166
-0.6103297059 -0.760343771 5.00010251
-0.8788461538 -0.4222018923 5.25
-0.6169947512 -0.7710201418 5.311282602
-0.6102613326 -0.7603986443 5.250186338
-0.6170631245 -0.7709652685 5.061198773
-0.7513213485 -0.6018943291 5.186147519
-0.7445195566 -0.5913277049 5.375135083
-0.7445879299 -0.5912728317 5.125051255
0.2196639672 -0.975575595 4.607237432
0.2067618992 -0.9528244944 4.499782831
0.2068703825 -0.9528009471 4.999828537
0.6037244701 -0.7655989578 4.749623357
0.2132129332 -0.9642000447 4.553510132
0.2068161408 -0.9528127207 4.749805684
0.2132671748 -0.9641882711 4.803532984
0.4116942186 -0.8705872764 4.678430395
0.4052431846 -0.8592117261 4.624703094
0.4052974263 -0.8591999525 4.874725947
-0.9015039063 -0.4327709637 5.63125
-0.8788461538 -0.4222018923 5.25
-0.8789979967 -0.4218856738 5.750070697
-0.6101929593 -0.7604535176 5.500270166
-0.89017503 -0.427486428 5.440625
-0.8789220753 -0.4220437831 5.500035348
-0.8902509515 -0.4273283188 5.690660348
-0.7558484328 -0.5966122406 5.565760083
-0.7445195566 -0.5913277049 5.375135083
-0.744595478 -0.5911695957 5.625170432
-0.2098066283 -0.9777429001 9.468528812
-0.2274014426 -0.9481105336 9.754723569
-0.2200566406 -0.9498421316 9.251685326
-0.6203671475 -0.7521765766 9.505648067
-0.2186040354 -0.9629267169 9.611626191
-0.2237290416 -0.9489763326 9.503204448
-0.2149316345 -0.9637925158 9.360107069
-0.4150868879 -0.8649597383 9.487088439
-0.423884295 -0.8501435551 9.630185818
-0.420211894 -0.8510093541 9.378666697
0.2227602487 -0.9748732592 5.631077762
0.207000663 -0.9527726515 5.499782413
0.2071170144 -0.9527473654 5.999827627
0.6039383575 -0.7654302452 5.749623319
0.2148804559 -0.9638229554 5.565430088
0.2070588387 -0.9527600085 5.74980502
0.2149386316 -0.9638103123 5.815452694
0.4133493031 -0.8701517522 5.690350541
0.4054695103 -0.8591014484 5.624702866
0.405527686 -0.8590888053 5.874725473
-0.2191966452 -0.9756807012 6.914827433
-0.2210566965 -0.9496098867 6.750183493
-0.220581487 -0.9497203839 7.250146092
0.207491312 -0.9526659202 6.999813906
-0.2201266709 -0.962645294 6.832505463
-0.2208190918 -0.9496651353 7.000164792
-0.2198890661 -0.9627005426 7.082486762
-0.005852666611 -0.9641733107 6.957320669
-0.006782692295 -0.9511379034 6.874998699
-0.006545087516 -0.951193152 7.124979999
0.2246689517 -0.9744351503 6.14135841
0.2071170144 -0.9527473654 5.999827627
0.2072764243 -0.9527126975 6.499778413
0.532252402 -0.8169041441 6.249769755
0.215892983 -0.9635912579 6.070593018
0.2071967193 -0.9527300315 6.24980302
0.215972688 -0.9635739239 6.320568412
0.3784606768 -0.8956696472 6.195564083
0.3696847082 -0.8848257548 6.124798691
0.3697644131 -0.8848084208 6.374774084
0.230713935 -0.9730216237 7.682627658
0.207915524 -0.9525734276 7.499737179
0.2087920143 -0.952381696 7.999759397
0.6044136289 -0.765055008 7.749587291
0.2193147295 -0.9627975256 7.591182419
0.2083537691 -0.9524775618 7.749748288
0.2197529746 -0.9627016598 7.841193528
0.4175637819 -0.8690383159 7.716107475
0.4061645764 -0.8588142178 7.624662235
0.4066028216 -0.858718352 7.874673344
0.2490102718 -0.9685008439 9.738197861
0.2161396174 -0.950741114 9.509998223
0.2393462667 -0.9451657868 10.0494947
0.6242791185 -0.7489329624 9.70749038
0.2325749446 -0.9596209789 9.624098042
0.2277429421 -0.9479534504 9.779746463
0.2441782692 -0.9568333153 9.893846282
0.4366446951 -0.8587169031 9.722844121
0.420209368 -0.8498370382 9.608744302
0.4318126926 -0.8470493746 9.878492541
0.2288347178 -0.9734652906 9.220768131
0.2086842234 -0.9524053207 9.00044492
0.2161396174 -0.950741114 9.509998223
0.5510854712 -0.804319466 9.245219774
0.2187594706 -0.9629353056 9.110606526
0.2124119204 -0.9515732173 9.255221572
0.2224871676 -0.9621032023 9.365383177
0.3899600945 -0.8888923783 9.232993953
0.3798848473 -0.8783623934 9.122832347
0.3836125443 -0.87753029 9.377608999
0.2274177002 -0.9737973042 8.195021608
0.2087920143 -0.952381696 7.999759397
0.2084156115 -0.9524641373 8.499791764
0.5331280372 -0.8163329565 8.249614322
0.2181048572 -0.9630895001 8.097390502
0.2086038129 -0.9524229166 8.249775581
0.2179166559 -0.9631307208 8.347406686
0.3802728687 -0.8950651304 8.222317965
0.3709600257 -0.8843573262 8.124686859
0.3707718243 -0.8843985469 8.374703043
0.4875 -0.8443747687 10.5
0 -0.975 10.5
0.2393462667 -0.9451657868 10.0494947
0.2588190451 -0.9659258263 10.16359271
0.24375 -0.9096873843 10.5
0.1196731334 -0.9600828934 10.27474735
0.3634231334 -0.8947702778 10.27474735
0.3731595226 -0.9051502975 10.33179636
0.1294095226 -0.9704629131 10.33179636
0.2490826559 -0.9555458066 10.10654371
-0.2110861621 -0.9774674584 8.96530149
-0.2194421052 -0.9499842959 8.750386018
-0.2200566406 -0.9498421316 9.251685326
0.2086842234 -0.9524053207 9.00044492
-0.2152641336 -0.9637258771 8.857843754
-0.2197493729 -0.9499132137 9.001035672
-0.2155714014 -0.963654795 9.108493408
-0.001200969359 -0.9649363895 8.982873205
-0.005378940897 -0.9511948083 8.875415469
-0.005686208615 -0.9511237261 9.126065123
-0.2167020545 -0.9762377884 5.376416122
-0.2215483084 -0.9494953118 5.250186611
-0.2214153201 -0.9495263325 5.75019275
0.207000663 -0.9527726515 5.499782413
-0.2191251814 -0.9628665501 5.313301367
-0.2214818142 -0.9495108221 5.500189681
-0.2190586873 -0.9628820604 5.563304436
-0.004850695721 -0.96450522 5.438099268
-0.007273822666 -0.9511339816 5.374984512
-0.007207328538 -0.951149492 5.624987582
-0.6424637777 -0.7663160538 8.216276532
-0.609349871 -0.7611292496 8.5
-0.6092405983 -0.761216719 8.000120375
-0.8788461538 -0.4222018923 8.25
-0.6259068244 -0.7637226517 8.358138266
-0.6092952347 -0.7611729843 8.250060188
-0.625852188 -0.7637663864 8.108198454
-0.7606549658 -0.5942589731 8.233138266
-0.7440980124 -0.591665571 8.375
-0.7440433761 -0.5917093057 8.125060188
0.2248867556 -0.9743849071 6.65722854
0.2072764243 -0.9527126975 6.499778413
0.207491312 -0.9526659202 6.999813906
0.6041524316 -0.7652612883 6.749622929
0.21608159 -0.9635488023 6.578503476
0.2073838681 -0.9526893088 6.74979616
0.2161890338 -0.9635254136 6.828521223
0.4145195936 -0.8698230977 6.703425734
0.405714428 -0.8589869929 6.624700671
0.4058218718 -0.8589636042 6.874718418
-0.2082000723 -0.9780862589 6.38159685
-0.2212652659 -0.9495613103 6.250184327
-0.2210566965 -0.9496098867 6.750183493
0.2072764243 -0.9527126975 6.499778413
-0.2147326691 -0.9638237846 6.315890589
-0.2211609812 -0.9495855985 6.50018391
-0.2146283844 -0.9638480728 6.565890171
-0.0004618239921 -0.9653994782 6.440687632
-0.006994420802 -0.9511370039 6.37498137
-0.00689013613 -0.9511612921 6.624980953
0.2307344612 -0.9730167565 7.169861497
0.207491312 -0.9526659202 6.999813906
0.207915524 -0.9525734276 7.499737179
0.5325267668 -0.8167253165 7.249751731
0.2191128866 -0.9628413383 7.084837702
0.207703418 -0.9526196739 7.249775542
0.2193249926 -0.962795092 7.334799338
0.381630614 -0.8948710365 7.209806614
0.3700090394 -0.8846956183 7.124782819
0.3702211454 -0.884649372 7.374744455
0.2211111843 -0.9752486064 5.119474132
0.2068703825 -0.9528009471 4.999828537
0.207000663 -0.9527726515 5.499782413
0.5320712941 -0.817022116 5.249770793
0.2139907834 -0.9640247767 5.059651335
0.2069355228 -0.9527867993 5.249805475
0.2140559237 -0.9640106289 5.309628273
0.3765912392 -0.8961353612 5.184622463
0.3694708383 -0.8849115315 5.124799665
0.3695359786 -0.8848973837 5.374776603
-0.2128800189 -0.9770783477 8.45380681
-0.2195245265 -0.9499652532 8.249926326
-0.2194421052 -0.9499842959 8.750386018
0.2084156115 -0.9524641373 8.499791764
-0.2162022727 -0.9635218004 8.351866568
-0.2194833159 -0.9499747745 8.500156172
-0.216161062 -0.9635313218 8.602096414
-0.00223220372 -0.9647712425 8.476799287
-0.005554457537 -0.9512146953 8.374859045
-0.005513246855 -0.9512242166 8.625088891
-0.6384248664 -0.7696841495 6.131577533
-0.6099565206 -0.7606431772 6.500404122
-0.6101456436 -0.7604914816 6.000124348
-0.8788461538 -0.4222018923 6.25
-0.6241906935 -0.7651636633 6.315990828
-0.6100510821 -0.7605673294 6.250264235
-0.624285255 -0.7650878156 6.065850941
-0.7586355101 -0.5959430209 6.190788767
-0.7444013372 -0.5914225348 6.375202061
-0.7444958987 -0.591346687 6.125062174
0.907997998 -0.4189745047 9.72969638
0.6989398508 -0.6797853227 10.13644285
0.6242791185 -0.7489329624 9.70749038
0.6791118216 -0.7340348315 10.05048021
0.8034689244 -0.5493799137 9.933069617
0.6616094846 -0.7143591426 9.921966617
0.7661385582 -0.5839537336 9.71859338
0.7935549098 -0.5765046681 9.890088295
0.6890258362 -0.7069100771 10.09346153
0.65169547 -0.741483897 9.878985295
0.6989398508 -0.6797853227 10.13644285
0.907997998 -0.4189745047 9.72969638
0.6242791185 -0.7489329624 9.70749038
0.8962193432 -0.3839477685 9.75
0.8034689244 -0.5493799137 9.933069617
0.7661385582 -0.5839537336 9.71859338
0.6616094846 -0.7143591426 9.921966617
0.797579597 -0.5318665456 9.943221427
0.9021086706 -0.4014611366 9.73984819
0.7602492308 -0.5664403654 9.72874519
0.6989398508 -0.6797853227 10.13644285
0.907997998 -0.4189745047 9.72969638
0.9293672822 -0.3691564098 10.12560379
0.6791118216 -0.7340348315 10.05048021
0.8034689244 -0.5493799137 9.933069617
0.9186826401 -0.3940654573 9.927650087
0.8141535665 -0.5244708662 10.13102332
0.6890258362 -0.7069100771 10.09346153
0.7935549098 -0.5765046681 9.890088295
0.8042395519 -0.5515956206 10.088042
0.907997998 -0.4189745047 9.72969638
0.6989398508 -0.6797853227 10.13644285
0.9293672822 -0.3691564098 10.12560379
0.8962193432 -0.3839477685 9.75
0.8034689244 -0.5493799137 9.933069617
0.8141535665 -0.5244708662 10.13102332
0.9186826401 -0.3940654573 9.927650087
0.9021086706 -0.4014611366 9.73984819
0.797579597 -0.5318665456 9.943221427
0.9127933127 -0.3765520891 9.937801897
-0.975 0 5.5
-0.9015039063 -0.4327709637 5.63125
-0.936435833 -0.3508388957 5.119459007
-0.8788461538 -0.4222018923 5.25
-0.9382519531 -0.2163854818 5.565625
-0.9189698696 -0.3918049297 5.375354504
-0.9557179165 -0.1754194479 5.309729504
-0.9269230769 -0.2111009462 5.375
-0.89017503 -0.427486428 5.440625
-0.9076409934 -0.386520394 5.184729504
-0.936435833 -0.3508388957 5.119459007
-0.9015039063 -0.4327709637 5.63125
-0.975 0 5.5
-1 0 5.375
-0.9189698696 -0.3918049297 5.375354504
-0.9382519531 -0.2163854818 5.565625
-0.9557179165 -0.1754194479 5.309729504
-0.9682179165 -0.1754194479 5.247229504
-0.9507519531 -0.2163854818 5.503125
-0.9875 0 5.4375
-0.936435833 -0.3508388957 5.119459007
-0.975 0 5
-0.975 0 5.5
-0.8788461538 -0.4222018923 5.25
-0.9557179165 -0.1754194479 5.059729504
-0.975 0 5.25
-0.9557179165 -0.1754194479 5.309729504
-0.9076409934 -0.386520394 5.184729504
-0.9269230769 -0.2111009462 5.125
-0.9269230769 -0.2111009462 5.375
-0.975 0 5.5
-0.975 0 5
-0.936435833 -0.3508388957 5.119459007
-1 0 5.375
-0.975 0 5.25
-0.9557179165 -0.1754194479 5.059729504
-0.9557179165 -0.1754194479 5.309729504
-0.9875 0 5.4375
-0.9875 0 5.1875
-0.9682179165 -0.1754194479 5.247229504
0.8788461538 -0.4222018923 9.25
0.626689244 -0.7792692676 8.963208913
0.6454899266 -0.7637687835 9.492963542
0.5510854712 -0.804319466 9.245219774
0.7527676989 -0.60073558 9.106604457
0.6360895853 -0.7715190256 9.228086228
0.7621680402 -0.5929853379 9.371481771
0.7149658125 -0.6132606792 9.247609887
0.5888873576 -0.7917943668 9.104214344
0.5982876989 -0.7840441248 9.369091658
0.6454899266 -0.7637687835 9.492963542
0.626689244 -0.7792692676 8.963208913
0.8788461538 -0.4222018923 9.25
0.9028155343 -0.4300280352 9.218534335
0.6360895853 -0.7715190256 9.228086228
0.7527676989 -0.60073558 9.106604457
0.7621680402 -0.5929853379 9.371481771
0.7741527304 -0.5968984093 9.355748939
0.7647523891 -0.6046486514 9.090871624
0.8908308441 -0.4261149637 9.234267167
-0.878816375 -0.4222638736 7.750121991
-0.6092405983 -0.761216719 8.000120375
-0.6424637777 -0.7663160538 8.216276532
-0.8675911387 -0.4972782079 7.736412971
-0.7440284867 -0.5917402963 7.875121183
-0.625852188 -0.7637663864 8.108198454
-0.7606400764 -0.5942899637 7.983199261
-0.8732037569 -0.4597710407 7.743267481
-0.7384158685 -0.6292474634 7.868266673
-0.7550274582 -0.6317971308 7.976344751
-0.6424637777 -0.7663160538 8.216276532
-0.6092405983 -0.761216719 8.000120375
-0.878816375 -0.4222638736 7.750121991
-0.8788461538 -0.4222018923 8.25
-0.625852188 -0.7637663864 8.108198454
-0.7440284867 -0.5917402963 7.875121183
-0.7606400764 -0.5942899637 7.983199261
-0.7606549658 -0.5942589731 8.233138266
-0.7440433761 -0.5917093057 8.125060188
-0.8788312644 -0.422232883 8.000060995
-0.6424637777 -0.7663160538 8.216276532
-0.932968804 -0.3599572346 8.209287901
-0.878816375 -0.4222638736 7.750121991
-0.8675911387 -0.4972782079 7.736412971
-0.7877162909 -0.5631366442 8.212782216
-0.9058925895 -0.3911105541 7.979704946
-0.7606400764 -0.5942899637 7.983199261
-0.7550274582 -0.6317971308 7.976344751
-0.9002799714 -0.4286177212 7.972850436
-0.8732037569 -0.4597710407 7.743267481
-0.878816375 -0.4222638736 7.750121991
-0.932968804 -0.3599572346 8.209287901
-0.6424637777 -0.7663160538 8.216276532
-0.8788461538 -0.4222018923 8.25
-0.9058925895 -0.3911105541 7.979704946
-0.7877162909 -0.5631366442 8.212782216
-0.7606400764 -0.5942899637 7.983199261
-0.8788312644 -0.422232883 8.000060995
-0.9059074789 -0.3910795634 8.22964395
-0.7606549658 -0.5942589731 8.233138266
-0.975 0 6.5
-0.9329752713 -0.3599404717 6.130624487
-0.8702385679 -0.4926305259 6.602794901
-1 0 6.4
-0.9539876356 -0.1799702359 6.315312243
-0.9016069196 -0.4262854988 6.366709694
-0.9226192839 -0.2463152629 6.551397451
-0.9875 0 6.45
-0.9664876356 -0.1799702359 6.265312243
-0.9351192839 -0.2463152629 6.501397451
-0.9329752713 -0.3599404717 6.130624487
-0.975 0 6.5
-0.8702385679 -0.4926305259 6.602794901
-0.8788461538 -0.4222018923 6.25
-0.9539876356 -0.1799702359 6.315312243
-0.9226192839 -0.2463152629 6.551397451
-0.9016069196 -0.4262854988 6.366709694
-0.9059107126 -0.391071182 6.190312243
-0.9269230769 -0.2111009462 6.375
-0.8745423609 -0.4574162091 6.426397451
-0.9329752713 -0.3599404717 6.130624487
-0.975 0 6.5
-0.975 0 6
-1 0 6.4
-0.9539876356 -0.1799702359 6.315312243
-0.975 0 6.25
-0.9539876356 -0.1799702359 6.065312243
-0.9664876356 -0.1799702359 6.265312243
-0.9875 0 6.45
-0.9875 0 6.2
-0.975 0 6.5
-0.9329752713 -0.3599404717 6.130624487
-0.975 0 6
-0.8788461538 -0.4222018923 6.25
-0.9539876356 -0.1799702359 6.315312243
-0.9539876356 -0.1799702359 6.065312243
-0.975 0 6.25
-0.9269230769 -0.2111009462 6.375
-0.9059107126 -0.391071182 6.190312243
-0.9269230769 -0.2111009462 6.125
0 -0.975 10.5
-0.2304593685 -0.973081949 10.01392188
0 -1 10.5
-0.252348569 -0.9417776806 10.17127283
-0.1152296842 -0.9740409745 10.25696094
-0.1152296842 -0.9865409745 10.25696094
0 -0.9875 10.5
-0.1261742845 -0.9583888403 10.33563642
-0.2414039687 -0.9574298148 10.09259736
-0.1261742845 -0.9708888403 10.33563642
-0.2304593685 -0.973081949 10.01392188
0 -0.975 10.5
0 -1 10.5
0.2588190451 -0.9659258263 10.16359271
-0.1152296842 -0.9740409745 10.25696094
0 -0.9875 10.5
-0.1152296842 -0.9865409745 10.25696094
0.0141798383 -0.9695038876 10.0887573
0.1294095226 -0.9704629131 10.33179636
0.1294095226 -0.9829629131 10.33179636
-0.2304593685 -0.973081949 10.01392188
0 -0.975 10.5
0.2393462667 -0.9451657868 10.0494947
-0.252348569 -0.9417776806 10.17127283
-0.1152296842 -0.9740409745 10.25696094
0.1196731334 -0.9600828934 10.27474735
0.004443449112 -0.9591238679 10.03170829
-0.2414039687 -0.9574298148 10.09259736
-0.1261742845 -0.9583888403 10.33563642
-0.006501151127 -0.9434717337 10.11038377
0 -0.975 10.5
-0.2304593685 -0.973081949 10.01392188
0.2393462667 -0.9451657868 10.0494947
0.2588190451 -0.9659258263 10.16359271
-0.1152296842 -0.9740409745 10.25696094
0.004443449112 -0.9591238679 10.03170829
0.1196731334 -0.9600828934 10.27474735
0.1294095226 -0.9704629131 10.33179636
0.0141798383 -0.9695038876 10.0887573
0.2490826559 -0.9555458066 10.10654371
-0.2215483084 -0.9494953118 5.250186611
-0.2214153201 -0.9495263325 5.75019275
-0.5651741527 -0.824971622 5.630960904
-0.2167020545 -0.9762377884 5.376416122
-0.2214818142 -0.9495108221 5.500189681
-0.3932947364 -0.8872489772 5.690576827
-0.3933612306 -0.8872334669 5.440573758
-0.2191251814 -0.9628665501 5.313301367
-0.2190586873 -0.9628820604 5.563304436
-0.3909381036 -0.9006047052 5.503688513
-0.5651741527 -0.824971622 5.630960904
-0.2214153201 -0.9495263325 5.75019275
-0.2215483084 -0.9494953118 5.250186611
-0.6101929593 -0.7604535176 5.500270166
-0.3932947364 -0.8872489772 5.690576827
-0.2214818142 -0.9495108221 5.500189681
-0.3933612306 -0.8872334669 5.440573758
-0.587683556 -0.7927125698 5.565615535
-0.4158041397 -0.854989925 5.625231458
-0.4158706338 -0.8549744147 5.375228389
-0.5651741527 -0.824971622 5.630960904
-0.6237965432 -0.781586766 5.122295037
-0.2215483084 -0.9494953118 5.250186611
-0.2167020545 -0.9762377884 5.376416122
-0.594485348 -0.803279194 5.376627971
-0.4226724258 -0.8655410389 5.186240824
-0.3933612306 -0.8872334669 5.440573758
-0.3909381036 -0.9006047052 5.503688513
-0.4202492988 -0.8789122772 5.24935558
-0.2191251814 -0.9628665501 5.313301367
-0.2215483084 -0.9494953118 5.250186611
-0.6237965432 -0.781586766 5.122295037
-0.5651741527 -0.824971622 5.630960904
-0.6101929593 -0.7604535176 5.500270166
-0.4226724258 -0.8655410389 5.186240824
-0.594485348 -0.803279194 5.376627971
-0.3933612306 -0.8872334669 5.440573758
-0.4158706338 -0.8549744147 5.375228389
-0.6169947512 -0.7710201418 5.311282602
-0.587683556 -0.7927125698 5.565615535
0.6044136289 -0.765055008 7.749587291
0.5331280372 -0.8163329565 8.249614322
0.2274177002 -0.9737973042 8.195021608
0.6256029364 -0.780141632 7.938296898
0.568770833 -0.7906939823 7.999600807
0.3802728687 -0.8950651304 8.222317965
0.4159156645 -0.8694261561 7.97230445
0.6150082826 -0.77259832 7.843942095
0.5793654868 -0.7982372942 8.09395561
0.4265103183 -0.8769694681 8.066659253
0.2274177002 -0.9737973042 8.195021608
0.5331280372 -0.8163329565 8.249614322
0.6044136289 -0.765055008 7.749587291
0.2087920143 -0.952381696 7.999759397
0.3802728687 -0.8950651304 8.222317965
0.568770833 -0.7906939823 7.999600807
0.4159156645 -0.8694261561 7.97230445
0.2181048572 -0.9630895001 8.097390502
0.3709600257 -0.8843573262 8.124686859
0.4066028216 -0.858718352 7.874673344
0.2274177002 -0.9737973042 8.195021608
0.230713935 -0.9730216237 7.682627658
0.6044136289 -0.765055008 7.749587291
0.6256029364 -0.780141632 7.938296898
0.2290658176 -0.9734094639 7.938824633
0.4175637819 -0.8690383159 7.716107475
0.4159156645 -0.8694261561 7.97230445
0.4265103183 -0.8769694681 8.066659253
0.4281584357 -0.8765816278 7.810462278
0.6150082826 -0.77259832 7.843942095
0.6044136289 -0.765055008 7.749587291
0.230713935 -0.9730216237 7.682627658
0.2274177002 -0.9737973042 8.195021608
0.2087920143 -0.952381696 7.999759397
0.4175637819 -0.8690383159 7.716107475
0.2290658176 -0.9734094639 7.938824633
0.4159156645 -0.8694261561 7.97230445
0.4066028216 -0.858718352 7.874673344
0.2197529746 -0.9627016598 7.841193528
0.2181048572 -0.9630895001 8.097390502
0.6055258671 -0.7641749959 8.748953608
0.2282362272 -0.973605785 8.707857646
0.2288347178 -0.9734652906 9.220768131
0.2086842234 -0.9524053207 9.00044492
0.4168810471 -0.8688903904 8.728405627
0.2285354725 -0.9735355378 8.964312889
0.4171802925 -0.8688201432 8.98486087
0.4071050452 -0.8582901583 8.874699264
0.2184602253 -0.9630055529 8.854151283
0.2187594706 -0.9629353056 9.110606526
0.2288347178 -0.9734652906 9.220768131
0.2282362272 -0.973605785 8.707857646
0.6055258671 -0.7641749959 8.748953608
0.626689244 -0.7792692676 8.963208913
0.2285354725 -0.9735355378 8.964312889
0.4168810471 -0.8688903904 8.728405627
0.4171802925 -0.8688201432 8.98486087
0.4277619809 -0.8763672791 9.091988522
0.4274627356 -0.8764375263 8.83553328
0.6161075555 -0.7717221318 8.856081261
0.2288347178 -0.9734652906 9.220768131
0.5510854712 -0.804319466 9.245219774
0.6055258671 -0.7641749959 8.748953608
0.2086842234 -0.9524053207 9.00044492
0.3899600945 -0.8888923783 9.232993953
0.5783056691 -0.784247231 8.997086691
0.4171802925 -0.8688201432 8.98486087
0.2187594706 -0.9629353056 9.110606526
0.3798848473 -0.8783623934 9.122832347
0.4071050452 -0.8582901583 8.874699264
0.6055258671 -0.7641749959 8.748953608
0.5510854712 -0.804319466 9.245219774
0.2288347178 -0.9734652906 9.220768131
0.626689244 -0.7792692676 8.963208913
0.5783056691 -0.784247231 8.997086691
0.3899600945 -0.8888923783 9.232993953
0.4171802925 -0.8688201432 8.98486087
0.6161075555 -0.7717221318 8.856081261
0.5888873576 -0.7917943668 9.104214344
0.4277619809 -0.8763672791 9.091988522
-0.8788461538 -0.4222018923 6.25
-0.6384248664 -0.7696841495 6.131577533
-0.8789979967 -0.4218856738 5.750070697
-0.6101456436 -0.7604914816 6.000124348
-0.7586355101 -0.5959430209 6.190788767
-0.7587114316 -0.5957849116 5.940824115
-0.8789220753 -0.4220437831 6.000035348
-0.7444958987 -0.591346687 6.125062174
-0.624285255 -0.7650878156 6.065850941
-0.7445718201 -0.5911885777 5.875097523
-0.8789979967 -0.4218856738 5.750070697
-0.6384248664 -0.7696841495 6.131577533
-0.8788461538 -0.4222018923 6.25
-0.9329752713 -0.3599404717 6.130624487
-0.7587114316 -0.5957849116 5.940824115
-0.7586355101 -0.5959430209 6.190788767
-0.8789220753 -0.4220437831 6.000035348
-0.905986634 -0.3909130728 5.940347592
-0.7857000688 -0.5648123106 6.13110101
-0.9059107126 -0.391071182 6.190312243
0.6250155466 -0.7806123023 7.425684791
0.8788461538 -0.4222018923 7.25
0.6248686988 -0.7807298568 6.911707017
0.5325267668 -0.8167253165 7.249751731
0.7519308502 -0.6014070973 7.337842396
0.7518574263 -0.6014658746 7.080853508
0.6249421227 -0.7806710795 7.168695904
0.5787711567 -0.7986688094 7.337718261
0.7056864603 -0.6194636044 7.249875866
0.5786977328 -0.7987275867 7.080729374
0.6248686988 -0.7807298568 6.911707017
0.8788461538 -0.4222018923 7.25
0.6250155466 -0.7806123023 7.425684791
0.9013328486 -0.433127113 7.168814654
0.7518574263 -0.6014658746 7.080853508
0.7519308502 -0.6014070973 7.337842396
0.6249421227 -0.7806710795 7.168695904
0.7631007737 -0.6069284849 7.040260836
0.8900895012 -0.4276645027 7.209407327
0.7631741976 -0.6068697076 7.297249723
0.8788461538 -0.4222018923 8.25
0.6256029364 -0.780141632 7.938296898
0.6262967221 -0.7795847715 8.450696006
0.5331280372 -0.8163329565 8.249614322
0.7522245451 -0.6011717621 8.094148449
0.6259498292 -0.7798632017 8.194496452
0.752571438 -0.6008933319 8.350348003
0.7059870955 -0.6192674244 8.249807161
0.5793654868 -0.7982372942 8.09395561
0.5797123796 -0.797958864 8.350155164
0.6256029364 -0.780141632 7.938296898
0.8788461538 -0.4222018923 8.25
0.6262967221 -0.7795847715 8.450696006
0.9015783723 -0.4326158095 8.193990253
0.7522245451 -0.6011717621 8.094148449
0.752571438 -0.6008933319 8.350348003
0.6259498292 -0.7798632017 8.194496452
0.7635906544 -0.6063787207 8.066143575
0.8902122631 -0.4274088509 8.221995126
0.7639375472 -0.6061002905 8.322343129
-0.8933876353 -0.4492866936 7.168897803
-0.8675911387 -0.4972782079 7.736412971
-0.6094886995 -0.7610180846 7.500191201
-0.8788461538 -0.4222018923 7.25
-0.880489387 -0.4732824507 7.452655387
-0.7385399191 -0.6291481462 7.618302086
-0.7514381674 -0.6051523891 7.334544502
-0.8861168946 -0.435744293 7.209448901
-0.8732186463 -0.4597400501 7.493206485
-0.7441674267 -0.5916099885 7.3750956
-0.6094886995 -0.7610180846 7.500191201
-0.8675911387 -0.4972782079 7.736412971
-0.8933876353 -0.4492866936 7.168897803
-0.6129029095 -0.7901582269 7.375266868
-0.7385399191 -0.6291481462 7.618302086
-0.880489387 -0.4732824507 7.452655387
-0.7514381674 -0.6051523891 7.334544502
-0.6111958045 -0.7755881558 7.437729035
-0.7402470241 -0.6437182174 7.55583992
-0.7531452724 -0.6197224602 7.272082336
-0.6094886995 -0.7610180846 7.500191201
-0.6098568236 -0.7607231131 7.000079879
-0.8933876353 -0.4492866936 7.168897803
-0.8788461538 -0.4222018923 7.25
-0.6096727615 -0.7608705988 7.25013554
-0.7516222294 -0.6050049033 7.084488841
-0.7514381674 -0.6051523891 7.334544502
-0.7441674267 -0.5916099885 7.3750956
-0.7443514887 -0.5914625027 7.125039939
-0.8861168946 -0.435744293 7.209448901
-0.8933876353 -0.4492866936 7.168897803
-0.6098568236 -0.7607231131 7.000079879
-0.6094886995 -0.7610180846 7.500191201
-0.6129029095 -0.7901582269 7.375266868
-0.7516222294 -0.6050049033 7.084488841
-0.6096727615 -0.7608705988 7.25013554
-0.7514381674 -0.6051523891 7.334544502
-0.7531452724 -0.6197224602 7.272082336
-0.6113798665 -0.77544067 7.187673373
-0.6111958045 -0.7755881558 7.437729035
-0.2195010396 -0.9499706804 7.750025587
-0.6129029095 -0.7901582269 7.375266868
-0.5449097323 -0.838494713 7.777479838
-0.6094886995 -0.7610180846 7.500191201
-0.4162019746 -0.8700644536 7.562646228
-0.5789063209 -0.8143264699 7.576373353
-0.3822053859 -0.8942326967 7.763752712
-0.4144948696 -0.8554943825 7.625108394
-0.6111958045 -0.7755881558 7.437729035
-0.5771992159 -0.7997563988 7.638835519
-0.6129029095 -0.7901582269 7.375266868
-0.2195010396 -0.9499706804 7.750025587
-0.5449097323 -0.838494713 7.777479838
-0.1924208301 -0.9813125008 7.442231177
-0.4162019746 -0.8700644536 7.562646228
-0.3822053859 -0.8942326967 7.763752712
-0.5789063209 -0.8143264699 7.576373353
-0.4026618698 -0.8857353638 7.408749022
-0.2059609348 -0.9656415906 7.596128382
-0.3686652812 -0.9099036069 7.609855507
-0.6129029095 -0.7901582269 7.375266868
-0.2195010396 -0.9499706804 7.750025587
-0.220581487 -0.9497203839 7.250146092
-0.6094886995 -0.7610180846 7.500191201
-0.4162019746 -0.8700644536 7.562646228
-0.2200412633 -0.9498455322 7.500085839
-0.4167421983 -0.8699393054 7.31270648
-0.6111958045 -0.7755881558 7.437729035
-0.4144948696 -0.8554943825 7.625108394
-0.4150350933 -0.8553692343 7.375168646
-0.2195010396 -0.9499706804 7.750025587
-0.6129029095 -0.7901582269 7.375266868
-0.220581487 -0.9497203839 7.250146092
-0.1924208301 -0.9813125008 7.442231177
-0.4162019746 -0.8700644536 7.562646228
-0.4167421983 -0.8699393054 7.31270648
-0.2200412633 -0.9498455322 7.500085839
-0.2059609348 -0.9656415906 7.596128382
-0.4026618698 -0.8857353638 7.408749022
-0.2065011585 -0.9655164423 7.346188634
-0.6098568236 -0.7607231131 7.000079879
-0.6099565206 -0.7606431772 6.500404122
-0.8702385679 -0.4926305259 6.602794901
-0.8789496634 -0.4219863613 6.750085592
-0.6099066721 -0.7606831451 6.750242
-0.7400975442 -0.6266368515 6.551599512
-0.7400476957 -0.6266768195 6.80143739
-0.7444032435 -0.5913547372 6.875082735
-0.744453092 -0.5913147693 6.625244857
-0.8745941157 -0.4573084436 6.676440247
-0.6098568236 -0.7607231131 7.000079879
-0.8933876353 -0.4492866936 7.168897803
-0.8702385679 -0.4926305259 6.602794901
-0.6646926829 -0.7471168833 6.919476942
-0.7516222294 -0.6050049033 7.084488841
-0.8818131016 -0.4709586097 6.885846352
-0.7400476957 -0.6266768195 6.80143739
-0.6372747533 -0.7539199982 6.95977841
-0.7790401591 -0.5982017884 7.044187372
-0.7674656254 -0.6198737046 6.761135922
-0.8702385679 -0.4926305259 6.602794901
-0.8933876353 -0.4492866936 7.168897803
-0.6098568236 -0.7607231131 7.000079879
-0.8789496634 -0.4219863613 6.750085592
-0.8818131016 -0.4709586097 6.885846352
-0.7516222294 -0.6050049033 7.084488841
-0.7400476957 -0.6266768195 6.80143739
-0.8745941157 -0.4573084436 6.676440247
-0.8861686494 -0.4356365274 6.959491697
-0.7444032435 -0.5913547372 6.875082735
0.9017381641 -0.432282643 8.706397362
0.8788461538 -0.4222018923 9.25
0.6055258671 -0.7641749959 8.748953608
0.626689244 -0.7792692676 8.963208913
0.890292159 -0.4272422677 8.978198681
0.7421860105 -0.5931884441 8.999476804
0.7536320156 -0.5982288194 8.727675485
0.764213704 -0.6057759553 8.834803138
0.7527676989 -0.60073558 9.106604457
0.6161075555 -0.7717221318 8.856081261
0.8788461538 -0.4222018923 9.25
0.9017381641 -0.432282643 8.706397362
0.6055258671 -0.7641749959 8.748953608
0.912772493 -0.3427409751 8.749793398
0.890292159 -0.4272422677 8.978198681
0.7536320156 -0.5982288194 8.727675485
0.7421860105 -0.5931884441 8.999476804
0.8958093234 -0.3824714337 8.999896699
0.9072553285 -0.3875118091 8.72809538
0.75914918 -0.5534579855 8.749373503
0.8788461538 -0.4222018923 9.25
0.9017381641 -0.432282643 8.706397362
0.9028155343 -0.4300280352 9.218534335
0.626689244 -0.7792692676 8.963208913
0.890292159 -0.4272422677 8.978198681
0.9022768492 -0.4311553391 8.962465849
0.8908308441 -0.4261149637 9.234267167
0.7527676989 -0.60073558 9.106604457
0.764213704 -0.6057759553 8.834803138
0.7647523891 -0.6046486514 9.090871624
0.9017381641 -0.432282643 8.706397362
0.8788461538 -0.4222018923 9.25
0.9028155343 -0.4300280352 9.218534335
0.912772493 -0.3427409751 8.749793398
0.890292159 -0.4272422677 8.978198681
0.8908308441 -0.4261149637 9.234267167
0.9022768492 -0.4311553391 8.962465849
0.9072553285 -0.3875118091 8.72809538
0.8958093234 -0.3824714337 8.999896699
0.9077940137 -0.3863845051 8.984163867
1 0 4.8625
1 0 5.375
0.8788461538 -0.4222018923 5.25
0.9002361768 -0.4354019133 5.118683721
1 0 5.11875
0.9394230769 -0.2111009462 5.3125
0.9394230769 -0.2111009462 5.05625
0.9501180884 -0.2177009566 4.99059186
0.9501180884 -0.2177009566 5.24684186
0.8895411653 -0.4288019028 5.18434186
0.8788461538 -0.4222018923 5.25
1 0 5.375
1 0 4.8625
0.975 0 5
0.9394230769 -0.2111009462 5.3125
1 0 5.11875
0.9394230769 -0.2111009462 5.05625
0.9269230769 -0.2111009462 5.125
0.9875 0 5.1875
0.9875 0 4.93125
-1 0 6.9125
-0.8788461538 -0.4222018923 7.25
-0.8789496634 -0.4219863613 6.750085592
-0.975 0 7
-0.9394230769 -0.2111009462 7.08125
-0.8788979086 -0.4220941268 7.000042796
-0.9394748317 -0.2109931806 6.831292796
-0.9875 0 6.95625
-0.9269230769 -0.2111009462 7.125
-0.9269748317 -0.2109931806 6.875042796
-0.8788461538 -0.4222018923 7.25
-1 0 6.9125
-0.8789496634 -0.4219863613 6.750085592
-0.8933876353 -0.4492866936 7.168897803
-0.9394230769 -0.2111009462 7.08125
-0.9394748317 -0.2109931806 6.831292796
-0.8788979086 -0.4220941268 7.000042796
-0.8861168946 -0.435744293 7.209448901
-0.9466938177 -0.2246433468 7.040698901
-0.8861686494 -0.4356365274 6.959491697
-0.8788461538 -0.4222018923 7.25
-1 0 6.9125
-1 0 7.425
-0.975 0 7
-0.9394230769 -0.2111009462 7.08125
-1 0 7.16875
-0.9394230769 -0.2111009462 7.3375
-0.9269230769 -0.2111009462 7.125
-0.9875 0 6.95625
-0.9875 0 7.2125
-1 0 6.9125
-0.8788461538 -0.4222018923 7.25
-1 0 7.425
-0.8933876353 -0.4492866936 7.168897803
-0.9394230769 -0.2111009462 7.08125
-0.9394230769 -0.2111009462 7.3375
-1 0 7.16875
-0.9466938177 -0.2246433468 7.040698901
-0.8861168946 -0.435744293 7.209448901
-0.9466938177 -0.2246433468 7.296948901
1 0 7.9375
0.975 0 7.5
0.9014170074 -0.432951936 7.681772888
0.912673023 -0.3430057625 7.749918514
0.9875 0 7.71875
0.9382085037 -0.216475968 7.590886444
0.9507085037 -0.216475968 7.809636444
0.9563365115 -0.1715028813 7.843709257
0.9438365115 -0.1715028813 7.624959257
0.9070450152 -0.3879788492 7.715845701
0.9014170074 -0.432951936 7.681772888
0.975 0 7.5
1 0 7.9375
1 0 7.425
0.9382085037 -0.216475968 7.590886444
0.9875 0 7.71875
0.9507085037 -0.216475968 7.809636444
0.9507085037 -0.216475968 7.553386444
0.9875 0 7.4625
1 0 7.68125
0.6242791185 -0.7489329624 9.70749038
0.8788461538 -0.4222018923 9.25
0.907997998 -0.4189745047 9.72969638
0.6454899266 -0.7637687835 9.492963542
0.7515626362 -0.5855674274 9.47874519
0.8934220759 -0.4205881985 9.48984819
0.7661385582 -0.5839537336 9.71859338
0.6348845225 -0.756350873 9.600226961
0.7621680402 -0.5929853379 9.371481771
0.7767439623 -0.5913716441 9.611329961
0.907997998 -0.4189745047 9.72969638
0.8788461538 -0.4222018923 9.25
0.6242791185 -0.7489329624 9.70749038
0.8962193432 -0.3839477685 9.75
0.8934220759 -0.4205881985 9.48984819
0.7515626362 -0.5855674274 9.47874519
0.7661385582 -0.5839537336 9.71859338
0.9021086706 -0.4014611366 9.73984819
0.8875327485 -0.4030748304 9.5
0.7602492308 -0.5664403654 9.72874519
0.8788461538 -0.4222018923 6.25
0.6230943824 -0.7821466554 5.887001171
0.6226237727 -0.7825213337 6.399837011
0.532252402 -0.8169041441 6.249769755
0.7509702681 -0.6021742739 6.068500585
0.6228590775 -0.7823339946 6.143419091
0.7507349633 -0.602361613 6.324918506
0.7055492779 -0.6195530182 6.249884878
0.5776733922 -0.7995253997 6.068385463
0.5774380873 -0.7997127389 6.324803383
0.6226237727 -0.7825213337 6.399837011
0.6230943824 -0.7821466554 5.887001171
0.8788461538 -0.4222018923 6.25
0.9007370037 -0.4343648813 6.143684485
0.6228590775 -0.7823339946 6.143419091
0.7509702681 -0.6021742739 6.068500585
0.7507349633 -0.602361613 6.324918506
0.7616803882 -0.6084431075 6.271760748
0.7619156931 -0.6082557684 6.015342828
0.8897915788 -0.4282833868 6.196842243
-0.5570216226 -0.8304979904 6.549773315
-0.6099565206 -0.7606431772 6.500404122
-0.6098568236 -0.7607231131 7.000079879
-0.2210566965 -0.9496098867 6.750183493
-0.5834890716 -0.7955705838 6.525088719
-0.6099066721 -0.7606831451 6.750242
-0.5834392231 -0.7956105517 6.774926597
-0.3890391596 -0.8900539385 6.649978404
-0.4155066085 -0.855126532 6.625293807
-0.4154567601 -0.8551664999 6.875131686
-0.5570216226 -0.8304979904 6.549773315
-0.2191966452 -0.9756807012 6.914827433
-0.6098568236 -0.7607231131 7.000079879
-0.6646926829 -0.7471168833 6.919476942
-0.3881091339 -0.9030893458 6.732300374
-0.4145267344 -0.8682019071 6.957453656
-0.5834392231 -0.7956105517 6.774926597
-0.6108571528 -0.7888074368 6.734625129
-0.4419446641 -0.8613987922 6.917152187
-0.6372747533 -0.7539199982 6.95977841
-0.6098568236 -0.7607231131 7.000079879
-0.2191966452 -0.9756807012 6.914827433
-0.5570216226 -0.8304979904 6.549773315
-0.2210566965 -0.9496098867 6.750183493
-0.4145267344 -0.8682019071 6.957453656
-0.3881091339 -0.9030893458 6.732300374
-0.5834392231 -0.7956105517 6.774926597
-0.4154567601 -0.8551664999 6.875131686
-0.2201266709 -0.962645294 6.832505463
-0.3890391596 -0.8900539385 6.649978404
0.6039383575 -0.7654302452 5.749623319
0.8788461538 -0.4222018923 6.25
0.9007370037 -0.4343648813 6.143684485
0.9126305293 -0.3431188088 5.749925627
0.7413922557 -0.5938160688 5.999811659
0.8897915788 -0.4282833868 6.196842243
0.7523376806 -0.5998975633 5.946653902
0.7582844434 -0.554274527 5.749774473
0.8957383416 -0.3826603506 5.999962813
0.9066837665 -0.3887418451 5.946805056
0.9007370037 -0.4343648813 6.143684485
0.8788461538 -0.4222018923 6.25
0.6039383575 -0.7654302452 5.749623319
0.6230943824 -0.7821466554 5.887001171
0.8897915788 -0.4282833868 6.196842243
0.7413922557 -0.5938160688 5.999811659
0.7523376806 -0.5998975633 5.946653902
0.7619156931 -0.6082557684 6.015342828
0.7509702681 -0.6021742739 6.068500585
0.61351637 -0.7737884503 5.818312245
0.9007370037 -0.4343648813 6.143684485
0.9007650767 -0.434306662 5.631199503
0.6039383575 -0.7654302452 5.749623319
0.9126305293 -0.3431188088 5.749925627
0.9007510402 -0.4343357717 5.887441994
0.7523517171 -0.5998684536 5.690411411
0.7523376806 -0.5998975633 5.946653902
0.9066837665 -0.3887418451 5.946805056
0.906697803 -0.3887127354 5.690562565
0.7582844434 -0.554274527 5.749774473
0.6039383575 -0.7654302452 5.749623319
0.9007650767 -0.434306662 5.631199503
0.9007370037 -0.4343648813 6.143684485
0.6230943824 -0.7821466554 5.887001171
0.7523517171 -0.5998684536 5.690411411
0.9007510402 -0.4343357717 5.887441994
0.7523376806 -0.5998975633 5.946653902
0.61351637 -0.7737884503 5.818312245
0.7619297295 -0.6082266587 5.759100337
0.7619156931 -0.6082557684 6.015342828
0.8788461538 -0.4222018923 6.25
0.9126305293 -0.3431188088 5.749925627
1 0 5.8875
0.9007370037 -0.4343648813 6.143684485
0.8957383416 -0.3826603506 5.999962813
0.9563152647 -0.1715594044 5.818712813
0.9394230769 -0.2111009462 6.06875
0.8897915788 -0.4282833868 6.196842243
0.9066837665 -0.3887418451 5.946805056
0.9503685019 -0.2171824407 6.015592243
1 0 5.8875
0.9126305293 -0.3431188088 5.749925627
0.8788461538 -0.4222018923 6.25
0.975 0 6
0.9563152647 -0.1715594044 5.818712813
0.8957383416 -0.3826603506 5.999962813
0.9394230769 -0.2111009462 6.06875
0.9875 0 5.94375
0.9438152647 -0.1715594044 5.874962813
0.9269230769 -0.2111009462 6.125
1 0 5.8875
1 0 6.4
0.8788461538 -0.4222018923 6.25
0.9007370037 -0.4343648813 6.143684485
1 0 6.14375
0.9394230769 -0.2111009462 6.325
0.9394230769 -0.2111009462 6.06875
0.9503685019 -0.2171824407 6.015592243
0.9503685019 -0.2171824407 6.271842243
0.8897915788 -0.4282833868 6.196842243
0.8788461538 -0.4222018923 6.25
1 0 6.4
1 0 5.8875
0.975 0 6
0.9394230769 -0.2111009462 6.325
1 0 6.14375
0.9394230769 -0.2111009462 6.06875
0.9269230769 -0.2111009462 6.125
0.9875 0 6.2
0.9875 0 5.94375
-0.2214153201 -0.9495263325 5.75019275
-0.6384248664 -0.7696841495 6.131577533
-0.2212652659 -0.9495613103 6.250184327
-0.6101456436 -0.7604914816 6.000124348
-0.4299200933 -0.859605241 5.940885142
-0.4298450662 -0.8596227299 6.19088093
-0.221340293 -0.9495438214 6.000188539
-0.4157804818 -0.855008907 5.875158549
-0.624285255 -0.7650878156 6.065850941
-0.4157054547 -0.855026396 6.125154338
-0.6384248664 -0.7696841495 6.131577533
-0.2214153201 -0.9495263325 5.75019275
-0.2212652659 -0.9495613103 6.250184327
-0.2144017583 -0.9767455585 5.885766196
-0.4299200933 -0.859605241 5.940885142
-0.221340293 -0.9495438214 6.000188539
-0.4298450662 -0.8596227299 6.19088093
-0.4264133123 -0.873214854 6.008671864
-0.2179085392 -0.9631359455 5.817979473
-0.2178335121 -0.9631534344 6.067975262
-0.6384248664 -0.7696841495 6.131577533
-0.2214153201 -0.9495263325 5.75019275
-0.5651741527 -0.824971622 5.630960904
-0.6101456436 -0.7604914816 6.000124348
-0.4299200933 -0.859605241 5.940885142
-0.3932947364 -0.8872489772 5.690576827
-0.6017995096 -0.7973278857 5.881269219
-0.624285255 -0.7650878156 6.065850941
-0.4157804818 -0.855008907 5.875158549
-0.5876598982 -0.7927315518 5.815542626
-0.2214153201 -0.9495263325 5.75019275
-0.6384248664 -0.7696841495 6.131577533
-0.5651741527 -0.824971622 5.630960904
-0.2144017583 -0.9767455585 5.885766196
-0.4299200933 -0.859605241 5.940885142
-0.6017995096 -0.7973278857 5.881269219
-0.3932947364 -0.8872489772 5.690576827
-0.2179085392 -0.9631359455 5.817979473
-0.4264133123 -0.873214854 6.008671864
-0.3897879555 -0.9008585902 5.75836355
0.8788461538 -0.4222018923 5.25
0.6037244701 -0.7655989578 4.749623357
0.6215019039 -0.7834126521 4.86273584
0.5320712941 -0.817022116 5.249770793
0.741285312 -0.5939004251 4.999811679
0.612613187 -0.7745058049 4.806179599
0.7501740289 -0.6028072722 5.05636792
0.705458724 -0.6196120041 5.249885396
0.5678978821 -0.7913105369 4.999697075
0.576786599 -0.800217384 5.056253316
0.6215019039 -0.7834126521 4.86273584
0.6037244701 -0.7655989578 4.749623357
0.8788461538 -0.4222018923 5.25
0.9002361768 -0.4354019133 5.118683721
0.612613187 -0.7745058049 4.806179599
0.741285312 -0.5939004251 4.999811679
0.7501740289 -0.6028072722 5.05636792
0.7608690403 -0.6094072827 4.99070978
0.7519803234 -0.6005004355 4.934153539
0.8895411653 -0.4288019028 5.18434186
0.6215019039 -0.7834126521 4.86273584
0.6223565507 -0.782733878 5.374964709
0.8788461538 -0.4222018923 5.25
0.5320712941 -0.817022116 5.249770793
0.6219292273 -0.783073265 5.118850275
0.7506013523 -0.6024678852 5.312482355
0.7501740289 -0.6028072722 5.05636792
0.576786599 -0.800217384 5.056253316
0.5772139224 -0.799877997 5.312367751
0.705458724 -0.6196120041 5.249885396
0.8788461538 -0.4222018923 5.25
0.6223565507 -0.782733878 5.374964709
0.6215019039 -0.7834126521 4.86273584
0.9002361768 -0.4354019133 5.118683721
0.7506013523 -0.6024678852 5.312482355
0.6219292273 -0.783073265 5.118850275
0.7501740289 -0.6028072722 5.05636792
0.8895411653 -0.4288019028 5.18434186
0.7612963637 -0.6090678956 5.246824215
0.7608690403 -0.6094072827 4.99070978
0.6041524316 -0.7652612883 6.749622929
0.5325267668 -0.8167253165 7.249751731
0.2307344612 -0.9730167565 7.169861497
0.6248686988 -0.7807298568 6.911707017
0.5683395992 -0.7909933024 6.99968733
0.381630614 -0.8948710365 7.209806614
0.4174434464 -0.8691390224 6.959742213
0.6145105652 -0.7729955725 6.830664973
0.5786977328 -0.7987275867 7.080729374
0.42780158 -0.8768733066 7.040784257
0.2307344612 -0.9730167565 7.169861497
0.5325267668 -0.8167253165 7.249751731
0.6041524316 -0.7652612883 6.749622929
0.207491312 -0.9526659202 6.999813906
0.381630614 -0.8948710365 7.209806614
0.5683395992 -0.7909933024 6.99968733
0.4174434464 -0.8691390224 6.959742213
0.2191128866 -0.9628413383 7.084837702
0.3700090394 -0.8846956183 7.124782819
0.4058218718 -0.8589636042 6.874718418
0.2307344612 -0.9730167565 7.169861497
0.2248867556 -0.9743849071 6.65722854
0.6041524316 -0.7652612883 6.749622929
0.6248686988 -0.7807298568 6.911707017
0.2278106084 -0.9737008318 6.913545019
0.4145195936 -0.8698230977 6.703425734
0.4174434464 -0.8691390224 6.959742213
0.42780158 -0.8768733066 7.040784257
0.4248777272 -0.8775573819 6.784467778
0.6145105652 -0.7729955725 6.830664973
0.6041524316 -0.7652612883 6.749622929
0.2248867556 -0.9743849071 6.65722854
0.2307344612 -0.9730167565 7.169861497
0.207491312 -0.9526659202 6.999813906
0.4145195936 -0.8698230977 6.703425734
0.2278106084 -0.9737008318 6.913545019
0.4174434464 -0.8691390224 6.959742213
0.4058218718 -0.8589636042 6.874718418
0.2161890338 -0.9635254136 6.828521223
0.2191128866 -0.9628413383 7.084837702
-0.609349871 -0.7611292496 8.5
-0.9015039063 -0.4327709637 8.70625
-0.6094436199 -0.7610541861 9.000842543
-0.8789007195 -0.4220882907 8.750217488
-0.7554268886 -0.5969501067 8.603125
-0.7554737631 -0.5969125749 8.853546272
-0.6093967455 -0.7610917179 8.750421272
-0.7441252953 -0.5916087702 8.625108744
-0.8902023129 -0.4274296272 8.728233744
-0.7441721697 -0.5915712384 8.875530016
-0.6094436199 -0.7610541861 9.000842543
-0.9015039063 -0.4327709637 8.70625
-0.609349871 -0.7611292496 8.5
-0.5651385362 -0.8249960212 8.710856988
-0.7554737631 -0.5969125749 8.853546272
-0.7554268886 -0.5969501067 8.603125
-0.6093967455 -0.7610917179 8.750421272
-0.587291078 -0.7930251036 8.855849766
-0.7333212212 -0.6288834924 8.708553494
-0.5872442036 -0.7930626354 8.605428494
0.4875 -0.8443747687 10.5
0.2393462667 -0.9451657868 10.0494947
0.6791118216 -0.7340348315 10.05048021
0.2588190451 -0.9659258263 10.16359271
0.3634231334 -0.8947702778 10.27474735
0.4592290441 -0.8396003092 10.04998746
0.5833059108 -0.7892048001 10.27524011
0.3731595226 -0.9051502975 10.33179636
0.2490826559 -0.9555458066 10.10654371
0.4689654333 -0.8499803289 10.10703646
0.6791118216 -0.7340348315 10.05048021
0.2393462667 -0.9451657868 10.0494947
0.4875 -0.8443747687 10.5
0.6989398508 -0.6797853227 10.13644285
0.4592290441 -0.8396003092 10.04998746
0.3634231334 -0.8947702778 10.27474735
0.5833059108 -0.7892048001 10.27524011
0.6890258362 -0.7069100771 10.09346153
0.4691430588 -0.8124755548 10.09296878
0.5932199254 -0.7620800457 10.31822143
0.6041524316 -0.7652612883 6.749622929
0.8788461538 -0.4222018923 7.25
0.9013328486 -0.433127113 7.168814654
0.9126496686 -0.3430678975 6.74992555
0.7414992927 -0.5937315903 6.999811465
0.8900895012 -0.4276645027 7.209407327
0.7527426401 -0.5991942006 6.959218792
0.7584010501 -0.5541645929 6.74977424
0.8957479112 -0.3826348949 6.999962775
0.9069912586 -0.3880975053 6.959370102
0.9013328486 -0.433127113 7.168814654
0.8788461538 -0.4222018923 7.25
0.6041524316 -0.7652612883 6.749622929
0.6248686988 -0.7807298568 6.911707017
0.8900895012 -0.4276645027 7.209407327
0.7414992927 -0.5937315903 6.999811465
0.7527426401 -0.5991942006 6.959218792
0.7631007737 -0.6069284849 7.040260836
0.7518574263 -0.6014658746 7.080853508
0.6145105652 -0.7729955725 6.830664973
0.9013328486 -0.433127113 7.168814654
0.9010928457 -0.4336262025 6.656223231
0.6041524316 -0.7652612883 6.749622929
0.9126496686 -0.3430678975 6.74992555
0.9012128471 -0.4333766577 6.912518943
0.7526226387 -0.5994437454 6.70292308
0.7527426401 -0.5991942006 6.959218792
0.9069912586 -0.3880975053 6.959370102
0.9068712572 -0.38834705 6.70307439
0.7584010501 -0.5541645929 6.74977424
0.6041524316 -0.7652612883 6.749622929
0.9010928457 -0.4336262025 6.656223231
0.9013328486 -0.433127113 7.168814654
0.6248686988 -0.7807298568 6.911707017
0.7526226387 -0.5994437454 6.70292308
0.9012128471 -0.4333766577 6.912518943
0.7527426401 -0.5991942006 6.959218792
0.6145105652 -0.7729955725 6.830664973
0.7629807722 -0.6071780296 6.783965124
0.7631007737 -0.6069284849 7.040260836
-0.2191966452 -0.9756807012 6.914827433
0.207491312 -0.9526659202 6.999813906
0.2072764243 -0.9527126975 6.499778413
-0.2210566965 -0.9496098867 6.750183493
-0.005852666611 -0.9641733107 6.957320669
0.2073838681 -0.9526893088 6.74979616
-0.005960110446 -0.9641966994 6.707302923
-0.2201266709 -0.962645294 6.832505463
-0.006782692295 -0.9511379034 6.874998699
-0.00689013613 -0.9511612921 6.624980953
0.2072764243 -0.9527126975 6.499778413
0.207491312 -0.9526659202 6.999813906
-0.2191966452 -0.9756807012 6.914827433
0.2248867556 -0.9743849071 6.65722854
0.2073838681 -0.9526893088 6.74979616
-0.005852666611 -0.9641733107 6.957320669
-0.005960110446 -0.9641966994 6.707302923
0.21608159 -0.9635488023 6.578503476
0.2161890338 -0.9635254136 6.828521223
0.002845055228 -0.9750328042 6.786027986
0.2072764243 -0.9527126975 6.499778413
-0.2082000723 -0.9780862589 6.38159685
-0.2191966452 -0.9756807012 6.914827433
-0.2210566965 -0.9496098867 6.750183493
-0.0004618239921 -0.9653994782 6.440687632
-0.2136983587 -0.9768834801 6.648212141
-0.005960110446 -0.9641966994 6.707302923
-0.00689013613 -0.9511612921 6.624980953
-0.2146283844 -0.9638480728 6.565890171
-0.2201266709 -0.962645294 6.832505463
-0.2191966452 -0.9756807012 6.914827433
-0.2082000723 -0.9780862589 6.38159685
0.2072764243 -0.9527126975 6.499778413
0.2248867556 -0.9743849071 6.65722854
-0.2136983587 -0.9768834801 6.648212141
-0.0004618239921 -0.9653994782 6.440687632
-0.005960110446 -0.9641966994 6.707302923
0.002845055228 -0.9750328042 6.786027986
0.008343341682 -0.976235583 6.519412695
0.21608159 -0.9635488023 6.578503476
-0.1924208301 -0.9813125008 7.442231177
0.207915524 -0.9525734276 7.499737179
0.207491312 -0.9526659202 6.999813906
-0.220581487 -0.9497203839 7.250146092
0.007747346958 -0.9669429642 7.470984178
0.207703418 -0.9526196739 7.249775542
0.007535240935 -0.9669892105 7.221022541
-0.2065011585 -0.9655164423 7.346188634
-0.006332981493 -0.9511469057 7.374941635
-0.006545087516 -0.951193152 7.124979999
0.207491312 -0.9526659202 6.999813906
0.207915524 -0.9525734276 7.499737179
-0.1924208301 -0.9813125008 7.442231177
0.2307344612 -0.9730167565 7.169861497
0.207703418 -0.9526196739 7.249775542
0.007747346958 -0.9669429642 7.470984178
0.007535240935 -0.9669892105 7.221022541
0.2191128866 -0.9628413383 7.084837702
0.2193249926 -0.962795092 7.334799338
0.01915681557 -0.9771646286 7.306046337
0.207491312 -0.9526659202 6.999813906
-0.2191966452 -0.9756807012 6.914827433
-0.1924208301 -0.9813125008 7.442231177
-0.220581487 -0.9497203839 7.250146092
-0.005852666611 -0.9641733107 6.957320669
-0.2058087376 -0.978496601 7.178529305
0.007535240935 -0.9669892105 7.221022541
-0.006545087516 -0.951193152 7.124979999
-0.2198890661 -0.9627005426 7.082486762
-0.2065011585 -0.9655164423 7.346188634
-0.1924208301 -0.9813125008 7.442231177
-0.2191966452 -0.9756807012 6.914827433
0.207491312 -0.9526659202 6.999813906
0.2307344612 -0.9730167565 7.169861497
-0.2058087376 -0.978496601 7.178529305
-0.005852666611 -0.9641733107 6.957320669
0.007535240935 -0.9669892105 7.221022541
0.01915681557 -0.9771646286 7.306046337
0.005768908024 -0.9743487289 7.042344465
0.2191128866 -0.9628413383 7.084837702
0.9015783723 -0.4326158095 8.193990253
0.9014170074 -0.432951936 7.681772888
0.6044136289 -0.765055008 7.749587291
0.912673023 -0.3430057625 7.749918514
0.9014976898 -0.4327838727 7.93788157
0.7529153181 -0.599003472 7.715680089
0.7529960006 -0.5988354088 7.971788772
0.9071256976 -0.387810786 7.971954383
0.9070450152 -0.3879788492 7.715845701
0.7585433259 -0.5540303852 7.749752902
0.6044136289 -0.765055008 7.749587291
0.9014170074 -0.432951936 7.681772888
0.9015783723 -0.4326158095 8.193990253
0.6256029364 -0.780141632 7.938296898
0.7529153181 -0.599003472 7.715680089
0.9014976898 -0.4327838727 7.93788157
0.7529960006 -0.5988354088 7.971788772
0.6150082826 -0.77259832 7.843942095
0.7635099719 -0.606546784 7.810034893
0.7635906544 -0.6063787207 8.066143575
0.6044136289 -0.765055008 7.749587291
0.8788461538 -0.4222018923 8.25
0.9015783723 -0.4326158095 8.193990253
0.912673023 -0.3430057625 7.749918514
0.7416298914 -0.5936284501 7.999793646
0.8902122631 -0.4274088509 8.221995126
0.7529960006 -0.5988354088 7.971788772
0.7585433259 -0.5540303852 7.749752902
0.8957595884 -0.3826038274 7.999959257
0.9071256976 -0.387810786 7.971954383
0.9015783723 -0.4326158095 8.193990253
0.8788461538 -0.4222018923 8.25
0.6044136289 -0.765055008 7.749587291
0.6256029364 -0.780141632 7.938296898
0.8902122631 -0.4274088509 8.221995126
0.7416298914 -0.5936284501 7.999793646
0.7529960006 -0.5988354088 7.971788772
0.7635906544 -0.6063787207 8.066143575
0.7522245451 -0.6011717621 8.094148449
0.6150082826 -0.77259832 7.843942095
0.6039383575 -0.7654302452 5.749623319
0.532252402 -0.8169041441 6.249769755
0.2246689517 -0.9744351503 6.14135841
0.6230943824 -0.7821466554 5.887001171
0.5680953797 -0.7911671947 5.999696537
0.3784606768 -0.8956696472 6.195564083
0.4143036546 -0.8699326978 5.945490865
0.61351637 -0.7737884503 5.818312245
0.5776733922 -0.7995253997 6.068385463
0.4238816671 -0.8782909029 6.014179791
0.2246689517 -0.9744351503 6.14135841
0.532252402 -0.8169041441 6.249769755
0.6039383575 -0.7654302452 5.749623319
0.2071170144 -0.9527473654 5.999827627
0.3784606768 -0.8956696472 6.195564083
0.5680953797 -0.7911671947 5.999696537
0.4143036546 -0.8699326978 5.945490865
0.215892983 -0.9635912579 6.070593018
0.3696847082 -0.8848257548 6.124798691
0.405527686 -0.8590888053 5.874725473
0.2246689517 -0.9744351503 6.14135841
0.2227602487 -0.9748732592 5.631077762
0.6039383575 -0.7654302452 5.749623319
0.6230943824 -0.7821466554 5.887001171
0.2237146002 -0.9746542048 5.886218086
0.4133493031 -0.8701517522 5.690350541
0.4143036546 -0.8699326978 5.945490865
0.4238816671 -0.8782909029 6.014179791
0.4229273156 -0.8785099573 5.759039467
0.61351637 -0.7737884503 5.818312245
0.6039383575 -0.7654302452 5.749623319
0.2227602487 -0.9748732592 5.631077762
0.2246689517 -0.9744351503 6.14135841
0.2071170144 -0.9527473654 5.999827627
0.4133493031 -0.8701517522 5.690350541
0.2237146002 -0.9746542048 5.886218086
0.4143036546 -0.8699326978 5.945490865
0.405527686 -0.8590888053 5.874725473
0.2149386316 -0.9638103123 5.815452694
0.215892983 -0.9635912579 6.070593018
-0.6384248664 -0.7696841495 6.131577533
-0.6099565206 -0.7606431772 6.500404122
-0.2082000723 -0.9780862589 6.38159685
-0.2212652659 -0.9495613103 6.250184327
-0.6241906935 -0.7651636633 6.315990828
-0.4090782964 -0.8693647181 6.441000486
-0.4233124693 -0.8738852042 6.256587192
-0.4298450662 -0.8596227299 6.19088093
-0.4156108932 -0.8551022438 6.375294225
-0.2147326691 -0.9638237846 6.315890589
-0.6099565206 -0.7606431772 6.500404122
-0.6384248664 -0.7696841495 6.131577533
-0.2082000723 -0.9780862589 6.38159685
-0.5570216226 -0.8304979904 6.549773315
-0.6241906935 -0.7651636633 6.315990828
-0.4233124693 -0.8738852042 6.256587192
-0.4090782964 -0.8693647181 6.441000486
-0.5834890716 -0.7955705838 6.525088719
-0.5977232445 -0.8000910699 6.340675424
-0.3826108474 -0.9042921246 6.465685083
-0.2144017583 -0.9767455585 5.885766196
0.207000663 -0.9527726515 5.499782413
-0.2167020545 -0.9762377884 5.376416122
-0.2214153201 -0.9495263325 5.75019275
-0.00370054762 -0.964759105 5.692774304
-0.004850695721 -0.96450522 5.438099268
-0.2155519064 -0.9764916735 5.631091159
-0.2179085392 -0.9631359455 5.817979473
-0.007207328538 -0.951149492 5.624987582
-0.2190586873 -0.9628820604 5.563304436
0.207000663 -0.9527726515 5.499782413
-0.2144017583 -0.9767455585 5.885766196
-0.2167020545 -0.9762377884 5.376416122
0.2227602487 -0.9748732592 5.631077762
-0.00370054762 -0.964759105 5.692774304
-0.2155519064 -0.9764916735 5.631091159
-0.004850695721 -0.96450522 5.438099268
0.2148804559 -0.9638229554 5.565430088
0.004179245233 -0.9758094089 5.758421979
0.003029097132 -0.9755555238 5.503746942
0.207000663 -0.9527726515 5.499782413
-0.2144017583 -0.9767455585 5.885766196
0.2071170144 -0.9527473654 5.999827627
-0.2214153201 -0.9495263325 5.75019275
-0.00370054762 -0.964759105 5.692774304
-0.003642371938 -0.964746462 5.942796911
0.2070588387 -0.9527600085 5.74980502
-0.007207328538 -0.951149492 5.624987582
-0.2179085392 -0.9631359455 5.817979473
-0.007149152856 -0.9511368489 5.875010188
-0.2144017583 -0.9767455585 5.885766196
0.207000663 -0.9527726515 5.499782413
0.2071170144 -0.9527473654 5.999827627
0.2227602487 -0.9748732592 5.631077762
-0.00370054762 -0.964759105 5.692774304
0.2070588387 -0.9527600085 5.74980502
-0.003642371938 -0.964746462 5.942796911
0.004179245233 -0.9758094089 5.758421979
0.2148804559 -0.9638229554 5.565430088
0.2149386316 -0.9638103123 5.815452694
0.2067618992 -0.9528244944 4.499782831
0.2068703825 -0.9528009471 4.999828537
-0.2180471115 -0.9759382445 4.864591213
0.2196639672 -0.975575595 4.607237432
0.2068161408 -0.9528127207 4.749805684
-0.005588364493 -0.9643695958 4.932209875
-0.005642606153 -0.9643813695 4.682187022
0.2132129332 -0.9642000447 4.553510132
0.2132671748 -0.9641882711 4.803532984
0.0008084278355 -0.9757569198 4.735914323
-0.2167020545 -0.9762377884 5.376416122
0.2068703825 -0.9528009471 4.999828537
0.207000663 -0.9527726515 5.499782413
0.2211111843 -0.9752486064 5.119474132
-0.004915835992 -0.9645193678 5.188122329
0.2069355228 -0.9527867993 5.249805475
-0.004850695721 -0.96450522 5.438099268
0.002204564892 -0.9757431974 5.247945127
0.2139907834 -0.9640247767 5.059651335
0.2140559237 -0.9640106289 5.309628273
0.2068703825 -0.9528009471 4.999828537
-0.2167020545 -0.9762377884 5.376416122
0.207000663 -0.9527726515 5.499782413
-0.2215483084 -0.9494953118 5.250186611
-0.004915835992 -0.9645193678 5.188122329
-0.004850695721 -0.96450522 5.438099268
0.2069355228 -0.9527867993 5.249805475
-0.007338962937 -0.9511481294 5.125007574
-0.2191251814 -0.9628665501 5.313301367
-0.007273822666 -0.9511339816 5.374984512
0.2068703825 -0.9528009471 4.999828537
-0.2167020545 -0.9762377884 5.376416122
-0.2180471115 -0.9759382445 4.864591213
0.2211111843 -0.9752486064 5.119474132
-0.004915835992 -0.9645193678 5.188122329
-0.217374583 -0.9760880165 5.120503668
-0.005588364493 -0.9643695958 4.932209875
0.2139907834 -0.9640247767 5.059651335
0.002204564892 -0.9757431974 5.247945127
0.00153203639 -0.9755934255 4.992032673
-0.2167020545 -0.9762377884 5.376416122
0.2068703825 -0.9528009471 4.999828537
-0.2180471115 -0.9759382445 4.864591213
-0.2215483084 -0.9494953118 5.250186611
-0.004915835992 -0.9645193678 5.188122329
-0.005588364493 -0.9643695958 4.932209875
-0.217374583 -0.9760880165 5.120503668
-0.2191251814 -0.9628665501 5.313301367
-0.007338962937 -0.9511481294 5.125007574
-0.2197977099 -0.9627167782 5.057388912
-0.2304593685 -0.973081949 10.01392188
0.2393462667 -0.9451657868 10.0494947
0.2161396174 -0.950741114 9.509998223
-0.2274014426 -0.9481105336 9.754723569
0.004443449112 -0.9591238679 10.03170829
0.2277429421 -0.9479534504 9.779746463
-0.007159875525 -0.9619115315 9.761960052
-0.2289304055 -0.9605962413 9.884322725
0.005972412079 -0.9466381602 9.902109136
-0.005630912558 -0.9494258238 9.632360896
0.2161396174 -0.950741114 9.509998223
0.2393462667 -0.9451657868 10.0494947
-0.2304593685 -0.973081949 10.01392188
0.2490102718 -0.9685008439 9.738197861
0.2277429421 -0.9479534504 9.779746463
0.004443449112 -0.9591238679 10.03170829
-0.007159875525 -0.9619115315 9.761960052
0.2325749446 -0.9596209789 9.624098042
0.2441782692 -0.9568333153 9.893846282
0.009275451629 -0.9707913964 9.876059871
0.2161396174 -0.950741114 9.509998223
-0.2098066283 -0.9777429001 9.468528812
-0.2304593685 -0.973081949 10.01392188
-0.2274014426 -0.9481105336 9.754723569
0.003166494574 -0.964242007 9.489263517
-0.2201329984 -0.9754124246 9.741225346
-0.007159875525 -0.9619115315 9.761960052
-0.005630912558 -0.9494258238 9.632360896
-0.2186040354 -0.9629267169 9.611626191
-0.2289304055 -0.9605962413 9.884322725
-0.2304593685 -0.973081949 10.01392188
-0.2098066283 -0.9777429001 9.468528812
0.2161396174 -0.950741114 9.509998223
0.2490102718 -0.9685008439 9.738197861
-0.2201329984 -0.9754124246 9.741225346
0.003166494574 -0.964242007 9.489263517
-0.007159875525 -0.9619115315 9.761960052
0.009275451629 -0.9707913964 9.876059871
0.01960182173 -0.973121872 9.603363337
0.2325749446 -0.9596209789 9.624098042
-0.2082000723 -0.9780862589 6.38159685
0.2072764243 -0.9527126975 6.499778413
0.2071170144 -0.9527473654 5.999827627
-0.2212652659 -0.9495613103 6.250184327
-0.0004618239921 -0.9653994782 6.440687632
0.2071967193 -0.9527300315 6.24980302
-0.0005415289305 -0.9654168122 6.190712238
-0.2147326691 -0.9638237846 6.315890589
-0.006994420802 -0.9511370039 6.37498137
-0.00707412574 -0.9511543379 6.125005977
0.2071170144 -0.9527473654 5.999827627
0.2072764243 -0.9527126975 6.499778413
-0.2082000723 -0.9780862589 6.38159685
0.2246689517 -0.9744351503 6.14135841
0.2071967193 -0.9527300315 6.24980302
-0.0004618239921 -0.9653994782 6.440687632
-0.0005415289305 -0.9654168122 6.190712238
0.215892983 -0.9635912579 6.070593018
0.215972688 -0.9635739239 6.320568412
0.008234439706 -0.9762607046 6.26147763
0.2071170144 -0.9527473654 5.999827627
-0.2144017583 -0.9767455585 5.885766196
-0.2082000723 -0.9780862589 6.38159685
-0.2212652659 -0.9495613103 6.250184327
-0.003642371938 -0.964746462 5.942796911
-0.2113009153 -0.9774159087 6.133681523
-0.0005415289305 -0.9654168122 6.190712238
-0.00707412574 -0.9511543379 6.125005977
-0.2178335121 -0.9631534344 6.067975262
-0.2147326691 -0.9638237846 6.315890589
-0.2082000723 -0.9780862589 6.38159685
-0.2144017583 -0.9767455585 5.885766196
0.2071170144 -0.9527473654 5.999827627
0.2246689517 -0.9744351503 6.14135841
-0.2113009153 -0.9774159087 6.133681523
-0.003642371938 -0.964746462 5.942796911
-0.0005415289305 -0.9654168122 6.190712238
0.008234439706 -0.9762607046 6.26147763
0.005133596698 -0.9755903544 6.013562303
0.215892983 -0.9635912579 6.070593018
0.6037244701 -0.7655989578 4.749623357
0.2196639672 -0.975575595 4.607237432
0.2211111843 -0.9752486064 5.119474132
0.2068703825 -0.9528009471 4.999828537
0.4116942186 -0.8705872764 4.678430395
0.2203875757 -0.9754121007 4.863355782
0.4124178272 -0.8704237821 4.934548745
0.4052974263 -0.8591999525 4.874725947
0.2132671748 -0.9641882711 4.803532984
0.2139907834 -0.9640247767 5.059651335
0.2211111843 -0.9752486064 5.119474132
0.2196639672 -0.975575595 4.607237432
0.6037244701 -0.7655989578 4.749623357
0.6215019039 -0.7834126521 4.86273584
0.2203875757 -0.9754121007 4.863355782
0.4116942186 -0.8705872764 4.678430395
0.4124178272 -0.8704237821 4.934548745
0.4213065441 -0.8793306292 4.991104986
0.4205829356 -0.8794941235 4.734986636
0.612613187 -0.7745058049 4.806179599
0.2211111843 -0.9752486064 5.119474132
0.5320712941 -0.817022116 5.249770793
0.6037244701 -0.7655989578 4.749623357
0.2068703825 -0.9528009471 4.999828537
0.3765912392 -0.8961353612 5.184622463
0.5678978821 -0.7913105369 4.999697075
0.4124178272 -0.8704237821 4.934548745
0.2139907834 -0.9640247767 5.059651335
0.3694708383 -0.8849115315 5.124799665
0.4052974263 -0.8591999525 4.874725947
0.6037244701 -0.7655989578 4.749623357
0.5320712941 -0.817022116 5.249770793
0.2211111843 -0.9752486064 5.119474132
0.6215019039 -0.7834126521 4.86273584
0.5678978821 -0.7913105369 4.999697075
0.3765912392 -0.8961353612 5.184622463
0.4124178272 -0.8704237821 4.934548745
0.612613187 -0.7745058049 4.806179599
0.576786599 -0.800217384 5.056253316
0.4213065441 -0.8793306292 4.991104986
0.8788461538 -0.4222018923 8.25
1 0 8.45
0.912772493 -0.3427409751 8.749793398
0.9017381641 -0.432282643 8.706397362
0.9394230769 -0.2111009462 8.35
0.9563862465 -0.1713704875 8.599896699
0.8958093234 -0.3824714337 8.499896699
0.890292159 -0.4272422677 8.478198681
0.950869082 -0.2161413215 8.578198681
0.9072553285 -0.3875118091 8.72809538
0.912772493 -0.3427409751 8.749793398
1 0 8.45
0.8788461538 -0.4222018923 8.25
0.975 0 8.5
0.9563862465 -0.1713704875 8.599896699
0.9394230769 -0.2111009462 8.35
0.8958093234 -0.3824714337 8.499896699
0.9438862465 -0.1713704875 8.624896699
0.9875 0 8.475
0.9269230769 -0.2111009462 8.375
-0.2110861621 -0.9774674584 8.96530149
0.2086842234 -0.9524053207 9.00044492
0.2084156115 -0.9524641373 8.499791764
-0.2194421052 -0.9499842959 8.750386018
-0.001200969359 -0.9649363895 8.982873205
0.2085499174 -0.952434729 8.750118342
-0.001335275317 -0.9649657978 8.732546627
-0.2152641336 -0.9637258771 8.857843754
-0.005378940897 -0.9511948083 8.875415469
-0.005513246855 -0.9512242166 8.625088891
0.2084156115 -0.9524641373 8.499791764
0.2086842234 -0.9524053207 9.00044492
-0.2110861621 -0.9774674584 8.96530149
0.2282362272 -0.973605785 8.707857646
0.2085499174 -0.952434729 8.750118342
-0.001200969359 -0.9649363895 8.982873205
-0.001335275317 -0.9649657978 8.732546627
0.2183259193 -0.9630349612 8.603824705
0.2184602253 -0.9630055529 8.854151283
0.008575032523 -0.9755366217 8.836579568
0.2084156115 -0.9524641373 8.499791764
-0.2128800189 -0.9770783477 8.45380681
-0.2110861621 -0.9774674584 8.96530149
-0.2194421052 -0.9499842959 8.750386018
-0.00223220372 -0.9647712425 8.476799287
-0.2119830905 -0.977272903 8.70955415
-0.001335275317 -0.9649657978 8.732546627
-0.005513246855 -0.9512242166 8.625088891
-0.216161062 -0.9635313218 8.602096414
-0.2152641336 -0.9637258771 8.857843754
-0.2110861621 -0.9774674584 8.96530149
-0.2128800189 -0.9770783477 8.45380681
0.2084156115 -0.9524641373 8.499791764
0.2282362272 -0.973605785 8.707857646
-0.2119830905 -0.977272903 8.70955415
-0.00223220372 -0.9647712425 8.476799287
-0.001335275317 -0.9649657978 8.732546627
0.008575032523 -0.9755366217 8.836579568
0.007678104121 -0.9753420664 8.580832228
0.2183259193 -0.9630349612 8.603824705
0.8962193432 -0.3839477685 9.75
0.8788461538 -0.4222018923 9.25
1 0 9.475
0.907997998 -0.4189745047 9.72969638
0.8875327485 -0.4030748304 9.5
0.9394230769 -0.2111009462 9.3625
0.9481096716 -0.1919738842 9.6125
0.9021086706 -0.4014611366 9.73984819
0.8934220759 -0.4205881985 9.48984819
0.953998999 -0.2094872524 9.60234819
1 0 9.475
0.8788461538 -0.4222018923 9.25
0.8962193432 -0.3839477685 9.75
0.975 0 9.5
0.9394230769 -0.2111009462 9.3625
0.8875327485 -0.4030748304 9.5
0.9481096716 -0.1919738842 9.6125
0.9875 0 9.4875
0.9269230769 -0.2111009462 9.375
0.9356096716 -0.1919738842 9.625
1 0 9.475
1 0 9.9875
0.8962193432 -0.3839477685 9.75
0.907997998 -0.4189745047 9.72969638
1 0 9.73125
0.9481096716 -0.1919738842 9.86875
0.9481096716 -0.1919738842 9.6125
0.953998999 -0.2094872524 9.60234819
0.953998999 -0.2094872524 9.85859819
0.9021086706 -0.4014611366 9.73984819
0.8962193432 -0.3839477685 9.75
1 0 9.9875
1 0 9.475
0.975 0 9.5
0.9481096716 -0.1919738842 9.86875
1 0 9.73125
0.9481096716 -0.1919738842 9.6125
0.9356096716 -0.1919738842 9.625
0.9875 0 9.74375
0.9875 0 9.4875
-0.9015039063 -0.4327709637 5.63125
-0.975 0 6
-0.9329752713 -0.3599404717 6.130624487
-0.8789979967 -0.4218856738 5.750070697
-0.9382519531 -0.2163854818 5.815625
-0.9539876356 -0.1799702359 6.065312243
-0.9172395888 -0.3963557177 5.880937243
-0.8902509515 -0.4273283188 5.690660348
-0.9269989984 -0.2109428369 5.875035348
-0.905986634 -0.3909130728 5.940347592
-0.975 0 6
-0.9015039063 -0.4327709637 5.63125
-0.9329752713 -0.3599404717 6.130624487
-1 0 5.8875
-0.9382519531 -0.2163854818 5.815625
-0.9172395888 -0.3963557177 5.880937243
-0.9539876356 -0.1799702359 6.065312243
-0.9875 0 5.94375
-0.9507519531 -0.2163854818 5.759375
-0.9664876356 -0.1799702359 6.009062243
-0.975 0 6
-0.9015039063 -0.4327709637 5.63125
-0.975 0 5.5
-0.8789979967 -0.4218856738 5.750070697
-0.9382519531 -0.2163854818 5.815625
-0.9382519531 -0.2163854818 5.565625
-0.975 0 5.75
-0.9269989984 -0.2109428369 5.875035348
-0.8902509515 -0.4273283188 5.690660348
-0.9269989984 -0.2109428369 5.625035348
-0.9015039063 -0.4327709637 5.63125
-0.975 0 6
-0.975 0 5.5
-1 0 5.8875
-0.9382519531 -0.2163854818 5.815625
-0.975 0 5.75
-0.9382519531 -0.2163854818 5.565625
-0.9507519531 -0.2163854818 5.759375
-0.9875 0 5.94375
-0.9875 0 5.69375
-0.2098066283 -0.9777429001 9.468528812
0.2086842234 -0.9524053207 9.00044492
0.2161396174 -0.950741114 9.509998223
0.2288347178 -0.9734652906 9.220768131
-0.0005612024572 -0.9650741104 9.234486866
0.2124119204 -0.9515732173 9.255221572
0.003166494574 -0.964242007 9.489263517
0.009514044768 -0.9756040953 9.344648471
0.2187594706 -0.9629353056 9.110606526
0.2224871676 -0.9621032023 9.365383177
0.2086842234 -0.9524053207 9.00044492
-0.2098066283 -0.9777429001 9.468528812
0.2161396174 -0.950741114 9.509998223
-0.2200566406 -0.9498421316 9.251685326
-0.0005612024572 -0.9650741104 9.234486866
0.003166494574 -0.964242007 9.489263517
0.2124119204 -0.9515732173 9.255221572
-0.005686208615 -0.9511237261 9.126065123
-0.2149316345 -0.9637925158 9.360107069
-0.001958511584 -0.9502916228 9.380841775
0.2086842234 -0.9524053207 9.00044492
-0.2098066283 -0.9777429001 9.468528812
-0.2110861621 -0.9774674584 8.96530149
0.2288347178 -0.9734652906 9.220768131
-0.0005612024572 -0.9650741104 9.234486866
-0.2104463952 -0.9776051792 9.216915151
-0.001200969359 -0.9649363895 8.982873205
0.2187594706 -0.9629353056 9.110606526
0.009514044768 -0.9756040953 9.344648471
0.008874277866 -0.9754663745 9.093034811
-0.2098066283 -0.9777429001 9.468528812
0.2086842234 -0.9524053207 9.00044492
-0.2110861621 -0.9774674584 8.96530149
-0.2200566406 -0.9498421316 9.251685326
-0.0005612024572 -0.9650741104 9.234486866
-0.001200969359 -0.9649363895 8.982873205
-0.2104463952 -0.9776051792 9.216915151
-0.2149316345 -0.9637925158 9.360107069
-0.005686208615 -0.9511237261 9.126065123
-0.2155714014 -0.963654795 9.108493408
-0.975 0 5
-0.9015039063 -0.4327709637 4.60625
-0.936435833 -0.3508388957 5.119459007
-1 0 4.8625
-0.9382519531 -0.2163854818 4.803125
-0.9189698696 -0.3918049297 4.862854504
-0.9557179165 -0.1754194479 5.059729504
-0.9875 0 4.93125
-0.9507519531 -0.2163854818 4.734375
-0.9682179165 -0.1754194479 4.990979504
-0.9015039063 -0.4327709637 4.60625
-0.975 0 5
-0.936435833 -0.3508388957 5.119459007
-0.8790343298 -0.4218099655 4.750033916
-0.9382519531 -0.2163854818 4.803125
-0.9557179165 -0.1754194479 5.059729504
-0.9189698696 -0.3918049297 4.862854504
-0.890269118 -0.4272904646 4.678141958
-0.9270171649 -0.2109049828 4.875016958
-0.9077350814 -0.3863244306 4.934746462
0.2087920143 -0.952381696 7.999759397
-0.2128800189 -0.9770783477 8.45380681
0.2084156115 -0.9524641373 8.499791764
-0.2195245265 -0.9499652532 8.249926326
-0.002044002329 -0.9647300218 8.226783103
-0.00223220372 -0.9647712425 8.476799287
0.2086038129 -0.9524229166 8.249775581
-0.005366256146 -0.9511734746 8.124842861
-0.2162022727 -0.9635218004 8.351866568
-0.005554457537 -0.9512146953 8.374859045
-0.2128800189 -0.9770783477 8.45380681
0.2087920143 -0.952381696 7.999759397
0.2084156115 -0.9524641373 8.499791764
0.2274177002 -0.9737973042 8.195021608
-0.002044002329 -0.9647300218 8.226783103
0.2086038129 -0.9524229166 8.249775581
-0.00223220372 -0.9647712425 8.476799287
0.007268840664 -0.9754378259 8.324414209
0.2181048572 -0.9630895001 8.097390502
0.2179166559 -0.9631307208 8.347406686
-0.2128800189 -0.9770783477 8.45380681
0.2087920143 -0.952381696 7.999759397
-0.1997137513 -0.9798542838 7.960521542
-0.2195245265 -0.9499652532 8.249926326
-0.002044002329 -0.9647300218 8.226783103
0.004539131459 -0.9661179899 7.980140469
-0.2062968851 -0.9784663158 8.207164176
-0.2162022727 -0.9635218004 8.351866568
-0.005366256146 -0.9511734746 8.124842861
-0.2096191389 -0.9649097685 8.105223934
0.2087920143 -0.952381696 7.999759397
-0.2128800189 -0.9770783477 8.45380681
-0.1997137513 -0.9798542838 7.960521542
0.2274177002 -0.9737973042 8.195021608
-0.002044002329 -0.9647300218 8.226783103
-0.2062968851 -0.9784663158 8.207164176
0.004539131459 -0.9661179899 7.980140469
0.2181048572 -0.9630895001 8.097390502
0.007268840664 -0.9754378259 8.324414209
0.01385197445 -0.976825794 8.077771575
-0.6101456436 -0.7604914816 6.000124348
-0.9015039063 -0.4327709637 5.63125
-0.6101929593 -0.7604535176 5.500270166
-0.5651741527 -0.824971622 5.630960904
-0.7558247749 -0.5966312227 5.815687174
-0.7558484328 -0.5966122406 5.565760083
-0.6101693014 -0.7604724996 5.750197257
-0.5876598982 -0.7927315518 5.815542626
-0.7333390295 -0.6288712928 5.631105452
-0.587683556 -0.7927125698 5.565615535
-0.9015039063 -0.4327709637 5.63125
-0.6101456436 -0.7604914816 6.000124348
-0.6101929593 -0.7604535176 5.500270166
-0.8789979967 -0.4218856738 5.750070697
-0.7558247749 -0.5966312227 5.815687174
-0.6101693014 -0.7604724996 5.750197257
-0.7558484328 -0.5966122406 5.565760083
-0.8902509515 -0.4273283188 5.690660348
-0.7445718201 -0.5911885777 5.875097523
-0.744595478 -0.5911695957 5.625170432
0.207915524 -0.9525734276 7.499737179
-0.1924208301 -0.9813125008 7.442231177
-0.1997137513 -0.9798542838 7.960521542
-0.2195010396 -0.9499706804 7.750025587
0.007747346958 -0.9669429642 7.470984178
-0.1960672907 -0.9805833923 7.701376359
0.004100886333 -0.9662138557 7.73012936
-0.005792757792 -0.951272054 7.624881383
-0.2059609348 -0.9656415906 7.596128382
-0.2096073955 -0.9649124821 7.855273564
-0.1997137513 -0.9798542838 7.960521542
-0.1924208301 -0.9813125008 7.442231177
0.207915524 -0.9525734276 7.499737179
0.230713935 -0.9730216237 7.682627658
-0.1960672907 -0.9805833923 7.701376359
0.007747346958 -0.9669429642 7.470984178
0.004100886333 -0.9662138557 7.73012936
0.01550009181 -0.9764379538 7.8215746
0.01914655244 -0.9771670622 7.562429417
0.2193147295 -0.9627975256 7.591182419
-0.1997137513 -0.9798542838 7.960521542
0.2087920143 -0.952381696 7.999759397
0.207915524 -0.9525734276 7.499737179
-0.2195010396 -0.9499706804 7.750025587
0.004539131459 -0.9661179899 7.980140469
0.2083537691 -0.9524775618 7.749748288
0.004100886333 -0.9662138557 7.73012936
-0.2096073955 -0.9649124821 7.855273564
-0.005354512665 -0.9511761882 7.874892492
-0.005792757792 -0.951272054 7.624881383
0.207915524 -0.9525734276 7.499737179
0.2087920143 -0.952381696 7.999759397
-0.1997137513 -0.9798542838 7.960521542
0.230713935 -0.9730216237 7.682627658
0.2083537691 -0.9524775618 7.749748288
0.004539131459 -0.9661179899 7.980140469
0.004100886333 -0.9662138557 7.73012936
0.2193147295 -0.9627975256 7.591182419
0.2197529746 -0.9627016598 7.841193528
0.01550009181 -0.9764379538 7.8215746
0.5325267668 -0.8167253165 7.249751731
0.230713935 -0.9730216237 7.682627658
0.6044136289 -0.765055008 7.749587291
0.207915524 -0.9525734276 7.499737179
0.3816203509 -0.8948734701 7.466189695
0.4175637819 -0.8690383159 7.716107475
0.5684701978 -0.7908901623 7.499669511
0.3702211454 -0.884649372 7.374744455
0.2193147295 -0.9627975256 7.591182419
0.4061645764 -0.8588142178 7.624662235
0.230713935 -0.9730216237 7.682627658
0.5325267668 -0.8167253165 7.249751731
0.6044136289 -0.765055008 7.749587291
0.6250155466 -0.7806123023 7.425684791
0.3816203509 -0.8948734701 7.466189695
0.5684701978 -0.7908901623 7.499669511
0.4175637819 -0.8690383159 7.716107475
0.4278647408 -0.876816963 7.554156225
0.5787711567 -0.7986688094 7.337718261
0.6147145877 -0.7728336551 7.587636041
0.5331280372 -0.8163329565 8.249614322
0.6055258671 -0.7641749959 8.748953608
0.2282362272 -0.973605785 8.707857646
0.6262967221 -0.7795847715 8.450696006
0.5693269521 -0.7902539762 8.499283965
0.4168810471 -0.8688903904 8.728405627
0.3806821322 -0.8949693708 8.478735984
0.5797123796 -0.797958864 8.350155164
0.6159112946 -0.7718798837 8.599824807
0.4272664746 -0.8765952783 8.579276826
0.2282362272 -0.973605785 8.707857646
0.6055258671 -0.7641749959 8.748953608
0.5331280372 -0.8163329565 8.249614322
0.2084156115 -0.9524641373 8.499791764
0.4168810471 -0.8688903904 8.728405627
0.5693269521 -0.7902539762 8.499283965
0.3806821322 -0.8949693708 8.478735984
0.2183259193 -0.9630349612 8.603824705
0.4069707393 -0.8583195666 8.624372686
0.3707718243 -0.8843985469 8.374703043
0.2282362272 -0.973605785 8.707857646
0.2274177002 -0.9737973042 8.195021608
0.5331280372 -0.8163329565 8.249614322
0.6262967221 -0.7795847715 8.450696006
0.2278269637 -0.9737015446 8.451439627
0.3802728687 -0.8950651304 8.222317965
0.3806821322 -0.8949693708 8.478735984
0.4272664746 -0.8765952783 8.579276826
0.4268572111 -0.8766910378 8.322858807
0.5797123796 -0.797958864 8.350155164
0.5331280372 -0.8163329565 8.249614322
0.2274177002 -0.9737973042 8.195021608
0.2282362272 -0.973605785 8.707857646
0.2084156115 -0.9524641373 8.499791764
0.3802728687 -0.8950651304 8.222317965
0.2278269637 -0.9737015446 8.451439627
0.3806821322 -0.8949693708 8.478735984
0.3707718243 -0.8843985469 8.374703043
0.2179166559 -0.9631307208 8.347406686
0.2183259193 -0.9630349612 8.603824705
0.5510854712 -0.804319466 9.245219774
0.6242791185 -0.7489329624 9.70749038
0.2490102718 -0.9685008439 9.738197861
0.6454899266 -0.7637687835 9.492963542
0.5876822948 -0.7766262142 9.476355077
0.4366446951 -0.8587169031 9.722844121
0.4000478715 -0.8864101549 9.491708818
0.5982876989 -0.7840441248 9.369091658
0.6348845225 -0.756350873 9.600226961
0.4472500992 -0.8661348137 9.615580702
0.2490102718 -0.9685008439 9.738197861
0.6242791185 -0.7489329624 9.70749038
0.5510854712 -0.804319466 9.245219774
0.2161396174 -0.950741114 9.509998223
0.4366446951 -0.8587169031 9.722844121
0.5876822948 -0.7766262142 9.476355077
0.4000478715 -0.8864101549 9.491708818
0.2325749446 -0.9596209789 9.624098042
0.420209368 -0.8498370382 9.608744302
0.3836125443 -0.87753029 9.377608999
0.2490102718 -0.9685008439 9.738197861
0.2288347178 -0.9734652906 9.220768131
0.5510854712 -0.804319466 9.245219774
0.6454899266 -0.7637687835 9.492963542
0.2389224948 -0.9709830672 9.479482996
0.3899600945 -0.8888923783 9.232993953
0.4000478715 -0.8864101549 9.491708818
0.4472500992 -0.8661348137 9.615580702
0.4371623222 -0.868617037 9.356865837
0.5982876989 -0.7840441248 9.369091658
0.5510854712 -0.804319466 9.245219774
0.2288347178 -0.9734652906 9.220768131
0.2490102718 -0.9685008439 9.738197861
0.2161396174 -0.950741114 9.509998223
0.3899600945 -0.8888923783 9.232993953
0.2389224948 -0.9709830672 9.479482996
0.4000478715 -0.8864101549 9.491708818
0.3836125443 -0.87753029 9.377608999
0.2224871676 -0.9621032023 9.365383177
0.2325749446 -0.9596209789 9.624098042
0.8788461538 -0.4222018923 8.25
0.9017381641 -0.432282643 8.706397362
0.6055258671 -0.7641749959 8.748953608
0.6262967221 -0.7795847715 8.450696006
0.890292159 -0.4272422677 8.478198681
0.7536320156 -0.5982288194 8.727675485
0.7421860105 -0.5931884441 8.499476804
0.752571438 -0.6008933319 8.350348003
0.7640174431 -0.6059337073 8.578546684
0.6159112946 -0.7718798837 8.599824807
0.6055258671 -0.7641749959 8.748953608
0.9017381641 -0.432282643 8.706397362
0.8788461538 -0.4222018923 8.25
0.912772493 -0.3427409751 8.749793398
0.7536320156 -0.5982288194 8.727675485
0.890292159 -0.4272422677 8.478198681
0.7421860105 -0.5931884441 8.499476804
0.75914918 -0.5534579855 8.749373503
0.9072553285 -0.3875118091 8.72809538
0.8958093234 -0.3824714337 8.499896699
0.8788461538 -0.4222018923 7.25
0.9014170074 -0.432951936 7.681772888
0.6044136289 -0.765055008 7.749587291
0.6250155466 -0.7806123023 7.425684791
0.8901315806 -0.4275769141 7.465886444
0.7529153181 -0.599003472 7.715680089
0.7416298914 -0.5936284501 7.499793646
0.7519308502 -0.6014070973 7.337842396
0.763216277 -0.6067821191 7.55372884
0.6147145877 -0.7728336551 7.587636041
0.6044136289 -0.765055008 7.749587291
0.9014170074 -0.432951936 7.681772888
0.8788461538 -0.4222018923 7.25
0.912673023 -0.3430057625 7.749918514
0.7529153181 -0.599003472 7.715680089
0.8901315806 -0.4275769141 7.465886444
0.7416298914 -0.5936284501 7.499793646
0.7585433259 -0.5540303852 7.749752902
0.9070450152 -0.3879788492 7.715845701
0.8957595884 -0.3826038274 7.499959257
-0.8702385679 -0.4926305259 6.602794901
-1 0 6.9125
-0.975 0 6.5
-1 0 6.4
-0.9351192839 -0.2463152629 6.757647451
-0.9875 0 6.70625
-0.9226192839 -0.2463152629 6.551397451
-0.9351192839 -0.2463152629 6.501397451
-1 0 6.65625
-0.9875 0 6.45
-0.975 0 6.5
-1 0 6.9125
-0.8702385679 -0.4926305259 6.602794901
-0.8789496634 -0.4219863613 6.750085592
-0.9875 0 6.70625
-0.9351192839 -0.2463152629 6.757647451
-0.9226192839 -0.2463152629 6.551397451
-0.9269748317 -0.2109931806 6.625042796
-0.9394748317 -0.2109931806 6.831292796
-0.8745941157 -0.4573084436 6.676440247
0.6226237727 -0.7825213337 6.399837011
0.6041524316 -0.7652612883 6.749622929
0.2072764243 -0.9527126975 6.499778413
0.2248867556 -0.9743849071 6.65722854
0.6133881021 -0.773891311 6.57472997
0.405714428 -0.8589869929 6.624700671
0.4149500985 -0.8676170156 6.449807712
0.4237552641 -0.8784531204 6.528532775
0.4145195936 -0.8698230977 6.703425734
0.21608159 -0.9635488023 6.578503476
0.2072764243 -0.9527126975 6.499778413
0.6041524316 -0.7652612883 6.749622929
0.6226237727 -0.7825213337 6.399837011
0.532252402 -0.8169041441 6.249769755
0.405714428 -0.8589869929 6.624700671
0.6133881021 -0.773891311 6.57472997
0.4149500985 -0.8676170156 6.449807712
0.3697644131 -0.8848084208 6.374774084
0.5682024168 -0.7910827162 6.499696342
0.5774380873 -0.7997127389 6.324803383
0.2072764243 -0.9527126975 6.499778413
0.2246689517 -0.9744351503 6.14135841
0.6226237727 -0.7825213337 6.399837011
0.2248867556 -0.9743849071 6.65722854
0.215972688 -0.9635739239 6.320568412
0.4236463622 -0.878478242 6.270597711
0.4149500985 -0.8676170156 6.449807712
0.21608159 -0.9635488023 6.578503476
0.2247778537 -0.9744100287 6.399293475
0.4237552641 -0.8784531204 6.528532775
0.6226237727 -0.7825213337 6.399837011
0.2246689517 -0.9744351503 6.14135841
0.2072764243 -0.9527126975 6.499778413
0.532252402 -0.8169041441 6.249769755
0.4236463622 -0.878478242 6.270597711
0.215972688 -0.9635739239 6.320568412
0.4149500985 -0.8676170156 6.449807712
0.5774380873 -0.7997127389 6.324803383
0.3784606768 -0.8956696472 6.195564083
0.3697644131 -0.8848084208 6.374774084
-0.6098568236 -0.7607231131 7.000079879
-0.8702385679 -0.4926305259 6.602794901
-0.5570216226 -0.8304979904 6.549773315
-0.6646926829 -0.7471168833 6.919476942
-0.7400476957 -0.6266768195 6.80143739
-0.7136300952 -0.6615642581 6.576284108
-0.5834392231 -0.7956105517 6.774926597
-0.6372747533 -0.7539199982 6.95977841
-0.7674656254 -0.6198737046 6.761135922
-0.6108571528 -0.7888074368 6.734625129
-0.5570216226 -0.8304979904 6.549773315
-0.8702385679 -0.4926305259 6.602794901
-0.6098568236 -0.7607231131 7.000079879
-0.6099565206 -0.7606431772 6.500404122
-0.7136300952 -0.6615642581 6.576284108
-0.7400476957 -0.6266768195 6.80143739
-0.5834392231 -0.7956105517 6.774926597
-0.5834890716 -0.7955705838 6.525088719
-0.7400975442 -0.6266368515 6.551599512
-0.6099066721 -0.7606831451 6.750242
-0.4875 -0.8443747687 10.5
-0.2304593685 -0.973081949 10.01392188
-0.6580942056 -0.7194004563 10.04732821
-0.252348569 -0.9417776806 10.17127283
-0.3589796842 -0.9087283588 10.25696094
-0.444276787 -0.8462412027 10.03062505
-0.5727971028 -0.7818876125 10.27366411
-0.3699242845 -0.8930762247 10.33563642
-0.2414039687 -0.9574298148 10.09259736
-0.4552213873 -0.8305890685 10.10930052
-0.2304593685 -0.973081949 10.01392188
-0.4875 -0.8443747687 10.5
-0.6580942056 -0.7194004563 10.04732821
-0.7061343771 -0.7080778498 10.08118069
-0.3589796842 -0.9087283588 10.25696094
-0.5727971028 -0.7818876125 10.27366411
-0.444276787 -0.8462412027 10.03062505
-0.4682968728 -0.8405798994 10.04755128
-0.5968171886 -0.7762263093 10.29059034
-0.6821142914 -0.7137391531 10.06425445
-0.2304593685 -0.973081949 10.01392188
-0.4875 -0.8443747687 10.5
-0.5 -0.8660254038 10.5
-0.252348569 -0.9417776806 10.17127283
-0.3589796842 -0.9087283588 10.25696094
-0.49375 -0.8552000862 10.5
-0.3652296842 -0.9195536764 10.25696094
-0.2414039687 -0.9574298148 10.09259736
-0.3699242845 -0.8930762247 10.33563642
-0.3761742845 -0.9039015422 10.33563642
-0.4875 -0.8443747687 10.5
-0.2304593685 -0.973081949 10.01392188
-0.5 -0.8660254038 10.5
-0.7061343771 -0.7080778498 10.08118069
-0.3589796842 -0.9087283588 10.25696094
-0.3652296842 -0.9195536764 10.25696094
-0.49375 -0.8552000862 10.5
-0.5968171886 -0.7762263093 10.29059034
-0.4682968728 -0.8405798994 10.04755128
-0.6030671886 -0.7870516268 10.29059034
0.207000663 -0.9527726515 5.499782413
0.6223565507 -0.782733878 5.374964709
0.6039383575 -0.7654302452 5.749623319
0.2227602487 -0.9748732592 5.631077762
0.4146786069 -0.8677532648 5.437373561
0.6131474541 -0.7740820616 5.562294014
0.4054695103 -0.8591014484 5.624702866
0.2148804559 -0.9638229554 5.565430088
0.4225583997 -0.8788035686 5.503021236
0.4133493031 -0.8701517522 5.690350541
0.6223565507 -0.782733878 5.374964709
0.207000663 -0.9527726515 5.499782413
0.6039383575 -0.7654302452 5.749623319
0.5320712941 -0.817022116 5.249770793
0.4146786069 -0.8677532648 5.437373561
0.4054695103 -0.8591014484 5.624702866
0.6131474541 -0.7740820616 5.562294014
0.5772139224 -0.799877997 5.312367751
0.3695359786 -0.8848973837 5.374776603
0.5680048258 -0.7912261806 5.499697056
0.6223565507 -0.782733878 5.374964709
0.207000663 -0.9527726515 5.499782413
0.2211111843 -0.9752486064 5.119474132
0.2227602487 -0.9748732592 5.631077762
0.4146786069 -0.8677532648 5.437373561
0.2140559237 -0.9640106289 5.309628273
0.4217338675 -0.8789912422 5.247219421
0.4225583997 -0.8788035686 5.503021236
0.2148804559 -0.9638229554 5.565430088
0.2219357165 -0.9750609328 5.375275947
0.207000663 -0.9527726515 5.499782413
0.6223565507 -0.782733878 5.374964709
0.2211111843 -0.9752486064 5.119474132
0.5320712941 -0.817022116 5.249770793
0.4146786069 -0.8677532648 5.437373561
0.4217338675 -0.8789912422 5.247219421
0.2140559237 -0.9640106289 5.309628273
0.3695359786 -0.8848973837 5.374776603
0.5772139224 -0.799877997 5.312367751
0.3765912392 -0.8961353612 5.184622463
0.975 0 5.5
0.8788461538 -0.4222018923 5.25
0.9007650767 -0.434306662 5.631199503
0.9126305293 -0.3431188088 5.749925627
0.9269230769 -0.2111009462 5.375
0.8898056153 -0.4282542772 5.440599752
0.9378825383 -0.217153331 5.565599752
0.9438152647 -0.1715594044 5.624962813
0.8957383416 -0.3826603506 5.499962813
0.906697803 -0.3887127354 5.690562565
0.9007650767 -0.434306662 5.631199503
0.8788461538 -0.4222018923 5.25
0.975 0 5.5
1 0 5.375
0.8898056153 -0.4282542772 5.440599752
0.9269230769 -0.2111009462 5.375
0.9378825383 -0.217153331 5.565599752
0.9503825383 -0.217153331 5.503099752
0.9394230769 -0.2111009462 5.3125
0.9875 0 5.4375
0.9007650767 -0.434306662 5.631199503
1 0 5.8875
0.975 0 5.5
0.9126305293 -0.3431188088 5.749925627
0.9503825383 -0.217153331 5.759349752
0.9875 0 5.69375
0.9378825383 -0.217153331 5.565599752
0.906697803 -0.3887127354 5.690562565
0.9563152647 -0.1715594044 5.818712813
0.9438152647 -0.1715594044 5.624962813
0.975 0 5.5
1 0 5.8875
0.9007650767 -0.434306662 5.631199503
1 0 5.375
0.9875 0 5.69375
0.9503825383 -0.217153331 5.759349752
0.9378825383 -0.217153331 5.565599752
0.9875 0 5.4375
1 0 5.63125
0.9503825383 -0.217153331 5.503099752
0.6041524316 -0.7652612883 6.749622929
0.9010928457 -0.4336262025 6.656223231
0.8788461538 -0.4222018923 6.25
0.9126496686 -0.3430678975 6.74992555
0.7526226387 -0.5994437454 6.70292308
0.8899694998 -0.4279140474 6.453111615
0.7414992927 -0.5937315903 6.499811465
0.7584010501 -0.5541645929 6.74977424
0.9068712572 -0.38834705 6.70307439
0.8957479112 -0.3826348949 6.499962775
0.8788461538 -0.4222018923 6.25
0.9010928457 -0.4336262025 6.656223231
0.6041524316 -0.7652612883 6.749622929
0.6226237727 -0.7825213337 6.399837011
0.8899694998 -0.4279140474 6.453111615
0.7526226387 -0.5994437454 6.70292308
0.7414992927 -0.5937315903 6.499811465
0.7507349633 -0.602361613 6.324918506
0.7618583092 -0.6080737681 6.528030121
0.6133881021 -0.773891311 6.57472997
0.975 0 6.5
0.9010928457 -0.4336262025 6.656223231
0.8788461538 -0.4222018923 6.25
1 0 6.4
0.9380464228 -0.2168131012 6.578111615
0.8899694998 -0.4279140474 6.453111615
0.9269230769 -0.2111009462 6.375
0.9875 0 6.45
0.9505464228 -0.2168131012 6.528111615
0.9394230769 -0.2111009462 6.325
0.9010928457 -0.4336262025 6.656223231
0.975 0 6.5
0.8788461538 -0.4222018923 6.25
0.9126496686 -0.3430678975 6.74992555
0.9380464228 -0.2168131012 6.578111615
0.9269230769 -0.2111009462 6.375
0.8899694998 -0.4279140474 6.453111615
0.9068712572 -0.38834705 6.70307439
0.9438248343 -0.1715339488 6.624962775
0.8957479112 -0.3826348949 6.499962775
0.9010928457 -0.4336262025 6.656223231
0.975 0 6.5
1 0 6.9125
1 0 6.4
0.9380464228 -0.2168131012 6.578111615
0.9875 0 6.70625
0.9505464228 -0.2168131012 6.784361615
0.9505464228 -0.2168131012 6.528111615
0.9875 0 6.45
1 0 6.65625
0.975 0 6.5
0.9010928457 -0.4336262025 6.656223231
1 0 6.9125
0.9126496686 -0.3430678975 6.74992555
0.9380464228 -0.2168131012 6.578111615
0.9505464228 -0.2168131012 6.784361615
0.9875 0 6.70625
0.9438248343 -0.1715339488 6.624962775
0.9068712572 -0.38834705 6.70307439
0.9563248343 -0.1715339488 6.831212775
-0.6306109538 -0.7760991077 2.047307495
-0.5557684513 -0.8313371329 1.533615502
-0.6108433295 -0.7599311988 2.00006893
-0.2252378057 -0.9743038186 1.78987429
-0.5931897025 -0.8037181203 1.790461498
-0.5833058904 -0.7956341658 1.766842216
-0.6207271416 -0.7680151532 2.023688212
-0.4279243797 -0.8752014631 1.918590892
-0.3905031285 -0.9028204758 1.661744896
-0.4180405676 -0.8671175087 1.89497161
-0.6108433295 -0.7599311988 2.00006893
-0.5557684513 -0.8313371329 1.533615502
-0.6109099086 -0.7598776767 1.500065836
-0.222458766 -0.9492824118 1.750193287
-0.5833058904 -0.7956341658 1.766842216
-0.5833391799 -0.7956074048 1.516840669
-0.610876619 -0.7599044377 1.750067383
-0.4166510477 -0.8546068053 1.875131108
-0.3891136086 -0.8903097724 1.641904394
-0.4166843373 -0.8545800443 1.625129562
-0.5557684513 -0.8313371329 1.533615502
-0.2252378057 -0.9743038186 1.78987429
-0.2264380527 -0.9740255686 1.277334082
-0.222458766 -0.9492824118 1.750193287
-0.3905031285 -0.9028204758 1.661744896
-0.2258379292 -0.9741646936 1.533604186
-0.391103252 -0.9026813508 1.405474792
-0.3891136086 -0.8903097724 1.641904394
-0.2238482858 -0.9617931152 1.770033788
-0.2244484093 -0.9616539902 1.513763684
1 0 2.8125
0.8991022614 -0.4377386475 3.068740224
0.975 0 3
0.9125731581 -0.3432713667 2.749925649
0.9495511307 -0.2188693238 2.940620112
0.9370511307 -0.2188693238 3.034370112
0.9875 0 2.90625
0.956286579 -0.1716356833 2.781212824
0.9058377097 -0.3905050071 2.909332936
0.943786579 -0.1716356833 2.874962824
-0.2264380527 -0.9740255686 1.277334082
-0.222458766 -0.9492824118 1.750193287
-0.2252378057 -0.9743038186 1.78987429
0.2143835083 -0.9767495643 1.532427695
-0.2244484093 -0.9616539902 1.513763684
-0.2238482858 -0.9617931152 1.770033788
-0.2258379292 -0.9741646936 1.533604186
-0.006027272163 -0.9753875665 1.404880889
-0.004037628817 -0.9630159881 1.641310491
-0.005427148671 -0.9755266914 1.661150992
0.603082528 -0.7661047346 1.749623469
0.6203628969 -0.7843149088 1.788219188
0.2143835083 -0.9767495643 1.532427695
0.6177786953 -0.78635201 1.275065471
0.6117227125 -0.7752098217 1.768921328
0.4173732026 -0.8805322365 1.660323441
0.4087330182 -0.8714271495 1.641025582
0.6104306117 -0.7762283723 1.51234447
0.6190707961 -0.7853334594 1.531642329
0.4160811018 -0.8815507871 1.403746583
0.2062896253 -0.9529268548 2.499783169
0.2151923346 -0.9765716866 2.045215689
0.206161507 -0.9529545808 1.999828324
0.5315529124 -0.8173594689 2.249770946
0.2107409799 -0.9647492707 2.272499429
0.2106769208 -0.9647631337 2.022522006
0.2062255662 -0.9529407178 2.249805747
0.3689212688 -0.8851431618 2.374777058
0.3733726235 -0.8969655778 2.147493317
0.3688572097 -0.8851570248 2.124799635
-0.2223278069 -0.9493130918 2.250186824
0.206161507 -0.9529545808 1.999828324
0.2062896253 -0.9529268548 2.499783169
0.2151923346 -0.9765716866 2.045215689
-0.008083149911 -0.9511338363 2.125007574
0.2062255662 -0.9529407178 2.249805747
-0.008019090804 -0.9511199733 2.374984997
-0.003567736138 -0.9629423892 2.147701257
0.2106769208 -0.9647631337 2.022522006
0.2107409799 -0.9647492707 2.272499429
0.2135348004 -0.976935458 1.01974087
-0.2264380527 -0.9740255686 1.277334082
0.2143835083 -0.9767495643 1.532427695
0.2060535609 -0.9529779274 1.49978333
-0.006451626114 -0.9754805133 1.148537476
-0.006027272163 -0.9753875665 1.404880889
0.2139591544 -0.9768425111 1.276084283
0.2097941807 -0.9649566927 1.2597621
-0.01019224589 -0.963501748 1.388558706
0.2102185346 -0.9648637458 1.516105512
-0.8788461538 -0.4222018923 2.25
-0.6108433295 -0.7599311988 2.00006893
-0.6107411497 -0.760013321 2.500066001
-0.6306109538 -0.7760991077 2.047307495
-0.7448447417 -0.5910665455 2.125034465
-0.6107922396 -0.7599722599 2.250067466
-0.7447936518 -0.5911076066 2.375033001
-0.7547285538 -0.5991505 2.148653747
-0.6207271416 -0.7680151532 2.023688212
-0.6206760518 -0.7680562143 2.273686748
-0.6107411497 -0.760013321 2.500066001
-0.6306109538 -0.7760991077 2.047307495
-0.6108433295 -0.7599311988 2.00006893
-0.2223278069 -0.9493130918 2.250186824
-0.6206760518 -0.7680562143 2.273686748
-0.6207271416 -0.7680151532 2.023688212
-0.6107922396 -0.7599722599 2.250067466
-0.4165344783 -0.8546632064 2.375126413
-0.4264693803 -0.8627060998 2.148747159
-0.4165855682 -0.8546221453 2.125127877
-0.2223278069 -0.9493130918 2.250186824
-0.2252378057 -0.9743038186 1.78987429
-0.222458766 -0.9492824118 1.750193287
0.206161507 -0.9529545808 1.999828324
-0.2237828063 -0.9618084552 2.020030557
-0.2238482858 -0.9617931152 1.770033788
-0.2223932864 -0.9492977518 2.000190056
-0.008083149911 -0.9511338363 2.125007574
-0.009538149314 -0.9636291997 1.894851307
-0.00814862946 -0.9511184963 1.875010805
0.6177786953 -0.78635201 1.275065471
0.603082528 -0.7661047346 1.749623469
0.6203628969 -0.7843149088 1.788219188
0.9002664897 -0.4353392327 1.531349267
0.6104306117 -0.7762283723 1.51234447
0.6117227125 -0.7752098217 1.768921328
0.6190707961 -0.7853334594 1.531642329
0.7590225925 -0.6108456214 1.403207369
0.7516745089 -0.6007219837 1.640486368
0.7603146933 -0.6098270707 1.659784227
-0.222458766 -0.9492824118 1.750193287
-0.6108433295 -0.7599311988 2.00006893
-0.2252378057 -0.9743038186 1.78987429
-0.2223278069 -0.9493130918 2.250186824
-0.4166510477 -0.8546068053 1.875131108
-0.4180405676 -0.8671175087 1.89497161
-0.2238482858 -0.9617931152 1.770033788
-0.2223932864 -0.9492977518 2.000190056
-0.4165855682 -0.8546221453 2.125127877
-0.2237828063 -0.9618084552 2.020030557
-0.6112836873 -0.7595770229 -0.499737169
-0.5593020053 -0.828963972 -0.5164092906
-0.6113557287 -0.7595190406 -0.9998970036
-0.2231056442 -0.9491305872 -0.7498131162
-0.5852928463 -0.7942704974 -0.5080732298
-0.585328867 -0.7942415063 -0.7581531471
-0.611319708 -0.7595480317 -0.7498170863
-0.4171946657 -0.854353805 -0.6247751426
-0.3912038247 -0.8890472796 -0.6331112034
-0.4172306864 -0.8543248139 -0.8748550599
0.2060535609 -0.9529779274 1.49978333
0.2143835083 -0.9767495643 1.532427695
0.2135348004 -0.976935458 1.01974087
0.5313802768 -0.8174717129 1.249770975
0.2102185346 -0.9648637458 1.516105512
0.2139591544 -0.9768425111 1.276084283
0.2097941807 -0.9649566927 1.2597621
0.3687169188 -0.8852248201 1.374777152
0.3728818926 -0.8971106386 1.391099335
0.3724575386 -0.8972035854 1.134755922
0.6177786953 -0.78635201 1.275065471
0.2143835083 -0.9767495643 1.532427695
0.603082528 -0.7661047346 1.749623469
0.5313802768 -0.8174717129 1.249770975
0.4160811018 -0.8815507871 1.403746583
0.4087330182 -0.8714271495 1.641025582
0.6104306117 -0.7762283723 1.51234447
0.5745794861 -0.8019118614 1.262418223
0.3728818926 -0.8971106386 1.391099335
0.5672314024 -0.7917882238 1.499697222
-0.2264380527 -0.9740255686 1.277334082
-0.227463892 -0.9737865155 0.7647969233
-0.2225871024 -0.9492523278 1.250186845
0.2135348004 -0.976935458 1.01974087
-0.2269509723 -0.9739060421 1.021065502
-0.2250254972 -0.9615194217 1.007491884
-0.2245125775 -0.9616389482 1.263760463
-0.006451626114 -0.9754805133 1.148537476
-0.006964545797 -0.9753609867 0.8922688968
-0.004526151003 -0.9630938929 1.134963858
-0.2225871024 -0.9492523278 1.250186845
-0.6328717246 -0.774256663 1.022311643
-0.227463892 -0.9737865155 0.7647969233
-0.2264380527 -0.9740255686 1.277334082
-0.4277294135 -0.8617544954 1.136249244
-0.4301678083 -0.8740215893 0.8935542834
-0.2250254972 -0.9615194217 1.007491884
-0.2245125775 -0.9616389482 1.263760463
-0.4296548886 -0.8741411158 1.149822863
-0.2269509723 -0.9739060421 1.021065502
0.2143835083 -0.9767495643 1.532427695
-0.222458766 -0.9492824118 1.750193287
0.206161507 -0.9529545808 1.999828324
0.2060535609 -0.9529779274 1.49978333
-0.004037628817 -0.9630159881 1.641310491
-0.00814862946 -0.9511184963 1.875010805
0.2102725077 -0.9648520725 1.76612801
0.2102185346 -0.9648637458 1.516105512
-0.008202602543 -0.9511301696 1.624988308
0.206107534 -0.9529662541 1.749805827
0.206161507 -0.9529545808 1.999828324
0.6203628969 -0.7843149088 1.788219188
0.603082528 -0.7661047346 1.749623469
0.5315529124 -0.8173594689 2.249770946
0.413262202 -0.8686347448 1.894023756
0.6117227125 -0.7752098217 1.768921328
0.4046220175 -0.8595296577 1.874725896
0.3688572097 -0.8851570248 2.124799635
0.5759579046 -0.8008371888 2.018995067
0.5673177202 -0.7917321017 1.999697207
-0.5575182321 -0.830164695 0.50859205
-0.6110786629 -0.7597419745 0.5000656738
-0.6110120913 -0.7597955148 1.000069184
-0.2227180535 -0.949221612 0.7501932715
-0.5842984475 -0.7949533348 0.5043288619
-0.6110453771 -0.7597687446 0.750067429
-0.5842651617 -0.7949801049 0.7543306171
-0.3901181428 -0.8896931535 0.6293926608
-0.4168983582 -0.8544817932 0.6251294726
-0.4168650724 -0.8545085634 0.8751312278
-0.227463892 -0.9737865155 0.7647969233
0.2059254361 -0.9530056216 0.9998282298
0.2135348004 -0.976935458 1.01974087
0.2122920901 -0.9772062569 0.5072035455
-0.01076922798 -0.9633960686 0.8823125765
0.2097301182 -0.9649705398 1.00978455
-0.006964545797 -0.9753609867 0.8922688968
-0.007585900979 -0.9754963862 0.6360002344
0.2091087631 -0.9651059392 0.7535158876
0.2129134452 -0.9770708574 0.7634722079
-0.6110120913 -0.7597955148 1.000069184
-0.6328717246 -0.774256663 1.022311643
-0.5575182321 -0.830164695 0.50859205
-0.227463892 -0.9737865155 0.7647969233
-0.621941908 -0.7670260889 1.011190414
-0.5951949784 -0.802210679 0.7654518467
-0.5842651617 -0.7949801049 0.7543306171
-0.4192379917 -0.8667910152 0.8824330537
-0.4301678083 -0.8740215893 0.8935542834
-0.3924910621 -0.9019756053 0.6366944866
0.2060535609 -0.9529779274 1.49978333
0.206161507 -0.9529545808 1.999828324
0.2143835083 -0.9767495643 1.532427695
0.603082528 -0.7661047346 1.749623469
0.206107534 -0.9529662541 1.749805827
0.2102725077 -0.9648520725 1.76612801
0.2102185346 -0.9648637458 1.516105512
0.4045680445 -0.859541331 1.624703399
0.4046220175 -0.8595296577 1.874725896
0.4087330182 -0.8714271495 1.641025582
-0.6260733405 -0.7797641774 4.097299196
-0.879066572 -0.4217427675 3.75002742
-0.8788461538 -0.4222018923 4.25
-0.6105055628 -0.7602025768 4.000069391
-0.7525699563 -0.6007534724 3.923663308
-0.8789563629 -0.4219723299 4.00001371
-0.7524597472 -0.6009830348 4.173649598
-0.6182894517 -0.7699833771 4.048684294
-0.7447860674 -0.5909726721 3.875048405
-0.7446758583 -0.5912022345 4.125034695
-0.2225871024 -0.9492523278 1.250186845
-0.222458766 -0.9492824118 1.750193287
-0.2264380527 -0.9740255686 1.277334082
0.2060535609 -0.9529779274 1.49978333
-0.2225229342 -0.9492673698 1.500190066
-0.2244484093 -0.9616539902 1.513763684
-0.2245125775 -0.9616389482 1.263760463
-0.008266770778 -0.9511151276 1.374985087
-0.008202602543 -0.9511301696 1.624988308
-0.01019224589 -0.963501748 1.388558706
-0.9370483212 -0.349199719 2.044461499
-1 0 2.3
-0.8788461538 -0.4222018923 2.25
-0.975 0 2
-0.9685241606 -0.1745998595 2.172230749
-0.9394230769 -0.2111009462 2.275
-0.9079472375 -0.3857008056 2.147230749
-0.9560241606 -0.1745998595 2.022230749
-0.9875 0 2.15
-0.9269230769 -0.2111009462 2.125
0.2135348004 -0.976935458 1.01974087
0.2122920901 -0.9772062569 0.5072035455
0.2059254361 -0.9530056216 0.9998282298
0.6194796585 -0.7850127086 0.7625602282
0.2129134452 -0.9770708574 0.7634722079
0.2091087631 -0.9651059392 0.7535158876
0.2097301182 -0.9649705398 1.00978455
0.4165072295 -0.8809740833 0.8911505492
0.4158858743 -0.8811094828 0.6348818868
0.4127025473 -0.8690091651 0.881194229
-0.5557684513 -0.8313371329 1.533615502
-0.2264380527 -0.9740255686 1.277334082
-0.2225871024 -0.9492523278 1.250186845
-0.222458766 -0.9492824118 1.750193287
-0.391103252 -0.9026813508 1.405474792
-0.2245125775 -0.9616389482 1.263760463
-0.3891777768 -0.8902947304 1.391901173
-0.3891136086 -0.8903097724 1.641904394
-0.2244484093 -0.9616539902 1.513763684
-0.2225229342 -0.9492673698 1.500190066
-0.8788461538 -0.4222018923 1.25
-0.9372518466 -0.3486530883 1.019462329
-1 0 1.275
-0.975 0 1
-0.9080490002 -0.3854274903 1.134731164
-0.9686259233 -0.1743265441 1.147231164
-0.9394230769 -0.2111009462 1.2625
-0.9269230769 -0.2111009462 1.125
-0.9561259233 -0.1743265441 1.009731164
-0.9875 0 1.1375
-0.2227180535 -0.949221612 0.7501932715
-0.227463892 -0.9737865155 0.7647969233
-0.2287877232 -0.9734763365 0.2522858919
0.2122920901 -0.9772062569 0.5072035455
-0.2250909728 -0.9615040637 0.7574950974
-0.2281258076 -0.973631426 0.5085414076
-0.2257528884 -0.9613489742 0.5012395817
-0.005212981739 -0.9632139344 0.6286984085
-0.007585900979 -0.9754963862 0.6360002344
-0.008247816556 -0.9753412967 0.3797447187
-0.8788461538 -0.4222018923 1.25
-0.6110120913 -0.7597955148 1.000069184
-0.6109099086 -0.7598776767 1.500065836
-0.6328717246 -0.774256663 1.022311643
-0.7449291226 -0.5909987035 1.125034592
-0.610961 -0.7598365957 1.25006751
-0.7448780312 -0.5910397845 1.375032918
-0.7558589392 -0.5982292776 1.136155822
-0.621941908 -0.7670260889 1.011190414
-0.6218908166 -0.7670671699 1.26118874
-0.6351271135 -0.7724076319 -0.002684208505
-0.2298426486 -0.9732278032 -0.2602164959
-0.6111808499 -0.7596597717 6.94376773e-05
-0.2287877232 -0.9734763365 0.2522858919
-0.432484881 -0.8728177175 -0.1314503522
-0.4205117492 -0.8664437874 -0.1300735291
-0.6231539817 -0.7660337018 -0.001307385414
-0.4319574183 -0.8729419842 0.1248008417
-0.2293151859 -0.9733520698 -0.003965301962
-0.4199842865 -0.8665680541 0.1261776648
-0.9374550533 -0.3481063387 -0.005536841701
-1 0 -0.2625
-0.975 0 0
-0.87919594 -0.4214730111 -0.2499397705
-0.9687275266 -0.1740531694 -0.1340184209
-0.9875 0 -0.13125
-0.9562275266 -0.1740531694 -0.00276842085
-0.9083254966 -0.3847896749 -0.1277383061
-0.93959797 -0.2107365056 -0.2562198853
-0.92709797 -0.2107365056 -0.1249698853
-1 0 0.25
-0.9374550533 -0.3481063387 -0.005536841701
-0.975 0 0
-0.8788461538 -0.4222018923 0.25
-0.9687275266 -0.1740531694 0.1222315791
-0.9562275266 -0.1740531694 -0.00276842085
-0.9875 0 0.125
-0.9394230769 -0.2111009462 0.25
-0.9081506036 -0.3851541155 0.1222315791
-0.9269230769 -0.2111009462 0.125
0.2135348004 -0.976935458 1.01974087
0.2059254361 -0.9530056216 0.9998282298
-0.2225871024 -0.9492523278 1.250186845
0.2060535609 -0.9529779274 1.49978333
0.2097301182 -0.9649705398 1.00978455
-0.008330833189 -0.9511289747 1.125007537
-0.004526151003 -0.9630938929 1.134963858
0.2097941807 -0.9649566927 1.2597621
0.2059894985 -0.9529917745 1.24980578
-0.008266770778 -0.9511151276 1.374985087
-0.2287877232 -0.9734763365 0.2522858919
-0.2298426486 -0.9732278032 -0.2602164959
-0.2229773248 -0.9491607412 -0.2498067451
0.2113884078 -0.9774021389 -0.005303822853
-0.2293151859 -0.9733520698 -0.003965301962
-0.2264099867 -0.9611942722 -0.2550116205
-0.225882524 -0.9613185388 0.001239573442
-0.008699657711 -0.9754392377 0.1234910345
-0.009227120418 -0.975314971 -0.1327601594
-0.005794458512 -0.96328144 -0.127555284
-0.2229773248 -0.9491607412 -0.2498067451
-0.6111808499 -0.7596597717 6.94376773e-05
-0.2298426486 -0.9732278032 -0.2602164959
-0.2287877232 -0.9734763365 0.2522858919
-0.4170790873 -0.8544102564 -0.1248686537
-0.4205117492 -0.8664437874 -0.1300735291
-0.2264099867 -0.9611942722 -0.2550116205
-0.225882524 -0.9613185388 0.001239573442
-0.4199842865 -0.8665680541 0.1261776648
-0.2293151859 -0.9733520698 -0.003965301962
-0.6111808499 -0.7596597717 6.94376773e-05
-0.6110786629 -0.7597419745 0.5000656738
-0.5575182321 -0.830164695 0.50859205
-0.2228463813 -0.949191493 0.2501868656
-0.6111297564 -0.7597008731 0.2500675557
-0.5842984475 -0.7949533348 0.5043288619
-0.584349541 -0.7949122333 0.2543307439
-0.4170136156 -0.8544256323 0.1251281517
-0.4169625221 -0.8544667337 0.3751262697
-0.3901823067 -0.889678094 0.3793894578
0.2060535609 -0.9529779274 1.49978333
0.2135348004 -0.976935458 1.01974087
0.2059254361 -0.9530056216 0.9998282298
0.5313802768 -0.8174717129 1.249770975
0.2097941807 -0.9649566927 1.2597621
0.2097301182 -0.9649705398 1.00978455
0.2059894985 -0.9529917745 1.24980578
0.3687169188 -0.8852248201 1.374777152
0.3724575386 -0.8972035854 1.134755922
0.3686528564 -0.8852386672 1.124799602
0.2122920901 -0.9772062569 0.5072035455
-0.2287877232 -0.9734763365 0.2522858919
0.2058174837 -0.9530289415 0.4997834893
0.2113884078 -0.9774021389 -0.005303822853
-0.008247816556 -0.9753412967 0.3797447187
-0.01148511973 -0.963252639 0.3760346906
0.2090547869 -0.9651175992 0.5034935174
0.2118402489 -0.9773041979 0.2509498613
-0.008699657711 -0.9754392377 0.1234910345
0.2086029457 -0.9652155402 0.2472398332
-0.227463892 -0.9737865155 0.7647969233
-0.6110120913 -0.7597955148 1.000069184
-0.6328717246 -0.774256663 1.022311643
-0.2225871024 -0.9492523278 1.250186845
-0.4192379917 -0.8667910152 0.8824330537
-0.621941908 -0.7670260889 1.011190414
-0.4301678083 -0.8740215893 0.8935542834
-0.2250254972 -0.9615194217 1.007491884
-0.4167995969 -0.8545239213 1.125128015
-0.4277294135 -0.8617544954 1.136249244
-0.227463892 -0.9737865155 0.7647969233
-0.2287877232 -0.9734763365 0.2522858919
-0.5575182321 -0.830164695 0.50859205
-0.2227180535 -0.949221612 0.7501932715
-0.2281258076 -0.973631426 0.5085414076
-0.3931529777 -0.9018205158 0.380438971
-0.3924910621 -0.9019756053 0.6366944866
-0.2250909728 -0.9615040637 0.7574950974
-0.2257528884 -0.9613489742 0.5012395817
-0.3901181428 -0.8896931535 0.6293926608
-0.2225871024 -0.9492523278 1.250186845
-0.227463892 -0.9737865155 0.7647969233
-0.2227180535 -0.949221612 0.7501932715
0.2059254361 -0.9530056216 0.9998282298
-0.2250254972 -0.9615194217 1.007491884
-0.2250909728 -0.9615040637 0.7574950974
-0.222652578 -0.9492369699 1.000190058
-0.008330833189 -0.9511289747 1.125007537
-0.01076922798 -0.9633960686 0.8823125765
-0.008396308743 -0.9511136168 0.8750107507
-1 0 0.7625
-0.9372518466 -0.3486530883 1.019462329
-0.8791609556 -0.4215459811 0.7500272778
-0.975 0 1
-0.9686259233 -0.1743265441 0.8909811643
-0.9082064011 -0.3850995347 0.8847448032
-0.9395804778 -0.2107729905 0.7562636389
-0.9875 0 0.88125
-0.9561259233 -0.1743265441 1.009731164
-0.9270804778 -0.2107729905 0.8750136389
-0.2227180535 -0.949221612 0.7501932715
-0.6110120913 -0.7597955148 1.000069184
-0.227463892 -0.9737865155 0.7647969233
-0.2225871024 -0.9492523278 1.250186845
-0.4168650724 -0.8545085634 0.8751312278
-0.4192379917 -0.8667910152 0.8824330537
-0.2250909728 -0.9615040637 0.7574950974
-0.222652578 -0.9492369699 1.000190058
-0.4167995969 -0.8545239213 1.125128015
-0.2250254972 -0.9615194217 1.007491884
-0.6283448194 -0.777934951 3.072303345
-0.879098049 -0.4216771516 2.750027252
-0.8788461538 -0.4222018923 3.25
-0.6106745569 -0.7600668297 3.0000687
-0.7537214342 -0.5998060513 2.911165299
-0.8789721014 -0.421939522 3.000013626
-0.7535954866 -0.6000684217 3.161151673
-0.6195096881 -0.7690008904 3.036186023
-0.7448863029 -0.5908719907 2.875047976
-0.7447603553 -0.591134361 3.12503435
0.6028684534 -0.7662732071 0.7496235055
0.9000123069 -0.4358644829 0.5060828415
0.6194796585 -0.7850127086 0.7625602282
0.6164978529 -0.7873565884 0.2499052861
0.7514403801 -0.601068845 0.6278531735
0.7597459827 -0.6104385958 0.6343215349
0.6111740559 -0.7756429579 0.7560918668
0.6096831532 -0.7768148977 0.4997643958
0.7582550799 -0.6116105357 0.3779940638
0.6179887557 -0.7861846485 0.5062327572
0.2058174837 -0.9530289415 0.4997834893
0.2113884078 -0.9774021389 -0.005303822853
-0.2287877232 -0.9734763365 0.2522858919
0.205689352 -0.953056604 -0.0001718649091
0.2086029457 -0.9652155402 0.2472398332
-0.008699657711 -0.9754392377 0.1234910345
-0.01148511973 -0.963252639 0.3760346906
0.2057534178 -0.9530427728 0.2498058122
0.2085388799 -0.9652293715 -0.002737843881
-0.01154918561 -0.9632664703 0.1260570135
0.8994741469 -0.4369739798 -0.006450738723
0.6185661737 -0.7857327082 -0.2624203403
0.6164978529 -0.7873565884 0.2499052861
0.6026543327 -0.766441619 -0.2503764584
0.7590201603 -0.611353344 -0.1344355395
0.6175320133 -0.7865446483 -0.0062575271
0.7579859999 -0.6121652841 0.1217272737
0.7510642398 -0.6017077994 -0.1284135986
0.6106102532 -0.7760871636 -0.2563983994
0.6095760928 -0.7768991037 -0.0002355861524
-0.5593020053 -0.828963972 -0.5164092906
-0.6112836873 -0.7595770229 -0.499737169
-0.6111808499 -0.7596597717 6.94376773e-05
-0.2229773248 -0.9491607412 -0.2498067451
-0.5852928463 -0.7942704974 -0.5080732298
-0.6112322686 -0.7596183973 -0.2498338657
-0.5852414276 -0.7943118718 -0.2581699265
-0.391139665 -0.8890623566 -0.3831080178
-0.417130506 -0.854368882 -0.374771957
-0.4170790873 -0.8544102564 -0.1248686537
0.2058174837 -0.9530289415 0.4997834893
-0.2287877232 -0.9734763365 0.2522858919
-0.2228463813 -0.949191493 0.2501868656
0.205689352 -0.953056604 -0.0001718649091
-0.01148511973 -0.963252639 0.3760346906
-0.2258170522 -0.9613339147 0.2512363788
-0.008514448796 -0.9511102173 0.3749851775
0.2057534178 -0.9530427728 0.2498058122
-0.01154918561 -0.9632664703 0.1260570135
-0.008578514675 -0.9511240485 0.1250075004
-0.2225871024 -0.9492523278 1.250186845
0.2135348004 -0.976935458 1.01974087
-0.227463892 -0.9737865155 0.7647969233
0.2059254361 -0.9530056216 0.9998282298
-0.004526151003 -0.9630938929 1.134963858
-0.006964545797 -0.9753609867 0.8922688968
-0.2250254972 -0.9615194217 1.007491884
-0.008330833189 -0.9511289747 1.125007537
0.2097301182 -0.9649705398 1.00978455
-0.01076922798 -0.9633960686 0.8823125765
-0.2287877232 -0.9734763365 0.2522858919
0.2058174837 -0.9530289415 0.4997834893
-0.2227180535 -0.949221612 0.7501932715
0.2122920901 -0.9772062569 0.5072035455
-0.01148511973 -0.963252639 0.3760346906
-0.008450284911 -0.9511252767 0.6249883804
-0.2257528884 -0.9613489742 0.5012395817
-0.008247816556 -0.9753412967 0.3797447187
0.2090547869 -0.9651175992 0.5034935174
-0.005212981739 -0.9632139344 0.6286984085
-0.6109099086 -0.7598776767 1.500065836
-0.6328717246 -0.774256663 1.022311643
-0.6110120913 -0.7597955148 1.000069184
-0.2225871024 -0.9492523278 1.250186845
-0.6218908166 -0.7670671699 1.26118874
-0.621941908 -0.7670260889 1.011190414
-0.610961 -0.7598365957 1.25006751
-0.4167485055 -0.8545650023 1.375126341
-0.4277294135 -0.8617544954 1.136249244
-0.4167995969 -0.8545239213 1.125128015
0.2143835083 -0.9767495643 1.532427695
-0.2264380527 -0.9740255686 1.277334082
-0.222458766 -0.9492824118 1.750193287
0.2060535609 -0.9529779274 1.49978333
-0.006027272163 -0.9753875665 1.404880889
-0.2244484093 -0.9616539902 1.513763684
-0.004037628817 -0.9630159881 1.641310491
0.2102185346 -0.9648637458 1.516105512
-0.01019224589 -0.963501748 1.388558706
-0.008202602543 -0.9511301696 1.624988308
-0.6111808499 -0.7596597717 6.94376773e-05
-0.2287877232 -0.9734763365 0.2522858919
-0.2229773248 -0.9491607412 -0.2498067451
-0.2228463813 -0.949191493 0.2501868656
-0.4199842865 -0.8665680541 0.1261776648
-0.225882524 -0.9613185388 0.001239573442
-0.4170790873 -0.8544102564 -0.1248686537
-0.4170136156 -0.8544256323 0.1251281517
-0.2258170522 -0.9613339147 0.2512363788
-0.222911853 -0.9491761171 0.000190060296
0.2055813934 -0.9530798973 -0.5002163526
-0.2229773248 -0.9491607412 -0.2498067451
-0.2298426486 -0.9732278032 -0.2602164959
0.2113884078 -0.9774021389 -0.005303822853
-0.008697965693 -0.9511203193 -0.3750115488
-0.2264099867 -0.9611942722 -0.2550116205
-0.0121306276 -0.9631538503 -0.3802164242
0.2084849006 -0.9652410181 -0.2527600877
-0.005794458512 -0.96328144 -0.127555284
-0.009227120418 -0.975314971 -0.1327601594
-0.2287877232 -0.9734763365 0.2522858919
0.2113884078 -0.9774021389 -0.005303822853
-0.2229773248 -0.9491607412 -0.2498067451
0.205689352 -0.953056604 -0.0001718649091
-0.008699657711 -0.9754392377 0.1234910345
-0.005794458512 -0.96328144 -0.127555284
-0.225882524 -0.9613185388 0.001239573442
-0.01154918561 -0.9632664703 0.1260570135
0.2085388799 -0.9652293715 -0.002737843881
-0.008643986409 -0.9511086726 -0.124989305
0.206161507 -0.9529545808 1.999828324
-0.2223278069 -0.9493130918 2.250186824
-0.2252378057 -0.9743038186 1.78987429
0.2151923346 -0.9765716866 2.045215689
-0.008083149911 -0.9511338363 2.125007574
-0.2237828063 -0.9618084552 2.020030557
-0.009538149314 -0.9636291997 1.894851307
0.2106769208 -0.9647631337 2.022522006
-0.003567736138 -0.9629423892 2.147701257
-0.005022735541 -0.9754377526 1.917544989
-0.2229773248 -0.9491607412 -0.2498067451
-0.2228463813 -0.949191493 0.2501868656
-0.2287877232 -0.9734763365 0.2522858919
0.205689352 -0.953056604 -0.0001718649091
-0.222911853 -0.9491761171 0.000190060296
-0.2258170522 -0.9613339147 0.2512363788
-0.225882524 -0.9613185388 0.001239573442
-0.008643986409 -0.9511086726 -0.124989305
-0.008578514675 -0.9511240485 0.1250075004
-0.01154918561 -0.9632664703 0.1260570135
0.6194796585 -0.7850127086 0.7625602282
0.6028684534 -0.7662732071 0.7496235055
0.6177786953 -0.78635201 1.275065471
0.8997584421 -0.4363882971 1.018572212
0.6111740559 -0.7756429579 0.7560918668
0.6103235744 -0.7763126085 1.012344488
0.6186291769 -0.7856823593 1.01881285
0.7596190503 -0.6107005029 0.89056622
0.7513134478 -0.6013307521 0.8840978586
0.7587685687 -0.6113701535 1.146818842
-0.2298426486 -0.9732278032 -0.2602164959
-0.2231056442 -0.9491305872 -0.7498131162
-0.2229773248 -0.9491607412 -0.2498067451
0.2055813934 -0.9530798973 -0.5002163526
-0.2264741464 -0.9611791952 -0.505014806
-0.2230414845 -0.9491456642 -0.4998099306
-0.2264099867 -0.9611942722 -0.2550116205
-0.0121306276 -0.9631538503 -0.3802164242
-0.008762125391 -0.9511052423 -0.6250147344
-0.008697965693 -0.9511203193 -0.3750115488
-0.2227180535 -0.949221612 0.7501932715
0.2059254361 -0.9530056216 0.9998282298
-0.227463892 -0.9737865155 0.7647969233
0.2122920901 -0.9772062569 0.5072035455
-0.008396308743 -0.9511136168 0.8750107507
-0.01076922798 -0.9633960686 0.8823125765
-0.2250909728 -0.9615040637 0.7574950974
-0.005212981739 -0.9632139344 0.6286984085
0.2091087631 -0.9651059392 0.7535158876
-0.007585900979 -0.9754963862 0.6360002344
-0.2287877232 -0.9734763365 0.2522858919
-0.2228463813 -0.949191493 0.2501868656
-0.2227180535 -0.949221612 0.7501932715
0.2058174837 -0.9530289415 0.4997834893
-0.2258170522 -0.9613339147 0.2512363788
-0.2227822174 -0.9492065525 0.5001900686
-0.2257528884 -0.9613489742 0.5012395817
-0.01148511973 -0.963252639 0.3760346906
-0.008514448796 -0.9511102173 0.3749851775
-0.008450284911 -0.9511252767 0.6249883804
-1 0 1.7875
-0.9370483212 -0.349199719 2.044461499
-0.8791295023 -0.4216115725 1.750027262
-0.975 0 2
-0.9685241606 -0.1745998595 1.915980749
-0.9080889118 -0.3854056458 1.897244381
-0.9395647512 -0.2108057863 1.768763631
-0.9875 0 1.89375
-0.9560241606 -0.1745998595 2.022230749
-0.9270647512 -0.2108057863 1.875013631
-0.2227180535 -0.949221612 0.7501932715
0.2058174837 -0.9530289415 0.4997834893
0.2059254361 -0.9530056216 0.9998282298
0.2122920901 -0.9772062569 0.5072035455
-0.008450284911 -0.9511252767 0.6249883804
0.2058714599 -0.9530172816 0.7498058596
-0.008396308743 -0.9511136168 0.8750107507
-0.005212981739 -0.9632139344 0.6286984085
0.2090547869 -0.9651175992 0.5034935174
0.2091087631 -0.9651059392 0.7535158876
-0.6111808499 -0.7596597717 6.94376773e-05
-0.2298426486 -0.9732278032 -0.2602164959
-0.5593020053 -0.828963972 -0.5164092906
-0.2229773248 -0.9491607412 -0.2498067451
-0.4205117492 -0.8664437874 -0.1300735291
-0.3945723269 -0.9010958876 -0.3883128932
-0.5852414276 -0.7943118718 -0.2581699265
-0.4170790873 -0.8544102564 -0.1248686537
-0.2264099867 -0.9611942722 -0.2550116205
-0.391139665 -0.8890623566 -0.3831080178
-0.2231398852 -0.9747864339 2.814802704
0.2063975672 -0.9529034811 2.999828418
-0.2220684897 -0.9493737862 3.250186803
0.2154506215 -0.976514736 3.069835335
-0.008371159005 -0.9638449575 2.907315561
-0.007835461239 -0.9511386336 3.12500761
-0.2226041874 -0.96208011 3.032494753
-0.00384463187 -0.9756505849 2.94231902
0.2109240943 -0.9647091086 3.034831876
-0.003308934104 -0.9629442611 3.160011069
-0.6111808499 -0.7596597717 6.94376773e-05
-0.5575182321 -0.830164695 0.50859205
-0.6351271135 -0.7724076319 -0.002684208505
-0.2287877232 -0.9734763365 0.2522858919
-0.584349541 -0.7949122333 0.2543307439
-0.5963226728 -0.8012861634 0.2529539208
-0.6231539817 -0.7660337018 -0.001307385414
-0.4199842865 -0.8665680541 0.1261776648
-0.3931529777 -0.9018205158 0.380438971
-0.4319574183 -0.8729419842 0.1248008417
-0.2229773248 -0.9491607412 -0.2498067451
0.2113884078 -0.9774021389 -0.005303822853
0.2055813934 -0.9530798973 -0.5002163526
0.205689352 -0.953056604 -0.0001718649091
-0.005794458512 -0.96328144 -0.127555284
0.2084849006 -0.9652410181 -0.2527600877
-0.008697965693 -0.9511203193 -0.3750115488
-0.008643986409 -0.9511086726 -0.124989305
0.2085388799 -0.9652293715 -0.002737843881
0.2056353727 -0.9530682507 -0.2501941087
-0.2221994607 -0.9493431412 2.750193302
0.2139690639 -0.9768404372 2.557522222
-0.2245251312 -0.9744682989 2.302335841
0.2062896253 -0.9529268548 2.499783169
-0.004115198406 -0.9630917892 2.653857762
-0.005278033646 -0.975654368 2.429929031
-0.2233622959 -0.96190572 2.526264572
-0.007954917707 -0.951134998 2.624988236
0.2101293446 -0.964883646 2.528652696
-0.009117752947 -0.9636975768 2.401059505
-0.5575182321 -0.830164695 0.50859205
-0.2287877232 -0.9734763365 0.2522858919
-0.6111808499 -0.7596597717 6.94376773e-05
-0.2228463813 -0.949191493 0.2501868656
-0.3931529777 -0.9018205158 0.380438971
-0.4199842865 -0.8665680541 0.1261776648
-0.584349541 -0.7949122333 0.2543307439
-0.3901823067 -0.889678094 0.3793894578
-0.2258170522 -0.9613339147 0.2512363788
-0.4170136156 -0.8544256323 0.1251281517
-0.2252378057 -0.9743038186 1.78987429
-0.6108433295 -0.7599311988 2.00006893
-0.6306109538 -0.7760991077 2.047307495
-0.2223278069 -0.9493130918 2.250186824
-0.4180405676 -0.8671175087 1.89497161
-0.6207271416 -0.7680151532 2.023688212
-0.4279243797 -0.8752014631 1.918590892
-0.2237828063 -0.9618084552 2.020030557
-0.4165855682 -0.8546221453 2.125127877
-0.4264693803 -0.8627060998 2.148747159
-0.2264380527 -0.9740255686 1.277334082
0.2135348004 -0.976935458 1.01974087
-0.2225871024 -0.9492523278 1.250186845
0.2060535609 -0.9529779274 1.49978333
-0.006451626114 -0.9754805133 1.148537476
-0.004526151003 -0.9630938929 1.134963858
-0.2245125775 -0.9616389482 1.263760463
-0.01019224589 -0.963501748 1.388558706
0.2097941807 -0.9649566927 1.2597621
-0.008266770778 -0.9511151276 1.374985087
-0.5504315511 -0.8348802954 4.608536889
-0.6103297059 -0.760343771 5.00010251
-0.6104023296 -0.7602854701 4.500072102
-0.9015039063 -0.4327709637 4.60625
-0.5803806285 -0.7976120332 4.804319699
-0.6103660177 -0.7603146206 4.750087306
-0.5804169403 -0.7975828827 4.554304496
-0.7259677287 -0.6338256295 4.607393444
-0.7559168061 -0.5965573674 4.803176255
-0.7559531179 -0.5965282169 4.553161051
0.206161507 -0.9529545808 1.999828324
-0.2252378057 -0.9743038186 1.78987429
-0.222458766 -0.9492824118 1.750193287
0.2143835083 -0.9767495643 1.532427695
-0.009538149314 -0.9636291997 1.894851307
-0.2238482858 -0.9617931152 1.770033788
-0.00814862946 -0.9511184963 1.875010805
0.2102725077 -0.9648520725 1.76612801
-0.005427148671 -0.9755266914 1.661150992
-0.004037628817 -0.9630159881 1.641310491
-0.6110120913 -0.7597955148 1.000069184
-0.227463892 -0.9737865155 0.7647969233
-0.5575182321 -0.830164695 0.50859205
-0.2227180535 -0.949221612 0.7501932715
-0.4192379917 -0.8667910152 0.8824330537
-0.3924910621 -0.9019756053 0.6366944866
-0.5842651617 -0.7949801049 0.7543306171
-0.4168650724 -0.8545085634 0.8751312278
-0.2250909728 -0.9615040637 0.7574950974
-0.3901181428 -0.8896931535 0.6293926608
0.6028684534 -0.7662732071 0.7496235055
0.6194796585 -0.7850127086 0.7625602282
0.6177786953 -0.78635201 1.275065471
0.5313802768 -0.8174717129 1.249770975
0.6111740559 -0.7756429579 0.7560918668
0.6186291769 -0.7856823593 1.01881285
0.6103235744 -0.7763126085 1.012344488
0.5671243651 -0.79187246 0.9996972401
0.5754299677 -0.8012422108 1.006165601
0.5745794861 -0.8019118614 1.262418223
0.6028684534 -0.7662732071 0.7496235055
0.2059254361 -0.9530056216 0.9998282298
0.2122920901 -0.9772062569 0.5072035455
0.6194796585 -0.7850127086 0.7625602282
0.4043969447 -0.8596394143 0.8747258676
0.2091087631 -0.9651059392 0.7535158876
0.4075802717 -0.871739732 0.6284135255
0.6111740559 -0.7756429579 0.7560918668
0.4127025473 -0.8690091651 0.881194229
0.4158858743 -0.8811094828 0.6348818868
0.6194796585 -0.7850127086 0.7625602282
0.2059254361 -0.9530056216 0.9998282298
0.2135348004 -0.976935458 1.01974087
0.5313802768 -0.8174717129 1.249770975
0.4127025473 -0.8690091651 0.881194229
0.2097301182 -0.9649705398 1.00978455
0.4165072295 -0.8809740833 0.8911505492
0.5754299677 -0.8012422108 1.006165601
0.3686528564 -0.8852386672 1.124799602
0.3724575386 -0.8972035854 1.134755922
0.6179575182 -0.7862114892 2.813162168
0.2063975672 -0.9529034811 2.999828418
0.2154506215 -0.976514736 3.069835335
0.5317255258 -0.8172471873 3.249770917
0.4121775427 -0.8695574851 2.906495293
0.2109240943 -0.9647091086 3.034831876
0.4167040698 -0.8813631126 2.941498751
0.574841522 -0.8017293382 3.031466542
0.3690615465 -0.8850753342 3.124799667
0.3735880737 -0.8968809617 3.159803126
-0.2223278069 -0.9493130918 2.250186824
0.2062896253 -0.9529268548 2.499783169
-0.2245251312 -0.9744682989 2.302335841
0.2151923346 -0.9765716866 2.045215689
-0.008019090804 -0.9511199733 2.374984997
-0.009117752947 -0.9636975768 2.401059505
-0.223426469 -0.9618906953 2.276261333
-0.003567736138 -0.9629423892 2.147701257
0.2107409799 -0.9647492707 2.272499429
-0.004666398281 -0.9755199927 2.173775765
0.2122920901 -0.9772062569 0.5072035455
0.2113884078 -0.9774021389 -0.005303822853
0.2058174837 -0.9530289415 0.4997834893
0.5312076174 -0.8175839206 0.249771003
0.2118402489 -0.9773041979 0.2509498613
0.2086029457 -0.9652155402 0.2472398332
0.2090547869 -0.9651175992 0.5034935174
0.3717498537 -0.8973950887 0.3784872742
0.3712980126 -0.8974930297 0.1222335901
0.3685125506 -0.8853064311 0.3747772462
-0.5593020053 -0.828963972 -0.5164092906
-0.2229773248 -0.9491607412 -0.2498067451
-0.2298426486 -0.9732278032 -0.2602164959
-0.2231056442 -0.9491305872 -0.7498131162
-0.391139665 -0.8890623566 -0.3831080178
-0.2264099867 -0.9611942722 -0.2550116205
-0.3945723269 -0.9010958876 -0.3883128932
-0.3912038247 -0.8890472796 -0.6331112034
-0.2230414845 -0.9491456642 -0.4998099306
-0.2264741464 -0.9611791952 -0.505014806
0.6203628969 -0.7843149088 1.788219188
0.206161507 -0.9529545808 1.999828324
0.2151923346 -0.9765716866 2.045215689
0.5315529124 -0.8173594689 2.249770946
0.413262202 -0.8686347448 1.894023756
0.2106769208 -0.9647631337 2.022522006
0.4177776158 -0.8804432977 1.916717438
0.5759579046 -0.8008371888 2.018995067
0.3688572097 -0.8851570248 2.124799635
0.3733726235 -0.8969655778 2.147493317
-0.6306109538 -0.7760991077 2.047307495
-0.8791295023 -0.4216115725 1.750027262
-0.8788461538 -0.4222018923 2.25
-0.6108433295 -0.7599311988 2.00006893
-0.7548702281 -0.5988553401 1.898667378
-0.8789878281 -0.4219067324 2.000013631
-0.7547285538 -0.5991505 2.148653747
-0.6207271416 -0.7680151532 2.023688212
-0.7449864159 -0.5907713857 1.875048096
-0.7448447417 -0.5910665455 2.125034465
0.2143835083 -0.9767495643 1.532427695
0.603082528 -0.7661047346 1.749623469
0.206161507 -0.9529545808 1.999828324
0.6203628969 -0.7843149088 1.788219188
0.4087330182 -0.8714271495 1.641025582
0.4046220175 -0.8595296577 1.874725896
0.2102725077 -0.9648520725 1.76612801
0.4173732026 -0.8805322365 1.660323441
0.6117227125 -0.7752098217 1.768921328
0.413262202 -0.8686347448 1.894023756
-1 0 2.8125
-0.936844477 -0.3497462308 3.069460669
-0.879098049 -0.4216771516 2.750027252
-0.975 0 3
-0.9684222385 -0.1748731154 2.940980335
-0.907971263 -0.3857116912 2.90974396
-0.9395490245 -0.2108385758 2.781263626
-0.9875 0 2.90625
-0.9559222385 -0.1748731154 3.034730335
-0.9270490245 -0.2108385758 2.875013626
-0.2221994607 -0.9493431412 2.750193302
0.2063975672 -0.9529034811 2.999828418
-0.2231398852 -0.9747864339 2.814802704
0.2139690639 -0.9768404372 2.557522222
-0.007900946736 -0.9511233111 2.87501086
-0.008371159005 -0.9638449575 2.907315561
-0.2226696729 -0.9620647875 2.782498003
-0.004115198406 -0.9630917892 2.653857762
0.2101833155 -0.9648719591 2.77867532
-0.004585410675 -0.9758134355 2.686162463
0.205689352 -0.953056604 -0.0001718649091
0.2058174837 -0.9530289415 0.4997834893
0.2113884078 -0.9774021389 -0.005303822853
0.5312076174 -0.8175839206 0.249771003
0.2057534178 -0.9530427728 0.2498058122
0.2086029457 -0.9652155402 0.2472398332
0.2085388799 -0.9652293715 -0.002737843881
0.3684484847 -0.8853202623 0.1247995691
0.3685125506 -0.8853064311 0.3747772462
0.3712980126 -0.8974930297 0.1222335901
-0.6108433295 -0.7599311988 2.00006893
-0.2252378057 -0.9743038186 1.78987429
-0.5557684513 -0.8313371329 1.533615502
-0.222458766 -0.9492824118 1.750193287
-0.4180405676 -0.8671175087 1.89497161
-0.3905031285 -0.9028204758 1.661744896
-0.5833058904 -0.7956341658 1.766842216
-0.4166510477 -0.8546068053 1.875131108
-0.2238482858 -0.9617931152 1.770033788
-0.3891136086 -0.8903097724 1.641904394
-0.6328717246 -0.774256663 1.022311643
-0.2225871024 -0.9492523278 1.250186845
-0.5557684513 -0.8313371329 1.533615502
-0.2264380527 -0.9740255686 1.277334082
-0.4277294135 -0.8617544954 1.136249244
-0.3891777768 -0.8902947304 1.391901173
-0.5943200879 -0.802796898 1.277963573
-0.4296548886 -0.8741411158 1.149822863
-0.2245125775 -0.9616389482 1.263760463
-0.391103252 -0.9026813508 1.405474792
-0.6111808499 -0.7596597717 6.94376773e-05
-0.8788461538 -0.4222018923 0.25
-0.87919594 -0.4214730111 -0.2499397705
-0.6351271135 -0.7724076319 -0.002684208505
-0.7450135019 -0.590930832 0.1250347188
-0.8790210469 -0.4218374517 3.011473503e-05
-0.7451883949 -0.5905663914 -0.1249351664
-0.6231539817 -0.7660337018 -0.001307385414
-0.7569866337 -0.5973047621 0.1236578957
-0.7571615267 -0.5969403215 -0.1263119895
-0.6112836873 -0.7595770229 -0.499737169
-0.6351271135 -0.7724076319 -0.002684208505
-0.6111808499 -0.7596597717 6.94376773e-05
-0.87919594 -0.4214730111 -0.2499397705
-0.6232054004 -0.7659923274 -0.2512106888
-0.6231539817 -0.7660337018 -0.001307385414
-0.6112322686 -0.7596183973 -0.2498338657
-0.7452398136 -0.590525017 -0.3748384698
-0.7571615267 -0.5969403215 -0.1263119895
-0.7451883949 -0.5905663914 -0.1249351664
-0.5593020053 -0.828963972 -0.5164092906
-0.6111808499 -0.7596597717 6.94376773e-05
-0.6351271135 -0.7724076319 -0.002684208505
-0.2298426486 -0.9732278032 -0.2602164959
-0.5852414276 -0.7943118718 -0.2581699265
-0.6231539817 -0.7660337018 -0.001307385414
-0.5972145594 -0.8006858019 -0.2595467496
-0.3945723269 -0.9010958876 -0.3883128932
-0.4205117492 -0.8664437874 -0.1300735291
-0.432484881 -0.8728177175 -0.1314503522
0.2059254361 -0.9530056216 0.9998282298
0.2122920901 -0.9772062569 0.5072035455
0.2058174837 -0.9530289415 0.4997834893
0.6028684534 -0.7662732071 0.7496235055
0.2091087631 -0.9651059392 0.7535158876
0.2090547869 -0.9651175992 0.5034935174
0.2058714599 -0.9530172816 0.7498058596
0.4043969447 -0.8596394143 0.8747258676
0.4075802717 -0.871739732 0.6284135255
0.4043429686 -0.8596510743 0.6247034974
0.2065256866 -0.9528757216 3.499783008
-0.221991424 -0.9750486181 3.327299071
-0.2220684897 -0.9493737862 3.250186803
0.2154506215 -0.976514736 3.069835335
-0.007732868694 -0.9639621698 3.413541039
-0.2220299568 -0.9622112021 3.288742937
-0.007771401551 -0.9511247539 3.374984905
0.210988154 -0.9646952288 3.284809171
-0.003270401247 -0.9757816771 3.198567203
-0.003308934104 -0.9629442611 3.160011069
-0.8788461538 -0.4222018923 0.25
-0.6351271135 -0.7724076319 -0.002684208505
-0.6111808499 -0.7596597717 6.94376773e-05
-0.6110786629 -0.7597419745 0.5000656738
-0.7569866337 -0.5973047621 0.1236578957
-0.6231539817 -0.7660337018 -0.001307385414
-0.7450135019 -0.590930832 0.1250347188
-0.7449624083 -0.5909719334 0.3750328369
-0.6231028882 -0.7660748032 0.2486907326
-0.6111297564 -0.7597008731 0.2500675557
-0.6328717246 -0.774256663 1.022311643
-0.8791609556 -0.4215459811 0.7500272778
-0.8788461538 -0.4222018923 1.25
-0.6110120913 -0.7597955148 1.000069184
-0.7560163401 -0.597901322 0.8861694606
-0.8790035547 -0.4218739367 1.000013639
-0.7558589392 -0.5982292776 1.136155822
-0.621941908 -0.7670260889 1.011190414
-0.7450865235 -0.5906707479 0.875048231
-0.7449291226 -0.5909987035 1.125034592
0.2055813934 -0.9530798973 -0.5002163526
0.205689352 -0.953056604 -0.0001718649091
0.2113884078 -0.9774021389 -0.005303822853
0.6026543327 -0.766441619 -0.2503764584
0.2056353727 -0.9530682507 -0.2501941087
0.2085388799 -0.9652293715 -0.002737843881
0.2084849006 -0.9652410181 -0.2527600877
0.404117863 -0.8597607582 -0.3752964055
0.4041718423 -0.8597491115 -0.1252741617
0.4070213702 -0.8719218789 -0.1278401406
0.2059254361 -0.9530056216 0.9998282298
0.6194796585 -0.7850127086 0.7625602282
0.6028684534 -0.7662732071 0.7496235055
0.5313802768 -0.8174717129 1.249770975
0.4127025473 -0.8690091651 0.881194229
0.6111740559 -0.7756429579 0.7560918668
0.4043969447 -0.8596394143 0.8747258676
0.3686528564 -0.8852386672 1.124799602
0.5754299677 -0.8012422108 1.006165601
0.5671243651 -0.79187246 0.9996972401
-0.5575182321 -0.830164695 0.50859205
-0.2227180535 -0.949221612 0.7501932715
-0.2287877232 -0.9734763365 0.2522858919
-0.2228463813 -0.949191493 0.2501868656
-0.3901181428 -0.8896931535 0.6293926608
-0.2257528884 -0.9613489742 0.5012395817
-0.3931529777 -0.9018205158 0.380438971
-0.3901823067 -0.889678094 0.3793894578
-0.2227822174 -0.9492065525 0.5001900686
-0.2258170522 -0.9613339147 0.2512363788
0.6026543327 -0.766441619 -0.2503764584
0.205689352 -0.953056604 -0.0001718649091
0.2113884078 -0.9774021389 -0.005303822853
0.5312076174 -0.8175839206 0.249771003
0.4041718423 -0.8597491115 -0.1252741617
0.2085388799 -0.9652293715 -0.002737843881
0.4070213702 -0.8719218789 -0.1278401406
0.566930975 -0.7920127698 -0.0003027277017
0.3684484847 -0.8853202623 0.1247995691
0.3712980126 -0.8974930297 0.1222335901
-0.6328717246 -0.774256663 1.022311643
-0.6109099086 -0.7598776767 1.500065836
-0.5557684513 -0.8313371329 1.533615502
-0.2225871024 -0.9492523278 1.250186845
-0.6218908166 -0.7670671699 1.26118874
-0.5833391799 -0.7956074048 1.516840669
-0.5943200879 -0.802796898 1.277963573
-0.4277294135 -0.8617544954 1.136249244
-0.4167485055 -0.8545650023 1.375126341
-0.3891777768 -0.8902947304 1.391901173
0.2058174837 -0.9530289415 0.4997834893
0.6028684534 -0.7662732071 0.7496235055
0.2122920901 -0.9772062569 0.5072035455
0.5312076174 -0.8175839206 0.249771003
0.4043429686 -0.8596510743 0.6247034974
0.4075802717 -0.871739732 0.6284135255
0.2090547869 -0.9651175992 0.5034935174
0.3685125506 -0.8853064311 0.3747772462
0.5670380354 -0.7919285638 0.4996972542
0.3717498537 -0.8973950887 0.3784872742
0.6179575182 -0.7862114892 2.813162168
0.2139690639 -0.9768404372 2.557522222
0.2063975672 -0.9529034811 2.999828418
0.6032965558 -0.7659362022 2.749623431
0.415963291 -0.8815259632 2.685342195
0.2101833155 -0.9648719591 2.77867532
0.4121775427 -0.8695574851 2.906495293
0.610627037 -0.7760738457 2.7813928
0.4086328098 -0.8713883197 2.653572827
0.4048470615 -0.8594198416 2.874725925
0.2060535609 -0.9529779274 1.49978333
0.603082528 -0.7661047346 1.749623469
0.2143835083 -0.9767495643 1.532427695
0.5313802768 -0.8174717129 1.249770975
0.4045680445 -0.859541331 1.624703399
0.4087330182 -0.8714271495 1.641025582
0.2102185346 -0.9648637458 1.516105512
0.3687169188 -0.8852248201 1.374777152
0.5672314024 -0.7917882238 1.499697222
0.3728818926 -0.8971106386 1.391099335
1 0 3.325
0.8788461538 -0.4222018923 3.25
0.975 0 3
0.8991022614 -0.4377386475 3.068740224
0.9394230769 -0.2111009462 3.2875
0.9269230769 -0.2111009462 3.125
0.9875 0 3.1625
0.9495511307 -0.2188693238 3.196870112
0.8889742076 -0.4299702699 3.159370112
0.9370511307 -0.2188693238 3.034370112
0.2168586072 -0.9762030242 3.582328791
0.6188981799 -0.7854712235 3.325389541
0.2065256866 -0.9528757216 3.499783008
0.6035105365 -0.7657676099 3.749623394
0.4178783935 -0.8808371239 3.453859166
0.4127119332 -0.8691734725 3.412586274
0.2116921469 -0.9645393729 3.5410559
0.4101845718 -0.8709853171 3.665976093
0.6112043582 -0.7756194167 3.537506467
0.4050181115 -0.8593216657 3.624703201
0.8998743447 -0.4361492448 2.044105309
1 0 2.3
0.975 0 2
0.8788461538 -0.4222018923 2.25
0.9499371724 -0.2180746224 2.172052654
0.9875 0 2.15
0.9374371724 -0.2180746224 2.022052654
0.8893602493 -0.4291755685 2.147052654
0.9394230769 -0.2111009462 2.275
0.9269230769 -0.2111009462 2.125
0.975 0 3.5
0.8788461538 -0.4222018923 3.25
1 0 3.325
0.899918909 -0.4360572865 3.581202385
0.9269230769 -0.2111009462 3.375
0.9394230769 -0.2111009462 3.2875
0.9875 0 3.4125
0.9374594545 -0.2180286433 3.540601193
0.8893825314 -0.4291295894 3.415601193
0.9499594545 -0.2180286433 3.453101193
0.975 0 1
0.8997584421 -0.4363882971 1.018572212
1 0 1.275
0.8788461538 -0.4222018923 1.25
0.9373792211 -0.2181941485 1.009286106
0.9498792211 -0.2181941485 1.146786106
0.9875 0 1.1375
0.9269230769 -0.2111009462 1.125
0.889302298 -0.4292950947 1.134286106
0.9394230769 -0.2111009462 1.2625
0.6206148791 -0.7841155348 4.350337497
0.2067618992 -0.9528244944 4.499782831
0.2196639672 -0.975575595 4.607237432
0.6037244701 -0.7655989578 4.749623357
0.4136883891 -0.8684700146 4.425060164
0.2132129332 -0.9642000447 4.553510132
0.4201394231 -0.8798455649 4.478787464
0.6121696746 -0.7748572463 4.549980427
0.4052431846 -0.8592117261 4.624703094
0.4116942186 -0.8705872764 4.678430395
-0.6111808499 -0.7596597717 6.94376773e-05
-0.5593020053 -0.828963972 -0.5164092906
-0.6351271135 -0.7724076319 -0.002684208505
-0.6112836873 -0.7595770229 -0.499737169
-0.5852414276 -0.7943118718 -0.2581699265
-0.5972145594 -0.8006858019 -0.2595467496
-0.6231539817 -0.7660337018 -0.001307385414
-0.6112322686 -0.7596183973 -0.2498338657
-0.5852928463 -0.7942704974 -0.5080732298
-0.6232054004 -0.7659923274 -0.2512106888
1 0 0.25
0.9000123069 -0.4358644829 0.5060828415
0.975 0 0.5
0.8788461538 -0.4222018923 0.25
0.9500061534 -0.2179322415 0.3780414208
0.9375061534 -0.2179322415 0.5030414208
0.9875 0 0.375
0.9394230769 -0.2111009462 0.25
0.8894292304 -0.4290331876 0.3780414208
0.9269230769 -0.2111009462 0.375
-0.879098049 -0.4216771516 2.750027252
-0.9015039063 -0.4327709637 2.55625
-1 0 2.8125
-0.975 0 2.5
-0.8903009776 -0.4272240577 2.653138626
-0.9507519531 -0.2163854818 2.684375
-0.9395490245 -0.2108385758 2.781263626
-0.9270490245 -0.2108385758 2.625013626
-0.9382519531 -0.2163854818 2.528125
-0.9875 0 2.65625
-1 0 2.3
-0.9015039063 -0.4327709637 2.55625
-0.8788461538 -0.4222018923 2.25
-0.975 0 2.5
-0.9507519531 -0.2163854818 2.428125
-0.89017503 -0.427486428 2.403125
-0.9394230769 -0.2111009462 2.275
-0.9875 0 2.4
-0.9382519531 -0.2163854818 2.528125
-0.9269230769 -0.2111009462 2.375
-0.5575182321 -0.830164695 0.50859205
-0.6111808499 -0.7596597717 6.94376773e-05
-0.6351271135 -0.7724076319 -0.002684208505
-0.6110786629 -0.7597419745 0.5000656738
-0.584349541 -0.7949122333 0.2543307439
-0.6231539817 -0.7660337018 -0.001307385414
-0.5963226728 -0.8012861634 0.2529539208
-0.5842984475 -0.7949533348 0.5043288619
-0.6111297564 -0.7597008731 0.2500675557
-0.6231028882 -0.7660748032 0.2486907326
-0.8791295023 -0.4216115725 1.750027262
-0.9015039063 -0.4327709637 1.53125
-1 0 1.7875
-0.975 0 1.5
-0.8903167043 -0.4271912681 1.640638631
-0.9507519531 -0.2163854818 1.659375
-0.9395647512 -0.2108057863 1.768763631
-0.9270647512 -0.2108057863 1.625013631
-0.9382519531 -0.2163854818 1.515625
-0.9875 0 1.64375
-0.8791609556 -0.4215459811 0.7500272778
-0.9015039062 -0.4327709637 0.50625
-1 0 0.7625
-0.975 0 0.5
-0.8903324309 -0.4271584724 0.6281386389
-0.9507519531 -0.2163854818 0.634375
-0.9395804778 -0.2107729905 0.7562636389
-0.9270804778 -0.2107729905 0.6250136389
-0.9382519531 -0.2163854818 0.503125
-0.9875 0 0.63125
-1 0 1.275
-0.9015039063 -0.4327709637 1.53125
-0.8788461538 -0.4222018923 1.25
-0.975 0 1.5
-0.9507519531 -0.2163854818 1.403125
-0.89017503 -0.427486428 1.390625
-0.9394230769 -0.2111009462 1.2625
-0.9875 0 1.3875
-0.9382519531 -0.2163854818 1.515625
-0.9269230769 -0.2111009462 1.375
-1 0 0.25
-0.9015039062 -0.4327709637 0.50625
-0.8788461538 -0.4222018923 0.25
-0.975 0 0.5
-0.9507519531 -0.2163854818 0.378125
-0.89017503 -0.427486428 0.378125
-0.9394230769 -0.2111009462 0.25
-0.9875 0 0.375
-0.9382519531 -0.2163854818 0.503125
-0.9269230769 -0.2111009462 0.375
0.975 0 2
0.912554029 -0.3433222163 1.749925656
1 0 1.7875
0.8998743447 -0.4361492448 2.044105309
0.9437770145 -0.1716611081 1.874962828
0.9562770145 -0.1716611081 1.768712828
0.9875 0 1.89375
0.9374371724 -0.2180746224 2.022052654
0.9062141869 -0.3897357305 1.897015482
0.9499371724 -0.2180746224 1.915802654
-0.936844477 -0.3497462308 3.069460669
-0.8788461538 -0.4222018923 3.25
-0.9015039063 -0.4327709637 3.58125
-0.6283448194 -0.777934951 3.072303345
-0.9078453154 -0.3859740616 3.159730335
-0.89017503 -0.427486428 3.415625
-0.9191741916 -0.3912585973 3.325355335
-0.7825946482 -0.5638405909 3.070882007
-0.7535954866 -0.6000684217 3.161151673
-0.7649243628 -0.6053529573 3.326776673
-0.221991424 -0.9750486181 3.327299071
0.2065256866 -0.9528757216 3.499783008
0.2168586072 -0.9762030242 3.582328791
0.2154506215 -0.976514736 3.069835335
-0.007732868694 -0.9639621698 3.413541039
0.2116921469 -0.9645393729 3.5410559
-0.002566408391 -0.9756258212 3.454813931
-0.003270401247 -0.9757816771 3.198567203
0.210988154 -0.9646952288 3.284809171
0.2161546143 -0.9763588801 3.326082063
-0.2220684897 -0.9493737862 3.250186803
0.2063975672 -0.9529034811 2.999828418
0.2065256866 -0.9528757216 3.499783008
0.2154506215 -0.976514736 3.069835335
-0.007835461239 -0.9511386336 3.12500761
0.2064616269 -0.9528896013 3.249805713
-0.007771401551 -0.9511247539 3.374984905
-0.003308934104 -0.9629442611 3.160011069
0.2109240943 -0.9647091086 3.034831876
0.210988154 -0.9646952288 3.284809171
0.6028684534 -0.7662732071 0.7496235055
0.9125348972 -0.3433730644 0.7499256632
0.8788461538 -0.4222018923 1.25
0.8997584421 -0.4363882971 1.018572212
0.7577016753 -0.5548231357 0.7497745843
0.8956905255 -0.3827874783 0.9999628316
0.7408573036 -0.5942375497 0.9998117527
0.7513134478 -0.6013307521 0.8840978586
0.9061466697 -0.3898806807 0.8842489374
0.889302298 -0.4292950947 1.134286106
0.6188981799 -0.7854712235 3.325389541
0.6035105365 -0.7657676099 3.749623394
0.6197733236 -0.7847808786 3.837870242
0.899918909 -0.4360572865 3.581202385
0.6112043582 -0.7756194167 3.537506467
0.61164193 -0.7752742442 3.793746818
0.6193357517 -0.785126051 3.581629891
0.7594085445 -0.610764255 3.453295963
0.7517147228 -0.6009124482 3.66541289
0.7598461163 -0.6104190826 3.709536314
-1 0 1.7875
-0.9015039063 -0.4327709637 1.53125
-0.8791295023 -0.4216115725 1.750027262
-0.9370483212 -0.349199719 2.044461499
-0.9507519531 -0.2163854818 1.659375
-0.8903167043 -0.4271912681 1.640638631
-0.9395647512 -0.2108057863 1.768763631
-0.9685241606 -0.1745998595 1.915980749
-0.9192761137 -0.3909853413 1.787855749
-0.9080889118 -0.3854056458 1.897244381
-0.9015039063 -0.4327709637 2.55625
-0.8788461538 -0.4222018923 2.25
-0.879098049 -0.4216771516 2.750027252
-0.6107411497 -0.760013321 2.500066001
-0.89017503 -0.427486428 2.403125
-0.8789721014 -0.421939522 2.500013626
-0.8903009776 -0.4272240577 2.653138626
-0.756122528 -0.5963921423 2.528158001
-0.7447936518 -0.5911076066 2.375033001
-0.7449195994 -0.5908452363 2.625046626
-0.9015039063 -0.4327709637 3.58125
-0.879066572 -0.4217427675 3.75002742
-0.936640314 -0.3502926237 4.094459839
-0.6260733405 -0.7797641774 4.097299196
-0.8902852391 -0.4272568656 3.66563871
-0.907853443 -0.3860176956 3.92224363
-0.9190721101 -0.3915317937 3.83785492
-0.7637886234 -0.6062675705 3.839274598
-0.7525699563 -0.6007534724 3.923663308
-0.7813568272 -0.5650284005 4.095879518
-0.8788461538 -0.4222018923 0.25
-0.9374550533 -0.3481063387 -0.005536841701
-0.6351271135 -0.7724076319 -0.002684208505
-0.9015039062 -0.4327709637 0.50625
-0.9081506036 -0.3851541155 0.1222315791
-0.7862910834 -0.5602569853 -0.004110525103
-0.7569866337 -0.5973047621 0.1236578957
-0.89017503 -0.427486428 0.378125
-0.9194794798 -0.3904386512 0.2503565791
-0.7683155099 -0.6025892978 0.2517828957
0.6177786953 -0.78635201 1.275065471
0.6194796585 -0.7850127086 0.7625602282
0.2135348004 -0.976935458 1.01974087
0.5313802768 -0.8174717129 1.249770975
0.6186291769 -0.7856823593 1.01881285
0.4165072295 -0.8809740833 0.8911505492
0.4156567479 -0.881643734 1.147403171
0.5745794861 -0.8019118614 1.262418223
0.5754299677 -0.8012422108 1.006165601
0.3724575386 -0.8972035854 1.134755922
-0.8788461538 -0.4222018923 2.25
-0.975 0 2.5
-0.975 0 2
-1 0 2.3
-0.9269230769 -0.2111009462 2.375
-0.975 0 2.25
-0.9269230769 -0.2111009462 2.125
-0.9394230769 -0.2111009462 2.275
-0.9875 0 2.4
-0.9875 0 2.15
-0.2221994607 -0.9493431412 2.750193302
-0.2245251312 -0.9744682989 2.302335841
-0.2223278069 -0.9493130918 2.250186824
0.2062896253 -0.9529268548 2.499783169
-0.2233622959 -0.96190572 2.526264572
-0.223426469 -0.9618906953 2.276261333
-0.2222636338 -0.9493281165 2.500190063
-0.007954917707 -0.951134998 2.624988236
-0.009117752947 -0.9636975768 2.401059505
-0.008019090804 -0.9511199733 2.374984997
-0.9374550533 -0.3481063387 -0.005536841701
-0.8788461538 -0.4222018923 0.25
-1 0 0.25
-0.9015039062 -0.4327709637 0.50625
-0.9081506036 -0.3851541155 0.1222315791
-0.9394230769 -0.2111009462 0.25
-0.9687275266 -0.1740531694 0.1222315791
-0.9194794798 -0.3904386512 0.2503565791
-0.89017503 -0.427486428 0.378125
-0.9507519531 -0.2163854818 0.378125
-0.9015039063 -0.4327709637 1.53125
-0.6109099086 -0.7598776767 1.500065836
-0.5557684513 -0.8313371329 1.533615502
-0.6328717246 -0.774256663 1.022311643
-0.7562069074 -0.5963243202 1.515657918
-0.5833391799 -0.7956074048 1.516840669
-0.7286361788 -0.6320540483 1.532432751
-0.7671878154 -0.6035138133 1.276780822
-0.6218908166 -0.7670671699 1.26118874
-0.5943200879 -0.802796898 1.277963573
-0.2229773248 -0.9491607412 -0.2498067451
-0.5593020053 -0.828963972 -0.5164092906
-0.6112836873 -0.7595770229 -0.499737169
-0.2231056442 -0.9491305872 -0.7498131162
-0.391139665 -0.8890623566 -0.3831080178
-0.5852928463 -0.7942704974 -0.5080732298
-0.417130506 -0.854368882 -0.374771957
-0.2230414845 -0.9491456642 -0.4998099306
-0.3912038247 -0.8890472796 -0.6331112034
-0.4171946657 -0.854353805 -0.6247751426
0.2151923346 -0.9765716866 2.045215689
-0.2252378057 -0.9743038186 1.78987429
0.206161507 -0.9529545808 1.999828324
0.2143835083 -0.9767495643 1.532427695
-0.005022735541 -0.9754377526 1.917544989
-0.009538149314 -0.9636291997 1.894851307
0.2106769208 -0.9647631337 2.022522006
0.2147879215 -0.9766606255 1.788821692
-0.005427148671 -0.9755266914 1.661150992
0.2102725077 -0.9648520725 1.76612801
-0.975 0 1.5
-0.8788461538 -0.4222018923 1.25
-0.8791295023 -0.4216115725 1.750027262
-0.9015039063 -0.4327709637 1.53125
-0.9269230769 -0.2111009462 1.375
-0.8789878281 -0.4219067324 1.500013631
-0.9270647512 -0.2108057863 1.625013631
-0.9382519531 -0.2163854818 1.515625
-0.89017503 -0.427486428 1.390625
-0.8903167043 -0.4271912681 1.640638631
-0.6260733405 -0.7797641774 4.097299196
-0.6104023296 -0.7602854701 4.500072102
-0.9015039063 -0.4327709637 4.60625
-0.5504315511 -0.8348802954 4.608536889
-0.618237835 -0.7700248237 4.298685649
-0.7559531179 -0.5965282169 4.553161051
-0.7637886234 -0.6062675705 4.351774598
-0.5882524458 -0.8073222364 4.352918042
-0.5804169403 -0.7975828827 4.554304496
-0.7259677287 -0.6338256295 4.607393444
-0.8791295023 -0.4216115725 1.750027262
-0.9370483212 -0.349199719 2.044461499
-0.9015039063 -0.4327709637 1.53125
-0.6306109538 -0.7760991077 2.047307495
-0.9080889118 -0.3854056458 1.897244381
-0.9192761137 -0.3909853413 1.787855749
-0.8903167043 -0.4271912681 1.640638631
-0.7548702281 -0.5988553401 1.898667378
-0.7838296375 -0.5626494133 2.045884497
-0.76605743 -0.6044350357 1.789278747
0.9125731581 -0.3432713667 2.749925649
0.6032965558 -0.7659362022 2.749623431
0.8788461538 -0.4222018923 2.25
0.8994817231 -0.4369583845 2.556520499
0.7579348569 -0.5546037844 2.74977454
0.7410713548 -0.5940690472 2.499811716
0.895709656 -0.3827366295 2.499962824
0.9060274406 -0.3901148756 2.653223074
0.7513891395 -0.6014472933 2.653071965
0.8891639385 -0.4295801384 2.40326025
1 0 0.25
0.8994741469 -0.4369739798 -0.006450738723
0.9000123069 -0.4358644829 0.5060828415
0.8788461538 -0.4222018923 0.25
0.9497370735 -0.2184869899 0.1217746306
0.8997432269 -0.4364192314 0.2498160514
0.9500061534 -0.2179322415 0.3780414208
0.9394230769 -0.2111009462 0.25
0.8891601504 -0.4295879361 0.1217746306
0.8894292304 -0.4290331876 0.3780414208
-0.6260733405 -0.7797641774 4.097299196
-0.8788461538 -0.4222018923 4.25
-0.879066572 -0.4217427675 3.75002742
-0.936640314 -0.3502926237 4.094459839
-0.7524597472 -0.6009830348 4.173649598
-0.8789563629 -0.4219723299 4.00001371
-0.7525699563 -0.6007534724 3.923663308
-0.7813568272 -0.5650284005 4.095879518
-0.9077432339 -0.386247258 4.17222992
-0.907853443 -0.3860176956 3.92224363
-0.9015039063 -0.4327709637 2.55625
-1 0 2.3
-1 0 2.8125
-0.975 0 2.5
-0.9507519531 -0.2163854818 2.428125
-1 0 2.55625
-0.9507519531 -0.2163854818 2.684375
-0.9382519531 -0.2163854818 2.528125
-0.9875 0 2.4
-0.9875 0 2.65625
-0.975 0 0.5
-0.8788461538 -0.4222018923 0.25
-0.8791609556 -0.4215459811 0.7500272778
-0.9015039062 -0.4327709637 0.50625
-0.9269230769 -0.2111009462 0.375
-0.8790035547 -0.4218739367 0.5000136389
-0.9270804778 -0.2107729905 0.6250136389
-0.9382519531 -0.2163854818 0.503125
-0.89017503 -0.427486428 0.378125
-0.8903324309 -0.4271584724 0.6281386389
-0.9015039062 -0.4327709637 -0.51875
-0.8788461538 -0.4222018923 -0.75
-0.87919594 -0.4214730111 -0.2499397705
-0.6112836873 -0.7595770229 -0.499737169
-0.89017503 -0.427486428 -0.634375
-0.8790210469 -0.4218374517 -0.4999698853
-0.8903499231 -0.4271219874 -0.3843448853
-0.7563937968 -0.5961739933 -0.5092435845
-0.7450649206 -0.5908894576 -0.6248685845
-0.7452398136 -0.590525017 -0.3748384698
0.9125348972 -0.3433730644 0.7499256632
0.975 0 0.5
0.975 0 1
1 0 0.7625
0.9437674486 -0.1716865322 0.6249628316
0.975 0 0.75
0.9437674486 -0.1716865322 0.8749628316
0.9562674486 -0.1716865322 0.7562128316
0.9875 0 0.63125
0.9875 0 0.88125
-0.87919594 -0.4214730111 -0.2499397705
-0.8788461538 -0.4222018923 0.25
-0.975 0 0
-0.9374550533 -0.3481063387 -0.005536841701
-0.8790210469 -0.4218374517 3.011473503e-05
-0.9269230769 -0.2111009462 0.125
-0.92709797 -0.2107365056 -0.1249698853
-0.9083254966 -0.3847896749 -0.1277383061
-0.9081506036 -0.3851541155 0.1222315791
-0.9562275266 -0.1740531694 -0.00276842085
-0.6351271135 -0.7724076319 -0.002684208505
-0.6112836873 -0.7595770229 -0.499737169
-0.5593020053 -0.828963972 -0.5164092906
-0.9015039062 -0.4327709637 -0.51875
-0.6232054004 -0.7659923274 -0.2512106888
-0.5852928463 -0.7942704974 -0.5080732298
-0.5972145594 -0.8006858019 -0.2595467496
-0.7683155099 -0.6025892978 -0.2607171043
-0.7563937968 -0.5961739933 -0.5092435845
-0.7304029558 -0.6308674679 -0.5175796453
-1 0 -0.2625
-0.975 0 0
-1 0 0.25
-0.9374550533 -0.3481063387 -0.005536841701
-0.9875 0 -0.13125
-0.9875 0 0.125
-1 0 -0.00625
-0.9687275266 -0.1740531694 -0.1340184209
-0.9562275266 -0.1740531694 -0.00276842085
-0.9687275266 -0.1740531694 0.1222315791
-0.6351271135 -0.7724076319 -0.002684208505
-0.9015039062 -0.4327709637 -0.51875
-0.9374550533 -0.3481063387 -0.005536841701
-0.87919594 -0.4214730111 -0.2499397705
-0.7683155099 -0.6025892978 -0.2607171043
-0.9194794798 -0.3904386512 -0.2621434209
-0.7862910834 -0.5602569853 -0.004110525103
-0.7571615267 -0.5969403215 -0.1263119895
-0.8903499231 -0.4271219874 -0.3843448853
-0.9083254966 -0.3847896749 -0.1277383061
-0.6112836873 -0.7595770229 -0.499737169
-0.9015039062 -0.4327709637 -0.51875
-0.6351271135 -0.7724076319 -0.002684208505
-0.87919594 -0.4214730111 -0.2499397705
-0.7563937968 -0.5961739933 -0.5092435845
-0.7683155099 -0.6025892978 -0.2607171043
-0.6232054004 -0.7659923274 -0.2512106888
-0.7452398136 -0.590525017 -0.3748384698
-0.8903499231 -0.4271219874 -0.3843448853
-0.7571615267 -0.5969403215 -0.1263119895
-0.9015039062 -0.4327709637 -0.51875
-1 0 -0.2625
-0.9374550533 -0.3481063387 -0.005536841701
-0.87919594 -0.4214730111 -0.2499397705
-0.9507519531 -0.2163854818 -0.390625
-0.9687275266 -0.1740531694 -0.1340184209
-0.9194794798 -0.3904386512 -0.2621434209
-0.8903499231 -0.4271219874 -0.3843448853
-0.93959797 -0.2107365056 -0.2562198853
-0.9083254966 -0.3847896749 -0.1277383061
-0.9015039063 -0.4327709637 4.60625
-0.6260733405 -0.7797641774 4.097299196
-0.8788461538 -0.4222018923 4.25
-0.6104023296 -0.7602854701 4.500072102
-0.7637886234 -0.6062675705 4.351774598
-0.7524597472 -0.6009830348 4.173649598
-0.89017503 -0.427486428 4.428125
-0.7559531179 -0.5965282169 4.553161051
-0.618237835 -0.7700248237 4.298685649
-0.7446242417 -0.5912436812 4.375036051
-1 0 0.7625
-0.9015039062 -0.4327709637 0.50625
-0.8791609556 -0.4215459811 0.7500272778
-0.9372518466 -0.3486530883 1.019462329
-0.9507519531 -0.2163854818 0.634375
-0.8903324309 -0.4271584724 0.6281386389
-0.9395804778 -0.2107729905 0.7562636389
-0.9686259233 -0.1743265441 0.8909811643
-0.9193778764 -0.390712026 0.7628561643
-0.9082064011 -0.3850995347 0.8847448032
-0.9015039063 -0.4327709637 1.53125
-0.8788461538 -0.4222018923 1.25
-0.8791295023 -0.4216115725 1.750027262
-0.6109099086 -0.7598776767 1.500065836
-0.89017503 -0.427486428 1.390625
-0.8789878281 -0.4219067324 1.500013631
-0.8903167043 -0.4271912681 1.640638631
-0.7562069074 -0.5963243202 1.515657918
-0.7448780312 -0.5910397845 1.375032918
-0.7450197055 -0.5907446246 1.625046549
-0.6107411497 -0.760013321 2.500066001
-0.9015039063 -0.4327709637 2.55625
-0.8788461538 -0.4222018923 2.25
-0.6306109538 -0.7760991077 2.047307495
-0.756122528 -0.5963921423 2.528158001
-0.89017503 -0.427486428 2.403125
-0.7447936518 -0.5911076066 2.375033001
-0.6206760518 -0.7680562143 2.273686748
-0.76605743 -0.6044350357 2.301778747
-0.7547285538 -0.5991505 2.148653747
-0.9015039062 -0.4327709637 0.50625
-1 0 0.25
-1 0 0.7625
-0.975 0 0.5
-0.9507519531 -0.2163854818 0.378125
-1 0 0.50625
-0.9507519531 -0.2163854818 0.634375
-0.9382519531 -0.2163854818 0.503125
-0.9875 0 0.375
-0.9875 0 0.63125
-0.8788461538 -0.4222018923 3.25
-0.6106745569 -0.7600668297 3.0000687
-0.6105723474 -0.7601489384 3.500066319
-0.6283448194 -0.777934951 3.072303345
-0.7447603553 -0.591134361 3.12503435
-0.6106234521 -0.7601078841 3.25006751
-0.7447092506 -0.5911754154 3.37503316
-0.7535954866 -0.6000684217 3.161151673
-0.6195096881 -0.7690008904 3.036186023
-0.6194585834 -0.7690419447 3.286184832
-0.2216804279 -0.9494644743 4.750193296
-0.5504315511 -0.8348802954 4.608536889
-0.2194611143 -0.9756212479 4.352248996
-0.2180471115 -0.9759382445 4.864591213
-0.3860559895 -0.8921723848 4.679365092
-0.3849463327 -0.9052507716 4.480392942
-0.2205707711 -0.9625428611 4.551221146
-0.2198637697 -0.9627013594 4.807392254
-0.3842393313 -0.90540927 4.736564051
-0.2187541129 -0.9757797462 4.608420105
0.975 0 2
1 0 1.7875
1 0 2.3
0.8998743447 -0.4361492448 2.044105309
0.9875 0 1.89375
1 0 2.04375
0.9875 0 2.15
0.9374371724 -0.2180746224 2.022052654
0.9499371724 -0.2180746224 1.915802654
0.9499371724 -0.2180746224 2.172052654
-0.9015039063 -0.4327709637 2.55625
-0.9370483212 -0.349199719 2.044461499
-0.8788461538 -0.4222018923 2.25
-0.6306109538 -0.7760991077 2.047307495
-0.9192761137 -0.3909853413 2.300355749
-0.9079472375 -0.3857008056 2.147230749
-0.89017503 -0.427486428 2.403125
-0.76605743 -0.6044350357 2.301778747
-0.7838296375 -0.5626494133 2.045884497
-0.7547285538 -0.5991505 2.148653747
-0.8788461538 -0.4222018923 2.25
-0.9015039063 -0.4327709637 2.55625
-1 0 2.3
-0.9370483212 -0.349199719 2.044461499
-0.89017503 -0.427486428 2.403125
-0.9507519531 -0.2163854818 2.428125
-0.9394230769 -0.2111009462 2.275
-0.9079472375 -0.3857008056 2.147230749
-0.9192761137 -0.3909853413 2.300355749
-0.9685241606 -0.1745998595 2.172230749
-0.8788461538 -0.4222018923 1.25
-0.6109099086 -0.7598776767 1.500065836
-0.9015039063 -0.4327709637 1.53125
-0.6328717246 -0.774256663 1.022311643
-0.7448780312 -0.5910397845 1.375032918
-0.7562069074 -0.5963243202 1.515657918
-0.89017503 -0.427486428 1.390625
-0.7558589392 -0.5982292776 1.136155822
-0.6218908166 -0.7670671699 1.26118874
-0.7671878154 -0.6035138133 1.276780822
0.2154506215 -0.976514736 3.069835335
-0.2231398852 -0.9747864339 2.814802704
0.2063975672 -0.9529034811 2.999828418
0.2139690639 -0.9768404372 2.557522222
-0.00384463187 -0.9756505849 2.94231902
-0.008371159005 -0.9638449575 2.907315561
0.2109240943 -0.9647091086 3.034831876
0.2147098427 -0.9766775866 2.813678778
-0.004585410675 -0.9758134355 2.686162463
0.2101833155 -0.9648719591 2.77867532
-1 0 2.8125
-0.9015039063 -0.4327709637 2.55625
-0.879098049 -0.4216771516 2.750027252
-0.936844477 -0.3497462308 3.069460669
-0.9507519531 -0.2163854818 2.684375
-0.8903009776 -0.4272240577 2.653138626
-0.9395490245 -0.2108385758 2.781263626
-0.9684222385 -0.1748731154 2.940980335
-0.9191741916 -0.3912585973 2.812855335
-0.907971263 -0.3857116912 2.90974396
-0.9015039063 -0.4327709637 1.53125
-1 0 1.275
-0.8788461538 -0.4222018923 1.25
-0.9372518466 -0.3486530883 1.019462329
-0.9507519531 -0.2163854818 1.403125
-0.9394230769 -0.2111009462 1.2625
-0.89017503 -0.427486428 1.390625
-0.9193778764 -0.390712026 1.275356164
-0.9686259233 -0.1743265441 1.147231164
-0.9080490002 -0.3854274903 1.134731164
0.6032965558 -0.7659362022 2.749623431
0.2063975672 -0.9529034811 2.999828418
0.6179575182 -0.7862114892 2.813162168
0.5317255258 -0.8172471873 3.249770917
0.4048470615 -0.8594198416 2.874725925
0.4121775427 -0.8695574851 2.906495293
0.610627037 -0.7760738457 2.7813928
0.5675110408 -0.7915916947 2.999697174
0.3690615465 -0.8850753342 3.124799667
0.574841522 -0.8017293382 3.031466542
-1 0 3.8375
-0.9015039063 -0.4327709637 3.58125
-1 0 3.325
-0.975 0 3.5
-0.9507519531 -0.2163854818 3.709375
-0.9507519531 -0.2163854818 3.453125
-1 0 3.58125
-0.9875 0 3.66875
-0.9382519531 -0.2163854818 3.540625
-0.9875 0 3.4125
-0.936844477 -0.3497462308 3.069460669
-1 0 2.8125
-1 0 3.325
-0.975 0 3
-0.9684222385 -0.1748731154 2.940980335
-1 0 3.06875
-0.9684222385 -0.1748731154 3.197230335
-0.9559222385 -0.1748731154 3.034730335
-0.9875 0 2.90625
-0.9875 0 3.1625
0.9125922845 -0.3432205156 3.749925641
0.975 0 3.5
0.975 0 4
1 0 3.8375
0.9437961422 -0.1716102578 3.624962821
0.975 0 3.75
0.9437961422 -0.1716102578 3.874962821
0.9562961422 -0.1716102578 3.793712821
0.9875 0 3.66875
0.9875 0 3.91875
0.975 0 1
1 0 0.7625
1 0 1.275
0.8997584421 -0.4363882971 1.018572212
0.9875 0 0.88125
1 0 1.01875
0.9875 0 1.1375
0.9373792211 -0.2181941485 1.009286106
0.9498792211 -0.2181941485 0.8905361058
0.9498792211 -0.2181941485 1.146786106
0.8788461538 -0.4222018923 4.25
0.975 0 4
0.975 0 4.5
1 0 4.35
0.9269230769 -0.2111009462 4.125
0.975 0 4.25
0.9269230769 -0.2111009462 4.375
0.9394230769 -0.2111009462 4.3
0.9875 0 4.175
0.9875 0 4.425
-0.975 0 2.5
-0.8788461538 -0.4222018923 2.25
-0.879098049 -0.4216771516 2.750027252
-0.9015039063 -0.4327709637 2.55625
-0.9269230769 -0.2111009462 2.375
-0.8789721014 -0.421939522 2.500013626
-0.9270490245 -0.2108385758 2.625013626
-0.9382519531 -0.2163854818 2.528125
-0.89017503 -0.427486428 2.403125
-0.8903009776 -0.4272240577 2.653138626
-0.9015039063 -0.4327709637 2.55625
-0.6107411497 -0.760013321 2.500066001
-0.5541131396 -0.8324413664 2.558599877
-0.6306109538 -0.7760991077 2.047307495
-0.756122528 -0.5963921423 2.528158001
-0.5824271447 -0.7962273437 2.529332939
-0.7278085229 -0.6326061651 2.557424939
-0.76605743 -0.6044350357 2.301778747
-0.6206760518 -0.7680562143 2.273686748
-0.5923620467 -0.8042702371 2.302953686
-1 0 2.3
-0.9370483212 -0.349199719 2.044461499
-1 0 1.7875
-0.975 0 2
-0.9685241606 -0.1745998595 2.172230749
-0.9685241606 -0.1745998595 1.915980749
-1 0 2.04375
-0.9875 0 2.15
-0.9560241606 -0.1745998595 2.022230749
-0.9875 0 1.89375
-1 0 1.275
-0.9372518466 -0.3486530883 1.019462329
-1 0 0.7625
-0.975 0 1
-0.9686259233 -0.1743265441 1.147231164
-0.9686259233 -0.1743265441 0.8909811643
-1 0 1.01875
-0.9875 0 1.1375
-0.9561259233 -0.1743265441 1.009731164
-0.9875 0 0.88125
-0.9015039063 -0.4327709637 1.53125
-1 0 1.275
-1 0 1.7875
-0.975 0 1.5
-0.9507519531 -0.2163854818 1.403125
-1 0 1.53125
-0.9507519531 -0.2163854818 1.659375
-0.9382519531 -0.2163854818 1.515625
-0.9875 0 1.3875
-0.9875 0 1.64375
-1 0 4.8625
-0.9015039063 -0.4327709637 4.60625
-1 0 4.35
-0.975 0 4.5
-0.9507519531 -0.2163854818 4.734375
-0.9507519531 -0.2163854818 4.478125
-1 0 4.60625
-0.9875 0 4.68125
-0.9382519531 -0.2163854818 4.553125
-0.9875 0 4.425
-0.9015039063 -0.4327709637 4.60625
-0.6103297059 -0.760343771 5.00010251
-0.6237965432 -0.781586766 5.122295037
-0.5504315511 -0.8348802954 4.608536889
-0.7559168061 -0.5965573674 4.803176255
-0.6170631245 -0.7709652685 5.061198773
-0.7626502247 -0.6071788648 4.864272519
-0.7259677287 -0.6338256295 4.607393444
-0.5803806285 -0.7976120332 4.804319699
-0.5871140471 -0.8082335307 4.865415963
-1 0 4.35
-0.936640314 -0.3502926237 4.094459839
-1 0 3.8375
-0.975 0 4
-0.968320157 -0.1751463118 4.22222992
-0.968320157 -0.1751463118 3.96597992
-1 0 4.09375
-0.9875 0 4.175
-0.955820157 -0.1751463118 4.04722992
-0.9875 0 3.91875
-0.8788461538 -0.4222018923 4.25
-0.9015039063 -0.4327709637 4.60625
-0.936640314 -0.3502926237 4.094459839
-0.6260733405 -0.7797641774 4.097299196
-0.89017503 -0.427486428 4.428125
-0.9190721101 -0.3915317937 4.35035492
-0.9077432339 -0.386247258 4.17222992
-0.7524597472 -0.6009830348 4.173649598
-0.7637886234 -0.6062675705 4.351774598
-0.7813568272 -0.5650284005 4.095879518
-0.6105723474 -0.7601489384 3.500066319
-0.6283448194 -0.777934951 3.072303345
-0.6106745569 -0.7600668297 3.0000687
-0.2220684897 -0.9493737862 3.250186803
-0.6194585834 -0.7690419447 3.286184832
-0.6195096881 -0.7690008904 3.036186023
-0.6106234521 -0.7601078841 3.25006751
-0.4163204185 -0.8547613623 3.375126561
-0.4252066545 -0.8636543686 3.161245074
-0.4163715233 -0.8547203079 3.125127752
-0.6105055628 -0.7602025768 4.000069391
-0.6260733405 -0.7797641774 4.097299196
-0.9015039063 -0.4327709637 3.58125
-0.552277749 -0.8336601753 3.583587903
-0.6182894517 -0.7699833771 4.048684294
-0.7637886234 -0.6062675705 3.839274598
-0.7560047345 -0.5964867702 3.790659695
-0.5813916559 -0.7969313761 3.791828647
-0.5891755448 -0.8067121764 3.84044355
-0.7268908276 -0.6332155695 3.582418952
-0.9015039063 -0.4327709637 3.58125
-0.6105055628 -0.7602025768 4.000069391
-0.879066572 -0.4217427675 3.75002742
-0.6260733405 -0.7797641774 4.097299196
-0.7560047345 -0.5964867702 3.790659695
-0.7447860674 -0.5909726721 3.875048405
-0.8902852391 -0.4272568656 3.66563871
-0.7637886234 -0.6062675705 3.839274598
-0.6182894517 -0.7699833771 4.048684294
-0.7525699563 -0.6007534724 3.923663308
-0.936844477 -0.3497462308 3.069460669
-0.8788461538 -0.4222018923 3.25
-0.879098049 -0.4216771516 2.750027252
-0.975 0 3
-0.9078453154 -0.3859740616 3.159730335
-0.8789721014 -0.421939522 3.000013626
-0.907971263 -0.3857116912 2.90974396
-0.9559222385 -0.1748731154 3.034730335
-0.9269230769 -0.2111009462 3.125
-0.9270490245 -0.2108385758 2.875013626
-0.6105055628 -0.7602025768 4.000069391
-0.9015039063 -0.4327709637 3.58125
-0.879066572 -0.4217427675 3.75002742
-0.6105723474 -0.7601489384 3.500066319
-0.7560047345 -0.5964867702 3.790659695
-0.8902852391 -0.4272568656 3.66563871
-0.7447860674 -0.5909726721 3.875048405
-0.6105389551 -0.7601757576 3.750067855
-0.7560381268 -0.5964599511 3.54065816
-0.7448194597 -0.590945853 3.62504687
-0.9015039063 -0.4327709637 3.58125
-0.8788461538 -0.4222018923 3.25
-0.879066572 -0.4217427675 3.75002742
-0.6105723474 -0.7601489384 3.500066319
-0.89017503 -0.427486428 3.415625
-0.8789563629 -0.4219723299 3.50001371
-0.8902852391 -0.4272568656 3.66563871
-0.7560381268 -0.5964599511 3.54065816
-0.7447092506 -0.5911754154 3.37503316
-0.7448194597 -0.590945853 3.62504687
-0.6105723474 -0.7601489384 3.500066319
-0.9015039063 -0.4327709637 3.58125
-0.8788461538 -0.4222018923 3.25
-0.6283448194 -0.777934951 3.072303345
-0.7560381268 -0.5964599511 3.54065816
-0.89017503 -0.427486428 3.415625
-0.7447092506 -0.5911754154 3.37503316
-0.6194585834 -0.7690419447 3.286184832
-0.7649243628 -0.6053529573 3.326776673
-0.7535954866 -0.6000684217 3.161151673
-0.6283448194 -0.777934951 3.072303345
-0.8788461538 -0.4222018923 3.25
-0.879098049 -0.4216771516 2.750027252
-0.936844477 -0.3497462308 3.069460669
-0.7535954866 -0.6000684217 3.161151673
-0.8789721014 -0.421939522 3.000013626
-0.7537214342 -0.5998060513 2.911165299
-0.7825946482 -0.5638405909 3.070882007
-0.9078453154 -0.3859740616 3.159730335
-0.907971263 -0.3857116912 2.90974396
-0.879098049 -0.4216771516 2.750027252
-0.936844477 -0.3497462308 3.069460669
-0.9015039063 -0.4327709637 2.55625
-0.6283448194 -0.777934951 3.072303345
-0.907971263 -0.3857116912 2.90974396
-0.9191741916 -0.3912585973 2.812855335
-0.8903009776 -0.4272240577 2.653138626
-0.7537214342 -0.5998060513 2.911165299
-0.7825946482 -0.5638405909 3.070882007
-0.7649243628 -0.6053529573 2.814276673
-0.8791609556 -0.4215459811 0.7500272778
-0.9372518466 -0.3486530883 1.019462329
-0.9015039062 -0.4327709637 0.50625
-0.6328717246 -0.774256663 1.022311643
-0.9082064011 -0.3850995347 0.8847448032
-0.9193778764 -0.390712026 0.7628561643
-0.8903324309 -0.4271584724 0.6281386389
-0.7560163401 -0.597901322 0.8861694606
-0.7850617856 -0.5614548756 1.020886986
-0.7671878154 -0.6035138133 0.7642808217
-0.2218090732 -0.949434429 4.250186773
-0.6104023296 -0.7602854701 4.500072102
-0.6105055628 -0.7602025768 4.000069391
-0.6260733405 -0.7797641774 4.097299196
-0.4161057014 -0.8548599496 4.375129438
-0.6104539462 -0.7602440234 4.250070747
-0.416157318 -0.8548185029 4.125128082
-0.4239412069 -0.8645993032 4.173742984
-0.618237835 -0.7700248237 4.298685649
-0.6182894517 -0.7699833771 4.048684294
-0.6260733405 -0.7797641774 4.097299196
-0.2194611143 -0.9756212479 4.352248996
-0.2206204374 -0.9753597401 3.839787904
-0.2218090732 -0.949434429 4.250186773
-0.4227672274 -0.8776927126 4.224774096
-0.2200407758 -0.975490494 4.09601845
-0.4233468889 -0.8775619587 3.96854355
-0.4239412069 -0.8645993032 4.173742984
-0.2206350938 -0.9625278385 4.301217884
-0.2212147553 -0.9623970846 4.044987338
-0.975 0 4.5
-0.8788461538 -0.4222018923 4.25
-0.8790343298 -0.4218099655 4.750033916
-0.9015039063 -0.4327709637 4.60625
-0.9269230769 -0.2111009462 4.375
-0.8789402418 -0.4220059289 4.500016958
-0.9270171649 -0.2109049828 4.625016958
-0.9382519531 -0.2163854818 4.553125
-0.89017503 -0.427486428 4.428125
-0.890269118 -0.4272904646 4.678141958
-0.9015039063 -0.4327709637 3.58125
-0.6105723474 -0.7601489384 3.500066319
-0.6105055628 -0.7602025768 4.000069391
-0.552277749 -0.8336601753 3.583587903
-0.7560381268 -0.5964599511 3.54065816
-0.6105389551 -0.7601757576 3.750067855
-0.7560047345 -0.5964867702 3.790659695
-0.7268908276 -0.6332155695 3.582418952
-0.5814250482 -0.7969045569 3.541827111
-0.5813916559 -0.7969313761 3.791828647
-0.6283448194 -0.777934951 3.072303345
-0.6105723474 -0.7601489384 3.500066319
-0.9015039063 -0.4327709637 3.58125
-0.552277749 -0.8336601753 3.583587903
-0.6194585834 -0.7690419447 3.286184832
-0.7560381268 -0.5964599511 3.54065816
-0.7649243628 -0.6053529573 3.326776673
-0.5903112842 -0.8057975632 3.327945624
-0.5814250482 -0.7969045569 3.541827111
-0.7268908276 -0.6332155695 3.582418952
0.912554029 -0.3433222163 1.749925656
0.603082528 -0.7661047346 1.749623469
0.8788461538 -0.4222018923 1.25
0.9002664897 -0.4353392327 1.531349267
0.7578182785 -0.5547134754 1.749774562
0.7409643409 -0.5941533135 1.499811734
0.8957000914 -0.3827620543 1.499962828
0.9064102593 -0.3893307245 1.640637461
0.7516745089 -0.6007219837 1.640486368
0.8895563218 -0.4287705625 1.390674633
-0.8788461538 -0.4222018923 0.25
-0.9015039062 -0.4327709637 0.50625
-0.6351271135 -0.7724076319 -0.002684208505
-0.6110786629 -0.7597419745 0.5000656738
-0.89017503 -0.427486428 0.378125
-0.7683155099 -0.6025892978 0.2517828957
-0.7569866337 -0.5973047621 0.1236578957
-0.7449624083 -0.5909719334 0.3750328369
-0.7562912846 -0.5962564691 0.5031578369
-0.6231028882 -0.7660748032 0.2486907326
-0.5575182321 -0.830164695 0.50859205
-0.6351271135 -0.7724076319 -0.002684208505
-0.9015039062 -0.4327709637 0.50625
-0.6110786629 -0.7597419745 0.5000656738
-0.5963226728 -0.8012861634 0.2529539208
-0.7683155099 -0.6025892978 0.2517828957
-0.7295110692 -0.6314678294 0.507421025
-0.5842984475 -0.7949533348 0.5043288619
-0.6231028882 -0.7660748032 0.2486907326
-0.7562912846 -0.5962564691 0.5031578369
-0.6306109538 -0.7760991077 2.047307495
-0.8788461538 -0.4222018923 2.25
-0.8791295023 -0.4216115725 1.750027262
-0.9370483212 -0.349199719 2.044461499
-0.7547285538 -0.5991505 2.148653747
-0.8789878281 -0.4219067324 2.000013631
-0.7548702281 -0.5988553401 1.898667378
-0.7838296375 -0.5626494133 2.045884497
-0.9079472375 -0.3857008056 2.147230749
-0.9080889118 -0.3854056458 1.897244381
-0.6328717246 -0.774256663 1.022311643
-0.8788461538 -0.4222018923 1.25
-0.8791609556 -0.4215459811 0.7500272778
-0.9372518466 -0.3486530883 1.019462329
-0.7558589392 -0.5982292776 1.136155822
-0.8790035547 -0.4218739367 1.000013639
-0.7560163401 -0.597901322 0.8861694606
-0.7850617856 -0.5614548756 1.020886986
-0.9080490002 -0.3854274903 1.134731164
-0.9082064011 -0.3850995347 0.8847448032
-0.9372518466 -0.3486530883 1.019462329
-0.8788461538 -0.4222018923 1.25
-0.9015039063 -0.4327709637 1.53125
-0.6328717246 -0.774256663 1.022311643
-0.9080490002 -0.3854274903 1.134731164
-0.89017503 -0.427486428 1.390625
-0.9193778764 -0.390712026 1.275356164
-0.7850617856 -0.5614548756 1.020886986
-0.7558589392 -0.5982292776 1.136155822
-0.7671878154 -0.6035138133 1.276780822
0.8991022614 -0.4377386475 3.068740224
0.9125731581 -0.3432713667 2.749925649
0.8788461538 -0.4222018923 3.25
0.975 0 3
0.9058377097 -0.3905050071 2.909332936
0.895709656 -0.3827366295 2.999962824
0.8889742076 -0.4299702699 3.159370112
0.9370511307 -0.2188693238 3.034370112
0.943786579 -0.1716356833 2.874962824
0.9269230769 -0.2111009462 3.125
-0.2231398852 -0.9747864339 2.814802704
-0.2220684897 -0.9493737862 3.250186803
-0.221991424 -0.9750486181 3.327299071
0.2154506215 -0.976514736 3.069835335
-0.2226041874 -0.96208011 3.032494753
-0.2220299568 -0.9622112021 3.288742937
-0.2225656546 -0.974917526 3.071050887
-0.00384463187 -0.9756505849 2.94231902
-0.003308934104 -0.9629442611 3.160011069
-0.003270401247 -0.9757816771 3.198567203
-0.2227180535 -0.949221612 0.7501932715
-0.5575182321 -0.830164695 0.50859205
-0.6110786629 -0.7597419745 0.5000656738
-0.2228463813 -0.949191493 0.2501868656
-0.3901181428 -0.8896931535 0.6293926608
-0.5842984475 -0.7949533348 0.5043288619
-0.4168983582 -0.8544817932 0.6251294726
-0.2227822174 -0.9492065525 0.5001900686
-0.3901823067 -0.889678094 0.3793894578
-0.4169625221 -0.8544667337 0.3751262697
-0.5557684513 -0.8313371329 1.533615502
-0.2225871024 -0.9492523278 1.250186845
-0.6109099086 -0.7598776767 1.500065836
-0.222458766 -0.9492824118 1.750193287
-0.3891777768 -0.8902947304 1.391901173
-0.4167485055 -0.8545650023 1.375126341
-0.5833391799 -0.7956074048 1.516840669
-0.3891136086 -0.8903097724 1.641904394
-0.2225229342 -0.9492673698 1.500190066
-0.4166843373 -0.8545800443 1.625129562
-0.6283448194 -0.777934951 3.072303345
-0.221991424 -0.9750486181 3.327299071
-0.2231398852 -0.9747864339 2.814802704
-0.2220684897 -0.9493737862 3.250186803
-0.4251681217 -0.8764917846 3.199801208
-0.2225656546 -0.974917526 3.071050887
-0.4257423523 -0.8763606924 2.943553025
-0.4252066545 -0.8636543686 3.161245074
-0.2220299568 -0.9622112021 3.288742937
-0.2226041874 -0.96208011 3.032494753
0.5317255258 -0.8172471873 3.249770917
0.2154506215 -0.976514736 3.069835335
0.6179575182 -0.7862114892 2.813162168
0.6188981799 -0.7854712235 3.325389541
0.3735880737 -0.8968809617 3.159803126
0.4167040698 -0.8813631126 2.941498751
0.574841522 -0.8017293382 3.031466542
0.5753118529 -0.8013592054 3.287580229
0.4171744007 -0.8809929798 3.197612438
0.618427849 -0.7858413563 3.069275854
-0.2231398852 -0.9747864339 2.814802704
-0.2245251312 -0.9744682989 2.302335841
-0.2221994607 -0.9493431412 2.750193302
0.2139690639 -0.9768404372 2.557522222
-0.2238325082 -0.9746273664 2.558569273
-0.2233622959 -0.96190572 2.526264572
-0.2226696729 -0.9620647875 2.782498003
-0.004585410675 -0.9758134355 2.686162463
-0.005278033646 -0.975654368 2.429929031
-0.004115198406 -0.9630917892 2.653857762
0.2139690639 -0.9768404372 2.557522222
-0.2221994607 -0.9493431412 2.750193302
0.2063975672 -0.9529034811 2.999828418
0.2062896253 -0.9529268548 2.499783169
-0.004115198406 -0.9630917892 2.653857762
-0.007900946736 -0.9511233111 2.87501086
0.2101833155 -0.9648719591 2.77867532
0.2101293446 -0.964883646 2.528652696
-0.007954917707 -0.951134998 2.624988236
0.2063435962 -0.9529151679 2.749805794
-0.2223278069 -0.9493130918 2.250186824
-0.6306109538 -0.7760991077 2.047307495
-0.2252378057 -0.9743038186 1.78987429
-0.2245251312 -0.9744682989 2.302335841
-0.4264693803 -0.8627060998 2.148747159
-0.4279243797 -0.8752014631 1.918590892
-0.2237828063 -0.9618084552 2.020030557
-0.223426469 -0.9618906953 2.276261333
-0.4275680425 -0.8752837033 2.174821668
-0.2248814684 -0.9743860587 2.046105065
-0.2221994607 -0.9493431412 2.750193302
-0.2231398852 -0.9747864339 2.814802704
-0.5541131396 -0.8324413664 2.558599877
-0.2245251312 -0.9744682989 2.302335841
-0.2226696729 -0.9620647875 2.782498003
-0.3886265124 -0.9036139001 2.686701291
-0.3881563001 -0.8908922538 2.65439659
-0.2233622959 -0.96190572 2.526264572
-0.2238325082 -0.9746273664 2.558569273
-0.3893191354 -0.9034548326 2.430467859
-0.6105055628 -0.7602025768 4.000069391
-0.552277749 -0.8336601753 3.583587903
-0.6105723474 -0.7601489384 3.500066319
-0.2219401182 -0.9494038045 3.750193315
-0.5813916559 -0.7969313761 3.791828647
-0.5814250482 -0.7969045569 3.541827111
-0.6105389551 -0.7601757576 3.750067855
-0.4162228405 -0.8548031906 3.875131353
-0.3871089336 -0.8915319899 3.666890609
-0.4162562328 -0.8547763714 3.625129817
-0.2219401182 -0.9494038045 3.750193315
-0.221991424 -0.9750486181 3.327299071
-0.2220684897 -0.9493737862 3.250186803
0.2065256866 -0.9528757216 3.499783008
-0.2219657711 -0.9622262113 3.538746193
-0.2220299568 -0.9622112021 3.288742937
-0.2220043039 -0.9493887953 3.500190059
-0.007707215815 -0.951139763 3.624988162
-0.007732868694 -0.9639621698 3.413541039
-0.007771401551 -0.9511247539 3.374984905
-0.2221994607 -0.9493431412 2.750193302
-0.2220684897 -0.9493737862 3.250186803
-0.2231398852 -0.9747864339 2.814802704
0.2063975672 -0.9529034811 2.999828418
-0.2221339752 -0.9493584637 3.000190052
-0.2226041874 -0.96208011 3.032494753
-0.2226696729 -0.9620647875 2.782498003
-0.007900946736 -0.9511233111 2.87501086
-0.007835461239 -0.9511386336 3.12500761
-0.008371159005 -0.9638449575 2.907315561
-0.2219401182 -0.9494038045 3.750193315
-0.552277749 -0.8336601753 3.583587903
-0.221991424 -0.9750486181 3.327299071
-0.2206204374 -0.9753597401 3.839787904
-0.3871089336 -0.8915319899 3.666890609
-0.3871345865 -0.9043543967 3.455443487
-0.2219657711 -0.9622262113 3.538746193
-0.2212802778 -0.9623817723 3.79499061
-0.3864490932 -0.9045099577 3.711687903
-0.2213059307 -0.9752041791 3.583543487
-0.2206204374 -0.9753597401 3.839787904
0.2182384654 -0.975895472 4.094808996
0.2168586072 -0.9762030242 3.582328791
0.2066336553 -0.9528523141 3.999828508
-0.001190985968 -0.975627606 3.96729845
0.2175485363 -0.9760492481 3.838568894
-0.001880915101 -0.9757813822 3.711058348
-0.006993391024 -0.9641060271 3.919808206
0.2124360604 -0.964373893 4.047318752
0.2117461313 -0.9645276692 3.791078649
0.2196639672 -0.975575595 4.607237432
-0.2194611143 -0.9756212479 4.352248996
0.2067618992 -0.9528244944 4.499782831
0.2182384654 -0.975895472 4.094808996
0.0001014264271 -0.9755984214 4.479743214
-0.006349607561 -0.9642228711 4.426015914
0.2132129332 -0.9642000447 4.553510132
0.2189512163 -0.9757355335 4.351023214
-0.0006113244266 -0.9757583599 4.223528996
0.2125001823 -0.9643599832 4.297295914
-0.6104023296 -0.7602854701 4.500072102
-0.2216804279 -0.9494644743 4.750193296
-0.6103297059 -0.760343771 5.00010251
-0.5504315511 -0.8348802954 4.608536889
-0.4160413787 -0.8548749722 4.625132699
-0.4160050669 -0.8549041226 4.875147903
-0.6103660177 -0.7603146206 4.750087306
-0.5804169403 -0.7975828827 4.554304496
-0.3860559895 -0.8921723848 4.679365092
-0.5803806285 -0.7976120332 4.804319699
0.899918909 -0.4360572865 3.581202385
0.8788461538 -0.4222018923 3.25
0.9125922845 -0.3432205156 3.749925641
0.975 0 3.5
0.8893825314 -0.4291295894 3.415601193
0.8957192192 -0.382711204 3.499962821
0.9062555968 -0.3896389011 3.665564013
0.9374594545 -0.2180286433 3.540601193
0.9269230769 -0.2111009462 3.375
0.9437961422 -0.1716102578 3.624962821
0.975 0 3.5
0.899918909 -0.4360572865 3.581202385
1 0 3.8375
0.9125922845 -0.3432205156 3.749925641
0.9374594545 -0.2180286433 3.540601193
0.9499594545 -0.2180286433 3.709351193
0.9875 0 3.66875
0.9437961422 -0.1716102578 3.624962821
0.9062555968 -0.3896389011 3.665564013
0.9562961422 -0.1716102578 3.793712821
0.8788461538 -0.4222018923 3.25
0.975 0 3
0.975 0 3.5
1 0 3.325
0.9269230769 -0.2111009462 3.125
0.975 0 3.25
0.9269230769 -0.2111009462 3.375
0.9394230769 -0.2111009462 3.2875
0.9875 0 3.1625
0.9875 0 3.4125
0.5318981499 -0.8171348469 4.249770884
0.6206148791 -0.7841155348 4.350337497
0.2182384654 -0.975895472 4.094808996
0.6197733236 -0.7847808786 3.837870242
0.5762565145 -0.8006251909 4.30005419
0.4194266723 -0.8800055034 4.222573246
0.3750683077 -0.8965151595 4.17228994
0.5758357368 -0.8009578628 4.043820563
0.6201941013 -0.7844482067 4.094103869
0.4190058945 -0.8803381753 3.966339619
-0.2245251312 -0.9744682989 2.302335841
0.2062896253 -0.9529268548 2.499783169
0.2139690639 -0.9768404372 2.557522222
0.2151923346 -0.9765716866 2.045215689
-0.009117752947 -0.9636975768 2.401059505
0.2101293446 -0.964883646 2.528652696
-0.005278033646 -0.975654368 2.429929031
-0.004666398281 -0.9755199927 2.173775765
0.2107409799 -0.9647492707 2.272499429
0.2145806992 -0.9767060619 2.301368955
0.2143835083 -0.9767495643 1.532427695
0.206161507 -0.9529545808 1.999828324
0.2151923346 -0.9765716866 2.045215689
0.6203628969 -0.7843149088 1.788219188
0.2102725077 -0.9648520725 1.76612801
0.2106769208 -0.9647631337 2.022522006
0.2147879215 -0.9766606255 1.788821692
0.4173732026 -0.8805322365 1.660323441
0.413262202 -0.8686347448 1.894023756
0.4177776158 -0.8804432977 1.916717438
0.6035105365 -0.7657676099 3.749623394
0.2066336553 -0.9528523141 3.999828508
0.2065256866 -0.9528757216 3.499783008
0.2168586072 -0.9762030242 3.582328791
0.4050720959 -0.859309962 3.874725951
0.206579671 -0.9528640178 3.749805758
0.4050181115 -0.8593216657 3.624703201
0.4101845718 -0.8709853171 3.665976093
0.2117461313 -0.9645276692 3.791078649
0.2116921469 -0.9645393729 3.5410559
-0.2245251312 -0.9744682989 2.302335841
-0.2252378057 -0.9743038186 1.78987429
-0.2223278069 -0.9493130918 2.250186824
0.2151923346 -0.9765716866 2.045215689
-0.2248814684 -0.9743860587 2.046105065
-0.2237828063 -0.9618084552 2.020030557
-0.223426469 -0.9618906953 2.276261333
-0.004666398281 -0.9755199927 2.173775765
-0.005022735541 -0.9754377526 1.917544989
-0.003567736138 -0.9629423892 2.147701257
0.2139690639 -0.9768404372 2.557522222
0.2063975672 -0.9529034811 2.999828418
0.2154506215 -0.976514736 3.069835335
0.6179575182 -0.7862114892 2.813162168
0.2101833155 -0.9648719591 2.77867532
0.2109240943 -0.9647091086 3.034831876
0.2147098427 -0.9766775866 2.813678778
0.415963291 -0.8815259632 2.685342195
0.4121775427 -0.8695574851 2.906495293
0.4167040698 -0.8813631126 2.941498751
-0.8788461538 -0.4222018923 0.25
-0.975 0 0.5
-0.975 0 0
-1 0 0.25
-0.9269230769 -0.2111009462 0.375
-0.975 0 0.25
-0.9269230769 -0.2111009462 0.125
-0.9394230769 -0.2111009462 0.25
-0.9875 0 0.375
-0.9875 0 0.125
0.6177786953 -0.78635201 1.275065471
0.2135348004 -0.976935458 1.01974087
0.2143835083 -0.9767495643 1.532427695
0.5313802768 -0.8174717129 1.249770975
0.4156567479 -0.881643734 1.147403171
0.2139591544 -0.9768425111 1.276084283
0.4160811018 -0.8815507871 1.403746583
0.5745794861 -0.8019118614 1.262418223
0.3724575386 -0.8972035854 1.134755922
0.3728818926 -0.8971106386 1.391099335
0.912554029 -0.3433222163 1.749925656
0.975 0 1.5
0.975 0 2
1 0 1.7875
0.9437770145 -0.1716611081 1.624962828
0.975 0 1.75
0.9437770145 -0.1716611081 1.874962828
0.9562770145 -0.1716611081 1.768712828
0.9875 0 1.64375
0.9875 0 1.89375
0.9000123069 -0.4358644829 0.5060828415
0.8788461538 -0.4222018923 0.25
0.9125348972 -0.3433730644 0.7499256632
0.975 0 0.5
0.8894292304 -0.4290331876 0.3780414208
0.8956905255 -0.3827874783 0.4999628316
0.906273602 -0.3896187737 0.6280042524
0.9375061534 -0.2179322415 0.5030414208
0.9269230769 -0.2111009462 0.375
0.9437674486 -0.1716865322 0.6249628316
0.9125348972 -0.3433730644 0.7499256632
0.9000123069 -0.4358644829 0.5060828415
1 0 0.7625
0.8997584421 -0.4363882971 1.018572212
0.906273602 -0.3896187737 0.6280042524
0.9500061534 -0.2179322415 0.6342914208
0.9562674486 -0.1716865322 0.7562128316
0.9061466697 -0.3898806807 0.8842489374
0.8998853745 -0.43612639 0.7623275266
0.9498792211 -0.2181941485 0.8905361058
1 0 3.325
0.899918909 -0.4360572865 3.581202385
0.8788461538 -0.4222018923 3.25
0.8991022614 -0.4377386475 3.068740224
0.9499594545 -0.2180286433 3.453101193
0.8893825314 -0.4291295894 3.415601193
0.9394230769 -0.2111009462 3.2875
0.9495511307 -0.2188693238 3.196870112
0.8995105852 -0.436897967 3.324971304
0.8889742076 -0.4299702699 3.159370112
0.6191469877 -0.7852751159 2.300790846
0.6032965558 -0.7659362022 2.749623431
0.6179575182 -0.7862114892 2.813162168
0.8994817231 -0.4369583845 2.556520499
0.6112217717 -0.775605659 2.525207139
0.610627037 -0.7760738457 2.7813928
0.6185522529 -0.7857433025 2.556976507
0.7593143554 -0.6111167502 2.428655672
0.7513891395 -0.6014472933 2.653071965
0.7587196207 -0.6115849368 2.684841334
0.2062896253 -0.9529268548 2.499783169
0.2063975672 -0.9529034811 2.999828418
0.2139690639 -0.9768404372 2.557522222
0.6032965558 -0.7659362022 2.749623431
0.2063435962 -0.9529151679 2.749805794
0.2101833155 -0.9648719591 2.77867532
0.2101293446 -0.964883646 2.528652696
0.4047930905 -0.8594315285 2.6247033
0.4048470615 -0.8594198416 2.874725925
0.4086328098 -0.8713883197 2.653572827
0.2139690639 -0.9768404372 2.557522222
0.6179575182 -0.7862114892 2.813162168
0.6191469877 -0.7852751159 2.300790846
0.6032965558 -0.7659362022 2.749623431
0.415963291 -0.8815259632 2.685342195
0.6185522529 -0.7857433025 2.556976507
0.4165580258 -0.8810577765 2.429156534
0.4086328098 -0.8713883197 2.653572827
0.610627037 -0.7760738457 2.7813928
0.6112217717 -0.775605659 2.525207139
0.2151923346 -0.9765716866 2.045215689
0.6191469877 -0.7852751159 2.300790846
0.6203628969 -0.7843149088 1.788219188
0.5315529124 -0.8173594689 2.249770946
0.4171696611 -0.8809234013 2.173003267
0.6197549423 -0.7847950123 2.044505017
0.4177776158 -0.8804432977 1.916717438
0.3733726235 -0.8969655778 2.147493317
0.57534995 -0.8013172924 2.275280896
0.5759579046 -0.8008371888 2.018995067
0.2139690639 -0.9768404372 2.557522222
0.2151923346 -0.9765716866 2.045215689
0.2062896253 -0.9529268548 2.499783169
0.5315529124 -0.8173594689 2.249770946
0.2145806992 -0.9767060619 2.301368955
0.2107409799 -0.9647492707 2.272499429
0.2101293446 -0.964883646 2.528652696
0.3727609881 -0.897099953 2.403646584
0.3733726235 -0.8969655778 2.147493317
0.3689212688 -0.8851431618 2.374777058
0.2139690639 -0.9768404372 2.557522222
0.6191469877 -0.7852751159 2.300790846
0.2151923346 -0.9765716866 2.045215689
0.5315529124 -0.8173594689 2.249770946
0.4165580258 -0.8810577765 2.429156534
0.4171696611 -0.8809234013 2.173003267
0.2145806992 -0.9767060619 2.301368955
0.3727609881 -0.897099953 2.403646584
0.57534995 -0.8013172924 2.275280896
0.3733726235 -0.8969655778 2.147493317
0.8998743447 -0.4361492448 2.044105309
0.912554029 -0.3433222163 1.749925656
0.8788461538 -0.4222018923 2.25
0.975 0 2
0.9062141869 -0.3897357305 1.897015482
0.8957000914 -0.3827620543 1.999962828
0.8893602493 -0.4291755685 2.147052654
0.9374371724 -0.2180746224 2.022052654
0.9437770145 -0.1716611081 1.874962828
0.9269230769 -0.2111009462 2.125
0.2168586072 -0.9762030242 3.582328791
0.6197733236 -0.7847808786 3.837870242
0.6188981799 -0.7854712235 3.325389541
0.6035105365 -0.7657676099 3.749623394
0.4183159654 -0.8804919514 3.710099517
0.6193357517 -0.785126051 3.581629891
0.4178783935 -0.8808371239 3.453859166
0.4101845718 -0.8709853171 3.665976093
0.61164193 -0.7752742442 3.793746818
0.6112043582 -0.7756194167 3.537506467
0.6206148791 -0.7841155348 4.350337497
0.6037244701 -0.7655989578 4.749623357
0.2196639672 -0.975575595 4.607237432
0.6215019039 -0.7834126521 4.86273584
0.6121696746 -0.7748572463 4.549980427
0.4116942186 -0.8705872764 4.678430395
0.4201394231 -0.8798455649 4.478787464
0.6210583915 -0.7837640934 4.606536668
0.612613187 -0.7745058049 4.806179599
0.4205829356 -0.8794941235 4.734986636
0.2065256866 -0.9528757216 3.499783008
0.6188981799 -0.7854712235 3.325389541
0.5317255258 -0.8172471873 3.249770917
0.6035105365 -0.7657676099 3.749623394
0.4127119332 -0.8691734725 3.412586274
0.5753118529 -0.8013592054 3.287580229
0.3691256062 -0.8850614544 3.374776962
0.4050181115 -0.8593216657 3.624703201
0.6112043582 -0.7756194167 3.537506467
0.5676180312 -0.7915073986 3.499697156
0.899918909 -0.4360572865 3.581202385
0.6188981799 -0.7854712235 3.325389541
0.8788461538 -0.4222018923 3.25
0.8991022614 -0.4377386475 3.068740224
0.7594085445 -0.610764255 3.453295963
0.7488721669 -0.6038365579 3.28769477
0.8893825314 -0.4291295894 3.415601193
0.8995105852 -0.436897967 3.324971304
0.7590002206 -0.6116049355 3.197064882
0.8889742076 -0.4299702699 3.159370112
0.8788461538 -0.4222018923 2.25
0.6191469877 -0.7852751159 2.300790846
0.8998743447 -0.4361492448 2.044105309
0.8994817231 -0.4369583845 2.556520499
0.7489965708 -0.6037385041 2.275395423
0.7595106662 -0.6107121803 2.172448077
0.8893602493 -0.4291755685 2.147052654
0.8891639385 -0.4295801384 2.40326025
0.7593143554 -0.6111167502 2.428655672
0.8996780339 -0.4365538146 2.300312904
0.9125922845 -0.3432205156 3.749925641
0.6035105365 -0.7657676099 3.749623394
0.8788461538 -0.4222018923 3.25
0.899918909 -0.4360572865 3.581202385
0.7580514105 -0.5544940628 3.749774518
0.7411783452 -0.5939847511 3.499811697
0.8957192192 -0.382711204 3.499962821
0.9062555968 -0.3896389011 3.665564013
0.7517147228 -0.6009124482 3.66541289
0.8893825314 -0.4291295894 3.415601193
0.6206148791 -0.7841155348 4.350337497
0.8996710426 -0.4365684541 4.093685591
0.8788461538 -0.4222018923 4.25
0.9003423973 -0.4351822235 4.606201002
0.7601429608 -0.6103419945 4.222011544
0.8892585982 -0.4293851732 4.171842796
0.7497305164 -0.6031587135 4.300168748
0.7604786382 -0.6096488792 4.478269249
0.9000067199 -0.4358753388 4.349943296
0.8895942756 -0.4286920579 4.428100501
0.6215019039 -0.7834126521 4.86273584
0.6206148791 -0.7841155348 4.350337497
0.6037244701 -0.7655989578 4.749623357
0.9003423973 -0.4351822235 4.606201002
0.6210583915 -0.7837640934 4.606536668
0.6121696746 -0.7748572463 4.549980427
0.612613187 -0.7745058049 4.806179599
0.7609221506 -0.6092974378 4.734468421
0.7604786382 -0.6096488792 4.478269249
0.7520334337 -0.6003905907 4.677912179
-0.8791609556 -0.4215459811 0.7500272778
-0.975 0 1
-0.975 0 0.5
-1 0 0.7625
-0.9270804778 -0.2107729905 0.8750136389
-0.975 0 0.75
-0.9270804778 -0.2107729905 0.6250136389
-0.9395804778 -0.2107729905 0.7562636389
-0.9875 0 0.88125
-0.9875 0 0.63125
0.8997584421 -0.4363882971 1.018572212
0.9125348972 -0.3433730644 0.7499256632
0.8788461538 -0.4222018923 1.25
0.975 0 1
0.9061466697 -0.3898806807 0.8842489374
0.8956905255 -0.3827874783 0.9999628316
0.889302298 -0.4292950947 1.134286106
0.9373792211 -0.2181941485 1.009286106
0.9437674486 -0.1716865322 0.8749628316
0.9269230769 -0.2111009462 1.125
0.603082528 -0.7661047346 1.749623469
0.912554029 -0.3433222163 1.749925656
0.8788461538 -0.4222018923 2.25
0.8998743447 -0.4361492448 2.044105309
0.7578182785 -0.5547134754 1.749774562
0.8957000914 -0.3827620543 1.999962828
0.7409643409 -0.5941533135 1.999811734
0.7514784364 -0.6011269897 1.896864389
0.9062141869 -0.3897357305 1.897015482
0.8893602493 -0.4291755685 2.147052654
0.975 0 3.5
1 0 3.325
1 0 3.8375
0.899918909 -0.4360572865 3.581202385
0.9875 0 3.4125
1 0 3.58125
0.9875 0 3.66875
0.9374594545 -0.2180286433 3.540601193
0.9499594545 -0.2180286433 3.453101193
0.9499594545 -0.2180286433 3.709351193
1 0 3.325
0.975 0 3
1 0 2.8125
0.8991022614 -0.4377386475 3.068740224
0.9875 0 3.1625
0.9875 0 2.90625
1 0 3.06875
0.9495511307 -0.2188693238 3.196870112
0.9370511307 -0.2188693238 3.034370112
0.9495511307 -0.2188693238 2.940620112
0.912554029 -0.3433222163 1.749925656
0.9002664897 -0.4353392327 1.531349267
1 0 1.7875
0.8998743447 -0.4361492448 2.044105309
0.9064102593 -0.3893307245 1.640637461
0.9501332448 -0.2176696164 1.659424633
0.9562770145 -0.1716611081 1.768712828
0.9062141869 -0.3897357305 1.897015482
0.9000704172 -0.4357442387 1.787727288
0.9499371724 -0.2180746224 1.915802654
0.8788461538 -0.4222018923 1.25
0.975 0 1
0.975 0 1.5
1 0 1.275
0.9269230769 -0.2111009462 1.125
0.975 0 1.25
0.9269230769 -0.2111009462 1.375
0.9394230769 -0.2111009462 1.2625
0.9875 0 1.1375
0.9875 0 1.3875
0.8788461538 -0.4222018923 4.25
0.8996710426 -0.4365684541 4.093685591
1 0 4.35
0.9003423973 -0.4351822235 4.606201002
0.8892585982 -0.4293851732 4.171842796
0.9498355213 -0.2182842271 4.221842796
0.9394230769 -0.2111009462 4.3
0.8895942756 -0.4286920579 4.428100501
0.9000067199 -0.4358753388 4.349943296
0.9501711986 -0.2175911118 4.478100501
0.9126114082 -0.3431696631 4.749925634
0.6037244701 -0.7655989578 4.749623357
0.8788461538 -0.4222018923 4.25
0.9003423973 -0.4351822235 4.606201002
0.7581679391 -0.5543843104 4.749774496
0.741285312 -0.5939004251 4.499811679
0.895728781 -0.3826857777 4.499962817
0.9064769027 -0.3891759433 4.678063318
0.7520334337 -0.6003905907 4.677912179
0.8895942756 -0.4286920579 4.428100501
0.9002361768 -0.4354019133 5.118683721
1 0 4.8625
0.9003423973 -0.4351822235 4.606201002
0.9126114082 -0.3431696631 4.749925634
0.9501180884 -0.2177009566 4.99059186
0.9501711986 -0.2175911118 4.734350501
0.900289287 -0.4352920684 4.862442361
0.9064237925 -0.3892857882 4.934304677
0.9563057041 -0.1715848315 4.806212817
0.9064769027 -0.3891759433 4.678063318
0.6037244701 -0.7655989578 4.749623357
0.9126114082 -0.3431696631 4.749925634
0.8788461538 -0.4222018923 5.25
0.9002361768 -0.4354019133 5.118683721
0.7581679391 -0.5543843104 4.749774496
0.895728781 -0.3826857777 4.999962817
0.741285312 -0.5939004251 4.999811679
0.7519803234 -0.6005004355 4.934153539
0.9064237925 -0.3892857882 4.934304677
0.8895411653 -0.4288019028 5.18434186
0.8996710426 -0.4365684541 4.093685591
1 0 3.8375
0.899918909 -0.4360572865 3.581202385
0.9125922845 -0.3432205156 3.749925641
0.9498355213 -0.2182842271 3.965592796
0.9499594545 -0.2180286433 3.709351193
0.8997949758 -0.4363128703 3.837443988
0.9061316635 -0.3898944849 3.921805616
0.9562961422 -0.1716102578 3.793712821
0.9062555968 -0.3896389011 3.665564013
0.6035105365 -0.7657676099 3.749623394
0.9125922845 -0.3432205156 3.749925641
0.8788461538 -0.4222018923 4.25
0.8996710426 -0.4365684541 4.093685591
0.7580514105 -0.5544940628 3.749774518
0.8957192192 -0.382711204 3.999962821
0.7411783452 -0.5939847511 3.999811697
0.7515907895 -0.601168032 3.921654493
0.9061316635 -0.3898944849 3.921805616
0.8892585982 -0.4293851732 4.171842796
0.9125731581 -0.3432713667 2.749925649
0.975 0 2.5
0.975 0 3
1 0 2.8125
0.943786579 -0.1716356833 2.624962824
0.975 0 2.75
0.943786579 -0.1716356833 2.874962824
0.956286579 -0.1716356833 2.781212824
0.9875 0 2.65625
0.9875 0 2.90625
-0.879098049 -0.4216771516 2.750027252
-0.975 0 3
-0.975 0 2.5
-1 0 2.8125
-0.9270490245 -0.2108385758 2.875013626
-0.975 0 2.75
-0.9270490245 -0.2108385758 2.625013626
-0.9395490245 -0.2108385758 2.781263626
-0.9875 0 2.90625
-0.9875 0 2.65625
0.6032965558 -0.7659362022 2.749623431
0.9125731581 -0.3432713667 2.749925649
0.8788461538 -0.4222018923 3.25
0.8991022614 -0.4377386475 3.068740224
0.7579348569 -0.5546037844 2.74977454
0.895709656 -0.3827366295 2.999962824
0.7410713548 -0.5940690472 2.999811716
0.7511994086 -0.6018374248 2.909181828
0.9058377097 -0.3905050071 2.909332936
0.8889742076 -0.4299702699 3.159370112
-0.8791295023 -0.4216115725 1.750027262
-0.975 0 2
-0.975 0 1.5
-1 0 1.7875
-0.9270647512 -0.2108057863 1.875013631
-0.975 0 1.75
-0.9270647512 -0.2108057863 1.625013631
-0.9395647512 -0.2108057863 1.768763631
-0.9875 0 1.89375
-0.9875 0 1.64375
0.975 0 0.5
1 0 0.25
1 0 0.7625
0.9000123069 -0.4358644829 0.5060828415
0.9875 0 0.375
1 0 0.50625
0.9875 0 0.63125
0.9375061534 -0.2179322415 0.5030414208
0.9500061534 -0.2179322415 0.3780414208
0.9500061534 -0.2179322415 0.6342914208
0.975 0 1
0.9125348972 -0.3433730644 0.7499256632
1 0 0.7625
0.8997584421 -0.4363882971 1.018572212
0.9437674486 -0.1716865322 0.8749628316
0.9562674486 -0.1716865322 0.7562128316
0.9875 0 0.88125
0.9373792211 -0.2181941485 1.009286106
0.9061466697 -0.3898806807 0.8842489374
0.9498792211 -0.2181941485 0.8905361058
0.9125348972 -0.3433730644 0.7499256632
0.6028684534 -0.7662732071 0.7496235055
0.8788461538 -0.4222018923 0.25
0.9000123069 -0.4358644829 0.5060828415
0.7577016753 -0.5548231357 0.7497745843
0.7408573036 -0.5942375497 0.4998117527
0.8956905255 -0.3827874783 0.4999628316
0.906273602 -0.3896187737 0.6280042524
0.7514403801 -0.601068845 0.6278531735
0.8894292304 -0.4290331876 0.3780414208
1 0 0.7625
0.9125348972 -0.3433730644 0.7499256632
0.975 0 0.5
0.9000123069 -0.4358644829 0.5060828415
0.9562674486 -0.1716865322 0.7562128316
0.9437674486 -0.1716865322 0.6249628316
0.9875 0 0.63125
0.9500061534 -0.2179322415 0.6342914208
0.906273602 -0.3896187737 0.6280042524
0.9375061534 -0.2179322415 0.5030414208
1 0 2.3
0.8788461538 -0.4222018923 2.25
0.8998743447 -0.4361492448 2.044105309
0.8994817231 -0.4369583845 2.556520499
0.9394230769 -0.2111009462 2.275
0.8893602493 -0.4291755685 2.147052654
0.9499371724 -0.2180746224 2.172052654
0.9497408616 -0.2184791922 2.42826025
0.8891639385 -0.4295801384 2.40326025
0.8996780339 -0.4365538146 2.300312904
0.9125731581 -0.3432713667 2.749925649
1 0 2.8125
0.8991022614 -0.4377386475 3.068740224
0.8994817231 -0.4369583845 2.556520499
0.956286579 -0.1716356833 2.781212824
0.9495511307 -0.2188693238 2.940620112
0.9058377097 -0.3905050071 2.909332936
0.9060274406 -0.3901148756 2.653223074
0.9497408616 -0.2184791922 2.68451025
0.8992919923 -0.437348516 2.812630362
0.8997584421 -0.4363882971 1.018572212
0.9002664897 -0.4353392327 1.531349267
1 0 1.275
0.8788461538 -0.4222018923 1.25
0.9000124659 -0.4358637649 1.274960739
0.9501332448 -0.2176696164 1.403174633
0.9498792211 -0.2181941485 1.146786106
0.889302298 -0.4292950947 1.134286106
0.8895563218 -0.4287705625 1.390674633
0.9394230769 -0.2111009462 1.2625
0.6177786953 -0.78635201 1.275065471
0.9002664897 -0.4353392327 1.531349267
0.8997584421 -0.4363882971 1.018572212
0.8788461538 -0.4222018923 1.25
0.7590225925 -0.6108456214 1.403207369
0.9000124659 -0.4358637649 1.274960739
0.7587685687 -0.6113701535 1.146818842
0.7483124246 -0.6042769512 1.262532736
0.8895563218 -0.4287705625 1.390674633
0.889302298 -0.4292950947 1.134286106
0.9000123069 -0.4358644829 0.5060828415
0.8788461538 -0.4222018923 0.25
0.8994741469 -0.4369739798 -0.006450738723
0.6164978529 -0.7873565884 0.2499052861
0.8894292304 -0.4290331876 0.3780414208
0.8891601504 -0.4295879361 0.1217746306
0.8997432269 -0.4364192314 0.2498160514
0.7582550799 -0.6116105357 0.3779940638
0.7476720034 -0.6047792404 0.2499526431
0.7579859999 -0.6121652841 0.1217272737
0.2122920901 -0.9772062569 0.5072035455
0.6164978529 -0.7873565884 0.2499052861
0.2113884078 -0.9774021389 -0.005303822853
0.5312076174 -0.8175839206 0.249771003
0.4143949715 -0.8822814226 0.3785544158
0.4139431303 -0.8823793636 0.1223007316
0.2118402489 -0.9773041979 0.2509498613
0.3717498537 -0.8973950887 0.3784872742
0.5738527352 -0.8024702545 0.2498381446
0.3712980126 -0.8974930297 0.1222335901
0.6206148791 -0.7841155348 4.350337497
0.6037244701 -0.7655989578 4.749623357
0.5318981499 -0.8171348469 4.249770884
0.2067618992 -0.9528244944 4.499782831
0.6121696746 -0.7748572463 4.549980427
0.56781131 -0.7913669024 4.499697121
0.5762565145 -0.8006251909 4.30005419
0.4136883891 -0.8684700146 4.425060164
0.4052431846 -0.8592117261 4.624703094
0.3693300246 -0.8849796707 4.374776858
0.9126114082 -0.3431696631 4.749925634
0.975 0 4.5
0.975 0 5
1 0 4.8625
0.9438057041 -0.1715848315 4.624962817
0.975 0 4.75
0.9438057041 -0.1715848315 4.874962817
0.9563057041 -0.1715848315 4.806212817
0.9875 0 4.68125
0.9875 0 4.93125
0.2154506215 -0.976514736 3.069835335
0.2063975672 -0.9529034811 2.999828418
0.2065256866 -0.9528757216 3.499783008
0.5317255258 -0.8172471873 3.249770917
0.2109240943 -0.9647091086 3.034831876
0.2064616269 -0.9528896013 3.249805713
0.210988154 -0.9646952288 3.284809171
0.3735880737 -0.8968809617 3.159803126
0.3690615465 -0.8850753342 3.124799667
0.3691256062 -0.8850614544 3.374776962
-0.9372518466 -0.3486530883 1.019462329
-0.8788461538 -0.4222018923 1.25
-0.8791609556 -0.4215459811 0.7500272778
-0.975 0 1
-0.9080490002 -0.3854274903 1.134731164
-0.8790035547 -0.4218739367 1.000013639
-0.9082064011 -0.3850995347 0.8847448032
-0.9561259233 -0.1743265441 1.009731164
-0.9269230769 -0.2111009462 1.125
-0.9270804778 -0.2107729905 0.8750136389
-0.9015039062 -0.4327709637 0.50625
-0.8788461538 -0.4222018923 0.25
-0.8791609556 -0.4215459811 0.7500272778
-0.6110786629 -0.7597419745 0.5000656738
-0.89017503 -0.427486428 0.378125
-0.8790035547 -0.4218739367 0.5000136389
-0.8903324309 -0.4271584724 0.6281386389
-0.7562912846 -0.5962564691 0.5031578369
-0.7449624083 -0.5909719334 0.3750328369
-0.7451198092 -0.5906439778 0.6250464758
-0.6351271135 -0.7724076319 -0.002684208505
-0.8788461538 -0.4222018923 0.25
-0.87919594 -0.4214730111 -0.2499397705
-0.9374550533 -0.3481063387 -0.005536841701
-0.7569866337 -0.5973047621 0.1236578957
-0.8790210469 -0.4218374517 3.011473503e-05
-0.7571615267 -0.5969403215 -0.1263119895
-0.7862910834 -0.5602569853 -0.004110525103
-0.9081506036 -0.3851541155 0.1222315791
-0.9083254966 -0.3847896749 -0.1277383061
-0.9015039063 -0.4327709637 4.60625
-0.8788461538 -0.4222018923 4.25
-0.8790343298 -0.4218099655 4.750033916
-0.6104023296 -0.7602854701 4.500072102
-0.89017503 -0.427486428 4.428125
-0.8789402418 -0.4220059289 4.500016958
-0.890269118 -0.4272904646 4.678141958
-0.7559531179 -0.5965282169 4.553161051
-0.7446242417 -0.5912436812 4.375036051
-0.7447183297 -0.5910477178 4.625053009
-0.6260733405 -0.7797641774 4.097299196
-0.6104023296 -0.7602854701 4.500072102
-0.6105055628 -0.7602025768 4.000069391
-0.8788461538 -0.4222018923 4.25
-0.618237835 -0.7700248237 4.298685649
-0.6104539462 -0.7602440234 4.250070747
-0.6182894517 -0.7699833771 4.048684294
-0.7524597472 -0.6009830348 4.173649598
-0.7446242417 -0.5912436812 4.375036051
-0.7446758583 -0.5912022345 4.125034695
-0.9370483212 -0.349199719 2.044461499
-0.8788461538 -0.4222018923 2.25
-0.8791295023 -0.4216115725 1.750027262
-0.975 0 2
-0.9079472375 -0.3857008056 2.147230749
-0.8789878281 -0.4219067324 2.000013631
-0.9080889118 -0.3854056458 1.897244381
-0.9560241606 -0.1745998595 2.022230749
-0.9269230769 -0.2111009462 2.125
-0.9270647512 -0.2108057863 1.875013631
-0.936640314 -0.3502926237 4.094459839
-0.8788461538 -0.4222018923 4.25
-0.879066572 -0.4217427675 3.75002742
-0.975 0 4
-0.9077432339 -0.386247258 4.17222992
-0.8789563629 -0.4219723299 4.00001371
-0.907853443 -0.3860176956 3.92224363
-0.955820157 -0.1751463118 4.04722992
-0.9269230769 -0.2111009462 4.125
-0.927033286 -0.2108713838 3.87501371
-0.8788461538 -0.4222018923 1.25
-0.975 0 1.5
-0.975 0 1
-1 0 1.275
-0.9269230769 -0.2111009462 1.375
-0.975 0 1.25
-0.9269230769 -0.2111009462 1.125
-0.9394230769 -0.2111009462 1.2625
-0.9875 0 1.3875
-0.9875 0 1.1375
-0.2194611143 -0.9756212479 4.352248996
-0.2218090732 -0.949434429 4.250186773
-0.2216804279 -0.9494644743 4.750193296
0.2067618992 -0.9528244944 4.499782831
-0.2206350938 -0.9625278385 4.301217884
-0.2217447506 -0.9494494517 4.500190034
-0.2205707711 -0.9625428611 4.551221146
-0.006349607561 -0.9642228711 4.426015914
-0.007523587021 -0.9511294617 4.374984802
-0.00745926435 -0.9511444843 4.624988063
0.2182384654 -0.975895472 4.094808996
0.2066336553 -0.9528523141 3.999828508
0.2067618992 -0.9528244944 4.499782831
0.5318981499 -0.8171348469 4.249770884
0.2124360604 -0.964373893 4.047318752
0.2066977773 -0.9528384042 4.249805669
0.2125001823 -0.9643599832 4.297295914
0.3750683077 -0.8965151595 4.17228994
0.3692659026 -0.8849935805 4.124799696
0.3693300246 -0.8849796707 4.374776858
-0.2180471115 -0.9759382445 4.864591213
-0.2216804279 -0.9494644743 4.750193296
-0.2215483084 -0.9494953118 5.250186611
0.2068703825 -0.9528009471 4.999828537
-0.2198637697 -0.9627013594 4.807392254
-0.2216143681 -0.949479893 5.000189954
-0.2197977099 -0.9627167782 5.057388912
-0.005588364493 -0.9643695958 4.932209875
-0.007405022691 -0.9511327107 4.875010916
-0.007338962937 -0.9511481294 5.125007574
-0.2206204374 -0.9753597401 3.839787904
-0.2219401182 -0.9494038045 3.750193315
-0.2218090732 -0.949434429 4.250186773
0.2066336553 -0.9528523141 3.999828508
-0.2212802778 -0.9623817723 3.79499061
-0.2218745957 -0.9494191167 4.000190044
-0.2212147553 -0.9623970846 4.044987338
-0.006993391024 -0.9641060271 3.919808206
-0.007653231435 -0.9511280593 3.875010912
-0.007587708942 -0.9511433716 4.12500764
-0.975 0 3.5
-0.8788461538 -0.4222018923 3.25
-0.879066572 -0.4217427675 3.75002742
-0.9015039063 -0.4327709637 3.58125
-0.9269230769 -0.2111009462 3.375
-0.8789563629 -0.4219723299 3.50001371
-0.927033286 -0.2108713838 3.62501371
-0.9382519531 -0.2163854818 3.540625
-0.89017503 -0.427486428 3.415625
-0.8902852391 -0.4272568656 3.66563871
-0.9015039063 -0.4327709637 4.60625
-0.6103297059 -0.760343771 5.00010251
-0.6104023296 -0.7602854701 4.500072102
-0.8790343298 -0.4218099655 4.750033916
-0.7559168061 -0.5965573674 4.803176255
-0.6103660177 -0.7603146206 4.750087306
-0.7559531179 -0.5965282169 4.553161051
-0.890269118 -0.4272904646 4.678141958
-0.7446820178 -0.5910768683 4.875068213
-0.7447183297 -0.5910477178 4.625053009
0.8788461538 -0.4222018923 2.25
0.975 0 2
0.975 0 2.5
1 0 2.3
0.9269230769 -0.2111009462 2.125
0.975 0 2.25
0.9269230769 -0.2111009462 2.375
0.9394230769 -0.2111009462 2.275
0.9875 0 2.15
0.9875 0 2.4
-0.2220684897 -0.9493737862 3.250186803
-0.552277749 -0.8336601753 3.583587903
-0.2219401182 -0.9494038045 3.750193315
-0.6105723474 -0.7601489384 3.500066319
-0.3871731193 -0.8915169808 3.416887353
-0.3871089336 -0.8915319899 3.666890609
-0.2220043039 -0.9493887953 3.500190059
-0.4163204185 -0.8547613623 3.375126561
-0.5814250482 -0.7969045569 3.541827111
-0.4162562328 -0.8547763714 3.625129817
-0.552277749 -0.8336601753 3.583587903
-0.2220684897 -0.9493737862 3.250186803
-0.2219401182 -0.9494038045 3.750193315
-0.221991424 -0.9750486181 3.327299071
-0.3871731193 -0.8915169808 3.416887353
-0.2220043039 -0.9493887953 3.500190059
-0.3871089336 -0.8915319899 3.666890609
-0.3871345865 -0.9043543967 3.455443487
-0.2220299568 -0.9622112021 3.288742937
-0.2219657711 -0.9622262113 3.538746193
-0.552277749 -0.8336601753 3.583587903
-0.2220684897 -0.9493737862 3.250186803
-0.6283448194 -0.777934951 3.072303345
-0.6105723474 -0.7601489384 3.500066319
-0.3871731193 -0.8915169808 3.416887353
-0.4252066545 -0.8636543686 3.161245074
-0.5903112842 -0.8057975632 3.327945624
-0.5814250482 -0.7969045569 3.541827111
-0.4163204185 -0.8547613623 3.375126561
-0.6194585834 -0.7690419447 3.286184832
-0.2220684897 -0.9493737862 3.250186803
-0.552277749 -0.8336601753 3.583587903
-0.6283448194 -0.777934951 3.072303345
-0.221991424 -0.9750486181 3.327299071
-0.3871731193 -0.8915169808 3.416887353
-0.5903112842 -0.8057975632 3.327945624
-0.4252066545 -0.8636543686 3.161245074
-0.2220299568 -0.9622112021 3.288742937
-0.3871345865 -0.9043543967 3.455443487
-0.4251681217 -0.8764917846 3.199801208
0.2182384654 -0.975895472 4.094808996
0.6206148791 -0.7841155348 4.350337497
0.2067618992 -0.9528244944 4.499782831
0.2196639672 -0.975575595 4.607237432
0.4194266723 -0.8800055034 4.222573246
0.4136883891 -0.8684700146 4.425060164
0.2125001823 -0.9643599832 4.297295914
0.2189512163 -0.9757355335 4.351023214
0.4201394231 -0.8798455649 4.478787464
0.2132129332 -0.9642000447 4.553510132
0.2067618992 -0.9528244944 4.499782831
0.6206148791 -0.7841155348 4.350337497
0.2182384654 -0.975895472 4.094808996
0.5318981499 -0.8171348469 4.249770884
0.4136883891 -0.8684700146 4.425060164
0.4194266723 -0.8800055034 4.222573246
0.2125001823 -0.9643599832 4.297295914
0.3693300246 -0.8849796707 4.374776858
0.5762565145 -0.8006251909 4.30005419
0.3750683077 -0.8965151595 4.17228994
-0.2218090732 -0.949434429 4.250186773
-0.5504315511 -0.8348802954 4.608536889
-0.2216804279 -0.9494644743 4.750193296
-0.6104023296 -0.7602854701 4.500072102
-0.3861203121 -0.8921573622 4.429361831
-0.3860559895 -0.8921723848 4.679365092
-0.2217447506 -0.9494494517 4.500190034
-0.4161057014 -0.8548599496 4.375129438
-0.5804169403 -0.7975828827 4.554304496
-0.4160413787 -0.8548749722 4.625132699
-0.5504315511 -0.8348802954 4.608536889
-0.2218090732 -0.949434429 4.250186773
-0.2216804279 -0.9494644743 4.750193296
-0.2194611143 -0.9756212479 4.352248996
-0.3861203121 -0.8921573622 4.429361831
-0.2217447506 -0.9494494517 4.500190034
-0.3860559895 -0.8921723848 4.679365092
-0.3849463327 -0.9052507716 4.480392942
-0.2206350938 -0.9625278385 4.301217884
-0.2205707711 -0.9625428611 4.551221146
-0.5504315511 -0.8348802954 4.608536889
-0.2218090732 -0.949434429 4.250186773
-0.6260733405 -0.7797641774 4.097299196
-0.6104023296 -0.7602854701 4.500072102
-0.3861203121 -0.8921573622 4.429361831
-0.4239412069 -0.8645993032 4.173742984
-0.5882524458 -0.8073222364 4.352918042
-0.5804169403 -0.7975828827 4.554304496
-0.4161057014 -0.8548599496 4.375129438
-0.618237835 -0.7700248237 4.298685649
-0.2218090732 -0.949434429 4.250186773
-0.5504315511 -0.8348802954 4.608536889
-0.6260733405 -0.7797641774 4.097299196
-0.2194611143 -0.9756212479 4.352248996
-0.3861203121 -0.8921573622 4.429361831
-0.5882524458 -0.8073222364 4.352918042
-0.4239412069 -0.8645993032 4.173742984
-0.2206350938 -0.9625278385 4.301217884
-0.3849463327 -0.9052507716 4.480392942
-0.4227672274 -0.8776927126 4.224774096
0.899918909 -0.4360572865 3.581202385
0.8996710426 -0.4365684541 4.093685591
0.6035105365 -0.7657676099 3.749623394
0.6197733236 -0.7847808786 3.837870242
0.8997949758 -0.4363128703 3.837443988
0.7515907895 -0.601168032 3.921654493
0.7517147228 -0.6009124482 3.66541289
0.7598461163 -0.6104190826 3.709536314
0.7597221831 -0.6106746664 3.965777917
0.61164193 -0.7752742442 3.793746818
0.6035105365 -0.7657676099 3.749623394
0.8996710426 -0.4365684541 4.093685591
0.899918909 -0.4360572865 3.581202385
0.9125922845 -0.3432205156 3.749925641
0.7515907895 -0.601168032 3.921654493
0.8997949758 -0.4363128703 3.837443988
0.7517147228 -0.6009124482 3.66541289
0.7580514105 -0.5544940628 3.749774518
0.9061316635 -0.3898944849 3.921805616
0.9062555968 -0.3896389011 3.665564013
0.6028684534 -0.7662732071 0.7496235055
0.6164978529 -0.7873565884 0.2499052861
0.8788461538 -0.4222018923 0.25
0.9000123069 -0.4358644829 0.5060828415
0.6096831532 -0.7768148977 0.4997643958
0.7476720034 -0.6047792404 0.2499526431
0.7408573036 -0.5942375497 0.4998117527
0.7514403801 -0.601068845 0.6278531735
0.7582550799 -0.6116105357 0.3779940638
0.8894292304 -0.4290331876 0.3780414208
0.8788461538 -0.4222018923 0.25
0.6164978529 -0.7873565884 0.2499052861
0.6028684534 -0.7662732071 0.7496235055
0.5312076174 -0.8175839206 0.249771003
0.7476720034 -0.6047792404 0.2499526431
0.6096831532 -0.7768148977 0.4997643958
0.7408573036 -0.5942375497 0.4998117527
0.7050268856 -0.6198929064 0.2498855015
0.5738527352 -0.8024702545 0.2498381446
0.5670380354 -0.7919285638 0.4996972542
0.6026543327 -0.766441619 -0.2503764584
0.8788461538 -0.4222018923 0.25
0.6164978529 -0.7873565884 0.2499052861
0.8994741469 -0.4369739798 -0.006450738723
0.7407502433 -0.5943217557 -0.0001882292068
0.7476720034 -0.6047792404 0.2499526431
0.6095760928 -0.7768991037 -0.0002355861524
0.7510642398 -0.6017077994 -0.1284135986
0.8891601504 -0.4295879361 0.1217746306
0.7579859999 -0.6121652841 0.1217272737
0.8788461538 -0.4222018923 0.25
0.6026543327 -0.766441619 -0.2503764584
0.6164978529 -0.7873565884 0.2499052861
0.5312076174 -0.8175839206 0.249771003
0.7407502433 -0.5943217557 -0.0001882292068
0.6095760928 -0.7768991037 -0.0002355861524
0.7476720034 -0.6047792404 0.2499526431
0.7050268856 -0.6198929064 0.2498855015
0.566930975 -0.7920127698 -0.0003027277017
0.5738527352 -0.8024702545 0.2498381446
0.6028684534 -0.7662732071 0.7496235055
0.8997584421 -0.4363882971 1.018572212
0.9000123069 -0.4358644829 0.5060828415
0.9125348972 -0.3433730644 0.7499256632
0.7513134478 -0.6013307521 0.8840978586
0.8998853745 -0.43612639 0.7623275266
0.7514403801 -0.601068845 0.6278531735
0.7577016753 -0.5548231357 0.7497745843
0.9061466697 -0.3898806807 0.8842489374
0.906273602 -0.3896187737 0.6280042524
0.9000123069 -0.4358644829 0.5060828415
0.8997584421 -0.4363882971 1.018572212
0.6028684534 -0.7662732071 0.7496235055
0.6194796585 -0.7850127086 0.7625602282
0.8998853745 -0.43612639 0.7623275266
0.7513134478 -0.6013307521 0.8840978586
0.7514403801 -0.601068845 0.6278531735
0.7597459827 -0.6104385958 0.6343215349
0.7596190503 -0.6107005029 0.89056622
0.6111740559 -0.7756429579 0.7560918668
0.603082528 -0.7661047346 1.749623469
0.8998743447 -0.4361492448 2.044105309
0.9002664897 -0.4353392327 1.531349267
0.912554029 -0.3433222163 1.749925656
0.7514784364 -0.6011269897 1.896864389
0.9000704172 -0.4357442387 1.787727288
0.7516745089 -0.6007219837 1.640486368
0.7578182785 -0.5547134754 1.749774562
0.9062141869 -0.3897357305 1.897015482
0.9064102593 -0.3893307245 1.640637461
0.9002664897 -0.4353392327 1.531349267
0.8998743447 -0.4361492448 2.044105309
0.603082528 -0.7661047346 1.749623469
0.6203628969 -0.7843149088 1.788219188
0.9000704172 -0.4357442387 1.787727288
0.7514784364 -0.6011269897 1.896864389
0.7516745089 -0.6007219837 1.640486368
0.7603146933 -0.6098270707 1.659784227
0.7601186208 -0.6102320768 1.916162248
0.6117227125 -0.7752098217 1.768921328
0.6191469877 -0.7852751159 2.300790846
0.8788461538 -0.4222018923 2.25
0.603082528 -0.7661047346 1.749623469
0.5315529124 -0.8173594689 2.249770946
0.7489965708 -0.6037385041 2.275395423
0.7409643409 -0.5941533135 1.999811734
0.6111147578 -0.7756899253 2.025207157
0.57534995 -0.8013172924 2.275280896
0.7051995331 -0.6197806806 2.249885473
0.5673177202 -0.7917321017 1.999697207
0.603082528 -0.7661047346 1.749623469
0.8788461538 -0.4222018923 2.25
0.6191469877 -0.7852751159 2.300790846
0.8998743447 -0.4361492448 2.044105309
0.7409643409 -0.5941533135 1.999811734
0.7489965708 -0.6037385041 2.275395423
0.6111147578 -0.7756899253 2.025207157
0.7514784364 -0.6011269897 1.896864389
0.8893602493 -0.4291755685 2.147052654
0.7595106662 -0.6107121803 2.172448077
0.603082528 -0.7661047346 1.749623469
0.6203628969 -0.7843149088 1.788219188
0.6191469877 -0.7852751159 2.300790846
0.5315529124 -0.8173594689 2.249770946
0.6117227125 -0.7752098217 1.768921328
0.6197549423 -0.7847950123 2.044505017
0.6111147578 -0.7756899253 2.025207157
0.5673177202 -0.7917321017 1.999697207
0.5759579046 -0.8008371888 2.018995067
0.57534995 -0.8013172924 2.275280896
0.6191469877 -0.7852751159 2.300790846
0.6203628969 -0.7843149088 1.788219188
0.603082528 -0.7661047346 1.749623469
0.8998743447 -0.4361492448 2.044105309
0.6197549423 -0.7847950123 2.044505017
0.6117227125 -0.7752098217 1.768921328
0.6111147578 -0.7756899253 2.025207157
0.7595106662 -0.6107121803 2.172448077
0.7601186208 -0.6102320768 1.916162248
0.7514784364 -0.6011269897 1.896864389
-0.975 0 4.5
-0.936640314 -0.3502926237 4.094459839
-0.975 0 4
-0.8788461538 -0.4222018923 4.25
-0.955820157 -0.1751463118 4.29722992
-0.955820157 -0.1751463118 4.04722992
-0.975 0 4.25
-0.9269230769 -0.2111009462 4.375
-0.9077432339 -0.386247258 4.17222992
-0.9269230769 -0.2111009462 4.125
-0.936640314 -0.3502926237 4.094459839
-0.975 0 4.5
-0.975 0 4
-1 0 4.35
-0.955820157 -0.1751463118 4.29722992
-0.975 0 4.25
-0.955820157 -0.1751463118 4.04722992
-0.968320157 -0.1751463118 4.22222992
-0.9875 0 4.425
-0.9875 0 4.175
-0.936640314 -0.3502926237 4.094459839
-0.975 0 4.5
-0.9015039063 -0.4327709637 4.60625
-0.8788461538 -0.4222018923 4.25
-0.955820157 -0.1751463118 4.29722992
-0.9382519531 -0.2163854818 4.553125
-0.9190721101 -0.3915317937 4.35035492
-0.9077432339 -0.386247258 4.17222992
-0.9269230769 -0.2111009462 4.375
-0.89017503 -0.427486428 4.428125
-0.975 0 4.5
-0.936640314 -0.3502926237 4.094459839
-0.9015039063 -0.4327709637 4.60625
-1 0 4.35
-0.955820157 -0.1751463118 4.29722992
-0.9190721101 -0.3915317937 4.35035492
-0.9382519531 -0.2163854818 4.553125
-0.9875 0 4.425
-0.968320157 -0.1751463118 4.22222992
-0.9507519531 -0.2163854818 4.478125
0.8788461538 -0.4222018923 4.25
0.9125922845 -0.3432205156 3.749925641
1 0 3.8375
0.8996710426 -0.4365684541 4.093685591
0.8957192192 -0.382711204 3.999962821
0.9562961422 -0.1716102578 3.793712821
0.9394230769 -0.2111009462 4.04375
0.8892585982 -0.4293851732 4.171842796
0.9061316635 -0.3898944849 3.921805616
0.9498355213 -0.2182842271 3.965592796
1 0 3.8375
0.9125922845 -0.3432205156 3.749925641
0.8788461538 -0.4222018923 4.25
0.975 0 4
0.9562961422 -0.1716102578 3.793712821
0.8957192192 -0.382711204 3.999962821
0.9394230769 -0.2111009462 4.04375
0.9875 0 3.91875
0.9437961422 -0.1716102578 3.874962821
0.9269230769 -0.2111009462 4.125
1 0 3.8375
1 0 4.35
0.8788461538 -0.4222018923 4.25
0.8996710426 -0.4365684541 4.093685591
1 0 4.09375
0.9394230769 -0.2111009462 4.3
0.9394230769 -0.2111009462 4.04375
0.9498355213 -0.2182842271 3.965592796
0.9498355213 -0.2182842271 4.221842796
0.8892585982 -0.4293851732 4.171842796
0.8788461538 -0.4222018923 4.25
1 0 4.35
1 0 3.8375
0.975 0 4
0.9394230769 -0.2111009462 4.3
1 0 4.09375
0.9394230769 -0.2111009462 4.04375
0.9269230769 -0.2111009462 4.125
0.9875 0 4.175
0.9875 0 3.91875
0.6032965558 -0.7659362022 2.749623431
0.8991022614 -0.4377386475 3.068740224
0.8994817231 -0.4369583845 2.556520499
0.9125731581 -0.3432713667 2.749925649
0.7511994086 -0.6018374248 2.909181828
0.8992919923 -0.437348516 2.812630362
0.7513891395 -0.6014472933 2.653071965
0.7579348569 -0.5546037844 2.74977454
0.9058377097 -0.3905050071 2.909332936
0.9060274406 -0.3901148756 2.653223074
0.8991022614 -0.4377386475 3.068740224
0.6032965558 -0.7659362022 2.749623431
0.8994817231 -0.4369583845 2.556520499
0.6179575182 -0.7862114892 2.813162168
0.7511994086 -0.6018374248 2.909181828
0.7513891395 -0.6014472933 2.653071965
0.8992919923 -0.437348516 2.812630362
0.7585298898 -0.6119750683 2.940951196
0.610627037 -0.7760738457 2.7813928
0.7587196207 -0.6115849368 2.684841334
-0.975 0 3.5
-0.936844477 -0.3497462308 3.069460669
-0.975 0 3
-0.8788461538 -0.4222018923 3.25
-0.9559222385 -0.1748731154 3.284730335
-0.9559222385 -0.1748731154 3.034730335
-0.975 0 3.25
-0.9269230769 -0.2111009462 3.375
-0.9078453154 -0.3859740616 3.159730335
-0.9269230769 -0.2111009462 3.125
-0.936844477 -0.3497462308 3.069460669
-0.975 0 3.5
-0.975 0 3
-1 0 3.325
-0.9559222385 -0.1748731154 3.284730335
-0.975 0 3.25
-0.9559222385 -0.1748731154 3.034730335
-0.9684222385 -0.1748731154 3.197230335
-0.9875 0 3.4125
-0.9875 0 3.1625
-0.936844477 -0.3497462308 3.069460669
-0.975 0 3.5
-0.9015039063 -0.4327709637 3.58125
-0.8788461538 -0.4222018923 3.25
-0.9559222385 -0.1748731154 3.284730335
-0.9382519531 -0.2163854818 3.540625
-0.9191741916 -0.3912585973 3.325355335
-0.9078453154 -0.3859740616 3.159730335
-0.9269230769 -0.2111009462 3.375
-0.89017503 -0.427486428 3.415625
-0.975 0 3.5
-0.936844477 -0.3497462308 3.069460669
-0.9015039063 -0.4327709637 3.58125
-1 0 3.325
-0.9559222385 -0.1748731154 3.284730335
-0.9191741916 -0.3912585973 3.325355335
-0.9382519531 -0.2163854818 3.540625
-0.9875 0 3.4125
-0.9684222385 -0.1748731154 3.197230335
-0.9507519531 -0.2163854818 3.453125
0.6028684534 -0.7662732071 0.7496235055
0.8788461538 -0.4222018923 1.25
0.6177786953 -0.78635201 1.275065471
0.8997584421 -0.4363882971 1.018572212
0.7408573036 -0.5942375497 0.9998117527
0.7483124246 -0.6042769512 1.262532736
0.6103235744 -0.7763126085 1.012344488
0.7513134478 -0.6013307521 0.8840978586
0.889302298 -0.4292950947 1.134286106
0.7587685687 -0.6113701535 1.146818842
0.6177786953 -0.78635201 1.275065471
0.8788461538 -0.4222018923 1.25
0.6028684534 -0.7662732071 0.7496235055
0.5313802768 -0.8174717129 1.249770975
0.7483124246 -0.6042769512 1.262532736
0.7408573036 -0.5942375497 0.9998117527
0.6103235744 -0.7763126085 1.012344488
0.5745794861 -0.8019118614 1.262418223
0.7051132153 -0.6198368026 1.249885487
0.5671243651 -0.79187246 0.9996972401
0.8788461538 -0.4222018923 5.25
0.9126114082 -0.3431696631 4.749925634
1 0 4.8625
0.9002361768 -0.4354019133 5.118683721
0.895728781 -0.3826857777 4.999962817
0.9563057041 -0.1715848315 4.806212817
0.9394230769 -0.2111009462 5.05625
0.8895411653 -0.4288019028 5.18434186
0.9064237925 -0.3892857882 4.934304677
0.9501180884 -0.2177009566 4.99059186
1 0 4.8625
0.9126114082 -0.3431696631 4.749925634
0.8788461538 -0.4222018923 5.25
0.975 0 5
0.9563057041 -0.1715848315 4.806212817
0.895728781 -0.3826857777 4.999962817
0.9394230769 -0.2111009462 5.05625
0.9875 0 4.93125
0.9438057041 -0.1715848315 4.874962817
0.9269230769 -0.2111009462 5.125
0.6037244701 -0.7655989578 4.749623357
0.9003423973 -0.4351822235 4.606201002
0.9002361768 -0.4354019133 5.118683721
0.6215019039 -0.7834126521 4.86273584
0.7520334337 -0.6003905907 4.677912179
0.900289287 -0.4352920684 4.862442361
0.7519803234 -0.6005004355 4.934153539
0.612613187 -0.7745058049 4.806179599
0.7609221506 -0.6092974378 4.734468421
0.7608690403 -0.6094072827 4.99070978
0.9002361768 -0.4354019133 5.118683721
0.9003423973 -0.4351822235 4.606201002
0.6037244701 -0.7655989578 4.749623357
0.9126114082 -0.3431696631 4.749925634
0.900289287 -0.4352920684 4.862442361
0.7520334337 -0.6003905907 4.677912179
0.7519803234 -0.6005004355 4.934153539
0.9064237925 -0.3892857882 4.934304677
0.9064769027 -0.3891759433 4.678063318
0.7581679391 -0.5543843104 4.749774496
-0.9015039062 -0.4327709637 -0.51875
-0.6113557287 -0.7595190406 -0.9998970036
-0.8788461538 -0.4222018923 -0.75
-0.6112836873 -0.7595770229 -0.499737169
-0.7564298175 -0.5961450021 -0.7593235018
-0.7451009413 -0.5908604664 -0.8749485018
-0.89017503 -0.427486428 -0.634375
-0.7563937968 -0.5961739933 -0.5092435845
-0.611319708 -0.7595480317 -0.7498170863
-0.7450649206 -0.5908894576 -0.6248685845
-0.6113557287 -0.7595190406 -0.9998970036
-0.9015039062 -0.4327709637 -0.51875
-0.5593020053 -0.828963972 -0.5164092906
-0.6112836873 -0.7595770229 -0.499737169
-0.7564298175 -0.5961450021 -0.7593235018
-0.7304029558 -0.6308674679 -0.5175796453
-0.585328867 -0.7942415063 -0.7581531471
-0.611319708 -0.7595480317 -0.7498170863
-0.7563937968 -0.5961739933 -0.5092435845
-0.5852928463 -0.7942704974 -0.5080732298
0.2154506215 -0.976514736 3.069835335
0.2065256866 -0.9528757216 3.499783008
0.6188981799 -0.7854712235 3.325389541
0.5317255258 -0.8172471873 3.249770917
0.210988154 -0.9646952288 3.284809171
0.4127119332 -0.8691734725 3.412586274
0.4171744007 -0.8809929798 3.197612438
0.3735880737 -0.8968809617 3.159803126
0.3691256062 -0.8850614544 3.374776962
0.5753118529 -0.8013592054 3.287580229
0.2065256866 -0.9528757216 3.499783008
0.2154506215 -0.976514736 3.069835335
0.6188981799 -0.7854712235 3.325389541
0.2168586072 -0.9762030242 3.582328791
0.210988154 -0.9646952288 3.284809171
0.4171744007 -0.8809929798 3.197612438
0.4127119332 -0.8691734725 3.412586274
0.2116921469 -0.9645393729 3.5410559
0.2161546143 -0.9763588801 3.326082063
0.4178783935 -0.8808371239 3.453859166
-0.9015039062 -0.4327709637 0.50625
-0.8791609556 -0.4215459811 0.7500272778
-0.6110120913 -0.7597955148 1.000069184
-0.6110786629 -0.7597419745 0.5000656738
-0.8903324309 -0.4271584724 0.6281386389
-0.7450865235 -0.5906707479 0.875048231
-0.7562579988 -0.5962832392 0.7531595921
-0.7562912846 -0.5962564691 0.5031578369
-0.7451198092 -0.5906439778 0.6250464758
-0.6110453771 -0.7597687446 0.750067429
-0.6110120913 -0.7597955148 1.000069184
-0.8791609556 -0.4215459811 0.7500272778
-0.9015039062 -0.4327709637 0.50625
-0.6328717246 -0.774256663 1.022311643
-0.7450865235 -0.5906707479 0.875048231
-0.8903324309 -0.4271584724 0.6281386389
-0.7562579988 -0.5962832392 0.7531595921
-0.621941908 -0.7670260889 1.011190414
-0.7560163401 -0.597901322 0.8861694606
-0.7671878154 -0.6035138133 0.7642808217
-0.6110120913 -0.7597955148 1.000069184
-0.5575182321 -0.830164695 0.50859205
-0.9015039062 -0.4327709637 0.50625
-0.6110786629 -0.7597419745 0.5000656738
-0.5842651617 -0.7949801049 0.7543306171
-0.7295110692 -0.6314678294 0.507421025
-0.7562579988 -0.5962832392 0.7531595921
-0.6110453771 -0.7597687446 0.750067429
-0.5842984475 -0.7949533348 0.5043288619
-0.7562912846 -0.5962564691 0.5031578369
-0.9015039062 -0.4327709637 0.50625
-0.5575182321 -0.830164695 0.50859205
-0.6110120913 -0.7597955148 1.000069184
-0.6328717246 -0.774256663 1.022311643
-0.7295110692 -0.6314678294 0.507421025
-0.5842651617 -0.7949801049 0.7543306171
-0.7562579988 -0.5962832392 0.7531595921
-0.7671878154 -0.6035138133 0.7642808217
-0.5951949784 -0.802210679 0.7654518467
-0.621941908 -0.7670260889 1.011190414
0.8788461538 -0.4222018923 4.25
0.6035105365 -0.7657676099 3.749623394
0.6197733236 -0.7847808786 3.837870242
0.5318981499 -0.8171348469 4.249770884
0.7411783452 -0.5939847511 3.999811697
0.61164193 -0.7752742442 3.793746818
0.7493097387 -0.6034913854 4.043935121
0.7053721519 -0.6196683696 4.249885442
0.5677043432 -0.7914512284 3.999697139
0.5758357368 -0.8009578628 4.043820563
0.6197733236 -0.7847808786 3.837870242
0.6035105365 -0.7657676099 3.749623394
0.8788461538 -0.4222018923 4.25
0.8996710426 -0.4365684541 4.093685591
0.61164193 -0.7752742442 3.793746818
0.7411783452 -0.5939847511 3.999811697
0.7493097387 -0.6034913854 4.043935121
0.7597221831 -0.6106746664 3.965777917
0.7515907895 -0.601168032 3.921654493
0.8892585982 -0.4293851732 4.171842796
0.6197733236 -0.7847808786 3.837870242
0.6206148791 -0.7841155348 4.350337497
0.8788461538 -0.4222018923 4.25
0.5318981499 -0.8171348469 4.249770884
0.6201941013 -0.7844482067 4.094103869
0.7497305164 -0.6031587135 4.300168748
0.7493097387 -0.6034913854 4.043935121
0.5758357368 -0.8009578628 4.043820563
0.5762565145 -0.8006251909 4.30005419
0.7053721519 -0.6196683696 4.249885442
0.8788461538 -0.4222018923 4.25
0.6206148791 -0.7841155348 4.350337497
0.6197733236 -0.7847808786 3.837870242
0.8996710426 -0.4365684541 4.093685591
0.7497305164 -0.6031587135 4.300168748
0.6201941013 -0.7844482067 4.094103869
0.7493097387 -0.6034913854 4.043935121
0.8892585982 -0.4293851732 4.171842796
0.7601429608 -0.6103419945 4.222011544
0.7597221831 -0.6106746664 3.965777917
0.6164978529 -0.7873565884 0.2499052861
0.6028684534 -0.7662732071 0.7496235055
0.2122920901 -0.9772062569 0.5072035455
0.6194796585 -0.7850127086 0.7625602282
0.6096831532 -0.7768148977 0.4997643958
0.4075802717 -0.871739732 0.6284135255
0.4143949715 -0.8822814226 0.3785544158
0.6179887557 -0.7861846485 0.5062327572
0.6111740559 -0.7756429579 0.7560918668
0.4158858743 -0.8811094828 0.6348818868
0.2122920901 -0.9772062569 0.5072035455
0.6028684534 -0.7662732071 0.7496235055
0.6164978529 -0.7873565884 0.2499052861
0.5312076174 -0.8175839206 0.249771003
0.4075802717 -0.871739732 0.6284135255
0.6096831532 -0.7768148977 0.4997643958
0.4143949715 -0.8822814226 0.3785544158
0.3717498537 -0.8973950887 0.3784872742
0.5670380354 -0.7919285638 0.4996972542
0.5738527352 -0.8024702545 0.2498381446
0.6164978529 -0.7873565884 0.2499052861
0.2113884078 -0.9774021389 -0.005303822853
0.6026543327 -0.766441619 -0.2503764584
0.6185661737 -0.7857327082 -0.2624203403
0.4139431303 -0.8823793636 0.1223007316
0.4070213702 -0.8719218789 -0.1278401406
0.6095760928 -0.7768991037 -0.0002355861524
0.6175320133 -0.7865446483 -0.0062575271
0.4149772907 -0.8815674235 -0.1338620816
0.6106102532 -0.7760871636 -0.2563983994
0.2113884078 -0.9774021389 -0.005303822853
0.6164978529 -0.7873565884 0.2499052861
0.6026543327 -0.766441619 -0.2503764584
0.5312076174 -0.8175839206 0.249771003
0.4139431303 -0.8823793636 0.1223007316
0.6095760928 -0.7768991037 -0.0002355861524
0.4070213702 -0.8719218789 -0.1278401406
0.3712980126 -0.8974930297 0.1222335901
0.5738527352 -0.8024702545 0.2498381446
0.566930975 -0.7920127698 -0.0003027277017
0.2139690639 -0.9768404372 2.557522222
0.5315529124 -0.8173594689 2.249770946
0.6032965558 -0.7659362022 2.749623431
0.6191469877 -0.7852751159 2.300790846
0.3727609881 -0.897099953 2.403646584
0.5674247341 -0.7916478355 2.499697189
0.4086328098 -0.8713883197 2.653572827
0.4165580258 -0.8810577765 2.429156534
0.57534995 -0.8013172924 2.275280896
0.6112217717 -0.775605659 2.525207139
0.6032965558 -0.7659362022 2.749623431
0.5315529124 -0.8173594689 2.249770946
0.2139690639 -0.9768404372 2.557522222
0.2062896253 -0.9529268548 2.499783169
0.5674247341 -0.7916478355 2.499697189
0.3727609881 -0.897099953 2.403646584
0.4086328098 -0.8713883197 2.653572827
0.4047930905 -0.8594315285 2.6247033
0.3689212688 -0.8851431618 2.374777058
0.2101293446 -0.964883646 2.528652696
0.8788461538 -0.4222018923 3.25
0.6179575182 -0.7862114892 2.813162168
0.6188981799 -0.7854712235 3.325389541
0.5317255258 -0.8172471873 3.249770917
0.748401836 -0.6042066907 3.031581084
0.618427849 -0.7858413563 3.069275854
0.7488721669 -0.6038365579 3.28769477
0.7052858398 -0.6197245398 3.249885458
0.574841522 -0.8017293382 3.031466542
0.5753118529 -0.8013592054 3.287580229
0.6179575182 -0.7862114892 2.813162168
0.8788461538 -0.4222018923 3.25
0.6188981799 -0.7854712235 3.325389541
0.8991022614 -0.4377386475 3.068740224
0.748401836 -0.6042066907 3.031581084
0.7488721669 -0.6038365579 3.28769477
0.618427849 -0.7858413563 3.069275854
0.7585298898 -0.6119750683 2.940951196
0.8889742076 -0.4299702699 3.159370112
0.7590002206 -0.6116049355 3.197064882
0.6179575182 -0.7862114892 2.813162168
0.8788461538 -0.4222018923 3.25
0.6032965558 -0.7659362022 2.749623431
0.5317255258 -0.8172471873 3.249770917
0.748401836 -0.6042066907 3.031581084
0.7410713548 -0.5940690472 2.999811716
0.610627037 -0.7760738457 2.7813928
0.574841522 -0.8017293382 3.031466542
0.7052858398 -0.6197245398 3.249885458
0.5675110408 -0.7915916947 2.999697174
0.8788461538 -0.4222018923 3.25
0.6179575182 -0.7862114892 2.813162168
0.6032965558 -0.7659362022 2.749623431
0.8991022614 -0.4377386475 3.068740224
0.748401836 -0.6042066907 3.031581084
0.610627037 -0.7760738457 2.7813928
0.7410713548 -0.5940690472 2.999811716
0.8889742076 -0.4299702699 3.159370112
0.7585298898 -0.6119750683 2.940951196
0.7511994086 -0.6018374248 2.909181828
-0.2180471115 -0.9759382445 4.864591213
0.2068703825 -0.9528009471 4.999828537
0.2067618992 -0.9528244944 4.499782831
-0.2216804279 -0.9494644743 4.750193296
-0.005588364493 -0.9643695958 4.932209875
0.2068161408 -0.9528127207 4.749805684
-0.005642606153 -0.9643813695 4.682187022
-0.2198637697 -0.9627013594 4.807392254
-0.007405022691 -0.9511327107 4.875010916
-0.00745926435 -0.9511444843 4.624988063
0.2067618992 -0.9528244944 4.499782831
-0.2194611143 -0.9756212479 4.352248996
-0.2180471115 -0.9759382445 4.864591213
-0.2216804279 -0.9494644743 4.750193296
-0.006349607561 -0.9642228711 4.426015914
-0.2187541129 -0.9757797462 4.608420105
-0.005642606153 -0.9643813695 4.682187022
-0.00745926435 -0.9511444843 4.624988063
-0.2205707711 -0.9625428611 4.551221146
-0.2198637697 -0.9627013594 4.807392254
-0.2180471115 -0.9759382445 4.864591213
-0.2194611143 -0.9756212479 4.352248996
0.2067618992 -0.9528244944 4.499782831
0.2196639672 -0.975575595 4.607237432
-0.2187541129 -0.9757797462 4.608420105
-0.006349607561 -0.9642228711 4.426015914
-0.005642606153 -0.9643813695 4.682187022
0.0008084278355 -0.9757569198 4.735914323
0.0001014264271 -0.9755984214 4.479743214
0.2132129332 -0.9642000447 4.553510132
-0.2194611143 -0.9756212479 4.352248996
0.2067618992 -0.9528244944 4.499782831
0.2066336553 -0.9528523141 3.999828508
-0.2218090732 -0.949434429 4.250186773
-0.006349607561 -0.9642228711 4.426015914
0.2066977773 -0.9528384042 4.249805669
-0.006413729483 -0.964236781 4.176038752
-0.2206350938 -0.9625278385 4.301217884
-0.007523587021 -0.9511294617 4.374984802
-0.007587708942 -0.9511433716 4.12500764
0.2066336553 -0.9528523141 3.999828508
0.2067618992 -0.9528244944 4.499782831
-0.2194611143 -0.9756212479 4.352248996
0.2182384654 -0.975895472 4.094808996
0.2066977773 -0.9528384042 4.249805669
-0.006349607561 -0.9642228711 4.426015914
-0.006413729483 -0.964236781 4.176038752
0.2124360604 -0.964373893 4.047318752
0.2125001823 -0.9643599832 4.297295914
-0.0006113244266 -0.9757583599 4.223528996
0.2066336553 -0.9528523141 3.999828508
-0.2206204374 -0.9753597401 3.839787904
-0.2194611143 -0.9756212479 4.352248996
-0.2218090732 -0.949434429 4.250186773
-0.006993391024 -0.9641060271 3.919808206
-0.2200407758 -0.975490494 4.09601845
-0.006413729483 -0.964236781 4.176038752
-0.007587708942 -0.9511433716 4.12500764
-0.2212147553 -0.9623970846 4.044987338
-0.2206350938 -0.9625278385 4.301217884
-0.2194611143 -0.9756212479 4.352248996
-0.2206204374 -0.9753597401 3.839787904
0.2066336553 -0.9528523141 3.999828508
0.2182384654 -0.975895472 4.094808996
-0.2200407758 -0.975490494 4.09601845
-0.006993391024 -0.9641060271 3.919808206
-0.006413729483 -0.964236781 4.176038752
-0.0006113244266 -0.9757583599 4.223528996
-0.001190985968 -0.975627606 3.96729845
0.2124360604 -0.964373893 4.047318752
-0.2206204374 -0.9753597401 3.839787904
0.2065256866 -0.9528757216 3.499783008
0.2066336553 -0.9528523141 3.999828508
0.2168586072 -0.9762030242 3.582328791
-0.007047375405 -0.9641177308 3.669785456
0.206579671 -0.9528640178 3.749805758
-0.006993391024 -0.9641060271 3.919808206
-0.001880915101 -0.9757813822 3.711058348
0.2116921469 -0.9645393729 3.5410559
0.2117461313 -0.9645276692 3.791078649
0.2065256866 -0.9528757216 3.499783008
-0.2206204374 -0.9753597401 3.839787904
0.2066336553 -0.9528523141 3.999828508
-0.2219401182 -0.9494038045 3.750193315
-0.007047375405 -0.9641177308 3.669785456
-0.006993391024 -0.9641060271 3.919808206
0.206579671 -0.9528640178 3.749805758
-0.007707215815 -0.951139763 3.624988162
-0.2212802778 -0.9623817723 3.79499061
-0.007653231435 -0.9511280593 3.875010912
0.2065256866 -0.9528757216 3.499783008
-0.2206204374 -0.9753597401 3.839787904
-0.221991424 -0.9750486181 3.327299071
0.2168586072 -0.9762030242 3.582328791
-0.007047375405 -0.9641177308 3.669785456
-0.2213059307 -0.9752041791 3.583543487
-0.007732868694 -0.9639621698 3.413541039
0.2116921469 -0.9645393729 3.5410559
-0.001880915101 -0.9757813822 3.711058348
-0.002566408391 -0.9756258212 3.454813931
-0.2206204374 -0.9753597401 3.839787904
0.2065256866 -0.9528757216 3.499783008
-0.221991424 -0.9750486181 3.327299071
-0.2219401182 -0.9494038045 3.750193315
-0.007047375405 -0.9641177308 3.669785456
-0.007732868694 -0.9639621698 3.413541039
-0.2213059307 -0.9752041791 3.583543487
-0.2212802778 -0.9623817723 3.79499061
-0.007707215815 -0.951139763 3.624988162
-0.2219657711 -0.9622262113 3.538746193
-0.2223278069 -0.9493130918 2.250186824
-0.6306109538 -0.7760991077 2.047307495
-0.5541131396 -0.8324413664 2.558599877
-0.6107411497 -0.760013321 2.500066001
-0.4264693803 -0.8627060998 2.148747159
-0.5923620467 -0.8042702371 2.302953686
-0.3882204732 -0.8908772291 2.404393351
-0.4165344783 -0.8546632064 2.375126413
-0.6206760518 -0.7680562143 2.273686748
-0.5824271447 -0.7962273437 2.529332939
-0.5541131396 -0.8324413664 2.558599877
-0.6306109538 -0.7760991077 2.047307495
-0.2223278069 -0.9493130918 2.250186824
-0.2245251312 -0.9744682989 2.302335841
-0.5923620467 -0.8042702371 2.302953686
-0.4264693803 -0.8627060998 2.148747159
-0.3882204732 -0.8908772291 2.404393351
-0.3893191354 -0.9034548326 2.430467859
-0.4275680425 -0.8752837033 2.174821668
-0.223426469 -0.9618906953 2.276261333
-0.5541131396 -0.8324413664 2.558599877
-0.2221994607 -0.9493431412 2.750193302
-0.2223278069 -0.9493130918 2.250186824
-0.6107411497 -0.760013321 2.500066001
-0.3881563001 -0.8908922538 2.65439659
-0.2222636338 -0.9493281165 2.500190063
-0.3882204732 -0.8908772291 2.404393351
-0.5824271447 -0.7962273437 2.529332939
-0.4164703052 -0.8546782311 2.625129652
-0.4165344783 -0.8546632064 2.375126413
-0.2223278069 -0.9493130918 2.250186824
-0.2221994607 -0.9493431412 2.750193302
-0.5541131396 -0.8324413664 2.558599877
-0.2245251312 -0.9744682989 2.302335841
-0.2222636338 -0.9493281165 2.500190063
-0.3881563001 -0.8908922538 2.65439659
-0.3882204732 -0.8908772291 2.404393351
-0.223426469 -0.9618906953 2.276261333
-0.2233622959 -0.96190572 2.526264572
-0.3893191354 -0.9034548326 2.430467859
0.6035105365 -0.7657676099 3.749623394
0.2182384654 -0.975895472 4.094808996
0.5318981499 -0.8171348469 4.249770884
0.2066336553 -0.9528523141 3.999828508
0.410874501 -0.8708315409 3.922216195
0.3750683077 -0.8965151595 4.17228994
0.5677043432 -0.7914512284 3.999697139
0.4050720959 -0.859309962 3.874725951
0.2124360604 -0.964373893 4.047318752
0.3692659026 -0.8849935805 4.124799696
0.2182384654 -0.975895472 4.094808996
0.6035105365 -0.7657676099 3.749623394
0.5318981499 -0.8171348469 4.249770884
0.6197733236 -0.7847808786 3.837870242
0.410874501 -0.8708315409 3.922216195
0.5677043432 -0.7914512284 3.999697139
0.3750683077 -0.8965151595 4.17228994
0.4190058945 -0.8803381753 3.966339619
0.61164193 -0.7752742442 3.793746818
0.5758357368 -0.8009578628 4.043820563
0.2182384654 -0.975895472 4.094808996
0.6035105365 -0.7657676099 3.749623394
0.2168586072 -0.9762030242 3.582328791
0.2066336553 -0.9528523141 3.999828508
0.410874501 -0.8708315409 3.922216195
0.4101845718 -0.8709853171 3.665976093
0.2175485363 -0.9760492481 3.838568894
0.2124360604 -0.964373893 4.047318752
0.4050720959 -0.859309962 3.874725951
0.2117461313 -0.9645276692 3.791078649
0.6035105365 -0.7657676099 3.749623394
0.2182384654 -0.975895472 4.094808996
0.2168586072 -0.9762030242 3.582328791
0.6197733236 -0.7847808786 3.837870242
0.410874501 -0.8708315409 3.922216195
0.2175485363 -0.9760492481 3.838568894
0.4101845718 -0.8709853171 3.665976093
0.61164193 -0.7752742442 3.793746818
0.4190058945 -0.8803381753 3.966339619
0.4183159654 -0.8804919514 3.710099517
-0.2221994607 -0.9493431412 2.750193302
-0.6283448194 -0.777934951 3.072303345
-0.2220684897 -0.9493737862 3.250186803
-0.6106745569 -0.7600668297 3.0000687
-0.42527214 -0.8636390461 2.911248324
-0.4252066545 -0.8636543686 3.161245074
-0.2221339752 -0.9493584637 3.000190052
-0.4164370088 -0.8547049854 2.875131001
-0.6195096881 -0.7690008904 3.036186023
-0.4163715233 -0.8547203079 3.125127752
-0.6283448194 -0.777934951 3.072303345
-0.2221994607 -0.9493431412 2.750193302
-0.2220684897 -0.9493737862 3.250186803
-0.2231398852 -0.9747864339 2.814802704
-0.42527214 -0.8636390461 2.911248324
-0.2221339752 -0.9493584637 3.000190052
-0.4252066545 -0.8636543686 3.161245074
-0.4257423523 -0.8763606924 2.943553025
-0.2226696729 -0.9620647875 2.782498003
-0.2226041874 -0.96208011 3.032494753
-0.2221994607 -0.9493431412 2.750193302
-0.6283448194 -0.777934951 3.072303345
-0.5541131396 -0.8324413664 2.558599877
-0.2231398852 -0.9747864339 2.814802704
-0.42527214 -0.8636390461 2.911248324
-0.5912289795 -0.8051881587 2.815451611
-0.3881563001 -0.8908922538 2.65439659
-0.2226696729 -0.9620647875 2.782498003
-0.4257423523 -0.8763606924 2.943553025
-0.3886265124 -0.9036139001 2.686701291
-0.9015039063 -0.4327709637 3.58125
-0.975 0 3.5
-0.975 0 4
-0.879066572 -0.4217427675 3.75002742
-0.9382519531 -0.2163854818 3.540625
-0.975 0 3.75
-0.9382519531 -0.2163854818 3.790625
-0.8902852391 -0.4272568656 3.66563871
-0.927033286 -0.2108713838 3.62501371
-0.927033286 -0.2108713838 3.87501371
-0.975 0 4
-0.975 0 3.5
-0.9015039063 -0.4327709637 3.58125
-1 0 3.8375
-0.975 0 3.75
-0.9382519531 -0.2163854818 3.540625
-0.9382519531 -0.2163854818 3.790625
-0.9875 0 3.91875
-0.9875 0 3.66875
-0.9507519531 -0.2163854818 3.709375
-0.975 0 4
-0.936640314 -0.3502926237 4.094459839
-0.9015039063 -0.4327709637 3.58125
-0.879066572 -0.4217427675 3.75002742
-0.955820157 -0.1751463118 4.04722992
-0.9190721101 -0.3915317937 3.83785492
-0.9382519531 -0.2163854818 3.790625
-0.927033286 -0.2108713838 3.87501371
-0.907853443 -0.3860176956 3.92224363
-0.8902852391 -0.4272568656 3.66563871
-0.9015039063 -0.4327709637 3.58125
-0.936640314 -0.3502926237 4.094459839
-0.975 0 4
-1 0 3.8375
-0.9190721101 -0.3915317937 3.83785492
-0.955820157 -0.1751463118 4.04722992
-0.9382519531 -0.2163854818 3.790625
-0.9507519531 -0.2163854818 3.709375
-0.968320157 -0.1751463118 3.96597992
-0.9875 0 3.91875
-0.2219401182 -0.9494038045 3.750193315
-0.2218090732 -0.949434429 4.250186773
-0.6260733405 -0.7797641774 4.097299196
-0.2206204374 -0.9753597401 3.839787904
-0.2218745957 -0.9494191167 4.000190044
-0.4239412069 -0.8645993032 4.173742984
-0.4240067293 -0.8645839909 3.923746256
-0.2212802778 -0.9623817723 3.79499061
-0.2212147553 -0.9623970846 4.044987338
-0.4233468889 -0.8775619587 3.96854355
-0.6260733405 -0.7797641774 4.097299196
-0.2218090732 -0.949434429 4.250186773
-0.2219401182 -0.9494038045 3.750193315
-0.6105055628 -0.7602025768 4.000069391
-0.4239412069 -0.8645993032 4.173742984
-0.2218745957 -0.9494191167 4.000190044
-0.4240067293 -0.8645839909 3.923746256
-0.6182894517 -0.7699833771 4.048684294
-0.416157318 -0.8548185029 4.125128082
-0.4162228405 -0.8548031906 3.875131353
-0.6260733405 -0.7797641774 4.097299196
-0.552277749 -0.8336601753 3.583587903
-0.2219401182 -0.9494038045 3.750193315
-0.2206204374 -0.9753597401 3.839787904
-0.5891755448 -0.8067121764 3.84044355
-0.3871089336 -0.8915319899 3.666890609
-0.4240067293 -0.8645839909 3.923746256
-0.4233468889 -0.8775619587 3.96854355
-0.3864490932 -0.9045099577 3.711687903
-0.2212802778 -0.9623817723 3.79499061
-0.2219401182 -0.9494038045 3.750193315
-0.552277749 -0.8336601753 3.583587903
-0.6260733405 -0.7797641774 4.097299196
-0.6105055628 -0.7602025768 4.000069391
-0.3871089336 -0.8915319899 3.666890609
-0.5891755448 -0.8067121764 3.84044355
-0.4240067293 -0.8645839909 3.923746256
-0.4162228405 -0.8548031906 3.875131353
-0.5813916559 -0.7969313761 3.791828647
-0.6182894517 -0.7699833771 4.048684294
-0.9015039063 -0.4327709637 4.60625
-0.975 0 5
-0.975 0 4.5
-1 0 4.8625
-0.9382519531 -0.2163854818 4.803125
-0.975 0 4.75
-0.9382519531 -0.2163854818 4.553125
-0.9507519531 -0.2163854818 4.734375
-0.9875 0 4.93125
-0.9875 0 4.68125
-0.975 0 5
-0.9015039063 -0.4327709637 4.60625
-0.975 0 4.5
-0.8790343298 -0.4218099655 4.750033916
-0.9382519531 -0.2163854818 4.803125
-0.9382519531 -0.2163854818 4.553125
-0.975 0 4.75
-0.9270171649 -0.2109049828 4.875016958
-0.890269118 -0.4272904646 4.678141958
-0.9270171649 -0.2109049828 4.625016958
-0.2216804279 -0.9494644743 4.750193296
-0.5504315511 -0.8348802954 4.608536889
-0.6237965432 -0.781586766 5.122295037
-0.6103297059 -0.760343771 5.00010251
-0.3860559895 -0.8921723848 4.679365092
-0.5871140471 -0.8082335307 4.865415963
-0.4227384855 -0.8655256201 4.936244166
-0.4160050669 -0.8549041226 4.875147903
-0.5803806285 -0.7976120332 4.804319699
-0.6170631245 -0.7709652685 5.061198773
-0.6237965432 -0.781586766 5.122295037
-0.5504315511 -0.8348802954 4.608536889
-0.2216804279 -0.9494644743 4.750193296
-0.2180471115 -0.9759382445 4.864591213
-0.5871140471 -0.8082335307 4.865415963
-0.3860559895 -0.8921723848 4.679365092
-0.4227384855 -0.8655256201 4.936244166
-0.4209218273 -0.8787625053 4.993443125
-0.3842393313 -0.90540927 4.736564051
-0.2198637697 -0.9627013594 4.807392254
-0.6237965432 -0.781586766 5.122295037
-0.2215483084 -0.9494953118 5.250186611
-0.2216804279 -0.9494644743 4.750193296
-0.6103297059 -0.760343771 5.00010251
-0.4226724258 -0.8655410389 5.186240824
-0.2216143681 -0.949479893 5.000189954
-0.4227384855 -0.8655256201 4.936244166
-0.6170631245 -0.7709652685 5.061198773
-0.4159390071 -0.8549195414 5.125144561
-0.4160050669 -0.8549041226 4.875147903
-0.2216804279 -0.9494644743 4.750193296
-0.2215483084 -0.9494953118 5.250186611
-0.6237965432 -0.781586766 5.122295037
-0.2180471115 -0.9759382445 4.864591213
-0.2216143681 -0.949479893 5.000189954
-0.4226724258 -0.8655410389 5.186240824
-0.4227384855 -0.8655256201 4.936244166
-0.2198637697 -0.9627013594 4.807392254
-0.2197977099 -0.9627167782 5.057388912
-0.4209218273 -0.8787625053 4.993443125
0.9125731581 -0.3432713667 2.749925649
1 0 2.8125
1 0 2.3
0.975 0 2.5
0.956286579 -0.1716356833 2.781212824
1 0 2.55625
0.956286579 -0.1716356833 2.524962824
0.943786579 -0.1716356833 2.624962824
0.9875 0 2.65625
0.9875 0 2.4
1 0 2.3
1 0 2.8125
0.9125731581 -0.3432713667 2.749925649
0.8994817231 -0.4369583845 2.556520499
1 0 2.55625
0.956286579 -0.1716356833 2.781212824
0.956286579 -0.1716356833 2.524962824
0.9497408616 -0.2184791922 2.42826025
0.9497408616 -0.2184791922 2.68451025
0.9060274406 -0.3901148756 2.653223074
1 0 2.3
0.8788461538 -0.4222018923 2.25
0.9125731581 -0.3432713667 2.749925649
0.975 0 2.5
0.9394230769 -0.2111009462 2.275
0.895709656 -0.3827366295 2.499962824
0.956286579 -0.1716356833 2.524962824
0.9875 0 2.4
0.9269230769 -0.2111009462 2.375
0.943786579 -0.1716356833 2.624962824
0.9125731581 -0.3432713667 2.749925649
0.8788461538 -0.4222018923 2.25
1 0 2.3
0.8994817231 -0.4369583845 2.556520499
0.895709656 -0.3827366295 2.499962824
0.9394230769 -0.2111009462 2.275
0.956286579 -0.1716356833 2.524962824
0.9060274406 -0.3901148756 2.653223074
0.8891639385 -0.4295801384 2.40326025
0.9497408616 -0.2184791922 2.42826025
0.912554029 -0.3433222163 1.749925656
0.8788461538 -0.4222018923 1.25
1 0 1.275
0.9002664897 -0.4353392327 1.531349267
0.8957000914 -0.3827620543 1.499962828
0.9394230769 -0.2111009462 1.2625
0.9562770145 -0.1716611081 1.512462828
0.9064102593 -0.3893307245 1.640637461
0.8895563218 -0.4287705625 1.390674633
0.9501332448 -0.2176696164 1.403174633
1 0 1.275
0.8788461538 -0.4222018923 1.25
0.912554029 -0.3433222163 1.749925656
0.975 0 1.5
0.9394230769 -0.2111009462 1.2625
0.8957000914 -0.3827620543 1.499962828
0.9562770145 -0.1716611081 1.512462828
0.9875 0 1.3875
0.9269230769 -0.2111009462 1.375
0.9437770145 -0.1716611081 1.624962828
1 0 1.275
1 0 1.7875
0.912554029 -0.3433222163 1.749925656
0.9002664897 -0.4353392327 1.531349267
1 0 1.53125
0.9562770145 -0.1716611081 1.768712828
0.9562770145 -0.1716611081 1.512462828
0.9501332448 -0.2176696164 1.403174633
0.9501332448 -0.2176696164 1.659424633
0.9064102593 -0.3893307245 1.640637461
0.912554029 -0.3433222163 1.749925656
1 0 1.7875
1 0 1.275
0.975 0 1.5
0.9562770145 -0.1716611081 1.768712828
1 0 1.53125
0.9562770145 -0.1716611081 1.512462828
0.9437770145 -0.1716611081 1.624962828
0.9875 0 1.64375
0.9875 0 1.3875
-0.6108433295 -0.7599311988 2.00006893
-0.5557684513 -0.8313371329 1.533615502
-0.9015039063 -0.4327709637 1.53125
-0.6109099086 -0.7598776767 1.500065836
-0.5833058904 -0.7956341658 1.766842216
-0.7286361788 -0.6320540483 1.532432751
-0.7561736179 -0.5963510812 1.765659465
-0.610876619 -0.7599044377 1.750067383
-0.5833391799 -0.7956074048 1.516840669
-0.7562069074 -0.5963243202 1.515657918
-0.9015039063 -0.4327709637 1.53125
-0.5557684513 -0.8313371329 1.533615502
-0.6108433295 -0.7599311988 2.00006893
-0.6306109538 -0.7760991077 2.047307495
-0.7286361788 -0.6320540483 1.532432751
-0.5833058904 -0.7956341658 1.766842216
-0.7561736179 -0.5963510812 1.765659465
-0.76605743 -0.6044350357 1.789278747
-0.5931897025 -0.8037181203 1.790461498
-0.6207271416 -0.7680151532 2.023688212
-0.9015039063 -0.4327709637 1.53125
-0.8791295023 -0.4216115725 1.750027262
-0.6108433295 -0.7599311988 2.00006893
-0.6109099086 -0.7598776767 1.500065836
-0.8903167043 -0.4271912681 1.640638631
-0.7449864159 -0.5907713857 1.875048096
-0.7561736179 -0.5963510812 1.765659465
-0.7562069074 -0.5963243202 1.515657918
-0.7450197055 -0.5907446246 1.625046549
-0.610876619 -0.7599044377 1.750067383
-0.6108433295 -0.7599311988 2.00006893
-0.8791295023 -0.4216115725 1.750027262
-0.9015039063 -0.4327709637 1.53125
-0.6306109538 -0.7760991077 2.047307495
-0.7449864159 -0.5907713857 1.875048096
-0.8903167043 -0.4271912681 1.640638631
-0.7561736179 -0.5963510812 1.765659465
-0.6207271416 -0.7680151532 2.023688212
-0.7548702281 -0.5988553401 1.898667378
-0.76605743 -0.6044350357 1.789278747
-0.879098049 -0.4216771516 2.750027252
-0.9015039063 -0.4327709637 2.55625
-0.6106745569 -0.7600668297 3.0000687
-0.6283448194 -0.777934951 3.072303345
-0.8903009776 -0.4272240577 2.653138626
-0.7560892316 -0.5964188967 2.77815935
-0.7448863029 -0.5908719907 2.875047976
-0.7537214342 -0.5998060513 2.911165299
-0.7649243628 -0.6053529573 2.814276673
-0.6195096881 -0.7690008904 3.036186023
-0.9015039063 -0.4327709637 2.55625
-0.879098049 -0.4216771516 2.750027252
-0.6106745569 -0.7600668297 3.0000687
-0.6107411497 -0.760013321 2.500066001
-0.8903009776 -0.4272240577 2.653138626
-0.7448863029 -0.5908719907 2.875047976
-0.7560892316 -0.5964188967 2.77815935
-0.756122528 -0.5963921423 2.528158001
-0.7449195994 -0.5908452363 2.625046626
-0.6107078533 -0.7600400753 2.750067351
-0.6106745569 -0.7600668297 3.0000687
-0.5541131396 -0.8324413664 2.558599877
-0.2221994607 -0.9493431412 2.750193302
-0.6283448194 -0.777934951 3.072303345
-0.5823938482 -0.7962540981 2.779334289
-0.3881563001 -0.8908922538 2.65439659
-0.4164370088 -0.8547049854 2.875131001
-0.6195096881 -0.7690008904 3.036186023
-0.5912289795 -0.8051881587 2.815451611
-0.42527214 -0.8636390461 2.911248324
-0.5541131396 -0.8324413664 2.558599877
-0.6106745569 -0.7600668297 3.0000687
-0.2221994607 -0.9493431412 2.750193302
-0.6107411497 -0.760013321 2.500066001
-0.5823938482 -0.7962540981 2.779334289
-0.4164370088 -0.8547049854 2.875131001
-0.3881563001 -0.8908922538 2.65439659
-0.5824271447 -0.7962273437 2.529332939
-0.6107078533 -0.7600400753 2.750067351
-0.4164703052 -0.8546782311 2.625129652
-0.6106745569 -0.7600668297 3.0000687
-0.9015039063 -0.4327709637 2.55625
-0.5541131396 -0.8324413664 2.558599877
-0.6283448194 -0.777934951 3.072303345
-0.7560892316 -0.5964188967 2.77815935
-0.7278085229 -0.6326061651 2.557424939
-0.5823938482 -0.7962540981 2.779334289
-0.6195096881 -0.7690008904 3.036186023
-0.7649243628 -0.6053529573 2.814276673
-0.5912289795 -0.8051881587 2.815451611
-0.9015039063 -0.4327709637 2.55625
-0.6106745569 -0.7600668297 3.0000687
-0.5541131396 -0.8324413664 2.558599877
-0.6107411497 -0.760013321 2.500066001
-0.7560892316 -0.5964188967 2.77815935
-0.5823938482 -0.7962540981 2.779334289
-0.7278085229 -0.6326061651 2.557424939
-0.756122528 -0.5963921423 2.528158001
-0.6107078533 -0.7600400753 2.750067351
-0.5824271447 -0.7962273437 2.529332939
0.975 0 4.5
1 0 4.8625
0.9003423973 -0.4351822235 4.606201002
1 0 4.35
0.9875 0 4.68125
0.9501711986 -0.2175911118 4.734350501
0.9376711986 -0.2175911118 4.553100501
0.9875 0 4.425
1 0 4.60625
0.9501711986 -0.2175911118 4.478100501
0.9003423973 -0.4351822235 4.606201002
1 0 4.8625
0.975 0 4.5
0.9126114082 -0.3431696631 4.749925634
0.9501711986 -0.2175911118 4.734350501
0.9875 0 4.68125
0.9376711986 -0.2175911118 4.553100501
0.9064769027 -0.3891759433 4.678063318
0.9563057041 -0.1715848315 4.806212817
0.9438057041 -0.1715848315 4.624962817
0.9003423973 -0.4351822235 4.606201002
0.8788461538 -0.4222018923 4.25
0.975 0 4.5
1 0 4.35
0.8895942756 -0.4286920579 4.428100501
0.9269230769 -0.2111009462 4.375
0.9376711986 -0.2175911118 4.553100501
0.9501711986 -0.2175911118 4.478100501
0.9394230769 -0.2111009462 4.3
0.9875 0 4.425
0.975 0 4.5
0.8788461538 -0.4222018923 4.25
0.9003423973 -0.4351822235 4.606201002
0.9126114082 -0.3431696631 4.749925634
0.9269230769 -0.2111009462 4.375
0.8895942756 -0.4286920579 4.428100501
0.9376711986 -0.2175911118 4.553100501
0.9438057041 -0.1715848315 4.624962817
0.895728781 -0.3826857777 4.499962817
0.9064769027 -0.3891759433 4.678063318
0.6032965558 -0.7659362022 2.749623431
0.8788461538 -0.4222018923 2.25
0.6191469877 -0.7852751159 2.300790846
0.5315529124 -0.8173594689 2.249770946
0.7410713548 -0.5940690472 2.499811716
0.7489965708 -0.6037385041 2.275395423
0.6112217717 -0.775605659 2.525207139
0.5674247341 -0.7916478355 2.499697189
0.7051995331 -0.6197806806 2.249885473
0.57534995 -0.8013172924 2.275280896
0.8788461538 -0.4222018923 2.25
0.6032965558 -0.7659362022 2.749623431
0.6191469877 -0.7852751159 2.300790846
0.8994817231 -0.4369583845 2.556520499
0.7410713548 -0.5940690472 2.499811716
0.6112217717 -0.775605659 2.525207139
0.7489965708 -0.6037385041 2.275395423
0.8891639385 -0.4295801384 2.40326025
0.7513891395 -0.6014472933 2.653071965
0.7593143554 -0.6111167502 2.428655672
0.8788461538 -0.4222018923 3.25
0.6188981799 -0.7854712235 3.325389541
0.6035105365 -0.7657676099 3.749623394
0.5317255258 -0.8172471873 3.249770917
0.7488721669 -0.6038365579 3.28769477
0.6112043582 -0.7756194167 3.537506467
0.7411783452 -0.5939847511 3.499811697
0.7052858398 -0.6197245398 3.249885458
0.5753118529 -0.8013592054 3.287580229
0.5676180312 -0.7915073986 3.499697156
0.6035105365 -0.7657676099 3.749623394
0.6188981799 -0.7854712235 3.325389541
0.8788461538 -0.4222018923 3.25
0.899918909 -0.4360572865 3.581202385
0.6112043582 -0.7756194167 3.537506467
0.7488721669 -0.6038365579 3.28769477
0.7411783452 -0.5939847511 3.499811697
0.7517147228 -0.6009124482 3.66541289
0.7594085445 -0.610764255 3.453295963
0.8893825314 -0.4291295894 3.415601193
0.6037244701 -0.7655989578 4.749623357
0.6206148791 -0.7841155348 4.350337497
0.8788461538 -0.4222018923 4.25
0.9003423973 -0.4351822235 4.606201002
0.6121696746 -0.7748572463 4.549980427
0.7497305164 -0.6031587135 4.300168748
0.741285312 -0.5939004251 4.499811679
0.7520334337 -0.6003905907 4.677912179
0.7604786382 -0.6096488792 4.478269249
0.8895942756 -0.4286920579 4.428100501
0.8788461538 -0.4222018923 4.25
0.6206148791 -0.7841155348 4.350337497
0.6037244701 -0.7655989578 4.749623357
0.5318981499 -0.8171348469 4.249770884
0.7497305164 -0.6031587135 4.300168748
0.6121696746 -0.7748572463 4.549980427
0.741285312 -0.5939004251 4.499811679
0.7053721519 -0.6196683696 4.249885442
0.5762565145 -0.8006251909 4.30005419
0.56781131 -0.7913669024 4.499697121
0.6177786953 -0.78635201 1.275065471
0.603082528 -0.7661047346 1.749623469
0.8788461538 -0.4222018923 1.25
0.5313802768 -0.8174717129 1.249770975
0.6104306117 -0.7762283723 1.51234447
0.7409643409 -0.5941533135 1.499811734
0.7483124246 -0.6042769512 1.262532736
0.5745794861 -0.8019118614 1.262418223
0.5672314024 -0.7917882238 1.499697222
0.7051132153 -0.6198368026 1.249885487
0.8788461538 -0.4222018923 1.25
0.603082528 -0.7661047346 1.749623469
0.6177786953 -0.78635201 1.275065471
0.9002664897 -0.4353392327 1.531349267
0.7409643409 -0.5941533135 1.499811734
0.6104306117 -0.7762283723 1.51234447
0.7483124246 -0.6042769512 1.262532736
0.8895563218 -0.4287705625 1.390674633
0.7516745089 -0.6007219837 1.640486368
0.7590225925 -0.6108456214 1.403207369
0.9124966263 -0.3434747546 -1.250074323
1 0 -1.2875
0.9015039062 -0.4327709637 -1.54375
0.975 0 -1.5
0.9562483131 -0.1717373773 -1.268787162
0.9507519531 -0.2163854818 -1.415625
0.9070002663 -0.3881228592 -1.396912162
0.9437483131 -0.1717373773 -1.375037162
0.9875 0 -1.39375
0.9382519531 -0.2163854818 -1.521875
-0.2335628852 -0.9723416985 -1.797658445
-0.6115267064 -0.7593813847 -1.999896079
-0.223364893 -0.94906961 -1.749813109
-0.223495825 -0.9490387854 -2.249806813
-0.4225447958 -0.8658615416 -1.898777262
-0.4174457997 -0.8542254973 -1.874854594
-0.2284638891 -0.9607056542 -1.773735777
-0.2285293551 -0.960690242 -2.023732629
-0.4175112657 -0.854210085 -2.124851446
-0.223430359 -0.9490541977 -1.999809961
-0.5610821383 -0.8277601308 -1.541391416
-0.223364893 -0.94906961 -1.749813109
-0.2322542597 -0.9726551079 -1.28519263
-0.2335628852 -0.9723416985 -1.797658445
-0.3922235156 -0.8884148704 -1.645602263
-0.2278095763 -0.9608623589 -1.51750287
-0.396668199 -0.9002076193 -1.413292023
-0.3973225117 -0.9000509146 -1.66952493
-0.2284638891 -0.9607056542 -1.773735777
-0.2329085725 -0.9724984032 -1.541425537
0.2053452909 -0.9531307945 -1.500216202
-0.2322542597 -0.9726551079 -1.28519263
0.207966601 -0.9781359276 -1.542497538
0.2090944675 -0.9778954462 -1.030171376
-0.01345448442 -0.9628929512 -1.392704416
-0.01214382937 -0.9753955177 -1.413845084
0.2066559459 -0.9656333611 -1.52135687
0.2072198792 -0.9655131204 -1.265193789
-0.01157989614 -0.975275277 -1.157682003
0.2085305342 -0.9780156869 -1.286334457
-0.2352886399 -0.9719255403 -2.310150061
-0.563124985 -0.8263717391 -2.566378896
-0.6116470135 -0.7592844862 -2.499733328
-0.2236241373 -0.9490085591 -2.749813159
-0.3992068125 -0.8991486397 -2.438264478
-0.5873859992 -0.7928281126 -2.533056112
-0.4234678267 -0.8656050132 -2.404941694
-0.2294563886 -0.9604670497 -2.52998161
-0.3933745612 -0.8876901491 -2.658096027
-0.4176355754 -0.8541465226 -2.624773243
-0.2311962345 -0.972907139 -0.772715684
-0.2322542597 -0.9726551079 -1.28519263
-0.2232365806 -0.9490997993 -1.249806767
0.2090944675 -0.9778954462 -1.030171376
-0.2317252471 -0.9727811234 -1.028954157
-0.2277454201 -0.9608774536 -1.267499698
-0.2272164075 -0.9610034692 -1.011261225
-0.0110508835 -0.9754012926 -0.9014435301
-0.01157989614 -0.975275277 -1.157682003
-0.007071056549 -0.9634976228 -1.139989071
-0.223495825 -0.9490387854 -2.249806813
-0.223364893 -0.94906961 -1.749813109
-0.2335628852 -0.9723416985 -1.797658445
0.2052171505 -0.9531583925 -2.000172078
-0.223430359 -0.9490541977 -1.999809961
-0.2284638891 -0.9607056542 -1.773735777
-0.2285293551 -0.960690242 -2.023732629
-0.00913933723 -0.9510985889 -2.124989446
-0.009073871203 -0.9511140012 -1.874992594
-0.01417286733 -0.9627500455 -1.898915261
0.2090944675 -0.9778954462 -1.030171376
0.621335908 -0.7835443123 -1.286908041
0.6024401696 -0.7666099674 -1.250376426
0.6155165626 -0.7881239504 -0.7749841767
0.4152151877 -0.8807198793 -1.158539709
0.6118880388 -0.7750771399 -1.268642233
0.4057673185 -0.8722527068 -1.140273901
0.412305515 -0.8830096983 -0.9025777765
0.6184262353 -0.7858341314 -1.030946109
0.6089783661 -0.7773669589 -1.012680301
-0.223364893 -0.94906961 -1.749813109
0.207966601 -0.9781359276 -1.542497538
0.2052171505 -0.9531583925 -2.000172078
0.2053452909 -0.9531307945 -1.500216202
-0.007699145978 -0.9636027688 -1.646155323
0.2065918758 -0.96564716 -1.771334808
-0.009073871203 -0.9511140012 -1.874992594
-0.009009801032 -0.9511002023 -1.625014656
0.2066559459 -0.9656333611 -1.52135687
0.2052812207 -0.9531445935 -1.75019414
-0.6113557287 -0.7595190406 -0.9998970036
-0.5593020053 -0.828963972 -0.5164092906
-0.6373771051 -0.7705520268 -1.027680065
-0.2311962345 -0.972907139 -0.772715684
-0.585328867 -0.7942415063 -0.7581531471
-0.5983395552 -0.7997579994 -0.7720446777
-0.6243664169 -0.7650355337 -1.013788534
-0.4212759816 -0.8662130898 -0.8863063438
-0.3952491199 -0.9009355555 -0.6445624873
-0.4342866698 -0.8717295829 -0.9001978743
0.2052171505 -0.9531583925 -2.000172078
0.2053452909 -0.9531307945 -1.500216202
0.207966601 -0.9781359276 -1.542497538
0.5308622358 -0.8178082212 -1.750228954
0.2052812207 -0.9531445935 -1.75019414
0.2066559459 -0.9656333611 -1.52135687
0.2065918758 -0.96564716 -1.771334808
0.3680396932 -0.8854833068 -1.875200516
0.3681037633 -0.8854695079 -1.625222578
0.3694144184 -0.8979720744 -1.646363246
0.1952027341 -0.9807629136 -4.617474104
0.5303453467 -0.8181435163 -4.750230734
0.2046371457 -0.9532830842 -4.500217184
0.6068637262 -0.7948058995 -4.361714717
0.3627740404 -0.8994532149 -4.683852419
0.3674912462 -0.8857133002 -4.625223959
0.1999199399 -0.9670229989 -4.558845644
0.4010332301 -0.8877844065 -4.48959441
0.5686045364 -0.8064747079 -4.555972725
0.4057504359 -0.8740444918 -4.43096595
-0.6118805978 -0.7590962614 -3.499593712
-0.6418609783 -0.7668210251 -3.077671926
-0.5649978849 -0.8250923524 -3.591375746
-0.2380623499 -0.9712498739 -3.335144996
-0.626870788 -0.7629586432 -3.288632819
-0.6034294316 -0.7959566888 -3.334523836
-0.5884392413 -0.7920943069 -3.545484729
-0.4249714739 -0.8651730676 -3.417369354
-0.4399616641 -0.8690354495 -3.206408461
-0.4015301174 -0.8981711132 -3.463260371
-0.2311962345 -0.972907139 -0.772715684
0.2090944675 -0.9778954462 -1.030171376
0.2054532554 -0.9531075279 -1.000171963
0.2099909154 -0.9777033371 -0.5178048464
-0.0110508835 -0.9754012926 -0.9014435301
0.2072738614 -0.9655014871 -1.01517167
-0.01287148952 -0.9630073335 -0.8864438234
-0.01060265954 -0.9753052381 -0.6452602652
0.2095426914 -0.9777993917 -0.7739881113
0.2077220854 -0.9654054325 -0.7589884047
-0.6373771051 -0.7705520268 -1.027680065
-0.2232365806 -0.9490997993 -1.249806767
-0.2311962345 -0.972907139 -0.772715684
-0.2322542597 -0.9726551079 -1.28519263
-0.4303068428 -0.859825913 -1.138743416
-0.2272164075 -0.9610034692 -1.011261225
-0.4342866698 -0.8717295829 -0.9001978743
-0.4348156824 -0.8716035673 -1.156436347
-0.2277454201 -0.9608774536 -1.267499698
-0.2317252471 -0.9727811234 -1.028954157
0.621335908 -0.7835443123 -1.286908041
0.8994754618 -0.4369712732 -1.03129015
0.6024401696 -0.7666099674 -1.250376426
0.6155165626 -0.7881239504 -0.7749841767
0.7604056849 -0.6102577928 -1.159099096
0.7509578157 -0.6017906203 -1.140833288
0.6118880388 -0.7750771399 -1.268642233
0.6184262353 -0.7858341314 -1.030946109
0.7574960122 -0.6125476118 -0.9031371636
0.6089783661 -0.7773669589 -1.012680301
0.2054532554 -0.9531075279 -1.000171963
0.2099909154 -0.9777033371 -0.5178048464
0.2090944675 -0.9778954462 -1.030171376
0.5310349352 -0.8176960912 -0.7502289706
0.2077220854 -0.9654054325 -0.7589884047
0.2095426914 -0.9777993917 -0.7739881113
0.2072738614 -0.9655014871 -1.01517167
0.3682440953 -0.8854018096 -0.8752004668
0.3705129253 -0.8976997142 -0.6340169085
0.3700647013 -0.8977957687 -0.8902001734
-0.223364893 -0.94906961 -1.749813109
-0.2232365806 -0.9490997993 -1.249806767
-0.2322542597 -0.9726551079 -1.28519263
0.2053452909 -0.9531307945 -1.500216202
-0.2233007368 -0.9490847047 -1.499809938
-0.2277454201 -0.9608774536 -1.267499698
-0.2278095763 -0.9608623589 -1.51750287
-0.009009801032 -0.9511002023 -1.625014656
-0.008945644833 -0.9511152969 -1.375011484
-0.01345448442 -0.9628929512 -1.392704416
0.2090944675 -0.9778954462 -1.030171376
0.6155165626 -0.7881239504 -0.7749841767
0.6024401696 -0.7666099674 -1.250376426
0.5310349352 -0.8176960912 -0.7502289706
0.412305515 -0.8830096983 -0.9025777765
0.6089783661 -0.7773669589 -1.012680301
0.4057673185 -0.8722527068 -1.140273901
0.3700647013 -0.8977957687 -0.8902001734
0.5732757489 -0.8029100208 -0.7626065737
0.5667375524 -0.7921530293 -1.000302698
-0.2311962345 -0.972907139 -0.772715684
-0.2231056442 -0.9491305872 -0.7498131162
-0.2298426486 -0.9732278032 -0.2602164959
0.2099909154 -0.9777033371 -0.5178048464
-0.2271509393 -0.9610188631 -0.7612644001
-0.2264741464 -0.9611791952 -0.505014806
-0.2305194415 -0.9730674711 -0.5164660899
-0.01060265954 -0.9753052381 -0.6452602652
-0.006557364393 -0.9634169622 -0.6338089813
-0.0099258666 -0.9754655702 -0.3890106711
0.1979689097 -0.9802082997 -3.592476081
0.5305170137 -0.818032211 -3.750229258
0.2048730903 -0.9532324044 -3.500216165
0.6085539038 -0.7935125368 -3.336717444
0.3642429617 -0.8991202553 -3.671352669
0.367695052 -0.8856323077 -3.625222711
0.201421 -0.9667203521 -3.546346123
0.4032614068 -0.8868604183 -3.464596763
0.5695354588 -0.8057723739 -3.543473351
0.4067134971 -0.8733724706 -3.418466805
0.2053452909 -0.9531307945 -1.500216202
0.2054532554 -0.9531075279 -1.000171963
-0.2232365806 -0.9490997993 -1.249806767
0.2090944675 -0.9778954462 -1.030171376
0.2053992732 -0.9531191612 -1.250194083
-0.008891662563 -0.9511036636 -1.124989365
-0.008945644833 -0.9511152969 -1.375011484
0.2072198792 -0.9655131204 -1.265193789
0.2072738614 -0.9655014871 -1.01517167
-0.007071056549 -0.9634976228 -1.139989071
-0.9378605128 -0.347012476 -2.055535188
-1 0 -2.3125
-0.975 0 -2
-0.8792619276 -0.4213353328 -2.249933385
-0.9689302564 -0.173506238 -2.184017594
-0.9875 0 -2.15625
-0.9564302564 -0.173506238 -2.027767594
-0.9085612202 -0.3841739044 -2.152734287
-0.9396309638 -0.2106676664 -2.281216692
-0.9271309638 -0.2106676664 -2.124966692
-0.6114655876 -0.7594305993 -1.499733268
-0.6373771051 -0.7705520268 -1.027680065
-0.6113557287 -0.7595190406 -0.9998970036
-0.8792291156 -0.4214037995 -1.249933517
-0.6244213463 -0.764991313 -1.263706666
-0.6243664169 -0.7650355337 -1.013788534
-0.6114106581 -0.7594748199 -1.249815136
-0.7453473516 -0.5904171994 -1.374833393
-0.7583031104 -0.5959779131 -1.138806791
-0.7452924222 -0.59046142 -1.124915261
0.2055813934 -0.9530798973 -0.5002163526
0.2113884078 -0.9774021389 -0.005303822853
0.2099909154 -0.9777033371 -0.5178048464
0.6185661737 -0.7857327082 -0.2624203403
0.2084849006 -0.9652410181 -0.2527600877
0.2106896616 -0.977552738 -0.2615543346
0.2077861544 -0.9653916172 -0.5090105995
0.4120737836 -0.8694063028 -0.3813183464
0.4149772907 -0.8815674235 -0.1338620816
0.4142785446 -0.8817180227 -0.3901125934
0.5308622358 -0.8178082212 -1.750228954
0.6024401696 -0.7666099674 -1.250376426
0.2053452909 -0.9531307945 -1.500216202
0.621335908 -0.7835443123 -1.286908041
0.5666512027 -0.7922090943 -1.50030269
0.4038927302 -0.859870381 -1.375296314
0.3681037633 -0.8854695079 -1.625222578
0.5760990719 -0.8006762668 -1.518568497
0.6118880388 -0.7750771399 -1.268642233
0.4133405995 -0.8683375534 -1.393562121
0.2052171505 -0.9531583925 -2.000172078
0.6022259829 -0.7667782375 -2.250376414
0.5308622358 -0.8178082212 -1.750228954
0.6069497731 -0.7947401921 -1.799880184
0.4037215667 -0.859968315 -2.125274246
0.5665441093 -0.7922932293 -2.000302684
0.3680396932 -0.8854833068 -1.875200516
0.4060834618 -0.8739492923 -1.900026131
0.604587878 -0.7807592148 -2.025128299
0.5689060045 -0.8062742066 -1.775054569
0.5306895478 -0.8179202919 -2.750228985
0.2051091813 -0.9531816321 -2.500216089
0.2009143768 -0.9796088062 -2.567480544
0.6096374219 -0.7926803983 -2.311829153
0.3678993645 -0.885550962 -2.625222537
0.2030117791 -0.9663952191 -2.533848317
0.3658019623 -0.8987645491 -2.658854765
0.5701634848 -0.8053003451 -2.531029069
0.4073733016 -0.8729310152 -2.406022621
0.4052758993 -0.8861446023 -2.439654849
-0.975 0 -1
-0.9376579414 -0.3475594695 -1.030536013
-1 0 -1.2875
-0.8792291156 -0.4214037995 -1.249933517
-0.9563289707 -0.1737797348 -1.015268006
-0.9688289707 -0.1737797348 -1.159018006
-0.9875 0 -1.14375
-0.9271145578 -0.2107018997 -1.124966759
-0.9084435285 -0.3844816345 -1.140234765
-0.9396145578 -0.2107018997 -1.268716759
-0.2298426486 -0.9732278032 -0.2602164959
0.2099909154 -0.9777033371 -0.5178048464
0.2055813934 -0.9530798973 -0.5002163526
0.2113884078 -0.9774021389 -0.005303822853
-0.0099258666 -0.9754655702 -0.3890106711
0.2077861544 -0.9653916172 -0.5090105995
-0.0121306276 -0.9631538503 -0.3802164242
-0.009227120418 -0.975314971 -0.1327601594
0.2106896616 -0.977552738 -0.2615543346
0.2084849006 -0.9652410181 -0.2527600877
-0.6113557287 -0.7595190406 -0.9998970036
-0.2231056442 -0.9491305872 -0.7498131162
-0.2311962345 -0.972907139 -0.772715684
-0.2232365806 -0.9490997993 -1.249806767
-0.4172306864 -0.8543248139 -0.8748550599
-0.2271509393 -0.9610188631 -0.7612644001
-0.4212759816 -0.8662130898 -0.8863063438
-0.4172961546 -0.85430942 -1.124851885
-0.2231711124 -0.9491151933 -0.9998099414
-0.2272164075 -0.9610034692 -1.011261225
0.2090944675 -0.9778954462 -1.030171376
0.2053452909 -0.9531307945 -1.500216202
0.2054532554 -0.9531075279 -1.000171963
0.6024401696 -0.7666099674 -1.250376426
0.2072198792 -0.9655131204 -1.265193789
0.2053992732 -0.9531191612 -1.250194083
0.2072738614 -0.9655014871 -1.01517167
0.4057673185 -0.8722527068 -1.140273901
0.4038927302 -0.859870381 -1.375296314
0.4039467125 -0.8598587477 -1.125274195
-0.6113557287 -0.7595190406 -0.9998970036
-0.2311962345 -0.972907139 -0.772715684
-0.6373771051 -0.7705520268 -1.027680065
-0.2232365806 -0.9490997993 -1.249806767
-0.4212759816 -0.8662130898 -0.8863063438
-0.4342866698 -0.8717295829 -0.9001978743
-0.6243664169 -0.7650355337 -1.013788534
-0.4172961546 -0.85430942 -1.124851885
-0.2272164075 -0.9610034692 -1.011261225
-0.4303068428 -0.859825913 -1.138743416
-0.2298426486 -0.9732278032 -0.2602164959
-0.2311962345 -0.972907139 -0.772715684
-0.5593020053 -0.828963972 -0.5164092906
-0.2231056442 -0.9491305872 -0.7498131162
-0.2305194415 -0.9730674711 -0.5164660899
-0.3952491199 -0.9009355555 -0.6445624873
-0.3945723269 -0.9010958876 -0.3883128932
-0.2264741464 -0.9611791952 -0.505014806
-0.2271509393 -0.9610188631 -0.7612644001
-0.3912038247 -0.8890472796 -0.6331112034
-0.2311962345 -0.972907139 -0.772715684
-0.2232365806 -0.9490997993 -1.249806767
-0.2231056442 -0.9491305872 -0.7498131162
0.2054532554 -0.9531075279 -1.000171963
-0.2272164075 -0.9610034692 -1.011261225
-0.2231711124 -0.9491151933 -0.9998099414
-0.2271509393 -0.9610188631 -0.7612644001
-0.01287148952 -0.9630073335 -0.8864438234
-0.008891662563 -0.9511036636 -1.124989365
-0.008826194371 -0.9511190576 -0.8749925395
-0.6116470135 -0.7592844862 -2.499733328
-0.6396217001 -0.7686898469 -2.052675942
-0.563124985 -0.8263717391 -2.566378896
-0.2352886399 -0.9719255403 -2.310150061
-0.6256343568 -0.7639871665 -2.276204635
-0.6013733426 -0.797530793 -2.309527419
-0.5873859992 -0.7928281126 -2.533056112
-0.4234678267 -0.8656050132 -2.404941694
-0.43745517 -0.8703076936 -2.181413001
-0.3992068125 -0.8991486397 -2.438264478
-0.2231056442 -0.9491305872 -0.7498131162
0.2054532554 -0.9531075279 -1.000171963
0.2055813934 -0.9530798973 -0.5002163526
0.2099909154 -0.9777033371 -0.5178048464
-0.008826194371 -0.9511190576 -0.8749925395
0.2055173244 -0.9530937126 -0.7501941577
-0.008762125391 -0.9511052423 -0.6250147344
-0.006557364393 -0.9634169622 -0.6338089813
0.2077220854 -0.9654054325 -0.7589884047
0.2077861544 -0.9653916172 -0.5090105995
-0.6373771051 -0.7705520268 -1.027680065
-0.6114655876 -0.7594305993 -1.499733268
-0.6113557287 -0.7595190406 -0.9998970036
-0.2232365806 -0.9490997993 -1.249806767
-0.6244213463 -0.764991313 -1.263706666
-0.6114106581 -0.7594748199 -1.249815136
-0.6243664169 -0.7650355337 -1.013788534
-0.4303068428 -0.859825913 -1.138743416
-0.4173510841 -0.8542651993 -1.374770017
-0.4172961546 -0.85430942 -1.124851885
-1 0 -0.775
-0.9376579414 -0.3475594695 -1.030536013
-0.975 0 -1
-0.8788461538 -0.4222018923 -0.75
-0.9688289707 -0.1737797348 -0.9027680065
-0.9563289707 -0.1737797348 -1.015268006
-0.9875 0 -0.8875
-0.9394230769 -0.2111009462 -0.7625
-0.9082520476 -0.3848806809 -0.8902680065
-0.9269230769 -0.2111009462 -0.875
0.5308622358 -0.8178082212 -1.750228954
0.2053452909 -0.9531307945 -1.500216202
0.207966601 -0.9781359276 -1.542497538
0.621335908 -0.7835443123 -1.286908041
0.3681037633 -0.8854695079 -1.625222578
0.2066559459 -0.9656333611 -1.52135687
0.3694144184 -0.8979720744 -1.646363246
0.5760990719 -0.8006762668 -1.518568497
0.4133405995 -0.8683375534 -1.393562121
0.4146512545 -0.88084012 -1.414702789
0.2052171505 -0.9531583925 -2.000172078
-0.223364893 -0.94906961 -1.749813109
-0.2335628852 -0.9723416985 -1.797658445
0.207966601 -0.9781359276 -1.542497538
-0.009073871203 -0.9511140012 -1.874992594
-0.2284638891 -0.9607056542 -1.773735777
-0.01417286733 -0.9627500455 -1.898915261
0.2065918758 -0.96564716 -1.771334808
-0.007699145978 -0.9636027688 -1.646155323
-0.0127981421 -0.9752388131 -1.670077991
-0.2311962345 -0.972907139 -0.772715684
0.2054532554 -0.9531075279 -1.000171963
-0.2231056442 -0.9491305872 -0.7498131162
0.2099909154 -0.9777033371 -0.5178048464
-0.01287148952 -0.9630073335 -0.8864438234
-0.008826194371 -0.9511190576 -0.8749925395
-0.2271509393 -0.9610188631 -0.7612644001
-0.01060265954 -0.9753052381 -0.6452602652
0.2077220854 -0.9654054325 -0.7589884047
-0.006557364393 -0.9634169622 -0.6338089813
0.2055813934 -0.9530798973 -0.5002163526
0.2099909154 -0.9777033371 -0.5178048464
0.2054532554 -0.9531075279 -1.000171963
0.5310349352 -0.8176960912 -0.7502289706
0.2077861544 -0.9653916172 -0.5090105995
0.2077220854 -0.9654054325 -0.7589884047
0.2055173244 -0.9530937126 -0.7501941577
0.3683081643 -0.8853879943 -0.6252226616
0.3705129253 -0.8976997142 -0.6340169085
0.3682440953 -0.8854018096 -0.8752004668
0.2053452909 -0.9531307945 -1.500216202
-0.2232365806 -0.9490997993 -1.249806767
-0.2322542597 -0.9726551079 -1.28519263
0.2090944675 -0.9778954462 -1.030171376
-0.008945644833 -0.9511152969 -1.375011484
-0.2277454201 -0.9608774536 -1.267499698
-0.01345448442 -0.9628929512 -1.392704416
0.2072198792 -0.9655131204 -1.265193789
-0.007071056549 -0.9634976228 -1.139989071
-0.01157989614 -0.975275277 -1.157682003
-0.6120580026 -0.7589532275 -4.999856849
-0.8788461538 -0.4222018923 -4.75
-0.8793767806 -0.4210955684 -5.24987566
-0.6463274373 -0.7630601836 -5.127667615
-0.7454520782 -0.5905775599 -4.874928424
-0.8791114672 -0.4216487303 -4.99993783
-0.7457173916 -0.5900243979 -5.124866254
-0.6291927199 -0.7610067055 -5.063762232
-0.7625867956 -0.592631038 -4.938833807
-0.7628521089 -0.592077876 -5.188771637
0.6155165626 -0.7881239504 -0.7749841767
0.6185661737 -0.7857327082 -0.2624203403
0.8997811461 -0.4363414822 -0.5187843231
0.6026543327 -0.766441619 -0.2503764584
0.6170413682 -0.7869283293 -0.5187022585
0.7591736599 -0.6110370952 -0.3906023317
0.7576488544 -0.6122327163 -0.6468842499
0.6090854476 -0.7772827847 -0.5126803176
0.6106102532 -0.7760871636 -0.2563983994
0.7512177394 -0.6013915506 -0.3845803908
0.2055813934 -0.9530798973 -0.5002163526
-0.2298426486 -0.9732278032 -0.2602164959
-0.2231056442 -0.9491305872 -0.7498131162
0.2099909154 -0.9777033371 -0.5178048464
-0.0121306276 -0.9631538503 -0.3802164242
-0.2264741464 -0.9611791952 -0.505014806
-0.008762125391 -0.9511052423 -0.6250147344
0.2077861544 -0.9653916172 -0.5090105995
-0.0099258666 -0.9754655702 -0.3890106711
-0.006557364393 -0.9634169622 -0.6338089813
0.2055813934 -0.9530798973 -0.5002163526
0.6185661737 -0.7857327082 -0.2624203403
0.2099909154 -0.9777033371 -0.5178048464
0.5310349352 -0.8176960912 -0.7502289706
0.4120737836 -0.8694063028 -0.3813183464
0.4142785446 -0.8817180227 -0.3901125934
0.2077861544 -0.9653916172 -0.5090105995
0.3683081643 -0.8853879943 -0.6252226616
0.5748005545 -0.8017143997 -0.5063246554
0.3705129253 -0.8976997142 -0.6340169085
-1 0 -1.8
-0.9378605128 -0.347012476 -2.055535188
-0.975 0 -2
-0.8788461538 -0.4222018923 -1.75
-0.9689302564 -0.173506238 -1.927767594
-0.9564302564 -0.173506238 -2.027767594
-0.9875 0 -1.9
-0.9394230769 -0.2111009462 -1.775
-0.9083533333 -0.3846071842 -1.902767594
-0.9269230769 -0.2111009462 -1.875
-0.2232365806 -0.9490997993 -1.249806767
0.2054532554 -0.9531075279 -1.000171963
-0.2311962345 -0.972907139 -0.772715684
0.2090944675 -0.9778954462 -1.030171376
-0.008891662563 -0.9511036636 -1.124989365
-0.01287148952 -0.9630073335 -0.8864438234
-0.2272164075 -0.9610034692 -1.011261225
-0.007071056549 -0.9634976228 -1.139989071
0.2072738614 -0.9655014871 -1.01517167
-0.0110508835 -0.9754012926 -0.9014435301
0.2053452909 -0.9531307945 -1.500216202
0.6024401696 -0.7666099674 -1.250376426
0.2090944675 -0.9778954462 -1.030171376
0.621335908 -0.7835443123 -1.286908041
0.4038927302 -0.859870381 -1.375296314
0.4057673185 -0.8722527068 -1.140273901
0.2072198792 -0.9655131204 -1.265193789
0.4133405995 -0.8683375534 -1.393562121
0.6118880388 -0.7750771399 -1.268642233
0.4152151877 -0.8807198793 -1.158539709
-0.2322542597 -0.9726551079 -1.28519263
0.207966601 -0.9781359276 -1.542497538
-0.223364893 -0.94906961 -1.749813109
0.2053452909 -0.9531307945 -1.500216202
-0.01214382937 -0.9753955177 -1.413845084
-0.007699145978 -0.9636027688 -1.646155323
-0.2278095763 -0.9608623589 -1.51750287
-0.01345448442 -0.9628929512 -1.392704416
0.2066559459 -0.9656333611 -1.52135687
-0.009009801032 -0.9511002023 -1.625014656
0.2113884078 -0.9774021389 -0.005303822853
0.6185661737 -0.7857327082 -0.2624203403
0.2055813934 -0.9530798973 -0.5002163526
0.6026543327 -0.766441619 -0.2503764584
0.4149772907 -0.8815674235 -0.1338620816
0.4120737836 -0.8694063028 -0.3813183464
0.2084849006 -0.9652410181 -0.2527600877
0.4070213702 -0.8719218789 -0.1278401406
0.6106102532 -0.7760871636 -0.2563983994
0.404117863 -0.8597607582 -0.3752964055
-0.223495825 -0.9490387854 -2.249806813
0.2052171505 -0.9531583925 -2.000172078
-0.2335628852 -0.9723416985 -1.797658445
0.2029868328 -0.9791814672 -2.054985317
-0.00913933723 -0.9510985889 -2.124989446
-0.01417286733 -0.9627500455 -1.898915261
-0.2285293551 -0.960690242 -2.023732629
-0.01025449609 -0.9641101263 -2.152396065
0.2041019917 -0.9661699298 -2.027578698
-0.01528802619 -0.9757615829 -1.926321881
-0.6113557287 -0.7595190406 -0.9998970036
-0.8788461538 -0.4222018923 -0.75
-0.8792291156 -0.4214037995 -1.249933517
-0.6373771051 -0.7705520268 -1.027680065
-0.7451009413 -0.5908604664 -0.8749485018
-0.8790376347 -0.4218028459 -0.9999667587
-0.7452924222 -0.59046142 -1.124915261
-0.6243664169 -0.7650355337 -1.013788534
-0.7581116295 -0.5963769595 -0.8888400324
-0.7583031104 -0.5959779131 -1.138806791
0.6026543327 -0.766441619 -0.2503764584
0.6155165626 -0.7881239504 -0.7749841767
0.6185661737 -0.7857327082 -0.2624203403
0.5310349352 -0.8176960912 -0.7502289706
0.6090854476 -0.7772827847 -0.5126803176
0.6170413682 -0.7869283293 -0.5187022585
0.6106102532 -0.7760871636 -0.2563983994
0.5668446339 -0.7920688551 -0.5003027145
0.5732757489 -0.8029100208 -0.7626065737
0.5748005545 -0.8017143997 -0.5063246554
-0.6118774524 -0.7590987967 -3.999872374
-0.8788461538 -0.4222018923 -3.75
-0.8793381996 -0.421176128 -4.249889433
-0.6440954127 -0.764945161 -4.102668442
-0.7453618031 -0.5906503445 -3.874936187
-0.8790921767 -0.4216890101 -3.999944716
-0.745607826 -0.5901374623 -4.124880903
-0.6279864326 -0.7620219789 -4.051270408
-0.7614707833 -0.5935735267 -3.926334221
-0.7617168061 -0.5930606445 -4.176278937
-0.2311962345 -0.972907139 -0.772715684
-0.6113557287 -0.7595190406 -0.9998970036
-0.5593020053 -0.828963972 -0.5164092906
-0.2231056442 -0.9491305872 -0.7498131162
-0.4212759816 -0.8662130898 -0.8863063438
-0.585328867 -0.7942415063 -0.7581531471
-0.3952491199 -0.9009355555 -0.6445624873
-0.2271509393 -0.9610188631 -0.7612644001
-0.4172306864 -0.8543248139 -0.8748550599
-0.3912038247 -0.8890472796 -0.6331112034
-0.6115267064 -0.7593813847 -1.999896079
-0.8788461538 -0.4222018923 -1.75
-0.8792619276 -0.4213353328 -2.249933385
-0.6396217001 -0.7686898469 -2.052675942
-0.7451864301 -0.5907916385 -1.874948039
-0.8790540407 -0.4217686125 -1.999966692
-0.745394317 -0.5903583587 -2.124914732
-0.6255742033 -0.7640356158 -2.02628601
-0.759233927 -0.5954458696 -1.901337971
-0.7594418139 -0.5950125898 -2.151304663
-0.6116976235 -0.7592437141 -2.999895878
-0.8788461538 -0.4222018923 -2.75
-0.8792996465 -0.4212566103 -3.249910088
-0.6418609783 -0.7668210251 -3.077671926
-0.7452718887 -0.5907228032 -2.874947939
-0.8790729002 -0.4217292513 -2.999955044
-0.745498635 -0.5902501622 -3.124902983
-0.6267793009 -0.7630323696 -3.038783902
-0.7603535661 -0.5945114587 -2.913835963
-0.7605803124 -0.5940388177 -3.163791007
-0.6115267064 -0.7593813847 -1.999896079
-0.223364893 -0.94906961 -1.749813109
-0.5610821383 -0.8277601308 -1.541391416
-0.2335628852 -0.9723416985 -1.797658445
-0.4174457997 -0.8542254973 -1.874854594
-0.3922235156 -0.8884148704 -1.645602263
-0.5863044223 -0.7935707577 -1.770643748
-0.4225447958 -0.8658615416 -1.898777262
-0.2284638891 -0.9607056542 -1.773735777
-0.3973225117 -0.9000509146 -1.66952493
0.2090944675 -0.9778954462 -1.030171376
0.6024401696 -0.7666099674 -1.250376426
0.2054532554 -0.9531075279 -1.000171963
0.5310349352 -0.8176960912 -0.7502289706
0.4057673185 -0.8722527068 -1.140273901
0.4039467125 -0.8598587477 -1.125274195
0.2072738614 -0.9655014871 -1.01517167
0.3700647013 -0.8977957687 -0.8902001734
0.5667375524 -0.7921530293 -1.000302698
0.3682440953 -0.8854018096 -0.8752004668
-0.6116976235 -0.7592437141 -2.999895878
-0.2236241373 -0.9490085591 -2.749813159
-0.563124985 -0.8263717391 -2.566378896
-0.2368635612 -0.9715429241 -2.822646549
-0.4176608804 -0.8541261366 -2.874854519
-0.3933745612 -0.8876901491 -2.658096027
-0.5874113043 -0.7928077266 -2.783137387
-0.4242805923 -0.8653933191 -2.911271214
-0.2302438492 -0.9602757416 -2.786229854
-0.3999942731 -0.8989573316 -2.694512723
0.2055813934 -0.9530798973 -0.5002163526
0.6026543327 -0.766441619 -0.2503764584
0.6185661737 -0.7857327082 -0.2624203403
0.5310349352 -0.8176960912 -0.7502289706
0.404117863 -0.8597607582 -0.3752964055
0.6106102532 -0.7760871636 -0.2563983994
0.4120737836 -0.8694063028 -0.3813183464
0.3683081643 -0.8853879943 -0.6252226616
0.5668446339 -0.7920688551 -0.5003027145
0.5748005545 -0.8017143997 -0.5063246554
0.8788461538 -0.4222018923 -0.75
0.8997811461 -0.4363414822 -0.5187843231
1 0 -0.775
0.975 0 -0.5
0.88931365 -0.4292716872 -0.6343921616
0.9498905731 -0.2181707411 -0.6468921616
0.9394230769 -0.2111009462 -0.7625
0.9269230769 -0.2111009462 -0.625
0.9373905731 -0.2181707411 -0.5093921616
0.9875 0 -0.6375
-1 0 -2.3125
-0.9015039062 -0.4327709637 -2.56875
-0.975 0 -2.5
-0.8792619276 -0.4213353328 -2.249933385
-0.9507519531 -0.2163854818 -2.440625
-0.9382519531 -0.2163854818 -2.534375
-0.9875 0 -2.40625
-0.9396309638 -0.2106676664 -2.281216692
-0.8903829169 -0.4270531482 -2.409341692
-0.9271309638 -0.2106676664 -2.374966692
-1 0 -1.2875
-0.9015039063 -0.4327709637 -1.54375
-0.975 0 -1.5
-0.8792291156 -0.4214037995 -1.249933517
-0.9507519531 -0.2163854818 -1.415625
-0.9382519531 -0.2163854818 -1.521875
-0.9875 0 -1.39375
-0.9396145578 -0.2107018997 -1.268716759
-0.8903665109 -0.4270873816 -1.396841759
-0.9271145578 -0.2107018997 -1.374966759
-0.9015039063 -0.4327709637 -1.54375
-1 0 -1.8
-0.975 0 -1.5
-0.8788461538 -0.4222018923 -1.75
-0.9507519531 -0.2163854818 -1.671875
-0.9875 0 -1.65
-0.9382519531 -0.2163854818 -1.521875
-0.89017503 -0.427486428 -1.646875
-0.9394230769 -0.2111009462 -1.775
-0.9269230769 -0.2111009462 -1.625
-1 0 -0.2625
-0.9015039062 -0.4327709637 -0.51875
-0.975 0 -0.5
-0.87919594 -0.4214730111 -0.2499397705
-0.9507519531 -0.2163854818 -0.390625
-0.9382519531 -0.2163854818 -0.509375
-0.9875 0 -0.38125
-0.93959797 -0.2107365056 -0.2562198853
-0.8903499231 -0.4271219874 -0.3843448853
-0.92709797 -0.2107365056 -0.3749698853
-0.975 0 -0.5
-0.9015039062 -0.4327709637 -0.51875
-1 0 -0.775
-0.8788461538 -0.4222018923 -0.75
-0.9382519531 -0.2163854818 -0.509375
-0.9507519531 -0.2163854818 -0.646875
-0.9875 0 -0.6375
-0.9269230769 -0.2111009462 -0.625
-0.89017503 -0.427486428 -0.634375
-0.9394230769 -0.2111009462 -0.7625
0.8788461538 -0.4222018923 -1.75
0.9015039062 -0.4327709637 -1.54375
1 0 -1.8
0.975 0 -1.5
0.89017503 -0.427486428 -1.646875
0.9507519531 -0.2163854818 -1.671875
0.9394230769 -0.2111009462 -1.775
0.9269230769 -0.2111009462 -1.625
0.9382519531 -0.2163854818 -1.521875
0.9875 0 -1.65
-0.563124985 -0.8263717391 -2.566378896
-0.2236241373 -0.9490085591 -2.749813159
-0.2352886399 -0.9719255403 -2.310150061
-0.2368635612 -0.9715429241 -2.822646549
-0.3933745612 -0.8876901491 -2.658096027
-0.2294563886 -0.9604670497 -2.52998161
-0.3992068125 -0.8991486397 -2.438264478
-0.3999942731 -0.8989573316 -2.694512723
-0.2302438492 -0.9602757416 -2.786229854
-0.2360761006 -0.9717342322 -2.566398305
-0.975 0 -3.5
-1 0 -3.3375
-1 0 -3.85
-0.9015039062 -0.4327709637 -3.59375
-0.9875 0 -3.41875
-1 0 -3.59375
-0.9875 0 -3.675
-0.9382519531 -0.2163854818 -3.546875
-0.9507519531 -0.2163854818 -3.465625
-0.9507519531 -0.2163854818 -3.721875
-0.938466735 -0.3453696387 -5.130533523
-1 0 -5.3875
-1 0 -4.875
-0.975 0 -5
-0.9692333675 -0.1726848194 -5.259016761
-1 0 -5.13125
-0.9692333675 -0.1726848194 -5.002766761
-0.9567333675 -0.1726848194 -5.065266761
-0.9875 0 -5.19375
-0.9875 0 -4.9375
1 0 -4.3625
0.8957935497 -0.4444703774 -4.105936763
0.9124392799 -0.343627066 -4.250074452
0.8966317323 -0.4427770734 -4.618553276
0.9478967748 -0.2222351887 -4.234218381
0.9041164148 -0.3940487217 -4.178005607
0.9562196399 -0.171813533 -4.306287226
0.9483158661 -0.2213885367 -4.490526638
0.896212641 -0.4436237254 -4.36224502
0.9045355061 -0.3932020697 -4.434313864
-0.6118805978 -0.7590962614 -3.499593712
-0.5649978849 -0.8250923524 -3.591375746
-0.6418609783 -0.7668210251 -3.077671926
-0.9015039062 -0.4327709637 -3.59375
-0.5884392413 -0.7920943069 -3.545484729
-0.6034294316 -0.7959566888 -3.334523836
-0.626870788 -0.7629586432 -3.288632819
-0.756692252 -0.5959336125 -3.546671856
-0.7332508956 -0.6289316581 -3.592562873
-0.7716824423 -0.5997959944 -3.335710963
-0.9015039062 -0.4327709637 -3.59375
-0.8788461538 -0.4222018923 -3.75
-0.8792996465 -0.4212566103 -3.249910088
-0.6118805978 -0.7590962614 -3.499593712
-0.89017503 -0.427486428 -3.671875
-0.8790729002 -0.4217292513 -3.499955044
-0.8904017764 -0.427013787 -3.421830044
-0.756692252 -0.5959336125 -3.546671856
-0.7453633758 -0.5906490768 -3.624796856
-0.7455901221 -0.5901764358 -3.3747519
-0.9015039062 -0.4327709637 -2.56875
-0.8788461538 -0.4222018923 -2.75
-0.8792619276 -0.4213353328 -2.249933385
-0.6116470135 -0.7592844862 -2.499733328
-0.89017503 -0.427486428 -2.659375
-0.8790540407 -0.4217686125 -2.499966692
-0.8903829169 -0.4270531482 -2.409341692
-0.7565754599 -0.5960277249 -2.534241664
-0.7452465837 -0.5907431892 -2.624866664
-0.7454544705 -0.5903099095 -2.374833356
-0.9015039063 -0.4327709637 -1.54375
-0.6396217001 -0.7686898469 -2.052675942
-0.9378605128 -0.347012476 -2.055535188
-0.8788461538 -0.4222018923 -1.75
-0.7705628032 -0.6007304053 -1.798212971
-0.7887411065 -0.5578511615 -2.054105565
-0.9196822095 -0.3898917199 -1.799642594
-0.89017503 -0.427486428 -1.646875
-0.759233927 -0.5954458696 -1.901337971
-0.9083533333 -0.3846071842 -1.902767594
-0.6118774524 -0.7590987967 -3.999872374
-0.8788461538 -0.4222018923 -3.75
-0.6440954127 -0.764945161 -4.102668442
-0.9015039062 -0.4327709637 -3.59375
-0.7453618031 -0.5906503445 -3.874936187
-0.7614707833 -0.5935735267 -3.926334221
-0.6279864326 -0.7620219789 -4.051270408
-0.7566906793 -0.5959348802 -3.796811187
-0.89017503 -0.427486428 -3.671875
-0.7727996595 -0.5988580624 -3.848209221
-1 0 -4.3625
-0.975 0 -4
-1 0 -3.85
-0.9382647763 -0.3459179232 -4.105533688
-0.9875 0 -4.18125
-0.9875 0 -3.925
-1 0 -4.10625
-0.9691323881 -0.1729589616 -4.234016844
-0.9566323881 -0.1729589616 -4.052766844
-0.9691323881 -0.1729589616 -3.977766844
-0.6120580026 -0.7589532275 -4.999856849
-0.8788461538 -0.4222018923 -4.75
-0.6463274373 -0.7630601836 -5.127667615
-0.9015039063 -0.4327709637 -4.61875
-0.7454520782 -0.5905775599 -4.874928424
-0.7625867956 -0.592631038 -4.938833807
-0.6291927199 -0.7610067055 -5.063762232
-0.7567809544 -0.5958620956 -4.809303424
-0.89017503 -0.427486428 -4.684375
-0.7739156718 -0.5979155737 -4.873208807
-0.6440954127 -0.764945161 -4.102668442
-0.5649978849 -0.8250923524 -3.591375746
-0.6118774524 -0.7590987967 -3.999872374
-0.9015039062 -0.4327709637 -3.59375
-0.6045466488 -0.7950187567 -3.847022094
-0.5884376687 -0.7920955746 -3.79562406
-0.6279864326 -0.7620219789 -4.051270408
-0.7727996595 -0.5988580624 -3.848209221
-0.7332508956 -0.6289316581 -3.592562873
-0.7566906793 -0.5959348802 -3.796811187
-0.6114655876 -0.7594305993 -1.499733268
-0.5610821383 -0.8277601308 -1.541391416
-0.6373771051 -0.7705520268 -1.027680065
-0.9015039063 -0.4327709637 -1.54375
-0.5862738629 -0.7935953651 -1.520562342
-0.5992296217 -0.7991560788 -1.284535741
-0.6244213463 -0.764991313 -1.263706666
-0.7564847469 -0.5961007815 -1.521741634
-0.7312930223 -0.6302655472 -1.542570708
-0.7694405057 -0.6016614952 -1.285715032
-0.975 0 -0.5
-0.8788461538 -0.4222018923 -0.75
-0.87919594 -0.4214730111 -0.2499397705
-0.9015039062 -0.4327709637 -0.51875
-0.9269230769 -0.2111009462 -0.625
-0.8790210469 -0.4218374517 -0.4999698853
-0.92709797 -0.2107365056 -0.3749698853
-0.9382519531 -0.2163854818 -0.509375
-0.89017503 -0.427486428 -0.634375
-0.8903499231 -0.4271219874 -0.3843448853
-0.6463274373 -0.7630601836 -5.127667615
-0.9015039063 -0.4327709637 -5.64375
-0.938466735 -0.3453696387 -5.130533523
-0.8793767806 -0.4210955684 -5.24987566
-0.7739156718 -0.5979155737 -5.385708807
-0.9199853206 -0.3890703012 -5.387141761
-0.7923970861 -0.5542149112 -5.129100569
-0.7628521089 -0.592077876 -5.188771637
-0.8904403434 -0.426933266 -5.44681283
-0.9089217578 -0.3832326035 -5.190204592
-0.9015039062 -0.4327709637 -2.56875
-0.9378605128 -0.347012476 -2.055535188
-0.6396217001 -0.7686898469 -2.052675942
-0.8792619276 -0.4213353328 -2.249933385
-0.9196822095 -0.3898917199 -2.312142594
-0.7887411065 -0.5578511615 -2.054105565
-0.7705628032 -0.6007304053 -2.310712971
-0.8903829169 -0.4270531482 -2.409341692
-0.9085612202 -0.3841739044 -2.152734287
-0.7594418139 -0.5950125898 -2.151304663
0.2046371457 -0.9532830842 -4.500217184
0.1965792459 -0.9804879398 -4.104974698
0.1952027341 -0.9807629136 -4.617474104
0.6068637262 -0.7948058995 -4.361714717
0.2006081958 -0.966885512 -4.302595941
0.19589099 -0.9806254267 -4.361224401
0.1999199399 -0.9670229989 -4.558845644
0.4057504359 -0.8740444918 -4.43096595
0.401721486 -0.8876469196 -4.233344707
0.4010332301 -0.8877844065 -4.48959441
-0.5668134021 -0.8238462036 -4.616374386
-0.6121152048 -0.7589070932 -4.499493255
-0.6440954127 -0.764945161 -4.102668442
-0.2405801103 -0.9706292858 -4.360142908
-0.5894643035 -0.7913766484 -4.557933821
-0.6281053087 -0.7619261271 -4.301080848
-0.6054544074 -0.7943956823 -4.359521414
-0.4036967562 -0.8972377447 -4.488258647
-0.4263476575 -0.8647681895 -4.429818081
-0.4423377615 -0.8677872234 -4.231405675
-0.9015039062 -0.4327709637 -0.51875
-0.6373771051 -0.7705520268 -1.027680065
-0.9376579414 -0.3475594695 -1.030536013
-0.8788461538 -0.4222018923 -0.75
-0.7694405057 -0.6016614952 -0.7732150324
-0.7875175233 -0.5590557481 -1.029108039
-0.9195809238 -0.3901652166 -0.7746430065
-0.89017503 -0.427486428 -0.634375
-0.7581116295 -0.5963769595 -0.8888400324
-0.9082520476 -0.3848806809 -0.8902680065
0.6022259829 -0.7667782375 -2.250376414
0.9124774891 -0.3435255914 -2.250074321
0.8788461538 -0.4222018923 -1.75
0.8952421874 -0.445579876 -2.055890525
0.757351736 -0.5551519145 -2.250225367
0.8956618214 -0.3828637419 -2.000037161
0.7405360684 -0.5944900649 -2.000188207
0.7487340852 -0.6061790567 -2.153133469
0.9038598382 -0.3945527337 -2.152982423
0.8870441706 -0.4338908841 -1.902945262
-0.87919594 -0.4214730111 -0.2499397705
-0.975 0 0
-0.975 0 -0.5
-1 0 -0.2625
-0.92709797 -0.2107365056 -0.1249698853
-0.975 0 -0.25
-0.92709797 -0.2107365056 -0.3749698853
-0.93959797 -0.2107365056 -0.2562198853
-0.9875 0 -0.13125
-0.9875 0 -0.38125
-0.6373771051 -0.7705520268 -1.027680065
-0.8788461538 -0.4222018923 -0.75
-0.8792291156 -0.4214037995 -1.249933517
-0.9376579414 -0.3475594695 -1.030536013
-0.7581116295 -0.5963769595 -0.8888400324
-0.8790376347 -0.4218028459 -0.9999667587
-0.7583031104 -0.5959779131 -1.138806791
-0.7875175233 -0.5590557481 -1.029108039
-0.9082520476 -0.3848806809 -0.8902680065
-0.9084435285 -0.3844816345 -1.140234765
-0.975 0 -1.5
-0.8788461538 -0.4222018923 -1.75
-0.8792291156 -0.4214037995 -1.249933517
-0.9015039063 -0.4327709637 -1.54375
-0.9269230769 -0.2111009462 -1.625
-0.8790376347 -0.4218028459 -1.499966759
-0.9271145578 -0.2107018997 -1.374966759
-0.9382519531 -0.2163854818 -1.521875
-0.89017503 -0.427486428 -1.646875
-0.8903665109 -0.4270873816 -1.396841759
-0.6440954127 -0.764945161 -4.102668442
-0.6118774524 -0.7590987967 -3.999872374
-0.5649978849 -0.8250923524 -3.591375746
-0.2394391671 -0.9709113684 -3.847643368
-0.6279864326 -0.7620219789 -4.051270408
-0.5884376687 -0.7920955746 -3.79562406
-0.6045466488 -0.7950187567 -3.847022094
-0.4417672899 -0.8679282647 -3.975155905
-0.4256583098 -0.8650050826 -3.923757871
-0.402218526 -0.8980018604 -3.719509557
-0.9015039062 -0.4327709637 -3.59375
-0.8788461538 -0.4222018923 -3.75
-0.6440954127 -0.764945161 -4.102668442
-0.9382647763 -0.3459179232 -4.105533688
-0.89017503 -0.427486428 -3.671875
-0.7614707833 -0.5935735267 -3.926334221
-0.7727996595 -0.5988580624 -3.848209221
-0.9198843413 -0.3893444435 -3.849641844
-0.9085554651 -0.3840599078 -3.927766844
-0.7911800945 -0.5554315421 -4.104101065
-0.975 0 -3
-1 0 -2.825
-1 0 -3.3375
-0.9380627763 -0.3464653342 -3.080534385
-0.9875 0 -2.9125
-1 0 -3.08125
-0.9875 0 -3.16875
-0.9565313881 -0.1732326671 -3.040267193
-0.9690313881 -0.1732326671 -2.952767193
-0.9690313881 -0.1732326671 -3.209017193
-0.8793381996 -0.421176128 -4.249889433
-0.9015039063 -0.4327709637 -4.61875
-0.6440954127 -0.764945161 -4.102668442
-0.9382647763 -0.3459179232 -4.105533688
-0.8904210529 -0.4269735458 -4.434319716
-0.7727996595 -0.5988580624 -4.360709221
-0.7617168061 -0.5930606445 -4.176278937
-0.9088014879 -0.3835470256 -4.177711561
-0.9198843413 -0.3893444435 -4.362141844
-0.7911800945 -0.5554315421 -4.104101065
0.9124392799 -0.343627066 -4.250074452
0.975 0 -4.5
0.975 0 -4
1 0 -4.3625
0.9437196399 -0.171813533 -4.375037226
0.975 0 -4.25
0.9437196399 -0.171813533 -4.125037226
0.9562196399 -0.171813533 -4.306287226
0.9875 0 -4.43125
0.9875 0 -4.18125
-0.8792996465 -0.4212566103 -3.249910088
-0.6118805978 -0.7590962614 -3.499593712
-0.6418609783 -0.7668210251 -3.077671926
-0.9015039062 -0.4327709637 -3.59375
-0.7455901221 -0.5901764358 -3.3747519
-0.626870788 -0.7629586432 -3.288632819
-0.7605803124 -0.5940388177 -3.163791007
-0.8904017764 -0.427013787 -3.421830044
-0.756692252 -0.5959336125 -3.546671856
-0.7716824423 -0.5997959944 -3.335710963
-0.6115267064 -0.7593813847 -1.999896079
-0.6116470135 -0.7592844862 -2.499733328
-0.6396217001 -0.7686898469 -2.052675942
-0.8792619276 -0.4213353328 -2.249933385
-0.6115868599 -0.7593329354 -2.249814703
-0.6256343568 -0.7639871665 -2.276204635
-0.6255742033 -0.7640356158 -2.02628601
-0.745394317 -0.5903583587 -2.124914732
-0.7454544705 -0.5903099095 -2.374833356
-0.7594418139 -0.5950125898 -2.151304663
-0.8792619276 -0.4213353328 -2.249933385
-0.975 0 -2
-0.975 0 -2.5
-1 0 -2.3125
-0.9271309638 -0.2106676664 -2.124966692
-0.975 0 -2.25
-0.9271309638 -0.2106676664 -2.374966692
-0.9396309638 -0.2106676664 -2.281216692
-0.9875 0 -2.15625
-0.9875 0 -2.40625
-0.6114655876 -0.7594305993 -1.499733268
-0.5610821383 -0.8277601308 -1.541391416
-0.6115267064 -0.7593813847 -1.999896079
-0.223364893 -0.94906961 -1.749813109
-0.5862738629 -0.7935953651 -1.520562342
-0.5863044223 -0.7935707577 -1.770643748
-0.611496147 -0.759405992 -1.749814673
-0.4174152403 -0.8542501047 -1.624773188
-0.3922235156 -0.8884148704 -1.645602263
-0.4174457997 -0.8542254973 -1.874854594
-0.6115267064 -0.7593813847 -1.999896079
-0.5610821383 -0.8277601308 -1.541391416
-0.6396217001 -0.7686898469 -2.052675942
-0.2335628852 -0.9723416985 -1.797658445
-0.5863044223 -0.7935707577 -1.770643748
-0.6003519192 -0.7982249888 -1.797033679
-0.6255742033 -0.7640356158 -2.02628601
-0.4225447958 -0.8658615416 -1.898777262
-0.3973225117 -0.9000509146 -1.66952493
-0.4365922927 -0.8705157727 -1.925167193
0.8788461538 -0.4222018923 -3.75
0.8957935497 -0.4444703774 -4.105936763
0.8970491082 -0.4419308741 -3.593555534
0.6045731674 -0.7965496125 -3.849175969
0.8873198518 -0.4333361349 -3.927968381
0.8964213289 -0.4432006258 -3.849746149
0.887947631 -0.4320663832 -3.671777767
0.7417096606 -0.6093757524 -3.799587985
0.7501833585 -0.620509995 -3.977556366
0.7508111378 -0.6192402433 -3.721365752
-0.6120580026 -0.7589532275 -4.999856849
-0.5668134021 -0.8238462036 -4.616374386
-0.6463274373 -0.7630601836 -5.127667615
-0.2419415258 -0.9702908317 -4.872642967
-0.5894357024 -0.7913997155 -4.808115617
-0.6065704197 -0.7934531936 -4.872021
-0.6291927199 -0.7610067055 -5.063762232
-0.4269997642 -0.8646220296 -4.936249908
-0.404377464 -0.8970685176 -4.744508677
-0.4441344815 -0.8666755077 -5.000155291
-0.563124985 -0.8263717391 -2.566378896
-0.6116976235 -0.7592437141 -2.999895878
-0.6116470135 -0.7592844862 -2.499733328
-0.2236241373 -0.9490085591 -2.749813159
-0.5874113043 -0.7928077266 -2.783137387
-0.6116723185 -0.7592641001 -2.749814603
-0.5873859992 -0.7928281126 -2.533056112
-0.3933745612 -0.8876901491 -2.658096027
-0.4176608804 -0.8541261366 -2.874854519
-0.4176355754 -0.8541465226 -2.624773243
0.9124583596 -0.343576399 -3.250074338
0.6020118665 -0.7669463558 -3.250376499
0.8788461538 -0.4222018923 -3.75
0.8970491082 -0.4419308741 -3.593555534
0.757235113 -0.5552613774 -3.250225419
0.7404290102 -0.594574124 -3.50018825
0.8956522567 -0.3828891456 -3.500037169
0.9047537339 -0.3927536366 -3.421814936
0.7495304873 -0.604438615 -3.421966017
0.887947631 -0.4320663832 -3.671777767
-0.6116470135 -0.7592844862 -2.499733328
-0.223495825 -0.9490387854 -2.249806813
-0.2352886399 -0.9719255403 -2.310150061
-0.2236241373 -0.9490085591 -2.749813159
-0.4175714192 -0.8541616358 -2.374770071
-0.2293922325 -0.9604821629 -2.279978437
-0.4234678267 -0.8656050132 -2.404941694
-0.4176355754 -0.8541465226 -2.624773243
-0.2235599812 -0.9490236722 -2.499809986
-0.2294563886 -0.9604670497 -2.52998161
0.9124774891 -0.3435255914 -2.250074321
0.975 0 -2.5
0.975 0 -2
1 0 -2.3125
0.9437387445 -0.1717627957 -2.375037161
0.975 0 -2.25
0.9437387445 -0.1717627957 -2.125037161
0.9562387445 -0.1717627957 -2.281287161
0.9875 0 -2.40625
0.9875 0 -2.15625
-0.6116976235 -0.7592437141 -2.999895878
-0.563124985 -0.8263717391 -2.566378896
-0.6418609783 -0.7668210251 -3.077671926
-0.2368635612 -0.9715429241 -2.822646549
-0.5874113043 -0.7928077266 -2.783137387
-0.6024929817 -0.7965963821 -2.822025411
-0.6267793009 -0.7630323696 -3.038783902
-0.4242805923 -0.8653933191 -2.911271214
-0.3999942731 -0.8989573316 -2.694512723
-0.4393622697 -0.8691819746 -2.950159238
-0.2236241373 -0.9490085591 -2.749813159
-0.6116976235 -0.7592437141 -2.999895878
-0.2237550788 -0.9489776945 -3.249806985
-0.2368635612 -0.9715429241 -2.822646549
-0.4176608804 -0.8541261366 -2.874854519
-0.4177263512 -0.8541107043 -3.124851432
-0.2236896081 -0.9489931268 -2.999810072
-0.2302438492 -0.9602757416 -2.786229854
-0.4242805923 -0.8653933191 -2.911271214
-0.23030932 -0.9602603093 -3.036226767
-0.6123496816 -0.7587179103 -5.499426008
-0.9015039063 -0.4327709637 -5.64375
-0.6463274373 -0.7630601836 -5.127667615
-0.8793767806 -0.4210955684 -5.24987566
-0.7569267939 -0.595744437 -5.571588004
-0.7739156718 -0.5979155737 -5.385708807
-0.6293385594 -0.760889047 -5.313546811
-0.7458632311 -0.5899067393 -5.374650834
-0.8904403434 -0.426933266 -5.44681283
-0.7628521089 -0.592077876 -5.188771637
-0.9015039063 -0.4327709637 -5.64375
-0.8788461538 -0.4222018923 -5.75
-0.8793767806 -0.4210955684 -5.24987566
-0.6123496816 -0.7587179103 -5.499426008
-0.89017503 -0.427486428 -5.696875
-0.8791114672 -0.4216487303 -5.49993783
-0.8904403434 -0.426933266 -5.44681283
-0.7569267939 -0.595744437 -5.571588004
-0.7455979177 -0.5904599013 -5.624713004
-0.7458632311 -0.5899067393 -5.374650834
-0.6440954127 -0.764945161 -4.102668442
-0.8793381996 -0.421176128 -4.249889433
-0.6121152048 -0.7589070932 -4.499493255
-0.9015039063 -0.4327709637 -4.61875
-0.7617168061 -0.5930606445 -4.176278937
-0.7457267022 -0.5900416106 -4.374691344
-0.6281053087 -0.7619261271 -4.301080848
-0.7727996595 -0.5988580624 -4.360709221
-0.8904210529 -0.4269735458 -4.434319716
-0.7568095555 -0.5958390284 -4.559121628
-0.8793767806 -0.4210955684 -5.24987566
-0.8788461538 -0.4222018923 -4.75
-0.975 0 -5
-0.938466735 -0.3453696387 -5.130533523
-0.8791114672 -0.4216487303 -4.99993783
-0.9269230769 -0.2111009462 -4.875
-0.9271883903 -0.2105477842 -5.12493783
-0.9089217578 -0.3832326035 -5.190204592
-0.9086564444 -0.3837857655 -4.940266761
-0.9567333675 -0.1726848194 -5.065266761
-0.9015039063 -0.4327709637 -4.61875
-0.8788461538 -0.4222018923 -4.75
-0.8793381996 -0.421176128 -4.249889433
-0.6121152048 -0.7589070932 -4.499493255
-0.89017503 -0.427486428 -4.684375
-0.8790921767 -0.4216890101 -4.499944716
-0.8904210529 -0.4269735458 -4.434319716
-0.7568095555 -0.5958390284 -4.559121628
-0.7454806793 -0.5905544927 -4.624746628
-0.7457267022 -0.5900416106 -4.374691344
-0.6121152048 -0.7589070932 -4.499493255
-0.5668134021 -0.8238462036 -4.616374386
-0.6440954127 -0.764945161 -4.102668442
-0.9015039063 -0.4327709637 -4.61875
-0.5894643035 -0.7913766484 -4.557933821
-0.6054544074 -0.7943956823 -4.359521414
-0.6281053087 -0.7619261271 -4.301080848
-0.7568095555 -0.5958390284 -4.559121628
-0.7341586542 -0.6283085836 -4.617562193
-0.7727996595 -0.5988580624 -4.360709221
-0.8792619276 -0.4213353328 -2.249933385
-0.8788461538 -0.4222018923 -1.75
-0.975 0 -2
-0.9378605128 -0.347012476 -2.055535188
-0.8790540407 -0.4217686125 -1.999966692
-0.9269230769 -0.2111009462 -1.875
-0.9271309638 -0.2106676664 -2.124966692
-0.9085612202 -0.3841739044 -2.152734287
-0.9083533333 -0.3846071842 -1.902767594
-0.9564302564 -0.173506238 -2.027767594
-0.975 0 -2
-1 0 -1.8
-1 0 -2.3125
-0.9378605128 -0.347012476 -2.055535188
-0.9875 0 -1.9
-1 0 -2.05625
-0.9875 0 -2.15625
-0.9564302564 -0.173506238 -2.027767594
-0.9689302564 -0.173506238 -1.927767594
-0.9689302564 -0.173506238 -2.184017594
-0.9015039062 -0.4327709637 -2.56875
-0.6396217001 -0.7686898469 -2.052675942
-0.6116470135 -0.7592844862 -2.499733328
-0.8792619276 -0.4213353328 -2.249933385
-0.7705628032 -0.6007304053 -2.310712971
-0.6256343568 -0.7639871665 -2.276204635
-0.7565754599 -0.5960277249 -2.534241664
-0.8903829169 -0.4270531482 -2.409341692
-0.7594418139 -0.5950125898 -2.151304663
-0.7454544705 -0.5903099095 -2.374833356
-0.975 0 -1.5
-1 0 -1.2875
-1 0 -1.8
-0.9015039063 -0.4327709637 -1.54375
-0.9875 0 -1.39375
-1 0 -1.54375
-0.9875 0 -1.65
-0.9382519531 -0.2163854818 -1.521875
-0.9507519531 -0.2163854818 -1.415625
-0.9507519531 -0.2163854818 -1.671875
-0.8792996465 -0.4212566103 -3.249910088
-0.8788461538 -0.4222018923 -2.75
-0.975 0 -3
-0.9380627763 -0.3464653342 -3.080534385
-0.8790729002 -0.4217292513 -2.999955044
-0.9269230769 -0.2111009462 -2.875
-0.9271498232 -0.2106283051 -3.124955044
-0.9086812114 -0.3838609722 -3.165222237
-0.9084544651 -0.3843336132 -2.915267193
-0.9565313881 -0.1732326671 -3.040267193
-0.6118805978 -0.7590962614 -3.499593712
-0.6418609783 -0.7668210251 -3.077671926
-0.6116976235 -0.7592437141 -2.999895878
-0.8792996465 -0.4212566103 -3.249910088
-0.626870788 -0.7629586432 -3.288632819
-0.6267793009 -0.7630323696 -3.038783902
-0.6117891106 -0.7591699877 -3.249744795
-0.7455901221 -0.5901764358 -3.3747519
-0.7605803124 -0.5940388177 -3.163791007
-0.745498635 -0.5902501622 -3.124902983
-0.6116470135 -0.7592844862 -2.499733328
-0.563124985 -0.8263717391 -2.566378896
-0.6396217001 -0.7686898469 -2.052675942
-0.9015039062 -0.4327709637 -2.56875
-0.5873859992 -0.7928281126 -2.533056112
-0.6013733426 -0.797530793 -2.309527419
-0.6256343568 -0.7639871665 -2.276204635
-0.7565754599 -0.5960277249 -2.534241664
-0.7323144456 -0.6295713514 -2.567564448
-0.7705628032 -0.6007304053 -2.310712971
-1 0 -2.825
-0.975 0 -2.5
-1 0 -2.3125
-0.9015039062 -0.4327709637 -2.56875
-0.9875 0 -2.6625
-0.9875 0 -2.40625
-1 0 -2.56875
-0.9507519531 -0.2163854818 -2.696875
-0.9382519531 -0.2163854818 -2.534375
-0.9507519531 -0.2163854818 -2.440625
-0.975 0 -4.5
-0.8788461538 -0.4222018923 -4.75
-0.8793381996 -0.421176128 -4.249889433
-0.9015039063 -0.4327709637 -4.61875
-0.9269230769 -0.2111009462 -4.625
-0.8790921767 -0.4216890101 -4.499944716
-0.9271690998 -0.210588064 -4.374944716
-0.9382519531 -0.2163854818 -4.559375
-0.89017503 -0.427486428 -4.684375
-0.8904210529 -0.4269735458 -4.434319716
-0.975 0 -4.5
-1 0 -4.3625
-1 0 -4.875
-0.9015039063 -0.4327709637 -4.61875
-0.9875 0 -4.43125
-1 0 -4.61875
-0.9875 0 -4.6875
-0.9382519531 -0.2163854818 -4.559375
-0.9507519531 -0.2163854818 -4.490625
-0.9507519531 -0.2163854818 -4.746875
-0.8793381996 -0.421176128 -4.249889433
-0.8788461538 -0.4222018923 -3.75
-0.975 0 -4
-0.9382647763 -0.3459179232 -4.105533688
-0.8790921767 -0.4216890101 -3.999944716
-0.9269230769 -0.2111009462 -3.875
-0.9271690998 -0.210588064 -4.124944716
-0.9088014879 -0.3835470256 -4.177711561
-0.9085554651 -0.3840599078 -3.927766844
-0.9566323881 -0.1729589616 -4.052766844
-0.6463274373 -0.7630601836 -5.127667615
-0.5668134021 -0.8238462036 -4.616374386
-0.6120580026 -0.7589532275 -4.999856849
-0.9015039063 -0.4327709637 -4.61875
-0.6065704197 -0.7934531936 -4.872021
-0.5894357024 -0.7913997155 -4.808115617
-0.6291927199 -0.7610067055 -5.063762232
-0.7739156718 -0.5979155737 -4.873208807
-0.7341586542 -0.6283085836 -4.617562193
-0.7567809544 -0.5958620956 -4.809303424
-0.6463274373 -0.7630601836 -5.127667615
-0.8788461538 -0.4222018923 -4.75
-0.938466735 -0.3453696387 -5.130533523
-0.9015039063 -0.4327709637 -4.61875
-0.7625867956 -0.592631038 -4.938833807
-0.9086564444 -0.3837857655 -4.940266761
-0.7923970861 -0.5542149112 -5.129100569
-0.7739156718 -0.5979155737 -4.873208807
-0.89017503 -0.427486428 -4.684375
-0.9199853206 -0.3890703012 -4.874641761
-0.6418609783 -0.7668210251 -3.077671926
-0.9015039062 -0.4327709637 -2.56875
-0.8788461538 -0.4222018923 -2.75
-0.9380627763 -0.3464653342 -3.080534385
-0.7716824423 -0.5997959944 -2.823210963
-0.89017503 -0.427486428 -2.659375
-0.7603535661 -0.5945114587 -2.913835963
-0.7899618773 -0.5566431796 -3.079103156
-0.9197833413 -0.3896181489 -2.824642193
-0.9084544651 -0.3843336132 -2.915267193
-0.8792291156 -0.4214037995 -1.249933517
-0.975 0 -1
-0.975 0 -1.5
-1 0 -1.2875
-0.9271145578 -0.2107018997 -1.124966759
-0.975 0 -1.25
-0.9271145578 -0.2107018997 -1.374966759
-0.9396145578 -0.2107018997 -1.268716759
-0.9875 0 -1.14375
-0.9875 0 -1.39375
-0.8792996465 -0.4212566103 -3.249910088
-0.9015039062 -0.4327709637 -3.59375
-0.6418609783 -0.7668210251 -3.077671926
-0.9380627763 -0.3464653342 -3.080534385
-0.8904017764 -0.427013787 -3.421830044
-0.7716824423 -0.5997959944 -3.335710963
-0.7605803124 -0.5940388177 -3.163791007
-0.9086812114 -0.3838609722 -3.165222237
-0.9197833413 -0.3896181489 -3.337142193
-0.7899618773 -0.5566431796 -3.079103156
-0.975 0 -1
-1 0 -0.775
-1 0 -1.2875
-0.9376579414 -0.3475594695 -1.030536013
-0.9875 0 -0.8875
-1 0 -1.03125
-0.9875 0 -1.14375
-0.9563289707 -0.1737797348 -1.015268006
-0.9688289707 -0.1737797348 -0.9027680065
-0.9688289707 -0.1737797348 -1.159018006
-1 0 -0.775
-0.975 0 -0.5
-1 0 -0.2625
-0.9015039062 -0.4327709637 -0.51875
-0.9875 0 -0.6375
-0.9875 0 -0.38125
-1 0 -0.51875
-0.9507519531 -0.2163854818 -0.646875
-0.9382519531 -0.2163854818 -0.509375
-0.9507519531 -0.2163854818 -0.390625
-0.6373771051 -0.7705520268 -1.027680065
-0.9015039063 -0.4327709637 -1.54375
-0.9376579414 -0.3475594695 -1.030536013
-0.8792291156 -0.4214037995 -1.249933517
-0.7694405057 -0.6016614952 -1.285715032
-0.9195809238 -0.3901652166 -1.287143006
-0.7875175233 -0.5590557481 -1.029108039
-0.7583031104 -0.5959779131 -1.138806791
-0.8903665109 -0.4270873816 -1.396841759
-0.9084435285 -0.3844816345 -1.140234765
-0.9015039063 -0.4327709637 -1.54375
-0.6373771051 -0.7705520268 -1.027680065
-0.6114655876 -0.7594305993 -1.499733268
-0.8792291156 -0.4214037995 -1.249933517
-0.7694405057 -0.6016614952 -1.285715032
-0.6244213463 -0.764991313 -1.263706666
-0.7564847469 -0.5961007815 -1.521741634
-0.8903665109 -0.4270873816 -1.396841759
-0.7583031104 -0.5959779131 -1.138806791
-0.7453473516 -0.5904171994 -1.374833393
-0.9015039063 -0.4327709637 -1.54375
-1 0 -1.2875
-0.9376579414 -0.3475594695 -1.030536013
-0.8792291156 -0.4214037995 -1.249933517
-0.9507519531 -0.2163854818 -1.415625
-0.9688289707 -0.1737797348 -1.159018006
-0.9195809238 -0.3901652166 -1.287143006
-0.8903665109 -0.4270873816 -1.396841759
-0.9396145578 -0.2107018997 -1.268716759
-0.9084435285 -0.3844816345 -1.140234765
-1 0 -1.8
-0.9015039063 -0.4327709637 -1.54375
-0.9378605128 -0.347012476 -2.055535188
-0.8788461538 -0.4222018923 -1.75
-0.9507519531 -0.2163854818 -1.671875
-0.9196822095 -0.3898917199 -1.799642594
-0.9689302564 -0.173506238 -1.927767594
-0.9394230769 -0.2111009462 -1.775
-0.89017503 -0.427486428 -1.646875
-0.9083533333 -0.3846071842 -1.902767594
-0.975 0 -2.5
-0.8788461538 -0.4222018923 -2.75
-0.8792619276 -0.4213353328 -2.249933385
-0.9015039062 -0.4327709637 -2.56875
-0.9269230769 -0.2111009462 -2.625
-0.8790540407 -0.4217686125 -2.499966692
-0.9271309638 -0.2106676664 -2.374966692
-0.9382519531 -0.2163854818 -2.534375
-0.89017503 -0.427486428 -2.659375
-0.8903829169 -0.4270531482 -2.409341692
-1 0 -2.3125
-0.9378605128 -0.347012476 -2.055535188
-0.9015039062 -0.4327709637 -2.56875
-0.8792619276 -0.4213353328 -2.249933385
-0.9689302564 -0.173506238 -2.184017594
-0.9196822095 -0.3898917199 -2.312142594
-0.9507519531 -0.2163854818 -2.440625
-0.9396309638 -0.2106676664 -2.281216692
-0.9085612202 -0.3841739044 -2.152734287
-0.8903829169 -0.4270531482 -2.409341692
-1 0 -0.775
-0.9015039062 -0.4327709637 -0.51875
-0.9376579414 -0.3475594695 -1.030536013
-0.8788461538 -0.4222018923 -0.75
-0.9507519531 -0.2163854818 -0.646875
-0.9195809238 -0.3901652166 -0.7746430065
-0.9688289707 -0.1737797348 -0.9027680065
-0.9394230769 -0.2111009462 -0.7625
-0.89017503 -0.427486428 -0.634375
-0.9082520476 -0.3848806809 -0.8902680065
-0.8788461538 -0.4222018923 -1.75
-0.975 0 -1.5
-0.975 0 -2
-1 0 -1.8
-0.9269230769 -0.2111009462 -1.625
-0.975 0 -1.75
-0.9269230769 -0.2111009462 -1.875
-0.9394230769 -0.2111009462 -1.775
-0.9875 0 -1.65
-0.9875 0 -1.9
0.8952421874 -0.445579876 -2.055890525
0.6069497731 -0.7947401921 -1.799880184
0.6022259829 -0.7667782375 -2.250376414
0.6096374219 -0.7926803983 -2.311829153
0.7510959803 -0.620160034 -1.927885354
0.604587878 -0.7807592148 -2.025128299
0.7487340852 -0.6061790567 -2.153133469
0.7524398046 -0.6191301372 -2.183859839
0.6082935975 -0.7937102952 -2.055854668
0.6059317024 -0.7797293179 -2.281102783
0.2029868328 -0.9791814672 -2.054985317
0.2009143768 -0.9796088062 -2.567480544
0.2051091813 -0.9531816321 -2.500216089
0.6096374219 -0.7926803983 -2.311829153
0.2019506048 -0.9793951367 -2.311232931
0.2030117791 -0.9663952191 -2.533848317
0.2040480071 -0.9661815496 -2.277600703
0.4063121273 -0.8859309328 -2.183407235
0.4052758993 -0.8861446023 -2.439654849
0.4073733016 -0.8729310152 -2.406022621
-0.2352886399 -0.9719255403 -2.310150061
-0.2368635612 -0.9715429241 -2.822646549
-0.2236241373 -0.9490085591 -2.749813159
0.2009143768 -0.9796088062 -2.567480544
-0.2360761006 -0.9717342322 -2.566398305
-0.2302438492 -0.9602757416 -2.786229854
-0.2294563886 -0.9604670497 -2.52998161
-0.01718713155 -0.9757671733 -2.438815302
-0.01797459216 -0.9755758652 -2.695063547
-0.01135488023 -0.9643086826 -2.658646852
0.8952421874 -0.445579876 -2.055890525
0.9015039062 -0.4327709637 -1.54375
0.8788461538 -0.4222018923 -1.75
0.6069497731 -0.7947401921 -1.799880184
0.8983730468 -0.4391754198 -1.799820262
0.89017503 -0.427486428 -1.646875
0.8870441706 -0.4338908841 -1.902945262
0.7510959803 -0.620160034 -1.927885354
0.7542268397 -0.6137555779 -1.671815092
0.7428979635 -0.6084710422 -1.774940092
1 0 -1.8
0.8788461538 -0.4222018923 -1.75
0.8952421874 -0.445579876 -2.055890525
0.9015039062 -0.4327709637 -1.54375
0.9394230769 -0.2111009462 -1.775
0.8870441706 -0.4338908841 -1.902945262
0.9476210937 -0.222789938 -1.927945262
0.9507519531 -0.2163854818 -1.671875
0.89017503 -0.427486428 -1.646875
0.8983730468 -0.4391754198 -1.799820262
1 0 -0.775
0.8788461538 -0.4222018923 -0.75
0.8994754618 -0.4369712732 -1.03129015
0.8997811461 -0.4363414822 -0.5187843231
0.9394230769 -0.2111009462 -0.7625
0.8891608078 -0.4295865827 -0.8906450752
0.9497377309 -0.2184856366 -0.9031450752
0.9498905731 -0.2181707411 -0.6468921616
0.88931365 -0.4292716872 -0.6343921616
0.899628304 -0.4366563777 -0.7750372368
1 0 -0.2625
0.8997811461 -0.4363414822 -0.5187843231
0.8994741469 -0.4369739798 -0.006450738723
0.9125157629 -0.3434239108 -0.2500743298
0.9498905731 -0.2181707411 -0.3906421616
0.8996276465 -0.436657731 -0.2626175309
0.9497370735 -0.2184869899 -0.1344753694
0.9562578814 -0.1717119554 -0.2562871649
0.9061484545 -0.3898826965 -0.3844293264
0.9059949549 -0.3901989453 -0.1282625342
1 0 -1.2875
0.9015039062 -0.4327709637 -1.54375
0.8994754618 -0.4369712732 -1.03129015
0.9124966263 -0.3434747546 -1.250074323
0.9507519531 -0.2163854818 -1.415625
0.900489684 -0.4348711184 -1.287520075
0.9497377309 -0.2184856366 -1.159395075
0.9562483131 -0.1717373773 -1.268787162
0.9070002663 -0.3881228592 -1.396912162
0.905986044 -0.3902230139 -1.140682237
0.8788461538 -0.4222018923 -2.75
0.975 0 -3
0.975 0 -2.5
1 0 -2.825
0.9269230769 -0.2111009462 -2.875
0.975 0 -2.75
0.9269230769 -0.2111009462 -2.625
0.9394230769 -0.2111009462 -2.7875
0.9875 0 -2.9125
0.9875 0 -2.6625
0.8952421874 -0.445579876 -2.055890525
0.9124774891 -0.3435255914 -2.250074321
1 0 -2.3125
0.8974677314 -0.4410801186 -2.568557907
0.9038598382 -0.3945527337 -2.152982423
0.9562387445 -0.1717627957 -2.281287161
0.9476210937 -0.222789938 -2.184195262
0.8963549594 -0.4433299973 -2.312224216
0.9049726102 -0.392302855 -2.409316114
0.9487338657 -0.2205400593 -2.440528954
0.9124583596 -0.343576399 -3.250074338
0.8970491082 -0.4419308741 -3.593555534
1 0 -3.3375
0.8963209538 -0.44340585 -3.080938699
0.9047537339 -0.3927536366 -3.421814936
0.9485245541 -0.2209654371 -3.465527767
0.9562291798 -0.1717881995 -3.293787169
0.9043896567 -0.3934911245 -3.165506518
0.896685031 -0.4426683621 -3.337247117
0.9481604769 -0.221702925 -3.209219349
-0.2394391671 -0.9709113684 -3.847643368
-0.2405801103 -0.9706292858 -4.360142908
-0.2240144455 -0.9489165022 -4.249807786
0.1965792459 -0.9804879398 -4.104974698
-0.2400096387 -0.9707703271 -4.103893138
-0.2322972779 -0.959772894 -4.304975347
-0.2317268063 -0.9599139353 -4.048725577
-0.02142996062 -0.9756996541 -3.976309033
-0.02200043219 -0.9755586128 -4.232558803
-0.01371759983 -0.964702221 -4.177391242
0.5306895478 -0.8179202919 -2.750228985
0.6022259829 -0.7667782375 -2.250376414
0.2051091813 -0.9531816321 -2.500216089
0.6096374219 -0.7926803983 -2.311829153
0.5664577653 -0.7923492647 -2.500302699
0.4036675821 -0.8599799348 -2.375296252
0.3678993645 -0.885550962 -2.625222537
0.5701634848 -0.8053003451 -2.531029069
0.6059317024 -0.7797293179 -2.281102783
0.4073733016 -0.8729310152 -2.406022621
0.8963209538 -0.44340585 -3.080938699
0.8974677314 -0.4410801186 -2.568557907
1 0 -2.825
0.8788461538 -0.4222018923 -2.75
0.8968943426 -0.4422429843 -2.824748303
0.9487338657 -0.2205400593 -2.696778954
0.9481604769 -0.221702925 -2.952969349
0.8875835538 -0.4328038712 -2.915469349
0.8881569426 -0.4316410055 -2.659278954
0.9394230769 -0.2111009462 -2.7875
0.1979689097 -0.9802082997 -3.592476081
0.2048730903 -0.9532324044 -3.500216165
0.1993791056 -0.9799224318 -3.079977938
0.6085539038 -0.7935125368 -3.336717444
0.201421 -0.9667203521 -3.546346123
0.202126098 -0.9665774181 -3.290097052
0.1986740077 -0.9800653657 -3.33622701
0.4032614068 -0.8868604183 -3.464596763
0.4067134971 -0.8733724706 -3.418466805
0.4039665047 -0.8867174843 -3.208347691
0.8788461538 -0.4222018923 -3.75
0.975 0 -4
0.975 0 -3.5
1 0 -3.85
0.9269230769 -0.2111009462 -3.875
0.975 0 -3.75
0.9269230769 -0.2111009462 -3.625
0.9394230769 -0.2111009462 -3.8
0.9875 0 -3.925
0.9875 0 -3.675
0.8970491082 -0.4419308741 -3.593555534
1 0 -3.85
0.8957935497 -0.4444703774 -4.105936763
0.8788461538 -0.4222018923 -3.75
0.9485245541 -0.2209654371 -3.721777767
0.9478967748 -0.2222351887 -3.977968381
0.8964213289 -0.4432006258 -3.849746149
0.887947631 -0.4320663832 -3.671777767
0.9394230769 -0.2111009462 -3.8
0.8873198518 -0.4333361349 -3.927968381
0.9015039062 -0.4327709637 -1.54375
1 0 -1.2875
1 0 -1.8
0.975 0 -1.5
0.9507519531 -0.2163854818 -1.415625
1 0 -1.54375
0.9507519531 -0.2163854818 -1.671875
0.9382519531 -0.2163854818 -1.521875
0.9875 0 -1.39375
0.9875 0 -1.65
0.8788461538 -0.4222018923 -0.75
0.975 0 -1
0.975 0 -0.5
1 0 -0.775
0.9269230769 -0.2111009462 -0.875
0.975 0 -0.75
0.9269230769 -0.2111009462 -0.625
0.9394230769 -0.2111009462 -0.7625
0.9875 0 -0.8875
0.9875 0 -0.6375
0.9125157629 -0.3434239108 -0.2500743298
1 0 -0.2625
0.8997811461 -0.4363414822 -0.5187843231
0.975 0 -0.5
0.9562578814 -0.1717119554 -0.2562871649
0.9498905731 -0.2181707411 -0.3906421616
0.9061484545 -0.3898826965 -0.3844293264
0.9437578814 -0.1717119554 -0.3750371649
0.9875 0 -0.38125
0.9373905731 -0.2181707411 -0.5093921616
1 0 -0.775
0.8997811461 -0.4363414822 -0.5187843231
1 0 -0.2625
0.975 0 -0.5
0.9498905731 -0.2181707411 -0.6468921616
0.9498905731 -0.2181707411 -0.3906421616
1 0 -0.51875
0.9875 0 -0.6375
0.9373905731 -0.2181707411 -0.5093921616
0.9875 0 -0.38125
-0.2238834255 -0.9489474231 -3.749813492
-0.2380623499 -0.9712498739 -3.335144996
-0.2394391671 -0.9709113684 -3.847643368
0.1979689097 -0.9802082997 -3.592476081
-0.2309728877 -0.9600986485 -3.542479244
-0.2387507585 -0.9710806211 -3.591394182
-0.2316612963 -0.9599293957 -3.79872843
-0.01295725787 -0.9645778614 -3.671144787
-0.02004672009 -0.9757290868 -3.463810539
-0.0207351287 -0.975559834 -3.720059725
-0.6118805978 -0.7590962614 -3.499593712
-0.2238834255 -0.9489474231 -3.749813492
-0.2237550788 -0.9489776945 -3.249806985
-0.2380623499 -0.9712498739 -3.335144996
-0.4178820116 -0.8540218422 -3.624703602
-0.2238192522 -0.9489625588 -3.499810239
-0.4178178383 -0.8540369779 -3.374700349
-0.4249714739 -0.8651730676 -3.417369354
-0.2309728877 -0.9600986485 -3.542479244
-0.2309087144 -0.9601137842 -3.292475991
0.8788461538 -0.4222018923 -4.75
1 0 -4.875
0.8966317323 -0.4427770734 -4.618553276
0.8952706741 -0.445522637 -5.130936216
0.9394230769 -0.2111009462 -4.8125
0.9483158661 -0.2213885367 -4.746776638
0.8877389431 -0.4324894828 -4.684276638
0.887058414 -0.4338622647 -4.940468108
0.947635337 -0.2227613185 -5.002968108
0.8959512032 -0.4441498552 -4.874744746
0.2045097222 -0.9533104287 -5.000175629
0.1952027341 -0.9807629136 -4.617474104
0.1938235058 -0.9810364155 -5.129975304
0.6026149671 -0.7980320805 -4.874173489
0.1998562282 -0.9670366711 -4.808824866
0.19451312 -0.9808996645 -4.873724704
0.199166614 -0.9671734221 -5.065075467
0.4035623447 -0.8756712546 -4.937174559
0.3989088506 -0.889397497 -4.745823796
0.3982192365 -0.889534248 -5.002074397
0.8788461538 -0.4222018923 -2.75
0.8963209538 -0.44340585 -3.080938699
0.8974677314 -0.4410801186 -2.568557907
0.6065660823 -0.7950330734 -2.824180442
0.8875835538 -0.4328038712 -2.915469349
0.8968943426 -0.4422429843 -2.824748303
0.8881569426 -0.4316410055 -2.659278954
0.7427061181 -0.6086174828 -2.787090221
0.7514435181 -0.6192194617 -2.95255957
0.7520169069 -0.618056596 -2.696369174
0.2045097222 -0.9533104287 -5.000175629
0.5303453467 -0.8181435163 -4.750230734
0.1952027341 -0.9807629136 -4.617474104
0.6026149671 -0.7980320805 -4.874173489
0.3674275345 -0.8857269725 -4.875203181
0.3627740404 -0.8994532149 -4.683852419
0.1998562282 -0.9670366711 -4.808824866
0.4035623447 -0.8756712546 -4.937174559
0.5664801569 -0.8080877984 -4.812202112
0.3989088506 -0.889397497 -4.745823796
-0.6120580026 -0.7589532275 -4.999856849
-0.2242744429 -0.948855086 -5.249811725
-0.224142999 -0.9488861449 -4.749815241
-0.2419415258 -0.9702908317 -4.872642967
-0.4181662227 -0.8539041567 -5.124834287
-0.2242087209 -0.9488706155 -4.999813483
-0.4181005008 -0.8539196862 -4.874836045
-0.4269997642 -0.8646220296 -4.936249908
-0.2331079843 -0.9595729589 -5.061227346
-0.2330422624 -0.9595884883 -4.811229104
0.9124392799 -0.343627066 -4.250074452
0.6017982893 -0.7671139544 -4.250377076
0.8788461538 -0.4222018923 -4.75
0.8966317323 -0.4427770734 -4.618553276
0.7571187846 -0.5553705102 -4.250225764
0.7403222216 -0.5946579234 -4.500188538
0.8956427169 -0.3829144792 -4.500037226
0.9045355061 -0.3932020697 -4.434313864
0.7492150108 -0.6049455139 -4.434465176
0.8877389431 -0.4324894828 -4.684276638
0.9124774891 -0.3435255914 -2.250074321
0.6022259829 -0.7667782375 -2.250376414
0.8788461538 -0.4222018923 -2.75
0.8974677314 -0.4410801186 -2.568557907
0.757351736 -0.5551519145 -2.250225367
0.7405360684 -0.5944900649 -2.500188207
0.8956618214 -0.3828637419 -2.500037161
0.9049726102 -0.392302855 -2.409316114
0.7498468572 -0.6039291781 -2.40946716
0.8881569426 -0.4316410055 -2.659278954
-0.2242744429 -0.948855086 -5.249811725
-0.2419415258 -0.9702908317 -4.872642967
-0.2430775448 -0.9700068594 -5.385146092
0.1938235058 -0.9810364155 -5.129975304
-0.2331079843 -0.9595729589 -5.061227346
-0.2425095353 -0.9701488455 -5.128894529
-0.2336759938 -0.9594309727 -5.317478908
-0.01522546854 -0.9649457508 -5.189893515
-0.02405900996 -0.9756636236 -5.001309136
-0.02462701946 -0.9755216374 -5.257560698
-0.224142999 -0.9488861449 -4.749815241
-0.2405801103 -0.9706292858 -4.360142908
-0.2419415258 -0.9702908317 -4.872642967
0.1952027341 -0.9807629136 -4.617474104
-0.2323615546 -0.9597577154 -4.554979074
-0.241260818 -0.9704600588 -4.616392937
-0.2330422624 -0.9595884883 -4.811229104
-0.01447013242 -0.9648245292 -4.683644672
-0.02268868808 -0.9756960997 -4.488808506
-0.02336939583 -0.9755268726 -4.745058535
0.8952706741 -0.445522637 -5.130936216
0.8966317323 -0.4427770734 -4.618553276
0.8788461538 -0.4222018923 -4.75
0.6026149671 -0.7980320805 -4.874173489
0.8959512032 -0.4441498552 -4.874744746
0.8877389431 -0.4324894828 -4.684276638
0.887058414 -0.4338622647 -4.940468108
0.7489428206 -0.6217773587 -5.002554853
0.7496233497 -0.6204045769 -4.746363383
0.7407305605 -0.6101169864 -4.812086745
-0.2335628852 -0.9723416985 -1.797658445
0.2029868328 -0.9791814672 -2.054985317
0.2052171505 -0.9531583925 -2.000172078
0.207966601 -0.9781359276 -1.542497538
-0.01528802619 -0.9757615829 -1.926321881
0.2041019917 -0.9661699298 -2.027578698
-0.01417286733 -0.9627500455 -1.898915261
-0.0127981421 -0.9752388131 -1.670077991
0.2054767169 -0.9786586974 -1.798741427
0.2065918758 -0.96564716 -1.771334808
0.9015039062 -0.4327709637 -1.54375
0.8788461538 -0.4222018923 -1.75
0.9124966263 -0.3434747546 -1.250074323
0.975 0 -1.5
0.89017503 -0.427486428 -1.646875
0.8956713901 -0.3828383235 -1.500037162
0.9070002663 -0.3881228592 -1.396912162
0.9382519531 -0.2163854818 -1.521875
0.9269230769 -0.2111009462 -1.625
0.9437483131 -0.1717373773 -1.375037162
0.6020118665 -0.7669463558 -3.250376499
0.2048730903 -0.9532324044 -3.500216165
0.5305170137 -0.818032211 -3.750229258
0.6085539038 -0.7935125368 -3.336717444
0.4034424784 -0.8600893801 -3.375296332
0.367695052 -0.8856323077 -3.625222711
0.5662644401 -0.7924892834 -3.500302878
0.6052828851 -0.7802294463 -3.293546972
0.4067134971 -0.8733724706 -3.418466805
0.5695354588 -0.8057723739 -3.543473351
-0.2237550788 -0.9489776945 -3.249806985
-0.2368635612 -0.9715429241 -2.822646549
-0.2380623499 -0.9712498739 -3.335144996
0.1993791056 -0.9799224318 -3.079977938
-0.23030932 -0.9602603093 -3.036226767
-0.2374629555 -0.971396399 -3.078895773
-0.2309087144 -0.9601137842 -3.292475991
-0.01218798662 -0.9644500631 -3.164892462
-0.01874222779 -0.9757326779 -2.951312244
-0.01934162217 -0.9755861528 -3.207561467
0.1979689097 -0.9802082997 -3.592476081
0.6045731674 -0.7965496125 -3.849175969
0.5305170137 -0.818032211 -3.750229258
0.6085539038 -0.7935125368 -3.336717444
0.4012710386 -0.8883789561 -3.720826025
0.5675450906 -0.8072909118 -3.799702613
0.3642429617 -0.8991202553 -3.671352669
0.4032614068 -0.8868604183 -3.464596763
0.6065635356 -0.7950310747 -3.592946707
0.5695354588 -0.8057723739 -3.543473351
0.6020118665 -0.7669463558 -3.250376499
0.9124583596 -0.343576399 -3.250074338
0.8788461538 -0.4222018923 -2.75
0.8963209538 -0.44340585 -3.080938699
0.757235113 -0.5552613774 -3.250225419
0.8956522567 -0.3828891456 -3.000037169
0.7404290102 -0.594574124 -3.00018825
0.7491664101 -0.6051761029 -3.165657599
0.9043896567 -0.3934911245 -3.165506518
0.8875835538 -0.4328038712 -2.915469349
-0.6121152048 -0.7589070932 -4.499493255
-0.224142999 -0.9488861449 -4.749815241
-0.2240144455 -0.9489165022 -4.249807786
-0.2405801103 -0.9706292858 -4.360142908
-0.4181291019 -0.853896619 -4.624654248
-0.2240787222 -0.9489013236 -4.499811513
-0.4180648252 -0.8539117977 -4.37465052
-0.4263476575 -0.8647681895 -4.429818081
-0.2323615546 -0.9597577154 -4.554979074
-0.2322972779 -0.959772894 -4.304975347
-0.6118774524 -0.7590987967 -3.999872374
-0.2240144455 -0.9489165022 -4.249807786
-0.2238834255 -0.9489474231 -3.749813492
-0.2394391671 -0.9709113684 -3.847643368
-0.417945949 -0.8540076495 -4.12484008
-0.2239489355 -0.9489319627 -3.999810639
-0.417880439 -0.8540231099 -3.874842933
-0.4256583098 -0.8650050826 -3.923757871
-0.2317268063 -0.9599139353 -4.048725577
-0.2316612963 -0.9599293957 -3.79872843
0.1952027341 -0.9807629136 -4.617474104
0.6026149671 -0.7980320805 -4.874173489
0.5303453467 -0.8181435163 -4.750230734
0.6068637262 -0.7948058995 -4.361714717
0.3989088506 -0.889397497 -4.745823796
0.5664801569 -0.8080877984 -4.812202112
0.3627740404 -0.8994532149 -4.683852419
0.4010332301 -0.8877844065 -4.48959441
0.6047393466 -0.79641899 -4.617944103
0.5686045364 -0.8064747079 -4.555972725
-0.2322542597 -0.9726551079 -1.28519263
-0.2335628852 -0.9723416985 -1.797658445
-0.223364893 -0.94906961 -1.749813109
0.207966601 -0.9781359276 -1.542497538
-0.2329085725 -0.9724984032 -1.541425537
-0.2284638891 -0.9607056542 -1.773735777
-0.2278095763 -0.9608623589 -1.51750287
-0.01214382937 -0.9753955177 -1.413845084
-0.0127981421 -0.9752388131 -1.670077991
-0.007699145978 -0.9636027688 -1.646155323
-0.223495825 -0.9490387854 -2.249806813
-0.2335628852 -0.9723416985 -1.797658445
-0.2352886399 -0.9719255403 -2.310150061
0.2029868328 -0.9791814672 -2.054985317
-0.2285293551 -0.960690242 -2.023732629
-0.2344257626 -0.9721336194 -2.053904253
-0.2293922325 -0.9604821629 -2.279978437
-0.01025449609 -0.9641101263 -2.152396065
-0.01528802619 -0.9757615829 -1.926321881
-0.01615090356 -0.9755535038 -2.182567689
0.2052171505 -0.9531583925 -2.000172078
-0.223495825 -0.9490387854 -2.249806813
0.2051091813 -0.9531816321 -2.500216089
0.2029868328 -0.9791814672 -2.054985317
-0.00913933723 -0.9510985889 -2.124989446
-0.009193321832 -0.9511102087 -2.375011451
0.2051631659 -0.9531700123 -2.250194084
0.2041019917 -0.9661699298 -2.027578698
-0.01025449609 -0.9641101263 -2.152396065
0.2040480071 -0.9661815496 -2.277600703
0.6017982893 -0.7671139544 -4.250377076
0.9124392799 -0.343627066 -4.250074452
0.8788461538 -0.4222018923 -3.75
0.8957935497 -0.4444703774 -4.105936763
0.7571187846 -0.5553705102 -4.250225764
0.8956427169 -0.3829144792 -4.000037226
0.7403222216 -0.5946579234 -4.000188538
0.7487959195 -0.6057921659 -4.17815692
0.9041164148 -0.3940487217 -4.178005607
0.8873198518 -0.4333361349 -3.927968381
0.8997811461 -0.4363414822 -0.5187843231
0.8788461538 -0.4222018923 -0.75
0.9125157629 -0.3434239108 -0.2500743298
0.975 0 -0.5
0.88931365 -0.4292716872 -0.6343921616
0.8956809584 -0.3828129016 -0.5000371649
0.9061484545 -0.3898826965 -0.3844293264
0.9373905731 -0.2181707411 -0.5093921616
0.9269230769 -0.2111009462 -0.625
0.9437578814 -0.1717119554 -0.3750371649
0.6026543327 -0.766441619 -0.2503764584
0.9125157629 -0.3434239108 -0.2500743298
0.8788461538 -0.4222018923 0.25
0.8994741469 -0.4369739798 -0.006450738723
0.7575850478 -0.5549327649 -0.2502253941
0.8956809584 -0.3828129016 -3.716488393e-05
0.7407502433 -0.5943217557 -0.0001882292068
0.7510642398 -0.6017077994 -0.1284135986
0.9059949549 -0.3901989453 -0.1282625342
0.8891601504 -0.4295879361 0.1217746306
-0.2238834255 -0.9489474231 -3.749813492
0.2047450786 -0.9532599083 -4.000172898
0.2048730903 -0.9532324044 -3.500216165
0.1979689097 -0.9802082997 -3.592476081
-0.00956917344 -0.9511036657 -3.874993195
0.2048090845 -0.9532461564 -3.750194532
-0.009505167573 -0.9510899138 -3.625014829
-0.01295725787 -0.9645778614 -3.671144787
0.2013569942 -0.966734104 -3.79632449
0.201421 -0.9667203521 -3.546346123
0.1952027341 -0.9807629136 -4.617474104
0.2045097222 -0.9533104287 -5.000175629
0.2046371457 -0.9532830842 -4.500217184
0.5303453467 -0.8181435163 -4.750230734
0.1998562282 -0.9670366711 -4.808824866
0.204573434 -0.9532967565 -4.750196407
0.1999199399 -0.9670229989 -4.558845644
0.3627740404 -0.8994532149 -4.683852419
0.3674275345 -0.8857269725 -4.875203181
0.3674912462 -0.8857133002 -4.625223959
0.6026149671 -0.7980320805 -4.874173489
0.5303453467 -0.8181435163 -4.750230734
0.6015875971 -0.767279195 -5.250380109
0.2045097222 -0.9533104287 -5.000175629
0.5664801569 -0.8080877984 -4.812202112
0.5659664719 -0.7927113556 -5.000305422
0.6021012821 -0.7826556377 -5.062276799
0.4035623447 -0.8756712546 -4.937174559
0.3674275345 -0.8857269725 -4.875203181
0.4030486597 -0.8602948118 -5.125277869
0.8788461538 -0.4222018923 -4.75
0.5303453467 -0.8181435163 -4.750230734
0.6015875971 -0.767279195 -5.250380109
0.6026149671 -0.7980320805 -4.874173489
0.7045957503 -0.6201727043 -4.750115367
0.5659664719 -0.7927113556 -5.000305422
0.7402168755 -0.5947405436 -5.000190055
0.7407305605 -0.6101169864 -4.812086745
0.5664801569 -0.8080877984 -4.812202112
0.6021012821 -0.7826556377 -5.062276799
0.6045731674 -0.7965496125 -3.849175969
0.8957935497 -0.4444703774 -4.105936763
0.6068637262 -0.7948058995 -4.361714717
0.6017982893 -0.7671139544 -4.250377076
0.7501833585 -0.620509995 -3.977556366
0.7513286379 -0.6196381384 -4.23382574
0.6057184468 -0.795677756 -4.105445343
0.6031857283 -0.7818317835 -4.049776523
0.7487959195 -0.6057921659 -4.17815692
0.6043310077 -0.7809599269 -4.306045896
0.6020118665 -0.7669463558 -3.250376499
0.6085539038 -0.7935125368 -3.336717444
0.8963209538 -0.44340585 -3.080938699
0.6065660823 -0.7950330734 -2.824180442
0.6052828851 -0.7802294463 -3.293546972
0.7524374288 -0.6184591934 -3.208828071
0.7491664101 -0.6051761029 -3.165657599
0.6042889744 -0.7809897146 -3.03727847
0.6075599931 -0.7942728051 -3.080448943
0.7514435181 -0.6192194617 -2.95255957
0.2049810577 -0.9532091932 -3.000172277
0.6065660823 -0.7950330734 -2.824180442
0.6020118665 -0.7669463558 -3.250376499
0.5306895478 -0.8179202919 -2.750228985
0.40577357 -0.8741211333 -2.912176359
0.6042889744 -0.7809897146 -3.03727847
0.4034964621 -0.8600777745 -3.125274388
0.3678353027 -0.8855647426 -2.875200631
0.568627815 -0.8064766826 -2.787204713
0.5663507071 -0.7924333238 -3.000302742
-0.2236241373 -0.9490085591 -2.749813159
0.2049810577 -0.9532091932 -3.000172277
0.2051091813 -0.9531816321 -2.500216089
0.2009143768 -0.9796088062 -2.567480544
-0.009321539811 -0.9511088761 -2.874992718
0.2050451195 -0.9531954126 -2.750194183
-0.009257477976 -0.9510950956 -2.625014624
-0.01135488023 -0.9643086826 -2.658646852
0.2029477173 -0.9664089997 -2.78382641
0.2030117791 -0.9663952191 -2.533848317
0.5306895478 -0.8179202919 -2.750228985
0.2009143768 -0.9796088062 -2.567480544
0.6065660823 -0.7950330734 -2.824180442
0.6096374219 -0.7926803983 -2.311829153
0.3658019623 -0.8987645491 -2.658854765
0.4037402296 -0.8873209398 -2.695830493
0.568627815 -0.8064766826 -2.787204713
0.5701634848 -0.8053003451 -2.531029069
0.4052758993 -0.8861446023 -2.439654849
0.6081017521 -0.7938567358 -2.568004797
0.9124966263 -0.3434747546 -1.250074323
0.6024401696 -0.7666099674 -1.250376426
0.8788461538 -0.4222018923 -1.75
0.9015039062 -0.4327709637 -1.54375
0.7574683979 -0.555042361 -1.250225375
0.7406431617 -0.5944059298 -1.500188213
0.8956713901 -0.3828383235 -1.500037162
0.9070002663 -0.3881228592 -1.396912162
0.7519720379 -0.5996904655 -1.397063213
0.89017503 -0.427486428 -1.646875
0.2090944675 -0.9778954462 -1.030171376
0.207966601 -0.9781359276 -1.542497538
0.2053452909 -0.9531307945 -1.500216202
0.621335908 -0.7835443123 -1.286908041
0.2085305342 -0.9780156869 -1.286334457
0.2066559459 -0.9656333611 -1.52135687
0.2072198792 -0.9655131204 -1.265193789
0.4152151877 -0.8807198793 -1.158539709
0.4146512545 -0.88084012 -1.414702789
0.4133405995 -0.8683375534 -1.393562121
0.6024401696 -0.7666099674 -1.250376426
0.9124966263 -0.3434747546 -1.250074323
0.8788461538 -0.4222018923 -0.75
0.8994754618 -0.4369712732 -1.03129015
0.7574683979 -0.555042361 -1.250225375
0.8956713901 -0.3828383235 -1.000037162
0.7406431617 -0.5944059298 -1.000188213
0.7509578157 -0.6017906203 -1.140833288
0.905986044 -0.3902230139 -1.140682237
0.8891608078 -0.4295865827 -0.8906450752
0.207966601 -0.9781359276 -1.542497538
0.6069497731 -0.7947401921 -1.799880184
0.5308622358 -0.8178082212 -1.750228954
0.621335908 -0.7835443123 -1.286908041
0.4074581871 -0.8864380598 -1.671188861
0.5689060045 -0.8062742066 -1.775054569
0.3694144184 -0.8979720744 -1.646363246
0.4146512545 -0.88084012 -1.414702789
0.6141428406 -0.7891422522 -1.543394112
0.5760990719 -0.8006762668 -1.518568497
0.8994754618 -0.4369712732 -1.03129015
0.8997811461 -0.4363414822 -0.5187843231
0.8788461538 -0.4222018923 -0.75
0.6155165626 -0.7881239504 -0.7749841767
0.899628304 -0.4366563777 -0.7750372368
0.88931365 -0.4292716872 -0.6343921616
0.8891608078 -0.4295865827 -0.8906450752
0.7574960122 -0.6125476118 -0.9031371636
0.7576488544 -0.6122327163 -0.6468842499
0.7471813582 -0.6051629213 -0.7624920884
0.9125157629 -0.3434239108 -0.2500743298
0.6026543327 -0.766441619 -0.2503764584
0.8788461538 -0.4222018923 -0.75
0.8997811461 -0.4363414822 -0.5187843231
0.7575850478 -0.5549327649 -0.2502253941
0.7407502433 -0.5943217557 -0.5001882292
0.8956809584 -0.3828129016 -0.5000371649
0.9061484545 -0.3898826965 -0.3844293264
0.7512177394 -0.6013915506 -0.3845803908
0.88931365 -0.4292716872 -0.6343921616
0.6155165626 -0.7881239504 -0.7749841767
0.2090944675 -0.9778954462 -1.030171376
0.2099909154 -0.9777033371 -0.5178048464
0.5310349352 -0.8176960912 -0.7502289706
0.412305515 -0.8830096983 -0.9025777765
0.2095426914 -0.9777993917 -0.7739881113
0.412753739 -0.8829136438 -0.6463945116
0.5732757489 -0.8029100208 -0.7626065737
0.3700647013 -0.8977957687 -0.8902001734
0.3705129253 -0.8976997142 -0.6340169085
0.2099909154 -0.9777033371 -0.5178048464
0.6185661737 -0.7857327082 -0.2624203403
0.6155165626 -0.7881239504 -0.7749841767
0.5310349352 -0.8176960912 -0.7502289706
0.4142785446 -0.8817180227 -0.3901125934
0.6170413682 -0.7869283293 -0.5187022585
0.412753739 -0.8829136438 -0.6463945116
0.3705129253 -0.8976997142 -0.6340169085
0.5748005545 -0.8017143997 -0.5063246554
0.5732757489 -0.8029100208 -0.7626065737
-0.6418609783 -0.7668210251 -3.077671926
-0.8788461538 -0.4222018923 -2.75
-0.8792996465 -0.4212566103 -3.249910088
-0.9380627763 -0.3464653342 -3.080534385
-0.7603535661 -0.5945114587 -2.913835963
-0.8790729002 -0.4217292513 -2.999955044
-0.7605803124 -0.5940388177 -3.163791007
-0.7899618773 -0.5566431796 -3.079103156
-0.9084544651 -0.3843336132 -2.915267193
-0.9086812114 -0.3838609722 -3.165222237
0.8788461538 -0.4222018923 -1.75
0.975 0 -2
0.975 0 -1.5
1 0 -1.8
0.9269230769 -0.2111009462 -1.875
0.975 0 -1.75
0.9269230769 -0.2111009462 -1.625
0.9394230769 -0.2111009462 -1.775
0.9875 0 -1.9
0.9875 0 -1.65
-0.6440954127 -0.764945161 -4.102668442
-0.8788461538 -0.4222018923 -3.75
-0.8793381996 -0.421176128 -4.249889433
-0.9382647763 -0.3459179232 -4.105533688
-0.7614707833 -0.5935735267 -3.926334221
-0.8790921767 -0.4216890101 -3.999944716
-0.7617168061 -0.5930606445 -4.176278937
-0.7911800945 -0.5554315421 -4.104101065
-0.9085554651 -0.3840599078 -3.927766844
-0.9088014879 -0.3835470256 -4.177711561
-0.224142999 -0.9488861449 -4.749815241
0.2045097222 -0.9533104287 -5.000175629
0.2046371457 -0.9532830842 -4.500217184
0.1952027341 -0.9807629136 -4.617474104
-0.009816638352 -0.9510982868 -4.874995435
0.204573434 -0.9532967565 -4.750196407
-0.009752926625 -0.9510846146 -4.625016213
-0.01447013242 -0.9648245292 -4.683644672
0.1998562282 -0.9670366711 -4.808824866
0.1999199399 -0.9670229989 -4.558845644
-0.6463274373 -0.7630601836 -5.127667615
-0.8788461538 -0.4222018923 -4.75
-0.8793767806 -0.4210955684 -5.24987566
-0.938466735 -0.3453696387 -5.130533523
-0.7625867956 -0.592631038 -4.938833807
-0.8791114672 -0.4216487303 -4.99993783
-0.7628521089 -0.592077876 -5.188771637
-0.7923970861 -0.5542149112 -5.129100569
-0.9086564444 -0.3837857655 -4.940266761
-0.9089217578 -0.3832326035 -5.190204592
0.1965792459 -0.9804879398 -4.104974698
0.2047450786 -0.9532599083 -4.000172898
0.2046371457 -0.9532830842 -4.500217184
-0.2240144455 -0.9489165022 -4.249807786
0.2006621622 -0.9668739241 -4.052573798
0.2046911121 -0.9532714962 -4.250195041
0.2006081958 -0.966885512 -4.302595941
-0.01371759983 -0.964702221 -4.177391242
-0.009634683476 -0.9510882053 -4.124990342
-0.009688649922 -0.9510997932 -4.375012485
-0.975 0 -3.5
-0.8788461538 -0.4222018923 -3.75
-0.8792996465 -0.4212566103 -3.249910088
-0.9015039062 -0.4327709637 -3.59375
-0.9269230769 -0.2111009462 -3.625
-0.8790729002 -0.4217292513 -3.499955044
-0.9271498232 -0.2106283051 -3.374955044
-0.9382519531 -0.2163854818 -3.546875
-0.89017503 -0.427486428 -3.671875
-0.8904017764 -0.427013787 -3.421830044
0.6068637262 -0.7948058995 -4.361714717
0.6017982893 -0.7671139544 -4.250377076
0.5303453467 -0.8181435163 -4.750230734
0.2046371457 -0.9532830842 -4.500217184
0.6043310077 -0.7809599269 -4.306045896
0.566071818 -0.7926287353 -4.500303905
0.5686045364 -0.8064747079 -4.555972725
0.4057504359 -0.8740444918 -4.43096595
0.4032177175 -0.8601985193 -4.37529713
0.3674912462 -0.8857133002 -4.625223959
0.9124966263 -0.3434747546 -1.250074323
0.975 0 -1.5
0.975 0 -1
1 0 -1.2875
0.9437483131 -0.1717373773 -1.375037162
0.975 0 -1.25
0.9437483131 -0.1717373773 -1.125037162
0.9562483131 -0.1717373773 -1.268787162
0.9875 0 -1.39375
0.9875 0 -1.14375
0.1993791056 -0.9799224318 -3.079977938
0.2049810577 -0.9532091932 -3.000172277
0.2048730903 -0.9532324044 -3.500216165
-0.2237550788 -0.9489776945 -3.249806985
0.2021800816 -0.9665658125 -3.040075108
0.204927074 -0.9532207988 -3.250194221
0.202126098 -0.9665774181 -3.290097052
-0.01218798662 -0.9644500631 -3.164892462
-0.009387010576 -0.9510934439 -3.124989631
-0.009440994248 -0.9511050495 -3.375011575
-0.9015039063 -0.4327709637 -1.54375
-0.8788461538 -0.4222018923 -1.75
-0.8792291156 -0.4214037995 -1.249933517
-0.6114655876 -0.7594305993 -1.499733268
-0.89017503 -0.427486428 -1.646875
-0.8790376347 -0.4218028459 -1.499966759
-0.8903665109 -0.4270873816 -1.396841759
-0.7564847469 -0.5961007815 -1.521741634
-0.7451558707 -0.5908162458 -1.624866634
-0.7453473516 -0.5904171994 -1.374833393
-0.6396217001 -0.7686898469 -2.052675942
-0.8788461538 -0.4222018923 -1.75
-0.8792619276 -0.4213353328 -2.249933385
-0.9378605128 -0.347012476 -2.055535188
-0.759233927 -0.5954458696 -1.901337971
-0.8790540407 -0.4217686125 -1.999966692
-0.7594418139 -0.5950125898 -2.151304663
-0.7887411065 -0.5578511615 -2.054105565
-0.9083533333 -0.3846071842 -1.902767594
-0.9085612202 -0.3841739044 -2.152734287
-0.6463274373 -0.7630601836 -5.127667615
-0.6120580026 -0.7589532275 -4.999856849
-0.6123496816 -0.7587179103 -5.499426008
-0.8793767806 -0.4210955684 -5.24987566
-0.6291927199 -0.7610067055 -5.063762232
-0.6122038421 -0.7588355689 -5.249641428
-0.6293385594 -0.760889047 -5.313546811
-0.7628521089 -0.592077876 -5.188771637
-0.7457173916 -0.5900243979 -5.124866254
-0.7458632311 -0.5899067393 -5.374650834
0.9124583596 -0.343576399 -3.250074338
0.975 0 -3.5
0.975 0 -3
1 0 -3.3375
0.9437291798 -0.1717881995 -3.375037169
0.975 0 -3.25
0.9437291798 -0.1717881995 -3.125037169
0.9562291798 -0.1717881995 -3.293787169
0.9875 0 -3.41875
0.9875 0 -3.16875
0.8788461538 -0.4222018923 0.25
0.975 0 0
0.975 0 0.5
1 0 0.25
0.9269230769 -0.2111009462 0.125
0.975 0 0.25
0.9269230769 -0.2111009462 0.375
0.9394230769 -0.2111009462 0.25
0.9875 0 0.125
0.9875 0 0.375
-0.975 0 -5.5
-0.8788461538 -0.4222018923 -5.75
-0.8793767806 -0.4210955684 -5.24987566
-0.9015039063 -0.4327709637 -5.64375
-0.9269230769 -0.2111009462 -5.625
-0.8791114672 -0.4216487303 -5.49993783
-0.9271883903 -0.2105477842 -5.37493783
-0.9382519531 -0.2163854818 -5.571875
-0.89017503 -0.427486428 -5.696875
-0.8904403434 -0.426933266 -5.44681283
-0.8788461538 -0.4222018923 -0.75
-0.975 0 -0.5
-0.975 0 -1
-1 0 -0.775
-0.9269230769 -0.2111009462 -0.625
-0.975 0 -0.75
-0.9269230769 -0.2111009462 -0.875
-0.9394230769 -0.2111009462 -0.7625
-0.9875 0 -0.6375
-0.9875 0 -0.8875
-0.6440954127 -0.764945161 -4.102668442
-0.6118774524 -0.7590987967 -3.999872374
-0.6121152048 -0.7589070932 -4.499493255
-0.8793381996 -0.421176128 -4.249889433
-0.6279864326 -0.7620219789 -4.051270408
-0.6119963286 -0.759002945 -4.249682814
-0.6281053087 -0.7619261271 -4.301080848
-0.7617168061 -0.5930606445 -4.176278937
-0.745607826 -0.5901374623 -4.124880903
-0.7457267022 -0.5900416106 -4.374691344
0.2009143768 -0.9796088062 -2.567480544
0.2049810577 -0.9532091932 -3.000172277
0.2051091813 -0.9531816321 -2.500216089
0.5306895478 -0.8179202919 -2.750228985
0.2029477173 -0.9664089997 -2.78382641
0.2050451195 -0.9531954126 -2.750194183
0.2030117791 -0.9663952191 -2.533848317
0.3658019623 -0.8987645491 -2.658854765
0.3678353027 -0.8855647426 -2.875200631
0.3678993645 -0.885550962 -2.625222537
0.9125157629 -0.3434239108 -0.2500743298
0.975 0 -0.5
0.975 0 0
1 0 -0.2625
0.9437578814 -0.1717119554 -0.3750371649
0.975 0 -0.25
0.9437578814 -0.1717119554 -0.1250371649
0.9562578814 -0.1717119554 -0.2562871649
0.9875 0 -0.38125
0.9875 0 -0.13125
0.1979689097 -0.9802082997 -3.592476081
0.2047450786 -0.9532599083 -4.000172898
0.2048730903 -0.9532324044 -3.500216165
0.5305170137 -0.818032211 -3.750229258
0.2013569942 -0.966734104 -3.79632449
0.2048090845 -0.9532461564 -3.750194532
0.201421 -0.9667203521 -3.546346123
0.3642429617 -0.8991202553 -3.671352669
0.3676310461 -0.8856460596 -3.875201078
0.367695052 -0.8856323077 -3.625222711
-0.8792291156 -0.4214037995 -1.249933517
-0.8788461538 -0.4222018923 -0.75
-0.975 0 -1
-0.9376579414 -0.3475594695 -1.030536013
-0.8790376347 -0.4218028459 -0.9999667587
-0.9269230769 -0.2111009462 -0.875
-0.9271145578 -0.2107018997 -1.124966759
-0.9084435285 -0.3844816345 -1.140234765
-0.9082520476 -0.3848806809 -0.8902680065
-0.9563289707 -0.1737797348 -1.015268006
0.8788461538 -0.4222018923 -2.75
1 0 -2.825
1 0 -2.3125
0.8974677314 -0.4410801186 -2.568557907
0.9394230769 -0.2111009462 -2.7875
1 0 -2.56875
0.9394230769 -0.2111009462 -2.53125
0.8881569426 -0.4316410055 -2.659278954
0.9487338657 -0.2205400593 -2.696778954
0.9487338657 -0.2205400593 -2.440528954
1 0 -2.3125
1 0 -2.825
0.8788461538 -0.4222018923 -2.75
0.975 0 -2.5
1 0 -2.56875
0.9394230769 -0.2111009462 -2.7875
0.9394230769 -0.2111009462 -2.53125
0.9875 0 -2.40625
0.9875 0 -2.6625
0.9269230769 -0.2111009462 -2.625
1 0 -2.3125
0.9124774891 -0.3435255914 -2.250074321
0.8788461538 -0.4222018923 -2.75
0.8974677314 -0.4410801186 -2.568557907
0.9562387445 -0.1717627957 -2.281287161
0.8956618214 -0.3828637419 -2.500037161
0.9394230769 -0.2111009462 -2.53125
0.9487338657 -0.2205400593 -2.440528954
0.9049726102 -0.392302855 -2.409316114
0.8881569426 -0.4316410055 -2.659278954
0.8788461538 -0.4222018923 -2.75
0.9124774891 -0.3435255914 -2.250074321
1 0 -2.3125
0.975 0 -2.5
0.8956618214 -0.3828637419 -2.500037161
0.9562387445 -0.1717627957 -2.281287161
0.9394230769 -0.2111009462 -2.53125
0.9269230769 -0.2111009462 -2.625
0.9437387445 -0.1717627957 -2.375037161
0.9875 0 -2.40625
0.6096374219 -0.7926803983 -2.311829153
0.6069497731 -0.7947401921 -1.799880184
0.2052171505 -0.9531583925 -2.000172078
0.2029868328 -0.9791814672 -2.054985317
0.6082935975 -0.7937102952 -2.055854668
0.4060834618 -0.8739492923 -1.900026131
0.4074272862 -0.8729193954 -2.156000615
0.4063121273 -0.8859309328 -2.183407235
0.404968303 -0.8869608296 -1.927432751
0.2041019917 -0.9661699298 -2.027578698
0.2052171505 -0.9531583925 -2.000172078
0.6069497731 -0.7947401921 -1.799880184
0.6096374219 -0.7926803983 -2.311829153
0.6022259829 -0.7667782375 -2.250376414
0.4060834618 -0.8739492923 -1.900026131
0.6082935975 -0.7937102952 -2.055854668
0.4074272862 -0.8729193954 -2.156000615
0.4037215667 -0.859968315 -2.125274246
0.604587878 -0.7807592148 -2.025128299
0.6059317024 -0.7797293179 -2.281102783
0.2052171505 -0.9531583925 -2.000172078
0.2051091813 -0.9531816321 -2.500216089
0.6096374219 -0.7926803983 -2.311829153
0.2029868328 -0.9791814672 -2.054985317
0.2051631659 -0.9531700123 -2.250194084
0.4073733016 -0.8729310152 -2.406022621
0.4074272862 -0.8729193954 -2.156000615
0.2041019917 -0.9661699298 -2.027578698
0.2040480071 -0.9661815496 -2.277600703
0.4063121273 -0.8859309328 -2.183407235
0.6096374219 -0.7926803983 -2.311829153
0.2051091813 -0.9531816321 -2.500216089
0.2052171505 -0.9531583925 -2.000172078
0.6022259829 -0.7667782375 -2.250376414
0.4073733016 -0.8729310152 -2.406022621
0.2051631659 -0.9531700123 -2.250194084
0.4074272862 -0.8729193954 -2.156000615
0.6059317024 -0.7797293179 -2.281102783
0.4036675821 -0.8599799348 -2.375296252
0.4037215667 -0.859968315 -2.125274246
-0.975 0 -5.5
-0.9015039063 -0.4327709637 -5.64375
-0.938466735 -0.3453696387 -5.130533523
-1 0 -5.3875
-0.9382519531 -0.2163854818 -5.571875
-0.9199853206 -0.3890703012 -5.387141761
-0.9567333675 -0.1726848194 -5.315266761
-0.9875 0 -5.44375
-0.9507519531 -0.2163854818 -5.515625
-0.9692333675 -0.1726848194 -5.259016761
-0.938466735 -0.3453696387 -5.130533523
-0.9015039063 -0.4327709637 -5.64375
-0.975 0 -5.5
-0.8793767806 -0.4210955684 -5.24987566
-0.9199853206 -0.3890703012 -5.387141761
-0.9382519531 -0.2163854818 -5.571875
-0.9567333675 -0.1726848194 -5.315266761
-0.9089217578 -0.3832326035 -5.190204592
-0.8904403434 -0.426933266 -5.44681283
-0.9271883903 -0.2105477842 -5.37493783
-0.938466735 -0.3453696387 -5.130533523
-0.975 0 -5
-0.975 0 -5.5
-1 0 -5.3875
-0.9567333675 -0.1726848194 -5.065266761
-0.975 0 -5.25
-0.9567333675 -0.1726848194 -5.315266761
-0.9692333675 -0.1726848194 -5.259016761
-0.9875 0 -5.19375
-0.9875 0 -5.44375
-0.975 0 -5.5
-0.975 0 -5
-0.938466735 -0.3453696387 -5.130533523
-0.8793767806 -0.4210955684 -5.24987566
-0.975 0 -5.25
-0.9567333675 -0.1726848194 -5.065266761
-0.9567333675 -0.1726848194 -5.315266761
-0.9271883903 -0.2105477842 -5.37493783
-0.9271883903 -0.2105477842 -5.12493783
-0.9089217578 -0.3832326035 -5.190204592
-0.2352886399 -0.9719255403 -2.310150061
-0.2335628852 -0.9723416985 -1.797658445
-0.6115267064 -0.7593813847 -1.999896079
-0.6396217001 -0.7686898469 -2.052675942
-0.2344257626 -0.9721336194 -2.053904253
-0.4225447958 -0.8658615416 -1.898777262
-0.4234076732 -0.8656534625 -2.15502307
-0.43745517 -0.8703076936 -2.181413001
-0.4365922927 -0.8705157727 -1.925167193
-0.6255742033 -0.7640356158 -2.02628601
-0.6115267064 -0.7593813847 -1.999896079
-0.2335628852 -0.9723416985 -1.797658445
-0.2352886399 -0.9719255403 -2.310150061
-0.223495825 -0.9490387854 -2.249806813
-0.4225447958 -0.8658615416 -1.898777262
-0.2344257626 -0.9721336194 -2.053904253
-0.4234076732 -0.8656534625 -2.15502307
-0.4175112657 -0.854210085 -2.124851446
-0.2285293551 -0.960690242 -2.023732629
-0.2293922325 -0.9604821629 -2.279978437
-0.6115267064 -0.7593813847 -1.999896079
-0.6116470135 -0.7592844862 -2.499733328
-0.2352886399 -0.9719255403 -2.310150061
-0.6396217001 -0.7686898469 -2.052675942
-0.6115868599 -0.7593329354 -2.249814703
-0.4234678267 -0.8656050132 -2.404941694
-0.4234076732 -0.8656534625 -2.15502307
-0.6255742033 -0.7640356158 -2.02628601
-0.6256343568 -0.7639871665 -2.276204635
-0.43745517 -0.8703076936 -2.181413001
-0.2352886399 -0.9719255403 -2.310150061
-0.6116470135 -0.7592844862 -2.499733328
-0.6115267064 -0.7593813847 -1.999896079
-0.223495825 -0.9490387854 -2.249806813
-0.4234678267 -0.8656050132 -2.404941694
-0.6115868599 -0.7593329354 -2.249814703
-0.4234076732 -0.8656534625 -2.15502307
-0.2293922325 -0.9604821629 -2.279978437
-0.4175714192 -0.8541616358 -2.374770071
-0.4175112657 -0.854210085 -2.124851446
-0.2394391671 -0.9709113684 -3.847643368
-0.6118805978 -0.7590962614 -3.499593712
-0.2380623499 -0.9712498739 -3.335144996
-0.2238834255 -0.9489474231 -3.749813492
-0.4256598825 -0.8650038149 -3.67361854
-0.4249714739 -0.8651730676 -3.417369354
-0.2387507585 -0.9710806211 -3.591394182
-0.2316612963 -0.9599293957 -3.79872843
-0.4178820116 -0.8540218422 -3.624703602
-0.2309728877 -0.9600986485 -3.542479244
-0.6118805978 -0.7590962614 -3.499593712
-0.2394391671 -0.9709113684 -3.847643368
-0.2380623499 -0.9712498739 -3.335144996
-0.5649978849 -0.8250923524 -3.591375746
-0.4256598825 -0.8650038149 -3.67361854
-0.2387507585 -0.9710806211 -3.591394182
-0.4249714739 -0.8651730676 -3.417369354
-0.5884392413 -0.7920943069 -3.545484729
-0.402218526 -0.8980018604 -3.719509557
-0.4015301174 -0.8981711132 -3.463260371
-0.6118805978 -0.7590962614 -3.499593712
-0.2394391671 -0.9709113684 -3.847643368
-0.6118774524 -0.7590987967 -3.999872374
-0.2238834255 -0.9489474231 -3.749813492
-0.4256598825 -0.8650038149 -3.67361854
-0.4256583098 -0.8650050826 -3.923757871
-0.6118790251 -0.7590975291 -3.749733043
-0.4178820116 -0.8540218422 -3.624703602
-0.2316612963 -0.9599293957 -3.79872843
-0.417880439 -0.8540231099 -3.874842933
-0.2394391671 -0.9709113684 -3.847643368
-0.6118805978 -0.7590962614 -3.499593712
-0.6118774524 -0.7590987967 -3.999872374
-0.5649978849 -0.8250923524 -3.591375746
-0.4256598825 -0.8650038149 -3.67361854
-0.6118790251 -0.7590975291 -3.749733043
-0.4256583098 -0.8650050826 -3.923757871
-0.402218526 -0.8980018604 -3.719509557
-0.5884392413 -0.7920943069 -3.545484729
-0.5884376687 -0.7920955746 -3.79562406
0.6026543327 -0.766441619 -0.2503764584
0.8994741469 -0.4369739798 -0.006450738723
0.8997811461 -0.4363414822 -0.5187843231
0.9125157629 -0.3434239108 -0.2500743298
0.7510642398 -0.6017077994 -0.1284135986
0.8996276465 -0.436657731 -0.2626175309
0.7512177394 -0.6013915506 -0.3845803908
0.7575850478 -0.5549327649 -0.2502253941
0.9059949549 -0.3901989453 -0.1282625342
0.9061484545 -0.3898826965 -0.3844293264
0.8997811461 -0.4363414822 -0.5187843231
0.8994741469 -0.4369739798 -0.006450738723
0.6026543327 -0.766441619 -0.2503764584
0.6185661737 -0.7857327082 -0.2624203403
0.8996276465 -0.436657731 -0.2626175309
0.7510642398 -0.6017077994 -0.1284135986
0.7512177394 -0.6013915506 -0.3845803908
0.7591736599 -0.6110370952 -0.3906023317
0.7590201603 -0.611353344 -0.1344355395
0.6106102532 -0.7760871636 -0.2563983994
0.6024401696 -0.7666099674 -1.250376426
0.8994754618 -0.4369712732 -1.03129015
0.9015039062 -0.4327709637 -1.54375
0.9124966263 -0.3434747546 -1.250074323
0.7509578157 -0.6017906203 -1.140833288
0.900489684 -0.4348711184 -1.287520075
0.7519720379 -0.5996904655 -1.397063213
0.7574683979 -0.555042361 -1.250225375
0.905986044 -0.3902230139 -1.140682237
0.9070002663 -0.3881228592 -1.396912162
0.9015039062 -0.4327709637 -1.54375
0.8994754618 -0.4369712732 -1.03129015
0.6024401696 -0.7666099674 -1.250376426
0.621335908 -0.7835443123 -1.286908041
0.900489684 -0.4348711184 -1.287520075
0.7509578157 -0.6017906203 -1.140833288
0.7519720379 -0.5996904655 -1.397063213
0.7614199071 -0.608157638 -1.41532902
0.7604056849 -0.6102577928 -1.159099096
0.6118880388 -0.7750771399 -1.268642233
-0.975 0 -4.5
-0.9382647763 -0.3459179232 -4.105533688
-0.9015039063 -0.4327709637 -4.61875
-0.8793381996 -0.421176128 -4.249889433
-0.9566323881 -0.1729589616 -4.302766844
-0.9198843413 -0.3893444435 -4.362141844
-0.9382519531 -0.2163854818 -4.559375
-0.9271690998 -0.210588064 -4.374944716
-0.9088014879 -0.3835470256 -4.177711561
-0.8904210529 -0.4269735458 -4.434319716
-0.9382647763 -0.3459179232 -4.105533688
-0.975 0 -4.5
-0.9015039063 -0.4327709637 -4.61875
-1 0 -4.3625
-0.9566323881 -0.1729589616 -4.302766844
-0.9382519531 -0.2163854818 -4.559375
-0.9198843413 -0.3893444435 -4.362141844
-0.9691323881 -0.1729589616 -4.234016844
-0.9875 0 -4.43125
-0.9507519531 -0.2163854818 -4.490625
-0.9382647763 -0.3459179232 -4.105533688
-0.975 0 -4.5
-0.975 0 -4
-0.8793381996 -0.421176128 -4.249889433
-0.9566323881 -0.1729589616 -4.302766844
-0.975 0 -4.25
-0.9566323881 -0.1729589616 -4.052766844
-0.9088014879 -0.3835470256 -4.177711561
-0.9271690998 -0.210588064 -4.374944716
-0.9271690998 -0.210588064 -4.124944716
-0.975 0 -4.5
-0.9382647763 -0.3459179232 -4.105533688
-0.975 0 -4
-1 0 -4.3625
-0.9566323881 -0.1729589616 -4.302766844
-0.9566323881 -0.1729589616 -4.052766844
-0.975 0 -4.25
-0.9875 0 -4.43125
-0.9691323881 -0.1729589616 -4.234016844
-0.9875 0 -4.18125
0.8788461538 -0.4222018923 -3.75
1 0 -3.85
1 0 -3.3375
0.8970491082 -0.4419308741 -3.593555534
0.9394230769 -0.2111009462 -3.8
1 0 -3.59375
0.9394230769 -0.2111009462 -3.54375
0.887947631 -0.4320663832 -3.671777767
0.9485245541 -0.2209654371 -3.721777767
0.9485245541 -0.2209654371 -3.465527767
1 0 -3.3375
1 0 -3.85
0.8788461538 -0.4222018923 -3.75
0.975 0 -3.5
1 0 -3.59375
0.9394230769 -0.2111009462 -3.8
0.9394230769 -0.2111009462 -3.54375
0.9875 0 -3.41875
0.9875 0 -3.675
0.9269230769 -0.2111009462 -3.625
1 0 -3.3375
0.9124583596 -0.343576399 -3.250074338
0.8788461538 -0.4222018923 -3.75
0.8970491082 -0.4419308741 -3.593555534
0.9562291798 -0.1717881995 -3.293787169
0.8956522567 -0.3828891456 -3.500037169
0.9394230769 -0.2111009462 -3.54375
0.9485245541 -0.2209654371 -3.465527767
0.9047537339 -0.3927536366 -3.421814936
0.887947631 -0.4320663832 -3.671777767
0.8788461538 -0.4222018923 -3.75
0.9124583596 -0.343576399 -3.250074338
1 0 -3.3375
0.975 0 -3.5
0.8956522567 -0.3828891456 -3.500037169
0.9562291798 -0.1717881995 -3.293787169
0.9394230769 -0.2111009462 -3.54375
0.9269230769 -0.2111009462 -3.625
0.9437291798 -0.1717881995 -3.375037169
0.9875 0 -3.41875
-0.2419415258 -0.9702908317 -4.872642967
-0.6121152048 -0.7589070932 -4.499493255
-0.6120580026 -0.7589532275 -4.999856849
-0.5668134021 -0.8238462036 -4.616374386
-0.4270283653 -0.8645989624 -4.686068111
-0.6120866037 -0.7589301603 -4.749675052
-0.4269997642 -0.8646220296 -4.936249908
-0.404377464 -0.8970685176 -4.744508677
-0.5894643035 -0.7913766484 -4.557933821
-0.5894357024 -0.7913997155 -4.808115617
-0.6121152048 -0.7589070932 -4.499493255
-0.2419415258 -0.9702908317 -4.872642967
-0.6120580026 -0.7589532275 -4.999856849
-0.224142999 -0.9488861449 -4.749815241
-0.4270283653 -0.8645989624 -4.686068111
-0.4269997642 -0.8646220296 -4.936249908
-0.6120866037 -0.7589301603 -4.749675052
-0.4181291019 -0.853896619 -4.624654248
-0.2330422624 -0.9595884883 -4.811229104
-0.4181005008 -0.8539196862 -4.874836045
-0.6121152048 -0.7589070932 -4.499493255
-0.2419415258 -0.9702908317 -4.872642967
-0.2405801103 -0.9706292858 -4.360142908
-0.5668134021 -0.8238462036 -4.616374386
-0.4270283653 -0.8645989624 -4.686068111
-0.241260818 -0.9704600588 -4.616392937
-0.4263476575 -0.8647681895 -4.429818081
-0.5894643035 -0.7913766484 -4.557933821
-0.404377464 -0.8970685176 -4.744508677
-0.4036967562 -0.8972377447 -4.488258647
-0.2419415258 -0.9702908317 -4.872642967
-0.6121152048 -0.7589070932 -4.499493255
-0.2405801103 -0.9706292858 -4.360142908
-0.224142999 -0.9488861449 -4.749815241
-0.4270283653 -0.8645989624 -4.686068111
-0.4263476575 -0.8647681895 -4.429818081
-0.241260818 -0.9704600588 -4.616392937
-0.2330422624 -0.9595884883 -4.811229104
-0.4181291019 -0.853896619 -4.624654248
-0.2323615546 -0.9597577154 -4.554979074
0.6069497731 -0.7947401921 -1.799880184
0.621335908 -0.7835443123 -1.286908041
0.6024401696 -0.7666099674 -1.250376426
0.5308622358 -0.8178082212 -1.750228954
0.6141428406 -0.7891422522 -1.543394112
0.6118880388 -0.7750771399 -1.268642233
0.6046949714 -0.7806750797 -1.525128305
0.5689060045 -0.8062742066 -1.775054569
0.5760990719 -0.8006762668 -1.518568497
0.5666512027 -0.7922090943 -1.50030269
0.6024401696 -0.7666099674 -1.250376426
0.621335908 -0.7835443123 -1.286908041
0.6069497731 -0.7947401921 -1.799880184
0.9015039062 -0.4327709637 -1.54375
0.6118880388 -0.7750771399 -1.268642233
0.6141428406 -0.7891422522 -1.543394112
0.6046949714 -0.7806750797 -1.525128305
0.7519720379 -0.5996904655 -1.397063213
0.7614199071 -0.608157638 -1.41532902
0.7542268397 -0.6137555779 -1.671815092
0.6024401696 -0.7666099674 -1.250376426
0.8788461538 -0.4222018923 -1.75
0.6069497731 -0.7947401921 -1.799880184
0.5308622358 -0.8178082212 -1.750228954
0.7406431617 -0.5944059298 -1.500188213
0.7428979635 -0.6084710422 -1.774940092
0.6046949714 -0.7806750797 -1.525128305
0.5666512027 -0.7922090943 -1.50030269
0.7048541948 -0.6200050567 -1.750114477
0.5689060045 -0.8062742066 -1.775054569
0.6069497731 -0.7947401921 -1.799880184
0.8788461538 -0.4222018923 -1.75
0.6024401696 -0.7666099674 -1.250376426
0.9015039062 -0.4327709637 -1.54375
0.7428979635 -0.6084710422 -1.774940092
0.7406431617 -0.5944059298 -1.500188213
0.6046949714 -0.7806750797 -1.525128305
0.7542268397 -0.6137555779 -1.671815092
0.89017503 -0.427486428 -1.646875
0.7519720379 -0.5996904655 -1.397063213
-0.975 0 -3.5
-0.9380627763 -0.3464653342 -3.080534385
-0.9015039062 -0.4327709637 -3.59375
-0.8792996465 -0.4212566103 -3.249910088
-0.9565313881 -0.1732326671 -3.290267193
-0.9197833413 -0.3896181489 -3.337142193
-0.9382519531 -0.2163854818 -3.546875
-0.9271498232 -0.2106283051 -3.374955044
-0.9086812114 -0.3838609722 -3.165222237
-0.8904017764 -0.427013787 -3.421830044
-0.9380627763 -0.3464653342 -3.080534385
-0.975 0 -3.5
-0.9015039062 -0.4327709637 -3.59375
-1 0 -3.3375
-0.9565313881 -0.1732326671 -3.290267193
-0.9382519531 -0.2163854818 -3.546875
-0.9197833413 -0.3896181489 -3.337142193
-0.9690313881 -0.1732326671 -3.209017193
-0.9875 0 -3.41875
-0.9507519531 -0.2163854818 -3.465625
-0.9380627763 -0.3464653342 -3.080534385
-0.975 0 -3.5
-0.975 0 -3
-0.8792996465 -0.4212566103 -3.249910088
-0.9565313881 -0.1732326671 -3.290267193
-0.975 0 -3.25
-0.9565313881 -0.1732326671 -3.040267193
-0.9086812114 -0.3838609722 -3.165222237
-0.9271498232 -0.2106283051 -3.374955044
-0.9271498232 -0.2106283051 -3.124955044
-0.975 0 -3.5
-0.9380627763 -0.3464653342 -3.080534385
-0.975 0 -3
-1 0 -3.3375
-0.9565313881 -0.1732326671 -3.290267193
-0.9565313881 -0.1732326671 -3.040267193
-0.975 0 -3.25
-0.9875 0 -3.41875
-0.9690313881 -0.1732326671 -3.209017193
-0.9875 0 -3.16875
-0.6118774524 -0.7590987967 -3.999872374
-0.9015039062 -0.4327709637 -3.59375
-0.6118805978 -0.7590962614 -3.499593712
-0.8788461538 -0.4222018923 -3.75
-0.7566906793 -0.5959348802 -3.796811187
-0.756692252 -0.5959336125 -3.546671856
-0.6118790251 -0.7590975291 -3.749733043
-0.7453618031 -0.5906503445 -3.874936187
-0.89017503 -0.427486428 -3.671875
-0.7453633758 -0.5906490768 -3.624796856
-0.6118805978 -0.7590962614 -3.499593712
-0.9015039062 -0.4327709637 -3.59375
-0.6118774524 -0.7590987967 -3.999872374
-0.5649978849 -0.8250923524 -3.591375746
-0.756692252 -0.5959336125 -3.546671856
-0.7566906793 -0.5959348802 -3.796811187
-0.6118790251 -0.7590975291 -3.749733043
-0.5884392413 -0.7920943069 -3.545484729
-0.7332508956 -0.6289316581 -3.592562873
-0.5884376687 -0.7920955746 -3.79562406
0.8788461538 -0.4222018923 -4.75
0.6017982893 -0.7671139544 -4.250377076
0.6068637262 -0.7948058995 -4.361714717
0.8966317323 -0.4427770734 -4.618553276
0.7403222216 -0.5946579234 -4.500188538
0.6043310077 -0.7809599269 -4.306045896
0.74285494 -0.6085038959 -4.555857358
0.8877389431 -0.4324894828 -4.684276638
0.7492150108 -0.6049455139 -4.434465176
0.7517477292 -0.6187914864 -4.490133996
0.6068637262 -0.7948058995 -4.361714717
0.6017982893 -0.7671139544 -4.250377076
0.8788461538 -0.4222018923 -4.75
0.5303453467 -0.8181435163 -4.750230734
0.6043310077 -0.7809599269 -4.306045896
0.7403222216 -0.5946579234 -4.500188538
0.74285494 -0.6085038959 -4.555857358
0.5686045364 -0.8064747079 -4.555972725
0.566071818 -0.7926287353 -4.500303905
0.7045957503 -0.6201727043 -4.750115367
0.6068637262 -0.7948058995 -4.361714717
0.6026149671 -0.7980320805 -4.874173489
0.8788461538 -0.4222018923 -4.75
0.8966317323 -0.4427770734 -4.618553276
0.6047393466 -0.79641899 -4.617944103
0.7407305605 -0.6101169864 -4.812086745
0.74285494 -0.6085038959 -4.555857358
0.7517477292 -0.6187914864 -4.490133996
0.7496233497 -0.6204045769 -4.746363383
0.8877389431 -0.4324894828 -4.684276638
0.8788461538 -0.4222018923 -4.75
0.6026149671 -0.7980320805 -4.874173489
0.6068637262 -0.7948058995 -4.361714717
0.5303453467 -0.8181435163 -4.750230734
0.7407305605 -0.6101169864 -4.812086745
0.6047393466 -0.79641899 -4.617944103
0.74285494 -0.6085038959 -4.555857358
0.7045957503 -0.6201727043 -4.750115367
0.5664801569 -0.8080877984 -4.812202112
0.5686045364 -0.8064747079 -4.555972725
0.8788461538 -0.4222018923 -4.75
1 0 -4.875
1 0 -4.3625
0.8966317323 -0.4427770734 -4.618553276
0.9394230769 -0.2111009462 -4.8125
1 0 -4.61875
0.9394230769 -0.2111009462 -4.55625
0.8877389431 -0.4324894828 -4.684276638
0.9483158661 -0.2213885367 -4.746776638
0.9483158661 -0.2213885367 -4.490526638
1 0 -4.3625
1 0 -4.875
0.8788461538 -0.4222018923 -4.75
0.975 0 -4.5
1 0 -4.61875
0.9394230769 -0.2111009462 -4.8125
0.9394230769 -0.2111009462 -4.55625
0.9875 0 -4.43125
0.9875 0 -4.6875
0.9269230769 -0.2111009462 -4.625
1 0 -4.3625
0.9124392799 -0.343627066 -4.250074452
0.8788461538 -0.4222018923 -4.75
0.8966317323 -0.4427770734 -4.618553276
0.9562196399 -0.171813533 -4.306287226
0.8956427169 -0.3829144792 -4.500037226
0.9394230769 -0.2111009462 -4.55625
0.9483158661 -0.2213885367 -4.490526638
0.9045355061 -0.3932020697 -4.434313864
0.8877389431 -0.4324894828 -4.684276638
0.8788461538 -0.4222018923 -4.75
0.9124392799 -0.343627066 -4.250074452
1 0 -4.3625
0.975 0 -4.5
0.8956427169 -0.3829144792 -4.500037226
0.9562196399 -0.171813533 -4.306287226
0.9394230769 -0.2111009462 -4.55625
0.9269230769 -0.2111009462 -4.625
0.9437196399 -0.171813533 -4.375037226
0.9875 0 -4.43125
0.6026543327 -0.766441619 -0.2503764584
0.6155165626 -0.7881239504 -0.7749841767
0.8788461538 -0.4222018923 -0.75
0.8997811461 -0.4363414822 -0.5187843231
0.6090854476 -0.7772827847 -0.5126803176
0.7471813582 -0.6051629213 -0.7624920884
0.7407502433 -0.5943217557 -0.5001882292
0.7512177394 -0.6013915506 -0.3845803908
0.7576488544 -0.6122327163 -0.6468842499
0.88931365 -0.4292716872 -0.6343921616
0.8788461538 -0.4222018923 -0.75
0.6155165626 -0.7881239504 -0.7749841767
0.6026543327 -0.766441619 -0.2503764584
0.5310349352 -0.8176960912 -0.7502289706
0.7471813582 -0.6051629213 -0.7624920884
0.6090854476 -0.7772827847 -0.5126803176
0.7407502433 -0.5943217557 -0.5001882292
0.7049405445 -0.6199489918 -0.7501144853
0.5732757489 -0.8029100208 -0.7626065737
0.5668446339 -0.7920688551 -0.5003027145
0.6022259829 -0.7667782375 -2.250376414
0.8952421874 -0.445579876 -2.055890525
0.8974677314 -0.4410801186 -2.568557907
0.9124774891 -0.3435255914 -2.250074321
0.7487340852 -0.6061790567 -2.153133469
0.8963549594 -0.4433299973 -2.312224216
0.7498468572 -0.6039291781 -2.40946716
0.757351736 -0.5551519145 -2.250225367
0.9038598382 -0.3945527337 -2.152982423
0.9049726102 -0.392302855 -2.409316114
0.8952421874 -0.445579876 -2.055890525
0.6022259829 -0.7667782375 -2.250376414
0.8974677314 -0.4410801186 -2.568557907
0.6096374219 -0.7926803983 -2.311829153
0.7487340852 -0.6061790567 -2.153133469
0.7498468572 -0.6039291781 -2.40946716
0.8963549594 -0.4433299973 -2.312224216
0.7524398046 -0.6191301372 -2.183859839
0.6059317024 -0.7797293179 -2.281102783
0.7535525766 -0.6168802585 -2.44019353
0.207966601 -0.9781359276 -1.542497538
0.6069497731 -0.7947401921 -1.799880184
0.2052171505 -0.9531583925 -2.000172078
0.5308622358 -0.8178082212 -1.750228954
0.4074581871 -0.8864380598 -1.671188861
0.4060834618 -0.8739492923 -1.900026131
0.2065918758 -0.96564716 -1.771334808
0.3694144184 -0.8979720744 -1.646363246
0.5689060045 -0.8062742066 -1.775054569
0.3680396932 -0.8854833068 -1.875200516
0.2052171505 -0.9531583925 -2.000172078
0.6069497731 -0.7947401921 -1.799880184
0.207966601 -0.9781359276 -1.542497538
0.2029868328 -0.9791814672 -2.054985317
0.4060834618 -0.8739492923 -1.900026131
0.4074581871 -0.8864380598 -1.671188861
0.2065918758 -0.96564716 -1.771334808
0.2041019917 -0.9661699298 -2.027578698
0.404968303 -0.8869608296 -1.927432751
0.2054767169 -0.9786586974 -1.798741427
-0.9015039062 -0.4327709637 -2.56875
-0.6116976235 -0.7592437141 -2.999895878
-0.6116470135 -0.7592844862 -2.499733328
-0.563124985 -0.8263717391 -2.566378896
-0.7566007649 -0.5960073389 -2.784322939
-0.6116723185 -0.7592641001 -2.749814603
-0.7565754599 -0.5960277249 -2.534241664
-0.7323144456 -0.6295713514 -2.567564448
-0.5874113043 -0.7928077266 -2.783137387
-0.5873859992 -0.7928281126 -2.533056112
-0.6116976235 -0.7592437141 -2.999895878
-0.9015039062 -0.4327709637 -2.56875
-0.6116470135 -0.7592844862 -2.499733328
-0.8788461538 -0.4222018923 -2.75
-0.7566007649 -0.5960073389 -2.784322939
-0.7565754599 -0.5960277249 -2.534241664
-0.6116723185 -0.7592641001 -2.749814603
-0.7452718887 -0.5907228032 -2.874947939
-0.89017503 -0.427486428 -2.659375
-0.7452465837 -0.5907431892 -2.624866664
-0.6116976235 -0.7592437141 -2.999895878
-0.9015039062 -0.4327709637 -2.56875
-0.6418609783 -0.7668210251 -3.077671926
-0.563124985 -0.8263717391 -2.566378896
-0.7566007649 -0.5960073389 -2.784322939
-0.7716824423 -0.5997959944 -2.823210963
-0.6267793009 -0.7630323696 -3.038783902
-0.5874113043 -0.7928077266 -2.783137387
-0.7323144456 -0.6295713514 -2.567564448
-0.6024929817 -0.7965963821 -2.822025411
-0.9015039062 -0.4327709637 -2.56875
-0.6116976235 -0.7592437141 -2.999895878
-0.6418609783 -0.7668210251 -3.077671926
-0.8788461538 -0.4222018923 -2.75
-0.7566007649 -0.5960073389 -2.784322939
-0.6267793009 -0.7630323696 -3.038783902
-0.7716824423 -0.5997959944 -2.823210963
-0.89017503 -0.427486428 -2.659375
-0.7452718887 -0.5907228032 -2.874947939
-0.7603535661 -0.5945114587 -2.913835963
0.6020118665 -0.7669463558 -3.250376499
0.8963209538 -0.44340585 -3.080938699
0.8970491082 -0.4419308741 -3.593555534
0.9124583596 -0.343576399 -3.250074338
0.7491664101 -0.6051761029 -3.165657599
0.896685031 -0.4426683621 -3.337247117
0.7495304873 -0.604438615 -3.421966017
0.757235113 -0.5552613774 -3.250225419
0.9043896567 -0.3934911245 -3.165506518
0.9047537339 -0.3927536366 -3.421814936
0.8970491082 -0.4419308741 -3.593555534
0.8963209538 -0.44340585 -3.080938699
0.6020118665 -0.7669463558 -3.250376499
0.6085539038 -0.7935125368 -3.336717444
0.896685031 -0.4426683621 -3.337247117
0.7491664101 -0.6051761029 -3.165657599
0.7495304873 -0.604438615 -3.421966017
0.752801506 -0.6177217055 -3.465136489
0.7524374288 -0.6184591934 -3.208828071
0.6052828851 -0.7802294463 -3.293546972
-0.6113557287 -0.7595190406 -0.9998970036
-0.9015039062 -0.4327709637 -0.51875
-0.8788461538 -0.4222018923 -0.75
-0.6373771051 -0.7705520268 -1.027680065
-0.7564298175 -0.5961450021 -0.7593235018
-0.89017503 -0.427486428 -0.634375
-0.7451009413 -0.5908604664 -0.8749485018
-0.6243664169 -0.7650355337 -1.013788534
-0.7694405057 -0.6016614952 -0.7732150324
-0.7581116295 -0.5963769595 -0.8888400324
-0.9015039062 -0.4327709637 -0.51875
-0.6113557287 -0.7595190406 -0.9998970036
-0.5593020053 -0.828963972 -0.5164092906
-0.6373771051 -0.7705520268 -1.027680065
-0.7564298175 -0.5961450021 -0.7593235018
-0.585328867 -0.7942415063 -0.7581531471
-0.7304029558 -0.6308674679 -0.5175796453
-0.7694405057 -0.6016614952 -0.7732150324
-0.6243664169 -0.7650355337 -1.013788534
-0.5983395552 -0.7997579994 -0.7720446777
-0.2380623499 -0.9712498739 -3.335144996
-0.6116976235 -0.7592437141 -2.999895878
-0.2368635612 -0.9715429241 -2.822646549
-0.2237550788 -0.9489776945 -3.249806985
-0.4248799867 -0.865246794 -3.167520437
-0.4242805923 -0.8653933191 -2.911271214
-0.2374629555 -0.971396399 -3.078895773
-0.2309087144 -0.9601137842 -3.292475991
-0.4177263512 -0.8541107043 -3.124851432
-0.23030932 -0.9602603093 -3.036226767
-0.6116976235 -0.7592437141 -2.999895878
-0.2380623499 -0.9712498739 -3.335144996
-0.2368635612 -0.9715429241 -2.822646549
-0.6418609783 -0.7668210251 -3.077671926
-0.4248799867 -0.865246794 -3.167520437
-0.2374629555 -0.971396399 -3.078895773
-0.4242805923 -0.8653933191 -2.911271214
-0.6267793009 -0.7630323696 -3.038783902
-0.4399616641 -0.8690354495 -3.206408461
-0.4393622697 -0.8691819746 -2.950159238
-0.6116976235 -0.7592437141 -2.999895878
-0.2380623499 -0.9712498739 -3.335144996
-0.6118805978 -0.7590962614 -3.499593712
-0.2237550788 -0.9489776945 -3.249806985
-0.4248799867 -0.865246794 -3.167520437
-0.4249714739 -0.8651730676 -3.417369354
-0.6117891106 -0.7591699877 -3.249744795
-0.4177263512 -0.8541107043 -3.124851432
-0.2309087144 -0.9601137842 -3.292475991
-0.4178178383 -0.8540369779 -3.374700349
-0.2380623499 -0.9712498739 -3.335144996
-0.6116976235 -0.7592437141 -2.999895878
-0.6118805978 -0.7590962614 -3.499593712
-0.6418609783 -0.7668210251 -3.077671926
-0.4248799867 -0.865246794 -3.167520437
-0.6117891106 -0.7591699877 -3.249744795
-0.4249714739 -0.8651730676 -3.417369354
-0.4399616641 -0.8690354495 -3.206408461
-0.6267793009 -0.7630323696 -3.038783902
-0.626870788 -0.7629586432 -3.288632819
-0.2405801103 -0.9706292858 -4.360142908
-0.6118774524 -0.7590987967 -3.999872374
-0.6121152048 -0.7589070932 -4.499493255
-0.6440954127 -0.764945161 -4.102668442
-0.4262287814 -0.8648640413 -4.180007641
-0.6119963286 -0.759002945 -4.249682814
-0.4263476575 -0.8647681895 -4.429818081
-0.4423377615 -0.8677872234 -4.231405675
-0.6279864326 -0.7620219789 -4.051270408
-0.6281053087 -0.7619261271 -4.301080848
-0.6118774524 -0.7590987967 -3.999872374
-0.2405801103 -0.9706292858 -4.360142908
-0.6121152048 -0.7589070932 -4.499493255
-0.2240144455 -0.9489165022 -4.249807786
-0.4262287814 -0.8648640413 -4.180007641
-0.4263476575 -0.8647681895 -4.429818081
-0.6119963286 -0.759002945 -4.249682814
-0.417945949 -0.8540076495 -4.12484008
-0.2322972779 -0.959772894 -4.304975347
-0.4180648252 -0.8539117977 -4.37465052
-0.6118774524 -0.7590987967 -3.999872374
-0.2405801103 -0.9706292858 -4.360142908
-0.2394391671 -0.9709113684 -3.847643368
-0.6440954127 -0.764945161 -4.102668442
-0.4262287814 -0.8648640413 -4.180007641
-0.2400096387 -0.9707703271 -4.103893138
-0.4256583098 -0.8650050826 -3.923757871
-0.6279864326 -0.7620219789 -4.051270408
-0.4423377615 -0.8677872234 -4.231405675
-0.4417672899 -0.8679282647 -3.975155905
-0.2405801103 -0.9706292858 -4.360142908
-0.6118774524 -0.7590987967 -3.999872374
-0.2394391671 -0.9709113684 -3.847643368
-0.2240144455 -0.9489165022 -4.249807786
-0.4262287814 -0.8648640413 -4.180007641
-0.4256583098 -0.8650050826 -3.923757871
-0.2400096387 -0.9707703271 -4.103893138
-0.2322972779 -0.959772894 -4.304975347
-0.417945949 -0.8540076495 -4.12484008
-0.2317268063 -0.9599139353 -4.048725577
-0.2430775448 -0.9700068594 -5.385146092
-0.6120580026 -0.7589532275 -4.999856849
-0.6123496816 -0.7587179103 -5.499426008
-0.6463274373 -0.7630601836 -5.127667615
-0.4275677737 -0.8644800434 -5.19250147
-0.6122038421 -0.7588355689 -5.249641428
-0.4277136132 -0.8643623849 -5.44228605
-0.444702491 -0.8665335215 -5.256406853
-0.6291927199 -0.7610067055 -5.063762232
-0.6293385594 -0.760889047 -5.313546811
-0.6120580026 -0.7589532275 -4.999856849
-0.2430775448 -0.9700068594 -5.385146092
-0.6123496816 -0.7587179103 -5.499426008
-0.2242744429 -0.948855086 -5.249811725
-0.4275677737 -0.8644800434 -5.19250147
-0.4277136132 -0.8643623849 -5.44228605
-0.6122038421 -0.7588355689 -5.249641428
-0.4181662227 -0.8539041567 -5.124834287
-0.2336759938 -0.9594309727 -5.317478908
-0.4183120622 -0.8537864982 -5.374618866
-0.6120580026 -0.7589532275 -4.999856849
-0.2430775448 -0.9700068594 -5.385146092
-0.2419415258 -0.9702908317 -4.872642967
-0.6463274373 -0.7630601836 -5.127667615
-0.4275677737 -0.8644800434 -5.19250147
-0.2425095353 -0.9701488455 -5.128894529
-0.4269997642 -0.8646220296 -4.936249908
-0.6291927199 -0.7610067055 -5.063762232
-0.444702491 -0.8665335215 -5.256406853
-0.4441344815 -0.8666755077 -5.000155291
-0.2430775448 -0.9700068594 -5.385146092
-0.6120580026 -0.7589532275 -4.999856849
-0.2419415258 -0.9702908317 -4.872642967
-0.2242744429 -0.948855086 -5.249811725
-0.4275677737 -0.8644800434 -5.19250147
-0.4269997642 -0.8646220296 -4.936249908
-0.2425095353 -0.9701488455 -5.128894529
-0.2336759938 -0.9594309727 -5.317478908
-0.4181662227 -0.8539041567 -5.124834287
-0.2331079843 -0.9595729589 -5.061227346
0.8788461538 -0.4222018923 -3.75
0.6020118665 -0.7669463558 -3.250376499
0.6085539038 -0.7935125368 -3.336717444
0.8970491082 -0.4419308741 -3.593555534
0.7404290102 -0.594574124 -3.50018825
0.6052828851 -0.7802294463 -3.293546972
0.7437000288 -0.6078572146 -3.543358722
0.887947631 -0.4320663832 -3.671777767
0.7495304873 -0.604438615 -3.421966017
0.752801506 -0.6177217055 -3.465136489
0.6085539038 -0.7935125368 -3.336717444
0.6020118665 -0.7669463558 -3.250376499
0.8788461538 -0.4222018923 -3.75
0.5305170137 -0.818032211 -3.750229258
0.6052828851 -0.7802294463 -3.293546972
0.7404290102 -0.594574124 -3.50018825
0.7437000288 -0.6078572146 -3.543358722
0.5695354588 -0.8057723739 -3.543473351
0.5662644401 -0.7924892834 -3.500302878
0.7046815838 -0.6201170516 -3.750114629
0.6085539038 -0.7935125368 -3.336717444
0.6045731674 -0.7965496125 -3.849175969
0.8788461538 -0.4222018923 -3.75
0.8970491082 -0.4419308741 -3.593555534
0.6065635356 -0.7950310747 -3.592946707
0.7417096606 -0.6093757524 -3.799587985
0.7437000288 -0.6078572146 -3.543358722
0.752801506 -0.6177217055 -3.465136489
0.7508111378 -0.6192402433 -3.721365752
0.887947631 -0.4320663832 -3.671777767
0.8788461538 -0.4222018923 -3.75
0.6045731674 -0.7965496125 -3.849175969
0.6085539038 -0.7935125368 -3.336717444
0.5305170137 -0.818032211 -3.750229258
0.7417096606 -0.6093757524 -3.799587985
0.6065635356 -0.7950310747 -3.592946707
0.7437000288 -0.6078572146 -3.543358722
0.7046815838 -0.6201170516 -3.750114629
0.5675450906 -0.8072909118 -3.799702613
0.5695354588 -0.8057723739 -3.543473351
0.6017982893 -0.7671139544 -4.250377076
0.8957935497 -0.4444703774 -4.105936763
0.8966317323 -0.4427770734 -4.618553276
0.9124392799 -0.343627066 -4.250074452
0.7487959195 -0.6057921659 -4.17815692
0.896212641 -0.4436237254 -4.36224502
0.7492150108 -0.6049455139 -4.434465176
0.7571187846 -0.5553705102 -4.250225764
0.9041164148 -0.3940487217 -4.178005607
0.9045355061 -0.3932020697 -4.434313864
0.8966317323 -0.4427770734 -4.618553276
0.8957935497 -0.4444703774 -4.105936763
0.6017982893 -0.7671139544 -4.250377076
0.6068637262 -0.7948058995 -4.361714717
0.896212641 -0.4436237254 -4.36224502
0.7487959195 -0.6057921659 -4.17815692
0.7492150108 -0.6049455139 -4.434465176
0.7517477292 -0.6187914864 -4.490133996
0.7513286379 -0.6196381384 -4.23382574
0.6043310077 -0.7809599269 -4.306045896
0.1993791056 -0.9799224318 -3.079977938
-0.2236241373 -0.9490085591 -2.749813159
-0.2237550788 -0.9489776945 -3.249806985
-0.2368635612 -0.9715429241 -2.822646549
-0.01212251585 -0.9644654954 -2.914895549
-0.2236896081 -0.9489931268 -2.999810072
-0.01218798662 -0.9644500631 -3.164892462
-0.01874222779 -0.9757326779 -2.951312244
-0.2302438492 -0.9602757416 -2.786229854
-0.23030932 -0.9602603093 -3.036226767
-0.2236241373 -0.9490085591 -2.749813159
0.1993791056 -0.9799224318 -3.079977938
-0.2237550788 -0.9489776945 -3.249806985
0.2049810577 -0.9532091932 -3.000172277
-0.01212251585 -0.9644654954 -2.914895549
-0.01218798662 -0.9644500631 -3.164892462
-0.2236896081 -0.9489931268 -2.999810072
-0.009321539811 -0.9511088761 -2.874992718
0.2021800816 -0.9665658125 -3.040075108
-0.009387010576 -0.9510934439 -3.124989631
-0.2236241373 -0.9490085591 -2.749813159
0.1993791056 -0.9799224318 -3.079977938
0.2009143768 -0.9796088062 -2.567480544
-0.2368635612 -0.9715429241 -2.822646549
-0.01212251585 -0.9644654954 -2.914895549
0.2001467412 -0.979765619 -2.823729241
-0.01135488023 -0.9643086826 -2.658646852
-0.2302438492 -0.9602757416 -2.786229854
-0.01874222779 -0.9757326779 -2.951312244
-0.01797459216 -0.9755758652 -2.695063547
0.1993791056 -0.9799224318 -3.079977938
-0.2236241373 -0.9490085591 -2.749813159
0.2009143768 -0.9796088062 -2.567480544
0.2049810577 -0.9532091932 -3.000172277
-0.01212251585 -0.9644654954 -2.914895549
-0.01135488023 -0.9643086826 -2.658646852
0.2001467412 -0.979765619 -2.823729241
0.2021800816 -0.9665658125 -3.040075108
-0.009321539811 -0.9511088761 -2.874992718
0.2029477173 -0.9664089997 -2.78382641
0.2009143768 -0.9796088062 -2.567480544
-0.223495825 -0.9490387854 -2.249806813
0.2029868328 -0.9791814672 -2.054985317
0.2051091813 -0.9531816321 -2.500216089
-0.01129072409 -0.9643237958 -2.408643679
-0.01025449609 -0.9641101263 -2.152396065
0.2019506048 -0.9793951367 -2.311232931
0.2030117791 -0.9663952191 -2.533848317
-0.009193321832 -0.9511102087 -2.375011451
0.2040480071 -0.9661815496 -2.277600703
-0.223495825 -0.9490387854 -2.249806813
0.2009143768 -0.9796088062 -2.567480544
0.2029868328 -0.9791814672 -2.054985317
-0.2352886399 -0.9719255403 -2.310150061
-0.01129072409 -0.9643237958 -2.408643679
0.2019506048 -0.9793951367 -2.311232931
-0.01025449609 -0.9641101263 -2.152396065
-0.2293922325 -0.9604821629 -2.279978437
-0.01718713155 -0.9757671733 -2.438815302
-0.01615090356 -0.9755535038 -2.182567689
-0.223495825 -0.9490387854 -2.249806813
0.2009143768 -0.9796088062 -2.567480544
-0.2236241373 -0.9490085591 -2.749813159
0.2051091813 -0.9531816321 -2.500216089
-0.01129072409 -0.9643237958 -2.408643679
-0.01135488023 -0.9643086826 -2.658646852
-0.2235599812 -0.9490236722 -2.499809986
-0.009193321832 -0.9511102087 -2.375011451
0.2030117791 -0.9663952191 -2.533848317
-0.009257477976 -0.9510950956 -2.625014624
0.2009143768 -0.9796088062 -2.567480544
-0.223495825 -0.9490387854 -2.249806813
-0.2236241373 -0.9490085591 -2.749813159
-0.2352886399 -0.9719255403 -2.310150061
-0.01129072409 -0.9643237958 -2.408643679
-0.2235599812 -0.9490236722 -2.499809986
-0.01135488023 -0.9643086826 -2.658646852
-0.01718713155 -0.9757671733 -2.438815302
-0.2293922325 -0.9604821629 -2.279978437
-0.2294563886 -0.9604670497 -2.52998161
0.1979689097 -0.9802082997 -3.592476081
-0.2237550788 -0.9489776945 -3.249806985
0.1993791056 -0.9799224318 -3.079977938
0.2048730903 -0.9532324044 -3.500216165
-0.01289308455 -0.9645929971 -3.421141533
-0.01218798662 -0.9644500631 -3.164892462
0.1986740077 -0.9800653657 -3.33622701
0.201421 -0.9667203521 -3.546346123
-0.009440994248 -0.9511050495 -3.375011575
0.202126098 -0.9665774181 -3.290097052
-0.2237550788 -0.9489776945 -3.249806985
0.1979689097 -0.9802082997 -3.592476081
0.1993791056 -0.9799224318 -3.079977938
-0.2380623499 -0.9712498739 -3.335144996
-0.01289308455 -0.9645929971 -3.421141533
0.1986740077 -0.9800653657 -3.33622701
-0.01218798662 -0.9644500631 -3.164892462
-0.2309087144 -0.9601137842 -3.292475991
-0.02004672009 -0.9757290868 -3.463810539
-0.01934162217 -0.9755861528 -3.207561467
-0.2237550788 -0.9489776945 -3.249806985
0.1979689097 -0.9802082997 -3.592476081
-0.2238834255 -0.9489474231 -3.749813492
0.2048730903 -0.9532324044 -3.500216165
-0.01289308455 -0.9645929971 -3.421141533
-0.01295725787 -0.9645778614 -3.671144787
-0.2238192522 -0.9489625588 -3.499810239
-0.009440994248 -0.9511050495 -3.375011575
0.201421 -0.9667203521 -3.546346123
-0.009505167573 -0.9510899138 -3.625014829
0.1979689097 -0.9802082997 -3.592476081
-0.2237550788 -0.9489776945 -3.249806985
-0.2238834255 -0.9489474231 -3.749813492
-0.2380623499 -0.9712498739 -3.335144996
-0.01289308455 -0.9645929971 -3.421141533
-0.2238192522 -0.9489625588 -3.499810239
-0.01295725787 -0.9645778614 -3.671144787
-0.02004672009 -0.9757290868 -3.463810539
-0.2309087144 -0.9601137842 -3.292475991
-0.2309728877 -0.9600986485 -3.542479244
0.1965792459 -0.9804879398 -4.104974698
-0.2238834255 -0.9489474231 -3.749813492
-0.2240144455 -0.9489165022 -4.249807786
-0.2394391671 -0.9709113684 -3.847643368
-0.01365208979 -0.9647176814 -3.927394095
-0.2239489355 -0.9489319627 -3.999810639
-0.01371759983 -0.964702221 -4.177391242
-0.02142996062 -0.9756996541 -3.976309033
-0.2316612963 -0.9599293957 -3.79872843
-0.2317268063 -0.9599139353 -4.048725577
-0.2238834255 -0.9489474231 -3.749813492
0.1965792459 -0.9804879398 -4.104974698
-0.2240144455 -0.9489165022 -4.249807786
0.2047450786 -0.9532599083 -4.000172898
-0.01365208979 -0.9647176814 -3.927394095
-0.01371759983 -0.964702221 -4.177391242
-0.2239489355 -0.9489319627 -3.999810639
-0.00956917344 -0.9511036657 -3.874993195
0.2006621622 -0.9668739241 -4.052573798
-0.009634683476 -0.9510882053 -4.124990342
-0.2238834255 -0.9489474231 -3.749813492
0.1965792459 -0.9804879398 -4.104974698
0.1979689097 -0.9802082997 -3.592476081
-0.2394391671 -0.9709113684 -3.847643368
-0.01365208979 -0.9647176814 -3.927394095
0.1972740778 -0.9803481197 -3.84872539
-0.01295725787 -0.9645778614 -3.671144787
-0.2316612963 -0.9599293957 -3.79872843
-0.02142996062 -0.9756996541 -3.976309033
-0.0207351287 -0.975559834 -3.720059725
0.1965792459 -0.9804879398 -4.104974698
-0.2238834255 -0.9489474231 -3.749813492
0.1979689097 -0.9802082997 -3.592476081
0.2047450786 -0.9532599083 -4.000172898
-0.01365208979 -0.9647176814 -3.927394095
-0.01295725787 -0.9645778614 -3.671144787
0.1972740778 -0.9803481197 -3.84872539
0.2006621622 -0.9668739241 -4.052573798
-0.00956917344 -0.9511036657 -3.874993195
0.2013569942 -0.966734104 -3.79632449
0.1952027341 -0.9807629136 -4.617474104
0.1965792459 -0.9804879398 -4.104974698
-0.2240144455 -0.9489165022 -4.249807786
-0.2405801103 -0.9706292858 -4.360142908
0.19589099 -0.9806254267 -4.361224401
-0.01371759983 -0.964702221 -4.177391242
-0.01440585572 -0.9648397079 -4.433640945
-0.02268868808 -0.9756960997 -4.488808506
-0.02200043219 -0.9755586128 -4.232558803
-0.2322972779 -0.959772894 -4.304975347
-0.2240144455 -0.9489165022 -4.249807786
0.1965792459 -0.9804879398 -4.104974698
0.1952027341 -0.9807629136 -4.617474104
0.2046371457 -0.9532830842 -4.500217184
-0.01371759983 -0.964702221 -4.177391242
0.19589099 -0.9806254267 -4.361224401
-0.01440585572 -0.9648397079 -4.433640945
-0.009688649922 -0.9510997932 -4.375012485
0.2006081958 -0.966885512 -4.302595941
0.1999199399 -0.9670229989 -4.558845644
-0.2240144455 -0.9489165022 -4.249807786
-0.224142999 -0.9488861449 -4.749815241
0.1952027341 -0.9807629136 -4.617474104
-0.2405801103 -0.9706292858 -4.360142908
-0.2240787222 -0.9489013236 -4.499811513
-0.01447013242 -0.9648245292 -4.683644672
-0.01440585572 -0.9648397079 -4.433640945
-0.2322972779 -0.959772894 -4.304975347
-0.2323615546 -0.9597577154 -4.554979074
-0.02268868808 -0.9756960997 -4.488808506
0.1952027341 -0.9807629136 -4.617474104
-0.224142999 -0.9488861449 -4.749815241
-0.2240144455 -0.9489165022 -4.249807786
0.2046371457 -0.9532830842 -4.500217184
-0.01447013242 -0.9648245292 -4.683644672
-0.2240787222 -0.9489013236 -4.499811513
-0.01440585572 -0.9648397079 -4.433640945
0.1999199399 -0.9670229989 -4.558845644
-0.009752926625 -0.9510846146 -4.625016213
-0.009688649922 -0.9510997932 -4.375012485
0.8788461538 -0.4222018923 -2.75
0.6096374219 -0.7926803983 -2.311829153
0.6022259829 -0.7667782375 -2.250376414
0.5306895478 -0.8179202919 -2.750228985
0.7442417878 -0.6074411453 -2.530914577
0.6059317024 -0.7797293179 -2.281102783
0.7405360684 -0.5944900649 -2.500188207
0.7047678508 -0.6200610921 -2.750114493
0.5701634848 -0.8053003451 -2.531029069
0.5664577653 -0.7923492647 -2.500302699
0.6096374219 -0.7926803983 -2.311829153
0.8788461538 -0.4222018923 -2.75
0.6022259829 -0.7667782375 -2.250376414
0.8974677314 -0.4410801186 -2.568557907
0.7442417878 -0.6074411453 -2.530914577
0.7405360684 -0.5944900649 -2.500188207
0.6059317024 -0.7797293179 -2.281102783
0.7535525766 -0.6168802585 -2.44019353
0.8881569426 -0.4316410055 -2.659278954
0.7498468572 -0.6039291781 -2.40946716
0.6096374219 -0.7926803983 -2.311829153
0.8788461538 -0.4222018923 -2.75
0.6065660823 -0.7950330734 -2.824180442
0.5306895478 -0.8179202919 -2.750228985
0.7442417878 -0.6074411453 -2.530914577
0.7427061181 -0.6086174828 -2.787090221
0.6081017521 -0.7938567358 -2.568004797
0.5701634848 -0.8053003451 -2.531029069
0.7047678508 -0.6200610921 -2.750114493
0.568627815 -0.8064766826 -2.787204713
0.8788461538 -0.4222018923 -2.75
0.6096374219 -0.7926803983 -2.311829153
0.6065660823 -0.7950330734 -2.824180442
0.8974677314 -0.4410801186 -2.568557907
0.7442417878 -0.6074411453 -2.530914577
0.6081017521 -0.7938567358 -2.568004797
0.7427061181 -0.6086174828 -2.787090221
0.8881569426 -0.4316410055 -2.659278954
0.7535525766 -0.6168802585 -2.44019353
0.7520169069 -0.618056596 -2.696369174
0.1938235058 -0.9810364155 -5.129975304
-0.224142999 -0.9488861449 -4.749815241
0.1952027341 -0.9807629136 -4.617474104
0.2045097222 -0.9533104287 -5.000175629
-0.01515974656 -0.9649612802 -4.939895273
-0.01447013242 -0.9648245292 -4.683644672
0.19451312 -0.9808996645 -4.873724704
0.199166614 -0.9671734221 -5.065075467
-0.009816638352 -0.9510982868 -4.874995435
0.1998562282 -0.9670366711 -4.808824866
-0.224142999 -0.9488861449 -4.749815241
0.1938235058 -0.9810364155 -5.129975304
0.1952027341 -0.9807629136 -4.617474104
-0.2419415258 -0.9702908317 -4.872642967
-0.01515974656 -0.9649612802 -4.939895273
0.19451312 -0.9808996645 -4.873724704
-0.01447013242 -0.9648245292 -4.683644672
-0.2330422624 -0.9595884883 -4.811229104
-0.02405900996 -0.9756636236 -5.001309136
-0.02336939583 -0.9755268726 -4.745058535
-0.224142999 -0.9488861449 -4.749815241
0.1938235058 -0.9810364155 -5.129975304
-0.2242744429 -0.948855086 -5.249811725
0.2045097222 -0.9533104287 -5.000175629
-0.01515974656 -0.9649612802 -4.939895273
-0.01522546854 -0.9649457508 -5.189893515
-0.2242087209 -0.9488706155 -4.999813483
-0.009816638352 -0.9510982868 -4.874995435
0.199166614 -0.9671734221 -5.065075467
-0.009882360336 -0.9510827574 -5.124993677
0.1938235058 -0.9810364155 -5.129975304
-0.224142999 -0.9488861449 -4.749815241
-0.2242744429 -0.948855086 -5.249811725
-0.2419415258 -0.9702908317 -4.872642967
-0.01515974656 -0.9649612802 -4.939895273
-0.2242087209 -0.9488706155 -4.999813483
-0.01522546854 -0.9649457508 -5.189893515
-0.02405900996 -0.9756636236 -5.001309136
-0.2330422624 -0.9595884883 -4.811229104
-0.2331079843 -0.9595729589 -5.061227346
0.6085539038 -0.7935125368 -3.336717444
0.6065660823 -0.7950330734 -2.824180442
0.2049810577 -0.9532091932 -3.000172277
0.1993791056 -0.9799224318 -3.079977938
0.6075599931 -0.7942728051 -3.080448943
0.40577357 -0.8741211333 -2.912176359
0.4067674808 -0.873360865 -3.16844486
0.4039665047 -0.8867174843 -3.208347691
0.402972594 -0.8874777526 -2.95207919
0.2021800816 -0.9665658125 -3.040075108
0.2049810577 -0.9532091932 -3.000172277
0.6065660823 -0.7950330734 -2.824180442
0.6085539038 -0.7935125368 -3.336717444
0.6020118665 -0.7669463558 -3.250376499
0.40577357 -0.8741211333 -2.912176359
0.6075599931 -0.7942728051 -3.080448943
0.4067674808 -0.873360865 -3.16844486
0.4034964621 -0.8600777745 -3.125274388
0.6042889744 -0.7809897146 -3.03727847
0.6052828851 -0.7802294463 -3.293546972
0.2049810577 -0.9532091932 -3.000172277
0.2048730903 -0.9532324044 -3.500216165
0.6085539038 -0.7935125368 -3.336717444
0.1993791056 -0.9799224318 -3.079977938
0.204927074 -0.9532207988 -3.250194221
0.4067134971 -0.8733724706 -3.418466805
0.4067674808 -0.873360865 -3.16844486
0.2021800816 -0.9665658125 -3.040075108
0.202126098 -0.9665774181 -3.290097052
0.4039665047 -0.8867174843 -3.208347691
0.6085539038 -0.7935125368 -3.336717444
0.2048730903 -0.9532324044 -3.500216165
0.2049810577 -0.9532091932 -3.000172277
0.6020118665 -0.7669463558 -3.250376499
0.4067134971 -0.8733724706 -3.418466805
0.204927074 -0.9532207988 -3.250194221
0.4067674808 -0.873360865 -3.16844486
0.6052828851 -0.7802294463 -3.293546972
0.4034424784 -0.8600893801 -3.375296332
0.4034964621 -0.8600777745 -3.125274388
-0.6120580026 -0.7589532275 -4.999856849
-0.9015039063 -0.4327709637 -4.61875
-0.6121152048 -0.7589070932 -4.499493255
-0.8788461538 -0.4222018923 -4.75
-0.7567809544 -0.5958620956 -4.809303424
-0.7568095555 -0.5958390284 -4.559121628
-0.6120866037 -0.7589301603 -4.749675052
-0.7454520782 -0.5905775599 -4.874928424
-0.89017503 -0.427486428 -4.684375
-0.7454806793 -0.5905544927 -4.624746628
-0.6121152048 -0.7589070932 -4.499493255
-0.9015039063 -0.4327709637 -4.61875
-0.6120580026 -0.7589532275 -4.999856849
-0.5668134021 -0.8238462036 -4.616374386
-0.7568095555 -0.5958390284 -4.559121628
-0.7567809544 -0.5958620956 -4.809303424
-0.6120866037 -0.7589301603 -4.749675052
-0.5894643035 -0.7913766484 -4.557933821
-0.7341586542 -0.6283085836 -4.617562193
-0.5894357024 -0.7913997155 -4.808115617
-0.9015039062 -0.4327709637 -2.56875
-0.9380627763 -0.3464653342 -3.080534385
-0.975 0 -3
-0.8788461538 -0.4222018923 -2.75
-0.9197833413 -0.3896181489 -2.824642193
-0.9565313881 -0.1732326671 -3.040267193
-0.9382519531 -0.2163854818 -2.784375
-0.89017503 -0.427486428 -2.659375
-0.9084544651 -0.3843336132 -2.915267193
-0.9269230769 -0.2111009462 -2.875
-0.975 0 -3
-0.9380627763 -0.3464653342 -3.080534385
-0.9015039062 -0.4327709637 -2.56875
-1 0 -2.825
-0.9565313881 -0.1732326671 -3.040267193
-0.9197833413 -0.3896181489 -2.824642193
-0.9382519531 -0.2163854818 -2.784375
-0.9875 0 -2.9125
-0.9690313881 -0.1732326671 -2.952767193
-0.9507519531 -0.2163854818 -2.696875
-0.975 0 -3
-0.975 0 -2.5
-0.9015039062 -0.4327709637 -2.56875
-0.8788461538 -0.4222018923 -2.75
-0.975 0 -2.75
-0.9382519531 -0.2163854818 -2.534375
-0.9382519531 -0.2163854818 -2.784375
-0.9269230769 -0.2111009462 -2.875
-0.9269230769 -0.2111009462 -2.625
-0.89017503 -0.427486428 -2.659375
-0.9015039062 -0.4327709637 -2.56875
-0.975 0 -2.5
-0.975 0 -3
-1 0 -2.825
-0.9382519531 -0.2163854818 -2.534375
-0.975 0 -2.75
-0.9382519531 -0.2163854818 -2.784375
-0.9507519531 -0.2163854818 -2.696875
-0.9875 0 -2.6625
-0.9875 0 -2.9125
-0.2232365806 -0.9490997993 -1.249806767
-0.5610821383 -0.8277601308 -1.541391416
-0.6373771051 -0.7705520268 -1.027680065
-0.6114655876 -0.7594305993 -1.499733268
-0.3921593594 -0.8884299651 -1.395599091
-0.5992296217 -0.7991560788 -1.284535741
-0.4303068428 -0.859825913 -1.138743416
-0.4173510841 -0.8542651993 -1.374770017
-0.5862738629 -0.7935953651 -1.520562342
-0.6244213463 -0.764991313 -1.263706666
-0.5610821383 -0.8277601308 -1.541391416
-0.2232365806 -0.9490997993 -1.249806767
-0.6373771051 -0.7705520268 -1.027680065
-0.2322542597 -0.9726551079 -1.28519263
-0.3921593594 -0.8884299651 -1.395599091
-0.4303068428 -0.859825913 -1.138743416
-0.5992296217 -0.7991560788 -1.284535741
-0.396668199 -0.9002076193 -1.413292023
-0.2277454201 -0.9608774536 -1.267499698
-0.4348156824 -0.8716035673 -1.156436347
-0.5610821383 -0.8277601308 -1.541391416
-0.2232365806 -0.9490997993 -1.249806767
-0.223364893 -0.94906961 -1.749813109
-0.6114655876 -0.7594305993 -1.499733268
-0.3921593594 -0.8884299651 -1.395599091
-0.2233007368 -0.9490847047 -1.499809938
-0.3922235156 -0.8884148704 -1.645602263
-0.5862738629 -0.7935953651 -1.520562342
-0.4173510841 -0.8542651993 -1.374770017
-0.4174152403 -0.8542501047 -1.624773188
-0.2232365806 -0.9490997993 -1.249806767
-0.5610821383 -0.8277601308 -1.541391416
-0.223364893 -0.94906961 -1.749813109
-0.2322542597 -0.9726551079 -1.28519263
-0.3921593594 -0.8884299651 -1.395599091
-0.3922235156 -0.8884148704 -1.645602263
-0.2233007368 -0.9490847047 -1.499809938
-0.2277454201 -0.9608774536 -1.267499698
-0.396668199 -0.9002076193 -1.413292023
-0.2278095763 -0.9608623589 -1.51750287
-0.9015039062 -0.4327709637 -3.59375
-0.975 0 -4
-0.9382647763 -0.3459179232 -4.105533688
-1 0 -3.85
-0.9382519531 -0.2163854818 -3.796875
-0.9566323881 -0.1729589616 -4.052766844
-0.9198843413 -0.3893444435 -3.849641844
-0.9507519531 -0.2163854818 -3.721875
-0.9875 0 -3.925
-0.9691323881 -0.1729589616 -3.977766844
-0.975 0 -4
-0.9015039062 -0.4327709637 -3.59375
-0.9382647763 -0.3459179232 -4.105533688
-0.8788461538 -0.4222018923 -3.75
-0.9382519531 -0.2163854818 -3.796875
-0.9198843413 -0.3893444435 -3.849641844
-0.9566323881 -0.1729589616 -4.052766844
-0.9269230769 -0.2111009462 -3.875
-0.89017503 -0.427486428 -3.671875
-0.9085554651 -0.3840599078 -3.927766844
-0.975 0 -4
-0.9015039062 -0.4327709637 -3.59375
-0.975 0 -3.5
-1 0 -3.85
-0.9382519531 -0.2163854818 -3.796875
-0.9382519531 -0.2163854818 -3.546875
-0.975 0 -3.75
-0.9875 0 -3.925
-0.9507519531 -0.2163854818 -3.721875
-0.9875 0 -3.675
-0.9015039062 -0.4327709637 -3.59375
-0.975 0 -4
-0.975 0 -3.5
-0.8788461538 -0.4222018923 -3.75
-0.9382519531 -0.2163854818 -3.796875
-0.975 0 -3.75
-0.9382519531 -0.2163854818 -3.546875
-0.89017503 -0.427486428 -3.671875
-0.9269230769 -0.2111009462 -3.875
-0.9269230769 -0.2111009462 -3.625
0.9124774891 -0.3435255914 -2.250074321
1 0 -1.8
0.8788461538 -0.4222018923 -1.75
0.8952421874 -0.445579876 -2.055890525
0.9562387445 -0.1717627957 -2.025037161
0.9394230769 -0.2111009462 -1.775
0.8956618214 -0.3828637419 -2.000037161
0.9038598382 -0.3945527337 -2.152982423
0.9476210937 -0.222789938 -1.927945262
0.8870441706 -0.4338908841 -1.902945262
1 0 -1.8
0.9124774891 -0.3435255914 -2.250074321
0.8788461538 -0.4222018923 -1.75
0.975 0 -2
0.9562387445 -0.1717627957 -2.025037161
0.8956618214 -0.3828637419 -2.000037161
0.9394230769 -0.2111009462 -1.775
0.9875 0 -1.9
0.9437387445 -0.1717627957 -2.125037161
0.9269230769 -0.2111009462 -1.875
1 0 -1.8
0.9124774891 -0.3435255914 -2.250074321
1 0 -2.3125
0.8952421874 -0.445579876 -2.055890525
0.9562387445 -0.1717627957 -2.025037161
0.9562387445 -0.1717627957 -2.281287161
1 0 -2.05625
0.9476210937 -0.222789938 -1.927945262
0.9038598382 -0.3945527337 -2.152982423
0.9476210937 -0.222789938 -2.184195262
0.9124774891 -0.3435255914 -2.250074321
1 0 -1.8
1 0 -2.3125
0.975 0 -2
0.9562387445 -0.1717627957 -2.025037161
1 0 -2.05625
0.9562387445 -0.1717627957 -2.281287161
0.9437387445 -0.1717627957 -2.125037161
0.9875 0 -1.9
0.9875 0 -2.15625
-0.9015039063 -0.4327709637 -4.61875
-0.975 0 -5
-0.938466735 -0.3453696387 -5.130533523
-1 0 -4.875
-0.9382519531 -0.2163854818 -4.809375
-0.9567333675 -0.1726848194 -5.065266761
-0.9199853206 -0.3890703012 -4.874641761
-0.9507519531 -0.2163854818 -4.746875
-0.9875 0 -4.9375
-0.9692333675 -0.1726848194 -5.002766761
-0.975 0 -5
-0.9015039063 -0.4327709637 -4.61875
-0.938466735 -0.3453696387 -5.130533523
-0.8788461538 -0.4222018923 -4.75
-0.9382519531 -0.2163854818 -4.809375
-0.9199853206 -0.3890703012 -4.874641761
-0.9567333675 -0.1726848194 -5.065266761
-0.9269230769 -0.2111009462 -4.875
-0.89017503 -0.427486428 -4.684375
-0.9086564444 -0.3837857655 -4.940266761
-0.975 0 -5
-0.9015039063 -0.4327709637 -4.61875
-0.975 0 -4.5
-1 0 -4.875
-0.9382519531 -0.2163854818 -4.809375
-0.9382519531 -0.2163854818 -4.559375
-0.975 0 -4.75
-0.9875 0 -4.9375
-0.9507519531 -0.2163854818 -4.746875
-0.9875 0 -4.6875
-0.9015039063 -0.4327709637 -4.61875
-0.975 0 -5
-0.975 0 -4.5
-0.8788461538 -0.4222018923 -4.75
-0.9382519531 -0.2163854818 -4.809375
-0.975 0 -4.75
-0.9382519531 -0.2163854818 -4.559375
-0.89017503 -0.427486428 -4.684375
-0.9269230769 -0.2111009462 -4.875
-0.9269230769 -0.2111009462 -4.625
0.9125157629 -0.3434239108 -0.2500743298
1 0 -0.2625
1 0 0.25
0.8994741469 -0.4369739798 -0.006450738723
0.9562578814 -0.1717119554 -0.2562871649
1 0 -0.00625
0.9562578814 -0.1717119554 -3.716488394e-05
0.9059949549 -0.3901989453 -0.1282625342
0.9497370735 -0.2184869899 -0.1344753694
0.9497370735 -0.2184869899 0.1217746306
1 0 0.25
1 0 -0.2625
0.9125157629 -0.3434239108 -0.2500743298
0.975 0 0
1 0 -0.00625
0.9562578814 -0.1717119554 -0.2562871649
0.9562578814 -0.1717119554 -3.716488394e-05
0.9875 0 0.125
0.9875 0 -0.13125
0.9437578814 -0.1717119554 -0.1250371649
1 0 0.25
0.8788461538 -0.4222018923 0.25
0.9125157629 -0.3434239108 -0.2500743298
0.8994741469 -0.4369739798 -0.006450738723
0.9394230769 -0.2111009462 0.25
0.8956809584 -0.3828129016 -3.716488393e-05
0.9562578814 -0.1717119554 -3.716488394e-05
0.9497370735 -0.2184869899 0.1217746306
0.8891601504 -0.4295879361 0.1217746306
0.9059949549 -0.3901989453 -0.1282625342
0.9125157629 -0.3434239108 -0.2500743298
0.8788461538 -0.4222018923 0.25
1 0 0.25
0.975 0 0
0.8956809584 -0.3828129016 -3.716488393e-05
0.9394230769 -0.2111009462 0.25
0.9562578814 -0.1717119554 -3.716488394e-05
0.9437578814 -0.1717119554 -0.1250371649
0.9269230769 -0.2111009462 0.125
0.9875 0 0.125
0.9124966263 -0.3434747546 -1.250074323
1 0 -0.775
0.8788461538 -0.4222018923 -0.75
0.8994754618 -0.4369712732 -1.03129015
0.9562483131 -0.1717373773 -1.012537162
0.9394230769 -0.2111009462 -0.7625
0.8956713901 -0.3828383235 -1.000037162
0.905986044 -0.3902230139 -1.140682237
0.9497377309 -0.2184856366 -0.9031450752
0.8891608078 -0.4295865827 -0.8906450752
1 0 -0.775
0.9124966263 -0.3434747546 -1.250074323
0.8788461538 -0.4222018923 -0.75
0.975 0 -1
0.9562483131 -0.1717373773 -1.012537162
0.8956713901 -0.3828383235 -1.000037162
0.9394230769 -0.2111009462 -0.7625
0.9875 0 -0.8875
0.9437483131 -0.1717373773 -1.125037162
0.9269230769 -0.2111009462 -0.875
1 0 -0.775
0.9124966263 -0.3434747546 -1.250074323
1 0 -1.2875
0.8994754618 -0.4369712732 -1.03129015
0.9562483131 -0.1717373773 -1.012537162
0.9562483131 -0.1717373773 -1.268787162
1 0 -1.03125
0.9497377309 -0.2184856366 -0.9031450752
0.905986044 -0.3902230139 -1.140682237
0.9497377309 -0.2184856366 -1.159395075
0.9124966263 -0.3434747546 -1.250074323
1 0 -0.775
1 0 -1.2875
0.975 0 -1
0.9562483131 -0.1717373773 -1.012537162
1 0 -1.03125
0.9562483131 -0.1717373773 -1.268787162
0.9437483131 -0.1717373773 -1.125037162
0.9875 0 -0.8875
0.9875 0 -1.14375
0.6045731674 -0.7965496125 -3.849175969
0.6017982893 -0.7671139544 -4.250377076
0.2047450786 -0.9532599083 -4.000172898
0.5305170137 -0.818032211 -3.750229258
0.6031857283 -0.7818317835 -4.049776523
0.4032716839 -0.8601869314 -4.125274987
0.404659123 -0.8749047604 -3.924674434
0.5675450906 -0.8072909118 -3.799702613
0.5661576515 -0.7925730827 -4.000303167
0.3676310461 -0.8856460596 -3.875201078
0.6045731674 -0.7965496125 -3.849175969
0.1979689097 -0.9802082997 -3.592476081
0.2047450786 -0.9532599083 -4.000172898
0.1965792459 -0.9804879398 -4.104974698
0.4012710386 -0.8883789561 -3.720826025
0.2013569942 -0.966734104 -3.79632449
0.404659123 -0.8749047604 -3.924674434
0.4005762067 -0.8885187762 -3.977075334
0.1972740778 -0.9803481197 -3.84872539
0.2006621622 -0.9668739241 -4.052573798
0.2047450786 -0.9532599083 -4.000172898
0.1979689097 -0.9802082997 -3.592476081
0.6045731674 -0.7965496125 -3.849175969
0.5305170137 -0.818032211 -3.750229258
0.2013569942 -0.966734104 -3.79632449
0.4012710386 -0.8883789561 -3.720826025
0.404659123 -0.8749047604 -3.924674434
0.3676310461 -0.8856460596 -3.875201078
0.3642429617 -0.8991202553 -3.671352669
0.5675450906 -0.8072909118 -3.799702613
-0.9015039063 -0.4327709637 -1.54375
-0.6115267064 -0.7593813847 -1.999896079
-0.5610821383 -0.8277601308 -1.541391416
-0.6396217001 -0.7686898469 -2.052675942
-0.7565153063 -0.5960761742 -1.771823039
-0.5863044223 -0.7935707577 -1.770643748
-0.7312930223 -0.6302655472 -1.542570708
-0.7705628032 -0.6007304053 -1.798212971
-0.6255742033 -0.7640356158 -2.02628601
-0.6003519192 -0.7982249888 -1.797033679
-0.6115267064 -0.7593813847 -1.999896079
-0.9015039063 -0.4327709637 -1.54375
-0.5610821383 -0.8277601308 -1.541391416
-0.6114655876 -0.7594305993 -1.499733268
-0.7565153063 -0.5960761742 -1.771823039
-0.7312930223 -0.6302655472 -1.542570708
-0.5863044223 -0.7935707577 -1.770643748
-0.611496147 -0.759405992 -1.749814673
-0.7564847469 -0.5961007815 -1.521741634
-0.5862738629 -0.7935953651 -1.520562342
-0.6115267064 -0.7593813847 -1.999896079
-0.9015039063 -0.4327709637 -1.54375
-0.8788461538 -0.4222018923 -1.75
-0.6396217001 -0.7686898469 -2.052675942
-0.7565153063 -0.5960761742 -1.771823039
-0.89017503 -0.427486428 -1.646875
-0.7451864301 -0.5907916385 -1.874948039
-0.6255742033 -0.7640356158 -2.02628601
-0.7705628032 -0.6007304053 -1.798212971
-0.759233927 -0.5954458696 -1.901337971
-0.9015039063 -0.4327709637 -1.54375
-0.6115267064 -0.7593813847 -1.999896079
-0.8788461538 -0.4222018923 -1.75
-0.6114655876 -0.7594305993 -1.499733268
-0.7565153063 -0.5960761742 -1.771823039
-0.7451864301 -0.5907916385 -1.874948039
-0.89017503 -0.427486428 -1.646875
-0.7564847469 -0.5961007815 -1.521741634
-0.611496147 -0.759405992 -1.749814673
-0.7451558707 -0.5908162458 -1.624866634
0.975 0 -4
0.8788461538 -0.4222018923 -3.75
0.8957935497 -0.4444703774 -4.105936763
1 0 -3.85
0.9269230769 -0.2111009462 -3.875
0.8873198518 -0.4333361349 -3.927968381
0.9353967748 -0.2222351887 -4.052968381
0.9875 0 -3.925
0.9394230769 -0.2111009462 -3.8
0.9478967748 -0.2222351887 -3.977968381
0.8957935497 -0.4444703774 -4.105936763
0.8788461538 -0.4222018923 -3.75
0.975 0 -4
0.9124392799 -0.343627066 -4.250074452
0.8873198518 -0.4333361349 -3.927968381
0.9269230769 -0.2111009462 -3.875
0.9353967748 -0.2222351887 -4.052968381
0.9041164148 -0.3940487217 -4.178005607
0.8956427169 -0.3829144792 -4.000037226
0.9437196399 -0.171813533 -4.125037226
0.8957935497 -0.4444703774 -4.105936763
1 0 -4.3625
0.975 0 -4
1 0 -3.85
0.9478967748 -0.2222351887 -4.234218381
0.9875 0 -4.18125
0.9353967748 -0.2222351887 -4.052968381
0.9478967748 -0.2222351887 -3.977968381
1 0 -4.10625
0.9875 0 -3.925
0.975 0 -4
1 0 -4.3625
0.8957935497 -0.4444703774 -4.105936763
0.9124392799 -0.343627066 -4.250074452
0.9875 0 -4.18125
0.9478967748 -0.2222351887 -4.234218381
0.9353967748 -0.2222351887 -4.052968381
0.9437196399 -0.171813533 -4.125037226
0.9562196399 -0.171813533 -4.306287226
0.9041164148 -0.3940487217 -4.178005607
0.6069497731 -0.7947401921 -1.799880184
0.6022259829 -0.7667782375 -2.250376414
0.8788461538 -0.4222018923 -1.75
0.8952421874 -0.445579876 -2.055890525
0.604587878 -0.7807592148 -2.025128299
0.7405360684 -0.5944900649 -2.000188207
0.7428979635 -0.6084710422 -1.774940092
0.7510959803 -0.620160034 -1.927885354
0.7487340852 -0.6061790567 -2.153133469
0.8870441706 -0.4338908841 -1.902945262
0.8788461538 -0.4222018923 -1.75
0.6022259829 -0.7667782375 -2.250376414
0.6069497731 -0.7947401921 -1.799880184
0.5308622358 -0.8178082212 -1.750228954
0.7405360684 -0.5944900649 -2.000188207
0.604587878 -0.7807592148 -2.025128299
0.7428979635 -0.6084710422 -1.774940092
0.7048541948 -0.6200050567 -1.750114477
0.5665441093 -0.7922932293 -2.000302684
0.5689060045 -0.8062742066 -1.775054569
0.975 0 -3
0.8788461538 -0.4222018923 -2.75
0.8963209538 -0.44340585 -3.080938699
1 0 -2.825
0.9269230769 -0.2111009462 -2.875
0.8875835538 -0.4328038712 -2.915469349
0.9356604769 -0.221702925 -3.040469349
0.9875 0 -2.9125
0.9394230769 -0.2111009462 -2.7875
0.9481604769 -0.221702925 -2.952969349
0.8963209538 -0.44340585 -3.080938699
0.8788461538 -0.4222018923 -2.75
0.975 0 -3
0.9124583596 -0.343576399 -3.250074338
0.8875835538 -0.4328038712 -2.915469349
0.9269230769 -0.2111009462 -2.875
0.9356604769 -0.221702925 -3.040469349
0.9043896567 -0.3934911245 -3.165506518
0.8956522567 -0.3828891456 -3.000037169
0.9437291798 -0.1717881995 -3.125037169
0.8963209538 -0.44340585 -3.080938699
1 0 -3.3375
0.975 0 -3
1 0 -2.825
0.9481604769 -0.221702925 -3.209219349
0.9875 0 -3.16875
0.9356604769 -0.221702925 -3.040469349
0.9481604769 -0.221702925 -2.952969349
1 0 -3.08125
0.9875 0 -2.9125
0.975 0 -3
1 0 -3.3375
0.8963209538 -0.44340585 -3.080938699
0.9124583596 -0.343576399 -3.250074338
0.9875 0 -3.16875
0.9481604769 -0.221702925 -3.209219349
0.9356604769 -0.221702925 -3.040469349
0.9437291798 -0.1717881995 -3.125037169
0.9562291798 -0.1717881995 -3.293787169
0.9043896567 -0.3934911245 -3.165506518
0.6017982893 -0.7671139544 -4.250377076
0.8788461538 -0.4222018923 -3.75
0.6045731674 -0.7965496125 -3.849175969
0.8957935497 -0.4444703774 -4.105936763
0.7403222216 -0.5946579234 -4.000188538
0.7417096606 -0.6093757524 -3.799587985
0.6031857283 -0.7818317835 -4.049776523
0.7487959195 -0.6057921659 -4.17815692
0.8873198518 -0.4333361349 -3.927968381
0.7501833585 -0.620509995 -3.977556366
0.6045731674 -0.7965496125 -3.849175969
0.8788461538 -0.4222018923 -3.75
0.6017982893 -0.7671139544 -4.250377076
0.5305170137 -0.818032211 -3.750229258
0.7417096606 -0.6093757524 -3.799587985
0.7403222216 -0.5946579234 -4.000188538
0.6031857283 -0.7818317835 -4.049776523
0.5675450906 -0.8072909118 -3.799702613
0.7046815838 -0.6201170516 -3.750114629
0.5661576515 -0.7925730827 -4.000303167
0.6068637262 -0.7948058995 -4.361714717
0.2046371457 -0.9532830842 -4.500217184
0.2047450786 -0.9532599083 -4.000172898
0.6017982893 -0.7671139544 -4.250377076
0.4057504359 -0.8740444918 -4.43096595
0.2046911121 -0.9532714962 -4.250195041
0.4058044024 -0.8740329039 -4.180943807
0.6043310077 -0.7809599269 -4.306045896
0.4032177175 -0.8601985193 -4.37529713
0.4032716839 -0.8601869314 -4.125274987
0.2047450786 -0.9532599083 -4.000172898
0.2046371457 -0.9532830842 -4.500217184
0.6068637262 -0.7948058995 -4.361714717
0.1965792459 -0.9804879398 -4.104974698
0.2046911121 -0.9532714962 -4.250195041
0.4057504359 -0.8740444918 -4.43096595
0.4058044024 -0.8740329039 -4.180943807
0.2006621622 -0.9668739241 -4.052573798
0.2006081958 -0.966885512 -4.302595941
0.401721486 -0.8876469196 -4.233344707
0.2047450786 -0.9532599083 -4.000172898
0.6045731674 -0.7965496125 -3.849175969
0.6068637262 -0.7948058995 -4.361714717
0.6017982893 -0.7671139544 -4.250377076
0.404659123 -0.8749047604 -3.924674434
0.6057184468 -0.795677756 -4.105445343
0.4058044024 -0.8740329039 -4.180943807
0.4032716839 -0.8601869314 -4.125274987
0.6031857283 -0.7818317835 -4.049776523
0.6043310077 -0.7809599269 -4.306045896
0.6068637262 -0.7948058995 -4.361714717
0.6045731674 -0.7965496125 -3.849175969
0.2047450786 -0.9532599083 -4.000172898
0.1965792459 -0.9804879398 -4.104974698
0.6057184468 -0.795677756 -4.105445343
0.404659123 -0.8749047604 -3.924674434
0.4058044024 -0.8740329039 -4.180943807
0.401721486 -0.8876469196 -4.233344707
0.4005762067 -0.8885187762 -3.977075334
0.2006621622 -0.9668739241 -4.052573798
0.6065660823 -0.7950330734 -2.824180442
0.6020118665 -0.7669463558 -3.250376499
0.8788461538 -0.4222018923 -2.75
0.8963209538 -0.44340585 -3.080938699
0.6042889744 -0.7809897146 -3.03727847
0.7404290102 -0.594574124 -3.00018825
0.7427061181 -0.6086174828 -2.787090221
0.7514435181 -0.6192194617 -2.95255957
0.7491664101 -0.6051761029 -3.165657599
0.8875835538 -0.4328038712 -2.915469349
0.8788461538 -0.4222018923 -2.75
0.6020118665 -0.7669463558 -3.250376499
0.6065660823 -0.7950330734 -2.824180442
0.5306895478 -0.8179202919 -2.750228985
0.7404290102 -0.594574124 -3.00018825
0.6042889744 -0.7809897146 -3.03727847
0.7427061181 -0.6086174828 -2.787090221
0.7047678508 -0.6200610921 -2.750114493
0.5663507071 -0.7924333238 -3.000302742
0.568627815 -0.8064766826 -2.787204713
0.6065660823 -0.7950330734 -2.824180442
0.2009143768 -0.9796088062 -2.567480544
0.2049810577 -0.9532091932 -3.000172277
0.1993791056 -0.9799224318 -3.079977938
0.4037402296 -0.8873209398 -2.695830493
0.2029477173 -0.9664089997 -2.78382641
0.40577357 -0.8741211333 -2.912176359
0.402972594 -0.8874777526 -2.95207919
0.2001467412 -0.979765619 -2.823729241
0.2021800816 -0.9665658125 -3.040075108
0.2049810577 -0.9532091932 -3.000172277
0.2009143768 -0.9796088062 -2.567480544
0.6065660823 -0.7950330734 -2.824180442
0.5306895478 -0.8179202919 -2.750228985
0.2029477173 -0.9664089997 -2.78382641
0.4037402296 -0.8873209398 -2.695830493
0.40577357 -0.8741211333 -2.912176359
0.3678353027 -0.8855647426 -2.875200631
0.3658019623 -0.8987645491 -2.658854765
0.568627815 -0.8064766826 -2.787204713
0.8788461538 -0.4222018923 -0.75
0.6155165626 -0.7881239504 -0.7749841767
0.6024401696 -0.7666099674 -1.250376426
0.8994754618 -0.4369712732 -1.03129015
0.7471813582 -0.6051629213 -0.7624920884
0.6089783661 -0.7773669589 -1.012680301
0.7406431617 -0.5944059298 -1.000188213
0.8891608078 -0.4295865827 -0.8906450752
0.7574960122 -0.6125476118 -0.9031371636
0.7509578157 -0.6017906203 -1.140833288
0.6155165626 -0.7881239504 -0.7749841767
0.8788461538 -0.4222018923 -0.75
0.6024401696 -0.7666099674 -1.250376426
0.5310349352 -0.8176960912 -0.7502289706
0.7471813582 -0.6051629213 -0.7624920884
0.7406431617 -0.5944059298 -1.000188213
0.6089783661 -0.7773669589 -1.012680301
0.5732757489 -0.8029100208 -0.7626065737
0.7049405445 -0.6199489918 -0.7501144853
0.5667375524 -0.7921530293 -1.000302698
0.1924510778 -0.9813065692 -5.642480119
0.5301781132 -0.8182518978 -5.750238232
0.2044019868 -0.9533335344 -5.500222917
0.6051906583 -0.7960805658 -5.386716295
0.3613145955 -0.8997792335 -5.696359176
0.36729005 -0.8857927161 -5.625230574
0.1984265323 -0.9673200518 -5.571351518
0.398820868 -0.8886935675 -5.514598207
0.5676843857 -0.8071662318 -5.568477264
0.4047963225 -0.8747070501 -5.443469606
0.8954107874 -0.385829654 -9.25
0.6221628501 -0.7506919394 -9.204994437
0.6985134992 -0.6802234129 -9.634687677
0.7181975312 -0.6958392818 -9.574292075
0.7587868187 -0.5682607967 -9.227497219
0.6603381747 -0.7154576762 -9.419841057
0.7969621433 -0.5330265334 -9.442343838
0.8068041593 -0.5408344679 -9.412146038
0.6701801907 -0.7232656106 -9.389643256
0.7083555152 -0.6880313474 -9.604489876
-0.7159649929 -0.6981361822 -9.577780302
-0.9374827987 -0.3480316108 -9.647975972
-0.9098954474 -0.4148376488 -9.231828986
-0.9047163309 -0.3634740165 -9.628848687
-0.8267238958 -0.5230838965 -9.612878137
-0.923689123 -0.3814346298 -9.439902479
-0.8129302201 -0.5564869155 -9.404804644
-0.8103406619 -0.5308050994 -9.603314494
-0.9210995648 -0.3557528136 -9.638412329
-0.9073058891 -0.3891558327 -9.430338836
0.975 0 -8
1 0 -7.95
0.975 0 -7.5
0.8788461538 -0.4222018923 -7.75
0.9875 0 -7.975
0.9875 0 -7.725
0.975 0 -7.75
0.9269230769 -0.2111009462 -7.875
0.9394230769 -0.2111009462 -7.85
0.9269230769 -0.2111009462 -7.625
1 0 -8.4625
0.975 0 -8.5
1 0 -8.975
0.8999440444 -0.4360054093 -8.718677298
0.9875 0 -8.48125
0.9875 0 -8.7375
1 0 -8.71875
0.9499720222 -0.2180027046 -8.590588649
0.9374720222 -0.2180027046 -8.609338649
0.9499720222 -0.2180027046 -8.846838649
-0.8953751811 -0.4453125701 -8.714495063
-1 0 -8.975
-1 0 -8.4625
-0.975 0 -8.5
-0.9476875905 -0.2226562851 -8.844747532
-1 0 -8.71875
-0.9476875905 -0.2226562851 -8.588497532
-0.9351875905 -0.2226562851 -8.607247532
-0.9875 0 -8.7375
-0.9875 0 -8.48125
0.8954362405 -0.4451897788 -7.693590666
0.8788461538 -0.4222018923 -7.75
0.8912946879 -0.4534245023 -8.205901749
0.5970034454 -0.8022386716 -7.949478608
0.8871411972 -0.4336958356 -7.721795333
0.8850704209 -0.4378131973 -7.977950874
0.8933654642 -0.4493071406 -7.949746207
0.746219843 -0.6237142252 -7.821534637
0.7379247996 -0.6122202819 -7.849739304
0.7441490667 -0.6278315869 -8.077690179
-0.8443747687 -0.4875 -10
-0.7159649929 -0.6981361822 -9.577780302
-0.6590115862 -0.7185601779 -9.547117703
-0.9047163309 -0.3634740165 -9.628848687
-0.7801698808 -0.5928180911 -9.788890151
-0.6874882896 -0.70834818 -9.562449002
-0.7516931775 -0.6030300889 -9.773558851
-0.8745455498 -0.4254870082 -9.814424343
-0.8103406619 -0.5308050994 -9.603314494
-0.7818639585 -0.5410170972 -9.587983195
0.5972073913 -0.8020868605 -8.472578865
0.1832619275 -0.983064121 -8.703857192
0.204051799 -0.9534085501 -8.501179309
0.5485328209 -0.8060624941 -8.745493908
0.3902346594 -0.8925754907 -8.588218028
0.1936568633 -0.9682363355 -8.602518251
0.4006295952 -0.8777477053 -8.486879087
0.5728701061 -0.8040746773 -8.609036386
0.3658973742 -0.8945633076 -8.72467555
0.3762923099 -0.8797355221 -8.623336608
1 0 -7.95
0.8788461538 -0.4222018923 -7.75
0.9124118411 -0.343699916 -8.250169006
0.8912946879 -0.4534245023 -8.205901749
0.9394230769 -0.2111009462 -7.85
0.8956289975 -0.3829509041 -8.000084503
0.9562059205 -0.171849958 -8.100084503
0.945647344 -0.2267122512 -8.077950874
0.8850704209 -0.4378131973 -7.977950874
0.9018532645 -0.3985622091 -8.228035377
-0.8788461538 -0.4222018923 -7.75
-0.6112406027 -0.759611694 -8.000035786
-0.6604389876 -0.7508797132 -8.203486353
-0.879020723 -0.4218383204 -8.249842909
-0.7450433783 -0.5909067932 -7.875017893
-0.6358397951 -0.7552457036 -8.101761069
-0.7696425707 -0.5865408027 -7.976743176
-0.8789334384 -0.4220201063 -7.999921454
-0.7451306628 -0.5907250072 -8.124939347
-0.7697298553 -0.5863590168 -8.226664631
-1 0 -8.4625
-0.975 0 -8
-0.9387897634 -0.3444906097 -8.204846283
-0.975 0 -8.5
-0.9875 0 -8.23125
-0.9568948817 -0.1722453049 -8.102423142
-0.9693948817 -0.1722453049 -8.333673142
-0.9875 0 -8.48125
-0.975 0 -8.25
-0.9568948817 -0.1722453049 -8.352423142
-0.6117427313 -0.75920737 -8.500571326
-0.8788461538 -0.4222018923 -8.75
-0.8953751811 -0.4453125701 -8.714495063
-0.879020723 -0.4218383204 -8.249842909
-0.7452944426 -0.5907046312 -8.625285663
-0.8871106675 -0.4337572312 -8.732247532
-0.7535589562 -0.6022599701 -8.607533195
-0.7453817272 -0.5905228452 -8.375207117
-0.8789334384 -0.4220201063 -8.499921454
-0.887197952 -0.4335754453 -8.482168986
1 0 -8.4625
0.975 0 -8
0.975 0 -8.5
0.9124118411 -0.343699916 -8.250169006
0.9875 0 -8.23125
0.975 0 -8.25
0.9875 0 -8.48125
0.9562059205 -0.171849958 -8.356334503
0.9437059205 -0.171849958 -8.125084503
0.9437059205 -0.171849958 -8.375084503
-0.6125638658 -0.7585449956 -6.999453689
-0.8790458067 -0.4217860473 -7.250779072
-0.6508818052 -0.7591790801 -7.177758924
-0.8788461538 -0.4222018923 -6.75
-0.7458048363 -0.5901655214 -7.12511638
-0.764963806 -0.5904825637 -7.214268998
-0.6317228355 -0.7588620378 -7.088606306
-0.7457050098 -0.5903734439 -6.874726844
-0.8789459803 -0.4219939698 -7.000389536
-0.7648639795 -0.5906904862 -6.963879462
0.8999440444 -0.4360054093 -8.718677298
1 0 -8.975
0.90446063 -0.4265571108 -9.228907255
0.8788461538 -0.4222018923 -8.75
0.9499720222 -0.2180027046 -8.846838649
0.952230315 -0.2132785554 -9.101953628
0.9022023372 -0.43128126 -8.973792277
0.8893950991 -0.4291036508 -8.734338649
0.9394230769 -0.2111009462 -8.8625
0.8916533919 -0.4243795015 -8.989453628
-0.6590115862 -0.7185601779 -9.547117703
-0.4875 -0.8443747687 -10
-0.7159649929 -0.6981361822 -9.577780302
-0.8443747687 -0.4875 -10
-0.5732557931 -0.7814674733 -9.773558851
-0.6017324965 -0.7712554754 -9.788890151
-0.6874882896 -0.70834818 -9.562449002
-0.7516931775 -0.6030300889 -9.773558851
-0.6659373843 -0.6659373843 -10
-0.7801698808 -0.5928180911 -9.788890151
0.9292165806 -0.369535582 -9.625201451
0.6985134992 -0.6802234129 -9.634687677
0.8660254038 -0.5 -10
0.7181975312 -0.6958392818 -9.574292075
0.8138650399 -0.5248794974 -9.629944564
0.7822694515 -0.5901117065 -9.817343838
0.8976209922 -0.434767791 -9.812600725
0.8237070559 -0.5326874319 -9.599746763
0.7083555152 -0.6880313474 -9.604489876
0.7921114675 -0.5979196409 -9.787146038
-0.9098954474 -0.4148376488 -9.231828986
-1 0 -9.4875
-1 0 -8.975
-0.975 0 -9
-0.9549477237 -0.2074188244 -9.359664493
-1 0 -9.23125
-0.9549477237 -0.2074188244 -9.103414493
-0.9424477237 -0.2074188244 -9.115914493
-0.9875 0 -9.24375
-0.9875 0 -8.9875
0.975 0 -9
1 0 -9.4875
1 0 -8.975
0.8954107874 -0.385829654 -9.25
0.9875 0 -9.24375
1 0 -9.23125
0.9875 0 -8.9875
0.9352053937 -0.192914827 -9.125
0.9477053937 -0.192914827 -9.36875
0.9477053937 -0.192914827 -9.1125
0.2371175043 -0.9457273863 -9.548372626
0.5723248475 -0.8200269928 -9.051940494
0.1291185671 -0.9916291624 -9.144177798
0.3000220596 -0.9539322637 -9.53970325
0.4047211759 -0.8828771895 -9.30015656
0.3507217073 -0.9058280776 -9.098059146
0.1831180357 -0.9686782743 -9.346275212
0.268569782 -0.949829825 -9.544037938
0.4361734536 -0.8869796283 -9.295821872
0.2145703134 -0.972780713 -9.341940524
-0.6409377793 -0.7675928368 -9.112298836
-0.8953751811 -0.4453125701 -8.714495063
-0.6220018342 -0.750825358 -9.005396732
-0.9098954474 -0.4148376488 -9.231828986
-0.7681564802 -0.6064527035 -8.91339695
-0.7586885076 -0.5980689641 -8.859945897
-0.6314698067 -0.7592090974 -9.058847784
-0.7754166133 -0.5912152428 -9.172063911
-0.9026353142 -0.4300751095 -8.973162025
-0.7659486408 -0.5828315034 -9.118612859
0.6985134992 -0.6802234129 -9.634687677
0.5 -0.8660254038 -10
0.7181975312 -0.6958392818 -9.574292075
0.3000220596 -0.9539322637 -9.53970325
0.5992567496 -0.7731244083 -9.817343838
0.6090987656 -0.7809323428 -9.787146038
0.7083555152 -0.6880313474 -9.604489876
0.4992677794 -0.8170778383 -9.587195464
0.4000110298 -0.9099788337 -9.769851625
0.5091097954 -0.8248857728 -9.556997663
-0.8788461538 -0.4222018923 -8.75
-0.6220018342 -0.750825358 -9.005396732
-0.8953751811 -0.4453125701 -8.714495063
-0.9098954474 -0.4148376488 -9.231828986
-0.750423994 -0.5865136252 -8.877698366
-0.7586885076 -0.5980689641 -8.859945897
-0.8871106675 -0.4337572312 -8.732247532
-0.8943708006 -0.4185197706 -8.990914493
-0.7659486408 -0.5828315034 -9.118612859
-0.9026353142 -0.4300751095 -8.973162025
0.8788461538 -0.4222018923 -8.75
0.8954107874 -0.385829654 -9.25
0.90446063 -0.4265571108 -9.228907255
0.6221628501 -0.7506919394 -9.204994437
0.8871284706 -0.4040157731 -9
0.8999357087 -0.4061933824 -9.239453628
0.8916533919 -0.4243795015 -8.989453628
0.750504502 -0.5864469159 -8.977497219
0.7587868187 -0.5682607967 -9.227497219
0.7633117401 -0.5886245251 -9.216950846
-0.2507069066 -0.9680630387 -8.461145486
-0.5661309937 -0.8243152904 -8.698395951
-0.6117427313 -0.75920737 -8.500571326
-0.2243905125 -0.9488276439 -8.751248457
-0.4084189502 -0.8961891646 -8.579770719
-0.5889368625 -0.7917613302 -8.599483638
-0.431224819 -0.8636352044 -8.480858406
-0.2375487095 -0.9584453413 -8.606196972
-0.3952607531 -0.8865714672 -8.724822204
-0.4180666219 -0.854017507 -8.625909892
-0.9374827987 -0.3480316108 -9.647975972
-0.9047163309 -0.3634740165 -9.628848687
-0.975 0 -10
-0.975 0 -9.5
-0.9210995648 -0.3557528136 -9.638412329
-0.9398581654 -0.1817370082 -9.814424343
-0.9562413994 -0.1740158054 -9.823987986
-0.9562413994 -0.1740158054 -9.573987986
-0.9398581654 -0.1817370082 -9.564424343
-0.975 0 -9.75
-0.8953751811 -0.4453125701 -8.714495063
-0.879020723 -0.4218383204 -8.249842909
-0.8788461538 -0.4222018923 -8.75
-0.975 0 -8.5
-0.887197952 -0.4335754453 -8.482168986
-0.8789334384 -0.4220201063 -8.499921454
-0.8871106675 -0.4337572312 -8.732247532
-0.9351875905 -0.2226562851 -8.607247532
-0.9270103615 -0.2109191602 -8.374921454
-0.9269230769 -0.2111009462 -8.625
-0.8953751811 -0.4453125701 -8.714495063
-0.8788461538 -0.4222018923 -8.75
-1 0 -8.975
-0.975 0 -8.5
-0.8871106675 -0.4337572312 -8.732247532
-0.9394230769 -0.2111009462 -8.8625
-0.9476875905 -0.2226562851 -8.844747532
-0.9351875905 -0.2226562851 -8.607247532
-0.9269230769 -0.2111009462 -8.625
-0.9875 0 -8.7375
-1 0 -8.975
-0.975 0 -8.5
-0.8788461538 -0.4222018923 -8.75
-0.975 0 -9
-0.9875 0 -8.7375
-0.9269230769 -0.2111009462 -8.625
-0.9394230769 -0.2111009462 -8.8625
-0.9875 0 -8.9875
-0.975 0 -8.75
-0.9269230769 -0.2111009462 -8.875
-0.975 0 -10
-0.9374827987 -0.3480316108 -9.647975972
-0.8443747687 -0.4875 -10
-0.9047163309 -0.3634740165 -9.628848687
-0.9562413994 -0.1740158054 -9.823987986
-0.8909287837 -0.4177658054 -9.823987986
-0.9096873843 -0.24375 -10
-0.9398581654 -0.1817370082 -9.814424343
-0.9210995648 -0.3557528136 -9.638412329
-0.8745455498 -0.4254870082 -9.814424343
-0.6122399352 -0.7588064719 -5.999856799
-0.8788461538 -0.4222018923 -5.75
-0.879422776 -0.4209995024 -6.249850001
-0.6485692593 -0.761155645 -6.152680071
-0.7455430445 -0.5905041821 -5.874928399
-0.8791344649 -0.4216006974 -5.999925001
-0.7458313556 -0.5899029872 -6.1248534
-0.6304045972 -0.7599810584 -6.076268435
-0.7637077066 -0.5916787687 -5.951340035
-0.7639960176 -0.5910775737 -6.201265036
1 0 -8.975
0.975 0 -8.5
0.975 0 -9
0.8788461538 -0.4222018923 -8.75
0.9875 0 -8.7375
0.975 0 -8.75
0.9875 0 -8.9875
0.9394230769 -0.2111009462 -8.8625
0.9269230769 -0.2111009462 -8.625
0.9269230769 -0.2111009462 -8.875
-0.2602631671 -0.9655377175 -8.969219258
-0.5661309937 -0.8243152904 -8.698395951
-0.2243905125 -0.9488276439 -8.751248457
-0.6220018342 -0.750825358 -9.005396732
-0.4131970804 -0.8949265039 -8.833807604
-0.3952607531 -0.8865714672 -8.724822204
-0.2423268398 -0.9571826807 -8.860233858
-0.4411325006 -0.8581815378 -8.987307995
-0.594066414 -0.7875703242 -8.851896341
-0.4231961733 -0.849826501 -8.878322595
1 0 -10
0.9292165806 -0.369535582 -9.625201451
0.9070906812 -0.3575073372 -9.637969196
0.8660254038 -0.5 -10
0.9646082903 -0.184767791 -9.812600725
0.9181536309 -0.3635214596 -9.631585324
0.9535453406 -0.1787536686 -9.818984598
0.9330127019 -0.25 -10
0.8976209922 -0.434767791 -9.812600725
0.8865580425 -0.4287536686 -9.818984598
0.975 0 -8.5
0.8999440444 -0.4360054093 -8.718677298
0.9124118411 -0.343699916 -8.250169006
0.8788461538 -0.4222018923 -8.75
0.9374720222 -0.2180027046 -8.609338649
0.9061779427 -0.3898526626 -8.484423152
0.9437059205 -0.171849958 -8.375084503
0.9269230769 -0.2111009462 -8.625
0.8893950991 -0.4291036508 -8.734338649
0.8956289975 -0.3829509041 -8.500084503
1 0 -10
1 0 -9.4875
0.975 0 -9.5
0.9292165806 -0.369535582 -9.625201451
1 0 -9.74375
0.9875 0 -9.49375
0.9875 0 -9.75
0.9646082903 -0.184767791 -9.812600725
0.9646082903 -0.184767791 -9.556350725
0.9521082903 -0.184767791 -9.562600725
0.975 0 -9.5
0.9070906812 -0.3575073372 -9.637969196
1 0 -10
0.9292165806 -0.369535582 -9.625201451
0.9410453406 -0.1787536686 -9.568984598
0.9535453406 -0.1787536686 -9.818984598
0.9875 0 -9.75
0.9521082903 -0.184767791 -9.562600725
0.9181536309 -0.3635214596 -9.631585324
0.9646082903 -0.184767791 -9.812600725
-0.8841482528 -0.4109828063 -9.229013854
-0.6220018342 -0.750825358 -9.005396732
-0.8788461538 -0.4222018923 -8.75
-0.9098954474 -0.4148376488 -9.231828986
-0.7530750435 -0.5809040821 -9.117205293
-0.750423994 -0.5865136252 -8.877698366
-0.8814972033 -0.4165923493 -8.989506927
-0.8970218501 -0.4129102275 -9.23042142
-0.7659486408 -0.5828315034 -9.118612859
-0.8943708006 -0.4185197706 -8.990914493
-0.6485692593 -0.761155645 -6.152680071
-0.8788461538 -0.4222018923 -5.75
-0.879422776 -0.4209995024 -6.249850001
-0.9386697607 -0.3448174593 -6.155536014
-0.7637077066 -0.5916787687 -5.951340035
-0.8791344649 -0.4216006974 -5.999925001
-0.7639960176 -0.5910775737 -6.201265036
-0.79361951 -0.5529865522 -6.154108042
-0.9087579573 -0.3835096758 -5.952768007
-0.9090462684 -0.3829084809 -6.202693008
0.975 0 -9
0.975 0 -9.5
1 0 -9.4875
0.8954107874 -0.385829654 -9.25
0.975 0 -9.25
0.9875 0 -9.49375
0.9875 0 -9.24375
0.9352053937 -0.192914827 -9.125
0.9352053937 -0.192914827 -9.375
0.9477053937 -0.192914827 -9.36875
-0.8788461538 -0.4222018923 -8.75
-0.9098954474 -0.4148376488 -9.231828986
-1 0 -8.975
-0.975 0 -9
-0.8943708006 -0.4185197706 -8.990914493
-0.9549477237 -0.2074188244 -9.103414493
-0.9394230769 -0.2111009462 -8.8625
-0.9269230769 -0.2111009462 -8.875
-0.9424477237 -0.2074188244 -9.115914493
-0.9875 0 -8.9875
0.4875 -0.8443747687 -10
0.2371175043 -0.9457273863 -9.548372626
0 -0.975 -10
0 -1 -10
0.3623087522 -0.8950510775 -9.774186313
0.1185587522 -0.9603636931 -9.774186313
0.24375 -0.9096873843 -10
0.24375 -0.9221873843 -10
0.1185587522 -0.9728636931 -9.774186313
0 -0.9875 -10
-0.9098954474 -0.4148376488 -9.231828986
-0.8788461538 -0.4222018923 -8.75
-0.8841482528 -0.4109828063 -9.229013854
-0.975 0 -9
-0.8943708006 -0.4185197706 -8.990914493
-0.8814972033 -0.4165923493 -8.989506927
-0.8970218501 -0.4129102275 -9.23042142
-0.9424477237 -0.2074188244 -9.115914493
-0.9269230769 -0.2111009462 -8.875
-0.9295741264 -0.2054914031 -9.114506927
-0.7159649929 -0.6981361822 -9.577780302
-0.4875 -0.8443747687 -10
-0.8660254038 -0.5 -10
-0.8443747687 -0.4875 -10
-0.6017324965 -0.7712554754 -9.788890151
-0.6767627019 -0.6721873843 -10
-0.7909951984 -0.5990680911 -9.788890151
-0.7801698808 -0.5928180911 -9.788890151
-0.6659373843 -0.6659373843 -10
-0.8552000862 -0.49375 -10
1 0 -10
0.9070906812 -0.3575073372 -9.637969196
0.975 0 -10
0.8443747687 -0.4875 -10
0.9535453406 -0.1787536686 -9.818984598
0.9410453406 -0.1787536686 -9.818984598
0.9875 0 -10
0.9221873843 -0.24375 -10
0.8757327249 -0.4225036686 -9.818984598
0.9096873843 -0.24375 -10
0.9070906812 -0.3575073372 -9.637969196
0.8443747687 -0.4875 -10
1 0 -10
0.8660254038 -0.5 -10
0.8757327249 -0.4225036686 -9.818984598
0.9221873843 -0.24375 -10
0.9535453406 -0.1787536686 -9.818984598
0.8865580425 -0.4287536686 -9.818984598
0.8552000862 -0.49375 -10
0.9330127019 -0.25 -10
-0.7159649929 -0.6981361822 -9.577780302
-0.8660254038 -0.5 -10
-0.4875 -0.8443747687 -10
-0.5 -0.8660254038 -10
-0.7909951984 -0.5990680911 -9.788890151
-0.6767627019 -0.6721873843 -10
-0.6017324965 -0.7712554754 -9.788890151
-0.6079824965 -0.782080793 -9.788890151
-0.6830127019 -0.6830127019 -10
-0.49375 -0.8552000862 -10
0.6221628501 -0.7506919394 -9.204994437
0.2371175043 -0.9457273863 -9.548372626
0.5723248475 -0.8200269928 -9.051940494
0.2122208975 -0.9516235026 -9.009214821
0.4296401772 -0.8482096628 -9.376683532
0.4047211759 -0.8828771895 -9.30015656
0.5972438488 -0.7853594661 -9.128467466
0.4171918738 -0.851157721 -9.107104629
0.2246692009 -0.9486754444 -9.278793723
0.3922728725 -0.8858252477 -9.030577657
1 0 -10
0.975 0 -9.5
0.975 0 -10
0.9070906812 -0.3575073372 -9.637969196
0.9875 0 -9.75
0.975 0 -9.75
0.9875 0 -10
0.9535453406 -0.1787536686 -9.818984598
0.9410453406 -0.1787536686 -9.568984598
0.9410453406 -0.1787536686 -9.818984598
-0.8953751811 -0.4453125701 -8.714495063
-0.9387897634 -0.3444906097 -8.204846283
-0.879020723 -0.4218383204 -8.249842909
-0.975 0 -8.5
-0.9170824722 -0.3949015899 -8.459670673
-0.9089052432 -0.383164465 -8.227344596
-0.887197952 -0.4335754453 -8.482168986
-0.9351875905 -0.2226562851 -8.607247532
-0.9568948817 -0.1722453049 -8.352423142
-0.9270103615 -0.2109191602 -8.374921454
0.6985134992 -0.6802234129 -9.634687677
0.8443747687 -0.4875 -10
0.8660254038 -0.5 -10
0.5 -0.8660254038 -10
0.7714441339 -0.5838617065 -9.817343838
0.8552000862 -0.49375 -10
0.7822694515 -0.5901117065 -9.817343838
0.5992567496 -0.7731244083 -9.817343838
0.6721873843 -0.6767627019 -10
0.6830127019 -0.6830127019 -10
-1 0 -8.4625
-0.9387897634 -0.3444906097 -8.204846283
-0.8953751811 -0.4453125701 -8.714495063
-0.975 0 -8.5
-0.9693948817 -0.1722453049 -8.333673142
-0.9170824722 -0.3949015899 -8.459670673
-0.9476875905 -0.2226562851 -8.588497532
-0.9875 0 -8.48125
-0.9568948817 -0.1722453049 -8.352423142
-0.9351875905 -0.2226562851 -8.607247532
1 0 -8.4625
0.9124118411 -0.343699916 -8.250169006
0.975 0 -8.5
0.8999440444 -0.4360054093 -8.718677298
0.9562059205 -0.171849958 -8.356334503
0.9437059205 -0.171849958 -8.375084503
0.9875 0 -8.48125
0.9499720222 -0.2180027046 -8.590588649
0.9061779427 -0.3898526626 -8.484423152
0.9374720222 -0.2180027046 -8.609338649
0.8443747687 -0.4875 -10
0.5 -0.8660254038 -10
0.6985134992 -0.6802234129 -9.634687677
0.4875 -0.8443747687 -10
0.6721873843 -0.6767627019 -10
0.5992567496 -0.7731244083 -9.817343838
0.7714441339 -0.5838617065 -9.817343838
0.6659373843 -0.6659373843 -10
0.49375 -0.8552000862 -10
0.5930067496 -0.7622990908 -9.817343838
1 0 -8.975
0.8999440444 -0.4360054093 -8.718677298
0.975 0 -8.5
0.8788461538 -0.4222018923 -8.75
0.9499720222 -0.2180027046 -8.846838649
0.9374720222 -0.2180027046 -8.609338649
0.9875 0 -8.7375
0.9394230769 -0.2111009462 -8.8625
0.8893950991 -0.4291036508 -8.734338649
0.9269230769 -0.2111009462 -8.625
0 -0.975 -10
0.2371175043 -0.9457273863 -9.548372626
-0.252348569 -0.9417776806 -9.671174637
0 -1 -10
0.1185587522 -0.9603636931 -9.774186313
-0.007615532337 -0.9437525335 -9.609773632
-0.1261742845 -0.9583888403 -9.835587319
0 -0.9875 -10
0.1185587522 -0.9728636931 -9.774186313
-0.1261742845 -0.9708888403 -9.835587319
0.975 0 -8
0.9124118411 -0.343699916 -8.250169006
1 0 -7.95
0.8788461538 -0.4222018923 -7.75
0.9437059205 -0.171849958 -8.125084503
0.9562059205 -0.171849958 -8.100084503
0.9875 0 -7.975
0.9269230769 -0.2111009462 -7.875
0.8956289975 -0.3829509041 -8.000084503
0.9394230769 -0.2111009462 -7.85
-0.252348569 -0.9417776806 -9.671174637
0 -1 -10
-0.4875 -0.8443747687 -10
0 -0.975 -10
-0.1261742845 -0.9708888403 -9.835587319
-0.24375 -0.9221873843 -10
-0.3699242845 -0.8930762247 -9.835587319
-0.1261742845 -0.9583888403 -9.835587319
0 -0.9875 -10
-0.24375 -0.9096873843 -10
0.90446063 -0.4265571108 -9.228907255
0.6221628501 -0.7506919394 -9.204994437
0.8954107874 -0.385829654 -9.25
0.7181975312 -0.6958392818 -9.574292075
0.7633117401 -0.5886245251 -9.216950846
0.7587868187 -0.5682607967 -9.227497219
0.8999357087 -0.4061933824 -9.239453628
0.8113290806 -0.5611981963 -9.401599665
0.6701801907 -0.7232656106 -9.389643256
0.8068041593 -0.5408344679 -9.412146038
-0.2560235676 -0.96667054 -9.482073457
0.2371175043 -0.9457273863 -9.548372626
-0.2312281034 -0.947184546 -9.254083295
0.1291185671 -0.9916291624 -9.144177798
-0.009453031654 -0.9561989631 -9.515223042
0.002944700429 -0.9464559661 -9.401227961
-0.2436258355 -0.956927543 -9.368078376
-0.06345250024 -0.9791498512 -9.313125627
0.1831180357 -0.9686782743 -9.346275212
-0.05105476816 -0.9694068542 -9.199130546
-0.8841482528 -0.4109828063 -9.229013854
-0.9047163309 -0.3634740165 -9.628848687
-0.9098954474 -0.4148376488 -9.231828986
-0.975 0 -9.5
-0.8944322918 -0.3872284114 -9.42893127
-0.9073058891 -0.3891558327 -9.430338836
-0.8970218501 -0.4129102275 -9.23042142
-0.9295741264 -0.2054914031 -9.364506927
-0.9398581654 -0.1817370082 -9.564424343
-0.9424477237 -0.2074188244 -9.365914493
0.5972073913 -0.8020868605 -8.472578865
0.8788461538 -0.4222018923 -8.75
0.8999440444 -0.4360054093 -8.718677298
0.5485328209 -0.8060624941 -8.745493908
0.7380267726 -0.6121443764 -8.611289432
0.8893950991 -0.4291036508 -8.734338649
0.7485757179 -0.6190461349 -8.595628082
0.5728701061 -0.8040746773 -8.609036386
0.7136894874 -0.6141321932 -8.747746954
0.7242384326 -0.6210339517 -8.732085603
-0.252348569 -0.9417776806 -9.671174637
-0.4875 -0.8443747687 -10
0 -1 -10
-0.5 -0.8660254038 -10
-0.3699242845 -0.8930762247 -9.835587319
-0.24375 -0.9221873843 -10
-0.1261742845 -0.9708888403 -9.835587319
-0.3761742845 -0.9039015422 -9.835587319
-0.49375 -0.8552000862 -10
-0.25 -0.9330127019 -10
0.9292165806 -0.369535582 -9.625201451
0.975 0 -9.5
0.9070906812 -0.3575073372 -9.637969196
0.8954107874 -0.385829654 -9.25
0.9521082903 -0.184767791 -9.562600725
0.9410453406 -0.1787536686 -9.568984598
0.9181536309 -0.3635214596 -9.631585324
0.912313684 -0.377682618 -9.437600725
0.9352053937 -0.192914827 -9.375
0.9012507343 -0.3716684956 -9.443984598
0.6035309364 -0.7973395818 -6.411739255
0.2041708111 -0.9533830709 -6.500252217
0.1910762906 -0.9815751888 -6.154993988
0.6013915226 -0.7674328873 -6.250395423
0.4038508737 -0.8753613264 -6.455995736
0.1976235508 -0.9674791298 -6.327623102
0.3973036135 -0.8894573853 -6.283366622
0.6024612295 -0.7823862346 -6.331067339
0.4027811668 -0.8604079791 -6.37532382
0.3962339066 -0.874504038 -6.202694705
0.8660254038 -0.5 -10
0.9292165806 -0.369535582 -9.625201451
0.9070906812 -0.3575073372 -9.637969196
0.6985134992 -0.6802234129 -9.634687677
0.8976209922 -0.434767791 -9.812600725
0.9181536309 -0.3635214596 -9.631585324
0.8865580425 -0.4287536686 -9.818984598
0.7822694515 -0.5901117065 -9.817343838
0.8138650399 -0.5248794974 -9.629944564
0.8028020902 -0.5188653751 -9.636328437
0.9292165806 -0.369535582 -9.625201451
1 0 -9.4875
0.975 0 -9.5
0.8954107874 -0.385829654 -9.25
0.9646082903 -0.184767791 -9.556350725
0.9875 0 -9.49375
0.9521082903 -0.184767791 -9.562600725
0.912313684 -0.377682618 -9.437600725
0.9477053937 -0.192914827 -9.36875
0.9352053937 -0.192914827 -9.375
0.9292165806 -0.369535582 -9.625201451
0.90446063 -0.4265571108 -9.228907255
0.8954107874 -0.385829654 -9.25
0.7181975312 -0.6958392818 -9.574292075
0.9168386053 -0.3980463464 -9.427054353
0.8999357087 -0.4061933824 -9.239453628
0.912313684 -0.377682618 -9.437600725
0.8237070559 -0.5326874319 -9.599746763
0.8113290806 -0.5611981963 -9.401599665
0.8068041593 -0.5408344679 -9.412146038
0.8443747687 -0.4875 -10
0.8660254038 -0.5 -10
0.9070906812 -0.3575073372 -9.637969196
0.6985134992 -0.6802234129 -9.634687677
0.8552000862 -0.49375 -10
0.8865580425 -0.4287536686 -9.818984598
0.8757327249 -0.4225036686 -9.818984598
0.7714441339 -0.5838617065 -9.817343838
0.7822694515 -0.5901117065 -9.817343838
0.8028020902 -0.5188653751 -9.636328437
-1 0 -9.4875
-0.9374827987 -0.3480316108 -9.647975972
-1 0 -10
-0.975 0 -9.5
-0.9687413994 -0.1740158054 -9.567737986
-0.9687413994 -0.1740158054 -9.823987986
-1 0 -9.74375
-0.9875 0 -9.49375
-0.9562413994 -0.1740158054 -9.573987986
-0.9875 0 -9.75
-0.8443747687 -0.4875 -10
-1 0 -10
-0.8660254038 -0.5 -10
-0.9374827987 -0.3480316108 -9.647975972
-0.9221873843 -0.24375 -10
-0.9330127019 -0.25 -10
-0.8552000862 -0.49375 -10
-0.8909287837 -0.4177658054 -9.823987986
-0.9687413994 -0.1740158054 -9.823987986
-0.9017541012 -0.4240158054 -9.823987986
-0.8443747687 -0.4875 -10
-0.975 0 -10
-1 0 -10
-0.9374827987 -0.3480316108 -9.647975972
-0.9096873843 -0.24375 -10
-0.9875 0 -10
-0.9221873843 -0.24375 -10
-0.8909287837 -0.4177658054 -9.823987986
-0.9562413994 -0.1740158054 -9.823987986
-0.9687413994 -0.1740158054 -9.823987986
-0.9374827987 -0.3480316108 -9.647975972
-0.975 0 -10
-1 0 -10
-0.975 0 -9.5
-0.9562413994 -0.1740158054 -9.823987986
-0.9875 0 -10
-0.9687413994 -0.1740158054 -9.823987986
-0.9562413994 -0.1740158054 -9.573987986
-0.975 0 -9.75
-0.9875 0 -9.75
-0.9388793844 -0.3442462804 -7.180551785
-0.8788461538 -0.4222018923 -6.75
-0.8790458067 -0.4217860473 -7.250779072
-0.975 0 -7
-0.9088627691 -0.3832240864 -6.965275892
-0.8789459803 -0.4219939698 -7.000389536
-0.9089625955 -0.3830161639 -7.215665428
-0.9569396922 -0.1721231402 -7.090275892
-0.9269230769 -0.2111009462 -6.875
-0.9270229034 -0.2108930237 -7.125389536
0.975 0 -6.5
0.975 0 -7
1 0 -6.925
0.8788461538 -0.4222018923 -6.75
0.975 0 -6.75
0.9875 0 -6.9625
0.9875 0 -6.7125
0.9269230769 -0.2111009462 -6.625
0.9269230769 -0.2111009462 -6.875
0.9394230769 -0.2111009462 -6.8375
-0.6485692593 -0.761155645 -6.152680071
-0.5686265776 -0.8225957787 -5.64137958
-0.6122399352 -0.7588064719 -5.999856799
-0.9015039063 -0.4327709637 -5.64375
-0.6085979185 -0.7918757119 -5.897029825
-0.5904332564 -0.7907011253 -5.820618189
-0.6304045972 -0.7599810584 -6.076268435
-0.7750365828 -0.5969633044 -5.898215035
-0.7350652419 -0.6276833712 -5.64256479
-0.7568719207 -0.5957887178 -5.821803399
-0.6112406027 -0.759611694 -8.000035786
-0.2495413309 -0.9683641485 -7.948080837
-0.573899208 -0.8189259423 -7.691681788
-0.6604389876 -0.7508797132 -8.203486353
-0.4303909668 -0.8639879213 -7.974058311
-0.4117202695 -0.8936450454 -7.819881313
-0.5925699053 -0.7892688182 -7.845858787
-0.6358397951 -0.7552457036 -8.101761069
-0.4549901593 -0.8596219309 -8.075783595
-0.6171690978 -0.7849028278 -7.947584071
-0.9388793844 -0.3442462804 -7.180551785
-1 0 -7.4375
-1 0 -6.925
-0.975 0 -7
-0.9694396922 -0.1721231402 -7.309025892
-1 0 -7.18125
-0.9694396922 -0.1721231402 -7.052775892
-0.9569396922 -0.1721231402 -7.090275892
-0.9875 0 -7.21875
-0.9875 0 -6.9625
-0.245575461 -0.969377477 -6.410175049
-0.2469518725 -0.9690277461 -6.922722903
-0.2246726605 -0.9487608738 -6.749868302
0.1897153212 -0.98183914 -6.66752578
-0.2462636667 -0.9692026116 -6.666448976
-0.2358122665 -0.9588943099 -6.836295602
-0.2351240607 -0.9590691754 -6.580021675
-0.02793006988 -0.9756083085 -6.538850414
-0.02861827566 -0.9754334431 -6.795124341
-0.01747866963 -0.9653000069 -6.708697041
-0.5704597295 -0.8213255731 -6.666417389
-0.6126631207 -0.7584648314 -6.499272303
-0.6485692593 -0.761155645 -6.152680071
-0.245575461 -0.969377477 -6.410175049
-0.5915614251 -0.7898952023 -6.582844846
-0.63061619 -0.7598102382 -6.325976187
-0.6095144944 -0.791240609 -6.40954873
-0.4080175952 -0.8953515251 -6.538296219
-0.4291192908 -0.8639211542 -6.454723676
-0.4470723601 -0.865266561 -6.28142756
-0.5661309937 -0.8243152904 -8.698395951
-0.2507069066 -0.9680630387 -8.461145486
-0.6117427313 -0.75920737 -8.500571326
-0.6604389876 -0.7508797132 -8.203486353
-0.4084189502 -0.8961891646 -8.579770719
-0.431224819 -0.8636352044 -8.480858406
-0.5889368625 -0.7917613302 -8.599483638
-0.6132849907 -0.7875975018 -8.450941152
-0.4555729471 -0.859471376 -8.33231592
-0.6360908595 -0.7550435416 -8.35202884
-0.252348569 -0.9417776806 -9.671174637
0.2371175043 -0.9457273863 -9.548372626
-0.2560235676 -0.96667054 -9.482073457
0 -1 -10
-0.007615532337 -0.9437525335 -9.609773632
-0.009453031654 -0.9561989631 -9.515223042
-0.2541860683 -0.9542241103 -9.576624047
-0.1261742845 -0.9708888403 -9.835587319
0.1185587522 -0.9728636931 -9.774186313
-0.1280117838 -0.98333527 -9.741036729
-0.6112406027 -0.759611694 -8.000035786
-0.8788461538 -0.4222018923 -7.75
-0.6604389876 -0.7508797132 -8.203486353
-0.9015039063 -0.4327709637 -7.69375
-0.7450433783 -0.5909067932 -7.875017893
-0.7696425707 -0.5865408027 -7.976743176
-0.6358397951 -0.7552457036 -8.101761069
-0.7563722545 -0.5961913288 -7.846892893
-0.89017503 -0.427486428 -7.721875
-0.7809714469 -0.5918253384 -7.948618176
-0.9015039062 -0.4327709637 -6.66875
-1 0 -6.925
-1 0 -6.4125
-0.975 0 -6.5
-0.9507519531 -0.2163854818 -6.796875
-1 0 -6.66875
-0.9507519531 -0.2163854818 -6.540625
-0.9382519531 -0.2163854818 -6.584375
-0.9875 0 -6.7125
-0.9875 0 -6.45625
-0.9015039063 -0.4327709637 -7.69375
-0.9388793844 -0.3442462804 -7.180551785
-0.6508818052 -0.7591790801 -7.177758924
-0.8790458067 -0.4217860473 -7.250779072
-0.9201916453 -0.3885086221 -7.437150892
-0.7948805948 -0.5517126803 -7.179155354
-0.7761928557 -0.5959750219 -7.435754462
-0.8902748565 -0.4272785055 -7.472264536
-0.9089625955 -0.3830161639 -7.215665428
-0.764963806 -0.5904825637 -7.214268998
-0.9015039063 -0.4327709637 -7.69375
-0.6125924148 -0.7585219399 -7.499599535
-0.8788461538 -0.4222018923 -7.75
-0.8790458067 -0.4217860473 -7.250779072
-0.7570481605 -0.5956464518 -7.596674767
-0.7457192843 -0.5903619161 -7.624799767
-0.89017503 -0.427486428 -7.721875
-0.8902748565 -0.4272785055 -7.472264536
-0.7458191108 -0.5901539936 -7.375189303
-0.8789459803 -0.4219939698 -7.500389536
-0.6508818052 -0.7591790801 -7.177758924
-0.9015039062 -0.4327709637 -6.66875
-0.6125638658 -0.7585449956 -6.999453689
-0.8788461538 -0.4222018923 -6.75
-0.7761928557 -0.5959750219 -6.923254462
-0.757033886 -0.5956579796 -6.834101844
-0.6317228355 -0.7588620378 -7.088606306
-0.7648639795 -0.5906904862 -6.963879462
-0.89017503 -0.427486428 -6.709375
-0.7457050098 -0.5903734439 -6.874726844
-0.5661309937 -0.8243152904 -8.698395951
-0.6604389876 -0.7508797132 -8.203486353
-0.6117427313 -0.75920737 -8.500571326
-0.8953751811 -0.4453125701 -8.714495063
-0.6132849907 -0.7875975018 -8.450941152
-0.6360908595 -0.7550435416 -8.35202884
-0.5889368625 -0.7917613302 -8.599483638
-0.7307530874 -0.6348139303 -8.706445507
-0.7779070843 -0.5980961417 -8.458990708
-0.7535589562 -0.6022599701 -8.607533195
-0.6485692593 -0.761155645 -6.152680071
-0.6122399352 -0.7588064719 -5.999856799
-0.6126631207 -0.7584648314 -6.499272303
-0.879422776 -0.4209995024 -6.249850001
-0.6304045972 -0.7599810584 -6.076268435
-0.6124515279 -0.7586356517 -6.249564551
-0.63061619 -0.7598102382 -6.325976187
-0.7639960176 -0.5910775737 -6.201265036
-0.7458313556 -0.5899029872 -6.1248534
-0.7460429484 -0.5897321669 -6.374561152
-0.5704597295 -0.8213255731 -6.666417389
-0.6508818052 -0.7591790801 -7.177758924
-0.6125638658 -0.7585449956 -6.999453689
-0.2469518725 -0.9690277461 -6.922722903
-0.6106707674 -0.7902523266 -6.922088157
-0.6317228355 -0.7588620378 -7.088606306
-0.5915117977 -0.7899352843 -6.832935539
-0.408705801 -0.8951766596 -6.794570146
-0.4489168389 -0.8641034131 -7.050240914
-0.4297578692 -0.8637863708 -6.961088296
-0.2248170417 -0.9487266718 -7.249929493
-0.2469518725 -0.9690277461 -6.922722903
-0.2480911705 -0.9687366882 -7.435332827
0.1883526134 -0.9821014678 -7.180102927
-0.2358844571 -0.9588772089 -7.086326198
-0.2475215215 -0.9688822171 -7.179027865
-0.2364541061 -0.95873168 -7.34263116
-0.01823221412 -0.9654140698 -7.21501621
-0.02929962955 -0.9755646069 -7.051412915
-0.02986927856 -0.975419078 -7.307717877
-0.6463274373 -0.7630601836 -5.127667615
-0.5686265776 -0.8225957787 -5.64137958
-0.6123496816 -0.7587179103 -5.499426008
-0.2430775448 -0.9700068594 -5.385146092
-0.6074770074 -0.7928279812 -5.384523597
-0.5904881296 -0.7906568445 -5.570402794
-0.6293385594 -0.760889047 -5.313546811
-0.444702491 -0.8665335215 -5.256406853
-0.4058520612 -0.8963013191 -5.513262836
-0.4277136132 -0.8643623849 -5.44228605
-0.573899208 -0.8189259423 -7.691681788
-0.6125924148 -0.7585219399 -7.499599535
-0.6508818052 -0.7591790801 -7.177758924
-0.2480911705 -0.9687366882 -7.435332827
-0.5932458114 -0.7887239411 -7.595640661
-0.63173711 -0.75885051 -7.338679229
-0.6123905066 -0.7890525112 -7.434720356
-0.4109951893 -0.8938313153 -7.563507308
-0.4303417927 -0.8636293141 -7.467466181
-0.4494864879 -0.8639578841 -7.306545875
-0.6122399352 -0.7588064719 -5.999856799
-0.5686265776 -0.8225957787 -5.64137958
-0.6485692593 -0.761155645 -6.152680071
-0.2444399619 -0.9696644291 -5.897654123
-0.5904332564 -0.7907011253 -5.820618189
-0.6085979185 -0.7918757119 -5.897029825
-0.6304045972 -0.7599810584 -6.076268435
-0.4283399485 -0.8642354505 -5.948755461
-0.4065332698 -0.8961301039 -5.769516851
-0.4465046106 -0.865410037 -6.025167097
-0.9386697607 -0.3448174593 -6.155536014
-1 0 -6.4125
-1 0 -5.9
-0.975 0 -6
-0.9693348804 -0.1724087297 -6.284018007
-1 0 -6.15625
-0.9693348804 -0.1724087297 -6.027768007
-0.9568348804 -0.1724087297 -6.077768007
-0.9875 0 -6.20625
-0.9875 0 -5.95
0.5299942763 -0.8183709838 -7.750464037
0.8788461538 -0.4222018923 -7.75
0.6012687555 -0.7675290768 -7.250472144
0.60105993 -0.7992039543 -7.436829627
0.7044202151 -0.6202864381 -7.750232019
0.7400574547 -0.5948654845 -7.500236072
0.5656315159 -0.7929500303 -7.500468091
0.5655271031 -0.808787469 -7.593646832
0.7399530419 -0.6107029233 -7.593414813
0.6011643427 -0.7833665155 -7.343650885
-0.5661309937 -0.8243152904 -8.698395951
-0.2243905125 -0.9488276439 -8.751248457
-0.2507069066 -0.9680630387 -8.461145486
-0.2602631671 -0.9655377175 -8.969219258
-0.3952607531 -0.8865714672 -8.724822204
-0.2375487095 -0.9584453413 -8.606196972
-0.4084189502 -0.8961891646 -8.579770719
-0.4131970804 -0.8949265039 -8.833807604
-0.2423268398 -0.9571826807 -8.860233858
-0.2554850368 -0.9668003781 -8.715182372
-0.9015039063 -0.4327709637 -7.69375
-0.6508818052 -0.7591790801 -7.177758924
-0.6125924148 -0.7585219399 -7.499599535
-0.8790458067 -0.4217860473 -7.250779072
-0.7761928557 -0.5959750219 -7.435754462
-0.63173711 -0.75885051 -7.338679229
-0.7570481605 -0.5956464518 -7.596674767
-0.8902748565 -0.4272785055 -7.472264536
-0.764963806 -0.5904825637 -7.214268998
-0.7458191108 -0.5901539936 -7.375189303
1 0 -8.4625
1 0 -7.95
0.975 0 -8
0.9124118411 -0.343699916 -8.250169006
1 0 -8.20625
0.9875 0 -7.975
0.9875 0 -8.23125
0.9562059205 -0.171849958 -8.356334503
0.9562059205 -0.171849958 -8.100084503
0.9437059205 -0.171849958 -8.125084503
-1 0 -8.975
-0.8788461538 -0.4222018923 -8.75
-0.8953751811 -0.4453125701 -8.714495063
-0.9098954474 -0.4148376488 -9.231828986
-0.9394230769 -0.2111009462 -8.8625
-0.8871106675 -0.4337572312 -8.732247532
-0.9476875905 -0.2226562851 -8.844747532
-0.9549477237 -0.2074188244 -9.103414493
-0.8943708006 -0.4185197706 -8.990914493
-0.9026353142 -0.4300751095 -8.973162025
-1 0 -7.4375
-0.9015039063 -0.4327709637 -7.69375
-1 0 -7.95
-0.975 0 -7.5
-0.9507519531 -0.2163854818 -7.565625
-0.9507519531 -0.2163854818 -7.821875
-1 0 -7.69375
-0.9875 0 -7.46875
-0.9382519531 -0.2163854818 -7.596875
-0.9875 0 -7.725
-0.975 0 -8
-0.879020723 -0.4218383204 -8.249842909
-0.9387897634 -0.3444906097 -8.204846283
-0.975 0 -8.5
-0.9270103615 -0.2109191602 -8.124921454
-0.9089052432 -0.383164465 -8.227344596
-0.9568948817 -0.1722453049 -8.102423142
-0.975 0 -8.25
-0.9270103615 -0.2109191602 -8.374921454
-0.9568948817 -0.1722453049 -8.352423142
0.9124118411 -0.343699916 -8.250169006
0.8999440444 -0.4360054093 -8.718677298
1 0 -8.4625
0.8912946879 -0.4534245023 -8.205901749
0.9061779427 -0.3898526626 -8.484423152
0.9499720222 -0.2180027046 -8.590588649
0.9562059205 -0.171849958 -8.356334503
0.9018532645 -0.3985622091 -8.228035377
0.8956193662 -0.4447149558 -8.462289524
0.945647344 -0.2267122512 -8.334200874
-0.2560235676 -0.96667054 -9.482073457
-0.7159649929 -0.6981361822 -9.577780302
-0.6409377793 -0.7675928368 -9.112298836
-0.6590115862 -0.7185601779 -9.547117703
-0.4859942803 -0.8324033611 -9.52992688
-0.6784513861 -0.7328645095 -9.345039569
-0.4484806734 -0.8671316884 -9.297186147
-0.4575175769 -0.8426153589 -9.51459558
-0.6874882896 -0.70834818 -9.562449002
-0.6499746827 -0.7430765073 -9.329708269
-0.5661309937 -0.8243152904 -8.698395951
-0.2602631671 -0.9655377175 -8.969219258
-0.6409377793 -0.7675928368 -9.112298836
-0.6220018342 -0.750825358 -9.005396732
-0.4131970804 -0.8949265039 -8.833807604
-0.4506004732 -0.8665652771 -9.040759047
-0.6035343865 -0.7959540636 -8.905347393
-0.594066414 -0.7875703242 -8.851896341
-0.4411325006 -0.8581815378 -8.987307995
-0.6314698067 -0.7592090974 -9.058847784
-0.6508818052 -0.7591790801 -7.177758924
-0.6125924148 -0.7585219399 -7.499599535
-0.573899208 -0.8189259423 -7.691681788
-0.9015039063 -0.4327709637 -7.69375
-0.63173711 -0.75885051 -7.338679229
-0.5932458114 -0.7887239411 -7.595640661
-0.6123905066 -0.7890525112 -7.434720356
-0.7761928557 -0.5959750219 -7.435754462
-0.7570481605 -0.5956464518 -7.596674767
-0.7377015571 -0.625848453 -7.692715894
-0.879020723 -0.4218383204 -8.249842909
-0.6117427313 -0.75920737 -8.500571326
-0.6112406027 -0.759611694 -8.000035786
-0.6604389876 -0.7508797132 -8.203486353
-0.7453817272 -0.5905228452 -8.375207117
-0.611491667 -0.759409532 -8.250303556
-0.7451306628 -0.5907250072 -8.124939347
-0.7697298553 -0.5863590168 -8.226664631
-0.6360908595 -0.7550435416 -8.35202884
-0.6358397951 -0.7552457036 -8.101761069
-0.5661309937 -0.8243152904 -8.698395951
-0.6220018342 -0.750825358 -9.005396732
-0.6409377793 -0.7675928368 -9.112298836
-0.8953751811 -0.4453125701 -8.714495063
-0.594066414 -0.7875703242 -8.851896341
-0.6314698067 -0.7592090974 -9.058847784
-0.6035343865 -0.7959540636 -8.905347393
-0.7307530874 -0.6348139303 -8.706445507
-0.7586885076 -0.5980689641 -8.859945897
-0.7681564802 -0.6064527035 -8.91339695
-0.6604389876 -0.7508797132 -8.203486353
-0.573899208 -0.8189259423 -7.691681788
-0.6112406027 -0.759611694 -8.000035786
-0.9015039063 -0.4327709637 -7.69375
-0.6171690978 -0.7849028278 -7.947584071
-0.5925699053 -0.7892688182 -7.845858787
-0.6358397951 -0.7552457036 -8.101761069
-0.7809714469 -0.5918253384 -7.948618176
-0.7377015571 -0.625848453 -7.692715894
-0.7563722545 -0.5961913288 -7.846892893
-0.6117427313 -0.75920737 -8.500571326
-0.8953751811 -0.4453125701 -8.714495063
-0.6604389876 -0.7508797132 -8.203486353
-0.879020723 -0.4218383204 -8.249842909
-0.7535589562 -0.6022599701 -8.607533195
-0.7779070843 -0.5980961417 -8.458990708
-0.6360908595 -0.7550435416 -8.35202884
-0.7453817272 -0.5905228452 -8.375207117
-0.887197952 -0.4335754453 -8.482168986
-0.7697298553 -0.5863590168 -8.226664631
-0.2243905125 -0.9488276439 -8.751248457
-0.6117427313 -0.75920737 -8.500571326
-0.6220018342 -0.750825358 -9.005396732
-0.5661309937 -0.8243152904 -8.698395951
-0.4180666219 -0.854017507 -8.625909892
-0.6168722828 -0.755016364 -8.752984029
-0.4231961733 -0.849826501 -8.878322595
-0.3952607531 -0.8865714672 -8.724822204
-0.5889368625 -0.7917613302 -8.599483638
-0.594066414 -0.7875703242 -8.851896341
-0.879020723 -0.4218383204 -8.249842909
-0.8953751811 -0.4453125701 -8.714495063
-0.6604389876 -0.7508797132 -8.203486353
-0.9387897634 -0.3444906097 -8.204846283
-0.887197952 -0.4335754453 -8.482168986
-0.7779070843 -0.5980961417 -8.458990708
-0.7697298553 -0.5863590168 -8.226664631
-0.9089052432 -0.383164465 -8.227344596
-0.9170824722 -0.3949015899 -8.459670673
-0.7996143755 -0.5476851615 -8.204166318
-0.9015039063 -0.4327709637 -5.64375
-1 0 -5.9
-1 0 -5.3875
-0.975 0 -5.5
-0.9507519531 -0.2163854818 -5.771875
-1 0 -5.64375
-0.9507519531 -0.2163854818 -5.515625
-0.9382519531 -0.2163854818 -5.571875
-0.9875 0 -5.7
-0.9875 0 -5.44375
-0.6123496816 -0.7587179103 -5.499426008
-0.5686265776 -0.8225957787 -5.64137958
-0.6463274373 -0.7630601836 -5.127667615
-0.9015039063 -0.4327709637 -5.64375
-0.5904881296 -0.7906568445 -5.570402794
-0.6074770074 -0.7928279812 -5.384523597
-0.6293385594 -0.760889047 -5.313546811
-0.7569267939 -0.595744437 -5.571588004
-0.7350652419 -0.6276833712 -5.64256479
-0.7739156718 -0.5979155737 -5.385708807
-0.6126631207 -0.7584648314 -6.499272303
-0.5704597295 -0.8213255731 -6.666417389
-0.6485692593 -0.761155645 -6.152680071
-0.9015039062 -0.4327709637 -6.66875
-0.5915614251 -0.7898952023 -6.582844846
-0.6095144944 -0.791240609 -6.40954873
-0.63061619 -0.7598102382 -6.325976187
-0.7570835135 -0.5956178976 -6.584011152
-0.7359818179 -0.6270482684 -6.667583695
-0.7750365828 -0.5969633044 -6.410715035
-0.6508818052 -0.7591790801 -7.177758924
-0.5704597295 -0.8213255731 -6.666417389
-0.6125638658 -0.7585449956 -6.999453689
-0.9015039062 -0.4327709637 -6.66875
-0.6106707674 -0.7902523266 -6.922088157
-0.5915117977 -0.7899352843 -6.832935539
-0.6317228355 -0.7588620378 -7.088606306
-0.7761928557 -0.5959750219 -6.923254462
-0.7359818179 -0.6270482684 -6.667583695
-0.757033886 -0.5956579796 -6.834101844
-0.9015039062 -0.4327709637 -6.66875
-0.6508818052 -0.7591790801 -7.177758924
-0.9388793844 -0.3442462804 -7.180551785
-0.8788461538 -0.4222018923 -6.75
-0.7761928557 -0.5959750219 -6.923254462
-0.7948805948 -0.5517126803 -7.179155354
-0.9201916453 -0.3885086221 -6.924650892
-0.89017503 -0.427486428 -6.709375
-0.7648639795 -0.5906904862 -6.963879462
-0.9088627691 -0.3832240864 -6.965275892
-0.8790458067 -0.4217860473 -7.250779072
-0.9388793844 -0.3442462804 -7.180551785
-0.6508818052 -0.7591790801 -7.177758924
-0.8788461538 -0.4222018923 -6.75
-0.9089625955 -0.3830161639 -7.215665428
-0.7948805948 -0.5517126803 -7.179155354
-0.764963806 -0.5904825637 -7.214268998
-0.8789459803 -0.4219939698 -7.000389536
-0.9088627691 -0.3832240864 -6.965275892
-0.7648639795 -0.5906904862 -6.963879462
-0.879422776 -0.4209995024 -6.249850001
-0.8788461538 -0.4222018923 -5.75
-0.975 0 -6
-0.9386697607 -0.3448174593 -6.155536014
-0.8791344649 -0.4216006974 -5.999925001
-0.9269230769 -0.2111009462 -5.875
-0.927211388 -0.2104997512 -6.124925001
-0.9090462684 -0.3829084809 -6.202693008
-0.9087579573 -0.3835096758 -5.952768007
-0.9568348804 -0.1724087297 -6.077768007
-0.6485692593 -0.761155645 -6.152680071
-0.9015039062 -0.4327709637 -6.66875
-0.9386697607 -0.3448174593 -6.155536014
-0.879422776 -0.4209995024 -6.249850001
-0.7750365828 -0.5969633044 -6.410715035
-0.9200868335 -0.3887942115 -6.412143007
-0.79361951 -0.5529865522 -6.154108042
-0.7639960176 -0.5910775737 -6.201265036
-0.8904633411 -0.4268852331 -6.459300001
-0.9090462684 -0.3829084809 -6.202693008
-0.6126631207 -0.7584648314 -6.499272303
-0.9015039062 -0.4327709637 -6.66875
-0.6485692593 -0.761155645 -6.152680071
-0.879422776 -0.4209995024 -6.249850001
-0.7570835135 -0.5956178976 -6.584011152
-0.7750365828 -0.5969633044 -6.410715035
-0.63061619 -0.7598102382 -6.325976187
-0.7460429484 -0.5897321669 -6.374561152
-0.8904633411 -0.4268852331 -6.459300001
-0.7639960176 -0.5910775737 -6.201265036
-0.6485692593 -0.761155645 -6.152680071
-0.9015039063 -0.4327709637 -5.64375
-0.6122399352 -0.7588064719 -5.999856799
-0.8788461538 -0.4222018923 -5.75
-0.7750365828 -0.5969633044 -5.898215035
-0.7568719207 -0.5957887178 -5.821803399
-0.6304045972 -0.7599810584 -6.076268435
-0.7637077066 -0.5916787687 -5.951340035
-0.89017503 -0.427486428 -5.696875
-0.7455430445 -0.5905041821 -5.874928399
-0.9015039063 -0.4327709637 -5.64375
-0.6485692593 -0.761155645 -6.152680071
-0.9386697607 -0.3448174593 -6.155536014
-0.8788461538 -0.4222018923 -5.75
-0.7750365828 -0.5969633044 -5.898215035
-0.79361951 -0.5529865522 -6.154108042
-0.9200868335 -0.3887942115 -5.899643007
-0.89017503 -0.427486428 -5.696875
-0.7637077066 -0.5916787687 -5.951340035
-0.9087579573 -0.3835096758 -5.952768007
-0.9387897634 -0.3444906097 -8.204846283
-0.8788461538 -0.4222018923 -7.75
-0.879020723 -0.4218383204 -8.249842909
-0.975 0 -8
-0.9088179586 -0.383346251 -7.977423142
-0.8789334384 -0.4220201063 -7.999921454
-0.9089052432 -0.383164465 -8.227344596
-0.9568948817 -0.1722453049 -8.102423142
-0.9269230769 -0.2111009462 -7.875
-0.9270103615 -0.2109191602 -8.124921454
-0.9387897634 -0.3444906097 -8.204846283
-1 0 -8.4625
-1 0 -7.95
-0.975 0 -8
-0.9693948817 -0.1722453049 -8.333673142
-1 0 -8.20625
-0.9693948817 -0.1722453049 -8.077423142
-0.9568948817 -0.1722453049 -8.102423142
-0.9875 0 -8.23125
-0.9875 0 -7.975
-0.9015039062 -0.4327709637 -6.66875
-0.8788461538 -0.4222018923 -6.75
-0.879422776 -0.4209995024 -6.249850001
-0.6126631207 -0.7584648314 -6.499272303
-0.89017503 -0.427486428 -6.709375
-0.8791344649 -0.4216006974 -6.499925001
-0.8904633411 -0.4268852331 -6.459300001
-0.7570835135 -0.5956178976 -6.584011152
-0.7457546373 -0.5903333619 -6.624636152
-0.7460429484 -0.5897321669 -6.374561152
-0.6125924148 -0.7585219399 -7.499599535
-0.2249789789 -0.9486882834 -7.750089591
-0.2248170417 -0.9487266718 -7.249929493
-0.2480911705 -0.9687366882 -7.435332827
-0.4187856969 -0.8536051116 -7.624844563
-0.2248980103 -0.9487074776 -7.500009542
-0.4187047282 -0.8536243058 -7.374764514
-0.4303417927 -0.8636293141 -7.467466181
-0.2365350747 -0.9587124858 -7.592711209
-0.2364541061 -0.95873168 -7.34263116
-0.8790458067 -0.4217860473 -7.250779072
-0.8788461538 -0.4222018923 -7.75
-0.9015039063 -0.4327709637 -7.69375
-0.975 0 -7.5
-0.8789459803 -0.4219939698 -7.500389536
-0.89017503 -0.427486428 -7.721875
-0.8902748565 -0.4272785055 -7.472264536
-0.9270229034 -0.2108930237 -7.375389536
-0.9269230769 -0.2111009462 -7.625
-0.9382519531 -0.2163854818 -7.596875
0.8788461538 -0.4222018923 -6.75
0.8912999002 -0.4534142564 -7.180800132
1 0 -6.925
0.8958091366 -0.4444389618 -6.668556668
0.885073027 -0.4378080744 -6.965400066
0.9456499501 -0.2267071282 -7.052900066
0.9394230769 -0.2111009462 -6.8375
0.8873276452 -0.4333204271 -6.709278334
0.8935545184 -0.4489266091 -6.9246784
0.9479045683 -0.2222194809 -6.796778334
0.1883526134 -0.9821014678 -7.180102927
0.2040612436 -0.9534065286 -7.000254943
0.2039596164 -0.9534282746 -7.500399379
-0.2248170417 -0.9487266718 -7.249929493
0.1962069285 -0.9677539982 -7.090178935
0.20401043 -0.9534174016 -7.250327161
0.1961561149 -0.9677648712 -7.340251153
-0.01823221412 -0.9654140698 -7.21501621
-0.01037789901 -0.9510666002 -7.125092218
-0.01042871263 -0.9510774732 -7.375164436
-0.6122399352 -0.7588064719 -5.999856799
-0.2245376597 -0.9487928327 -6.249831361
-0.224404065 -0.9488244388 -5.74982407
-0.2444399619 -0.9696644291 -5.897654123
-0.4183887975 -0.8537996523 -6.12484408
-0.2244708624 -0.9488086357 -5.999827716
-0.4183220001 -0.8538154553 -5.874840434
-0.4283399485 -0.8642354505 -5.948755461
-0.2344888108 -0.9592286309 -6.073742742
-0.2344220135 -0.9592444339 -5.823739096
0.6035309364 -0.7973395818 -6.411739255
0.1910762906 -0.9815751888 -6.154993988
0.600667901 -0.7994986384 -5.899180563
0.6013915226 -0.7674328873 -6.250395423
0.3973036135 -0.8894573853 -6.283366622
0.3958720958 -0.8905369136 -6.027087276
0.6020994187 -0.7984191101 -6.155459909
0.6024612295 -0.7823862346 -6.331067339
0.3962339066 -0.874504038 -6.202694705
0.6010297118 -0.7834657628 -6.074787993
0.8788461538 -0.4222018923 -7.75
0.5299942763 -0.8183709838 -7.750464037
0.6014911435 -0.7673548099 -8.25085596
0.5970034454 -0.8022386716 -7.949478608
0.7044202151 -0.6202864381 -7.750232019
0.5657427099 -0.7928628969 -8.000659999
0.7401686487 -0.5947783511 -8.00042798
0.7379247996 -0.6122202819 -7.849739304
0.5634988608 -0.8103048277 -7.849971323
0.5992472944 -0.7847967407 -8.100167284
0.8912999002 -0.4534142564 -7.180800132
0.9123919805 -0.3437526347 -7.250093223
1 0 -7.4375
0.8954362405 -0.4451897788 -7.693590666
0.9018459404 -0.3985834456 -7.215446677
0.9561959903 -0.1718763173 -7.343796612
0.9456499501 -0.2267071282 -7.309150066
0.8933680704 -0.4493020176 -7.437195399
0.9039141105 -0.3944712068 -7.471841945
0.9477181203 -0.2225948894 -7.565545333
0.6051906583 -0.7960805658 -5.386716295
0.6015875971 -0.767279195 -5.250380109
0.5301781132 -0.8182518978 -5.750238232
0.2044019868 -0.9533335344 -5.500222917
0.6033891277 -0.7816798804 -5.318548202
0.5658828551 -0.7927655464 -5.500309171
0.5676843857 -0.8071662318 -5.568477264
0.4047963225 -0.8747070501 -5.443469606
0.4029947919 -0.8603063647 -5.375301513
0.36729005 -0.8857927161 -5.625230574
-0.2507069066 -0.9680630387 -8.461145486
-0.2602631671 -0.9655377175 -8.969219258
-0.2243905125 -0.9488276439 -8.751248457
0.1832619275 -0.983064121 -8.703857192
-0.2554850368 -0.9668003781 -8.715182372
-0.2423268398 -0.9571826807 -8.860233858
-0.2375487095 -0.9584453413 -8.606196972
-0.03372248955 -0.9755635799 -8.582501339
-0.0385006198 -0.9743009192 -8.836538225
-0.0205642925 -0.9659458825 -8.727552825
1 0 -6.4125
0.975 0 -6
0.975 0 -6.5
0.9124029458 -0.3437235291 -6.250078075
0.9875 0 -6.20625
0.975 0 -6.25
0.9875 0 -6.45625
0.9562014729 -0.1718617645 -6.331289037
0.9437014729 -0.1718617645 -6.125039037
0.9437014729 -0.1718617645 -6.375039037
0.8958091366 -0.4444389618 -6.668556668
0.8788461538 -0.4222018923 -6.75
0.8912999002 -0.4534142564 -7.180800132
0.5987520175 -0.8009344677 -6.924235845
0.8873276452 -0.4333204271 -6.709278334
0.885073027 -0.4378080744 -6.965400066
0.8935545184 -0.4489266091 -6.9246784
0.7472805771 -0.6226867147 -6.796396256
0.7387990857 -0.61156818 -6.837117922
0.7450259588 -0.6271743621 -7.052517988
-0.6125638658 -0.7585449956 -6.999453689
-0.2248170417 -0.9487266718 -7.249929493
-0.2246726605 -0.9487608738 -6.749868302
-0.2469518725 -0.9690277461 -6.922722903
-0.4186904537 -0.8536358337 -7.124691591
-0.2247448511 -0.9487437728 -6.999898897
-0.4186182631 -0.8536529347 -6.874660995
-0.4297578692 -0.8637863708 -6.961088296
-0.2358844571 -0.9588772089 -7.086326198
-0.2358122665 -0.9588943099 -6.836295602
0.6035309364 -0.7973395818 -6.411739255
0.6013915226 -0.7674328873 -6.250395423
0.5300331523 -0.8183458056 -6.750275839
0.2041708111 -0.9533830709 -6.500252217
0.6024612295 -0.7823862346 -6.331067339
0.5657123374 -0.7928893464 -6.500335631
0.5667820443 -0.8078426937 -6.581007547
0.4038508737 -0.8753613264 -6.455995736
0.4027811668 -0.8604079791 -6.37532382
0.3671019817 -0.8858644382 -6.625264028
0.975 0 -7.5
1 0 -7.4375
0.975 0 -7
0.9123919805 -0.3437526347 -7.250093223
0.9875 0 -7.46875
0.9875 0 -7.21875
0.975 0 -7.25
0.9436959903 -0.1718763173 -7.375046612
0.9561959903 -0.1718763173 -7.343796612
0.9436959903 -0.1718763173 -7.125046612
0.975 0 -4.5
1 0 -4.875
0.8788461538 -0.4222018923 -4.75
0.975 0 -5
0.9875 0 -4.6875
0.9394230769 -0.2111009462 -4.8125
0.9269230769 -0.2111009462 -4.625
0.975 0 -4.75
0.9875 0 -4.9375
0.9269230769 -0.2111009462 -4.875
0.975 0 -5.5
0.975 0 -6
1 0 -5.9
0.8788461538 -0.4222018923 -5.75
0.975 0 -5.75
0.9875 0 -5.95
0.9875 0 -5.7
0.9269230769 -0.2111009462 -5.625
0.9269230769 -0.2111009462 -5.875
0.9394230769 -0.2111009462 -5.825
0.8788461538 -0.4222018923 -5.75
0.5301781132 -0.8182518978 -5.750238232
0.6013915226 -0.7674328873 -6.250395423
0.600667901 -0.7994986384 -5.899180563
0.7045121335 -0.6202268951 -5.750119116
0.5657848179 -0.7928423926 -6.000316827
0.7401188382 -0.5948173898 -6.000197711
0.7397570274 -0.6108502653 -5.824590282
0.5654230071 -0.8088752681 -5.824709398
0.6010297118 -0.7834657628 -6.074787993
0.9124118411 -0.343699916 -8.250169006
1 0 -8.4625
1 0 -7.95
0.8912946879 -0.4534245023 -8.205901749
0.9562059205 -0.171849958 -8.356334503
1 0 -8.20625
0.9562059205 -0.171849958 -8.100084503
0.9018532645 -0.3985622091 -8.228035377
0.945647344 -0.2267122512 -8.334200874
0.945647344 -0.2267122512 -8.077950874
0.60105993 -0.7992039543 -7.436829627
0.6012687555 -0.7675290768 -7.250472144
0.5299942763 -0.8183709838 -7.750464037
0.2039596164 -0.9534282746 -7.500399379
0.6011643427 -0.7833665155 -7.343650885
0.5656315159 -0.7929500303 -7.500468091
0.5655271031 -0.808787469 -7.593646832
0.4025097732 -0.8763161145 -7.468614503
0.4026141859 -0.8604786757 -7.375435761
0.3669769463 -0.8858996292 -7.625431708
0.8947518828 -0.4465636217 -6.155942689
1 0 -5.9
0.8788461538 -0.4222018923 -5.75
0.8962166451 -0.4436166421 -5.643552079
0.9473759414 -0.2232818108 -6.027971344
0.9394230769 -0.2111009462 -5.825
0.8867990183 -0.434382757 -5.952971344
0.8954842639 -0.4450901319 -5.899747384
0.9481083225 -0.221808321 -5.771776039
0.8875313995 -0.4329092672 -5.696776039
0.5300331523 -0.8183458056 -6.750275839
0.8788461538 -0.4222018923 -6.75
0.6013915226 -0.7674328873 -6.250395423
0.6035309364 -0.7973395818 -6.411739255
0.7044396531 -0.6202738489 -6.75013792
0.7401188382 -0.5948173898 -6.500197711
0.5657123374 -0.7928893464 -6.500335631
0.5667820443 -0.8078426937 -6.581007547
0.7411885451 -0.6097707371 -6.580869628
0.6024612295 -0.7823862346 -6.331067339
0.975 0 -5.5
1 0 -5.3875
0.975 0 -5
0.9124204594 -0.3436770364 -5.250075051
0.9875 0 -5.44375
0.9875 0 -5.19375
0.975 0 -5.25
0.9437102297 -0.1718385182 -5.375037526
0.9562102297 -0.1718385182 -5.318787526
0.9437102297 -0.1718385182 -5.125037526
0.8962166451 -0.4436166421 -5.643552079
0.8952706741 -0.445522637 -5.130936216
1 0 -5.3875
0.9124204594 -0.3436770364 -5.250075051
0.8957436596 -0.4445696395 -5.387244148
0.947635337 -0.2227613185 -5.259218108
0.9481083225 -0.221808321 -5.515526039
0.9043185522 -0.3936468392 -5.446813565
0.9038455667 -0.3945998367 -5.190505634
0.9562102297 -0.1718385182 -5.318787526
-0.2444399619 -0.9696644291 -5.897654123
-0.245575461 -0.969377477 -6.410175049
-0.2245376597 -0.9487928327 -6.249831361
0.1910762906 -0.9815751888 -6.154993988
-0.2450077114 -0.9695209531 -6.153914586
-0.2350565603 -0.9590851549 -6.330003205
-0.2344888108 -0.9592286309 -6.073742742
-0.02668183565 -0.9756198089 -6.026324055
-0.02724958518 -0.9754763329 -6.282584518
-0.01673068456 -0.9651840107 -6.202412675
0.8947518828 -0.4465636217 -6.155942689
1 0 -6.4125
0.8958091366 -0.4444389618 -6.668556668
0.9124029458 -0.3437235291 -6.250078075
0.9473759414 -0.2232818108 -6.284221344
0.9479045683 -0.2222194809 -6.540528334
0.8952805097 -0.4455012917 -6.412249678
0.9035774143 -0.3951435754 -6.203010382
0.9562014729 -0.1718617645 -6.331289037
0.9041060412 -0.3940812454 -6.459317371
-0.2249789789 -0.9486882834 -7.750089591
-0.2480911705 -0.9687366882 -7.435332827
-0.2495413309 -0.9683641485 -7.948080837
0.1870504412 -0.9823503104 -7.692769582
-0.2365350747 -0.9587124858 -7.592711209
-0.2488162507 -0.9685504184 -7.691706832
-0.2372601549 -0.958526216 -7.849085214
-0.01896426883 -0.9655192969 -7.721429587
-0.03052036465 -0.9755434993 -7.564051205
-0.03124544484 -0.9753572295 -7.82042521
0.1870504412 -0.9823503104 -7.692769582
0.5970034454 -0.8022386716 -7.949478608
0.2039201237 -0.9534367222 -8.000584838
0.5299942763 -0.8183709838 -7.750464037
0.3920269433 -0.892294491 -7.821124095
0.4004617845 -0.8778376969 -7.975031723
0.1954852825 -0.9678935163 -7.84667721
0.3585223588 -0.9003606471 -7.72161681
0.5634988608 -0.8103048277 -7.849971323
0.3669572 -0.885903853 -7.875524438
-0.6112406027 -0.759611694 -8.000035786
-0.2239433883 -0.9489332742 -8.250686056
-0.2249789789 -0.9486882834 -7.750089591
-0.2495413309 -0.9683641485 -7.948080837
-0.4175919955 -0.8542724841 -8.125360921
-0.2244611836 -0.9488107788 -8.000387823
-0.4181097908 -0.8541499887 -7.875062688
-0.4303909668 -0.8639879213 -7.974058311
-0.2367423596 -0.9586487114 -8.099383447
-0.2372601549 -0.958526216 -7.849085214
0.204051799 -0.9534085501 -8.501179309
0.1857679082 -0.9825936517 -8.205617845
0.1832619275 -0.983064121 -8.703857192
0.5972073913 -0.8020868605 -8.472578865
0.1949098536 -0.9680011009 -8.353398577
0.1845149178 -0.9828288863 -8.454737519
0.1936568633 -0.9682363355 -8.602518251
0.4006295952 -0.8777477053 -8.486879087
0.3914876498 -0.8923402561 -8.339098355
0.3902346594 -0.8925754907 -8.588218028
0.1832619275 -0.983064121 -8.703857192
0.5485328209 -0.8060624941 -8.745493908
0.5972073913 -0.8020868605 -8.472578865
0.5723248475 -0.8200269928 -9.051940494
0.3658973742 -0.8945633076 -8.72467555
0.5728701061 -0.8040746773 -8.609036386
0.3902346594 -0.8925754907 -8.588218028
0.3777933875 -0.9015455569 -8.877898843
0.5604288342 -0.8130447435 -8.898717201
0.5847661194 -0.8110569266 -8.762259679
0.1857679082 -0.9825936517 -8.205617845
0.2039201237 -0.9534367222 -8.000584838
0.204051799 -0.9534085501 -8.501179309
-0.2239433883 -0.9489332742 -8.250686056
0.1948440159 -0.9680151869 -8.103101342
0.2039859614 -0.9534226361 -8.250882074
0.1949098536 -0.9680011009 -8.353398577
-0.01908774006 -0.9657634629 -8.228151951
-0.01001163232 -0.9511849982 -8.125635447
-0.009945794646 -0.9511709121 -8.375932682
1 0 -9.4875
0.8954107874 -0.385829654 -9.25
0.9292165806 -0.369535582 -9.625201451
0.90446063 -0.4265571108 -9.228907255
0.9477053937 -0.192914827 -9.36875
0.912313684 -0.377682618 -9.437600725
0.9646082903 -0.184767791 -9.556350725
0.952230315 -0.2132785554 -9.358203628
0.8999357087 -0.4061933824 -9.239453628
0.9168386053 -0.3980463464 -9.427054353
0.8954107874 -0.385829654 -9.25
1 0 -9.4875
1 0 -8.975
0.90446063 -0.4265571108 -9.228907255
0.9477053937 -0.192914827 -9.36875
1 0 -9.23125
0.9477053937 -0.192914827 -9.1125
0.8999357087 -0.4061933824 -9.239453628
0.952230315 -0.2132785554 -9.358203628
0.952230315 -0.2132785554 -9.101953628
-0.2495413309 -0.9683641485 -7.948080837
-0.2507069066 -0.9680630387 -8.461145486
-0.2239433883 -0.9489332742 -8.250686056
0.1857679082 -0.9825936517 -8.205617845
-0.2501241187 -0.9682135936 -8.204613162
-0.2373251475 -0.9584981565 -8.355915771
-0.2367423596 -0.9586487114 -8.099383447
-0.03188671136 -0.9754789001 -8.076849341
-0.03246949919 -0.9753283452 -8.333381666
-0.01908774006 -0.9657634629 -8.228151951
0.8788461538 -0.4222018923 -7.75
0.8912946879 -0.4534245023 -8.205901749
1 0 -7.95
0.8954362405 -0.4451897788 -7.693590666
0.8850704209 -0.4378131973 -7.977950874
0.945647344 -0.2267122512 -8.077950874
0.9394230769 -0.2111009462 -7.85
0.8871411972 -0.4336958356 -7.721795333
0.8933654642 -0.4493071406 -7.949746207
0.9477181203 -0.2225948894 -7.821795333
0.1857679082 -0.9825936517 -8.205617845
0.2039201237 -0.9534367222 -8.000584838
0.1870504412 -0.9823503104 -7.692769582
0.5970034454 -0.8022386716 -7.949478608
0.1948440159 -0.9680151869 -8.103101342
0.1954852825 -0.9678935163 -7.84667721
0.1864091747 -0.9824719811 -7.949193714
0.3913856768 -0.8924161616 -8.077548227
0.4004617845 -0.8778376969 -7.975031723
0.3920269433 -0.892294491 -7.821124095
0.8660254038 -0.5 -10
0.7181975312 -0.6958392818 -9.574292075
0.6985134992 -0.6802234129 -9.634687677
0.5 -0.8660254038 -10
0.7921114675 -0.5979196409 -9.787146038
0.7083555152 -0.6880313474 -9.604489876
0.7822694515 -0.5901117065 -9.817343838
0.6830127019 -0.6830127019 -10
0.6090987656 -0.7809323428 -9.787146038
0.5992567496 -0.7731244083 -9.817343838
-0.6590115862 -0.7185601779 -9.547117703
-0.252348569 -0.9417776806 -9.671174637
-0.2312281034 -0.947184546 -9.254083295
-0.2560235676 -0.96667054 -9.482073457
-0.4556800776 -0.8301689292 -9.60914617
-0.2417883362 -0.9444811133 -9.462628966
-0.4451198448 -0.8328723619 -9.400600499
-0.4575175769 -0.8426153589 -9.51459558
-0.2541860683 -0.9542241103 -9.576624047
-0.2436258355 -0.956927543 -9.368078376
0.1832619275 -0.983064121 -8.703857192
0.2122208975 -0.9516235026 -9.009214821
0.204051799 -0.9534085501 -8.501179309
0.5485328209 -0.8060624941 -8.745493908
0.1977414125 -0.9673438118 -8.856536006
0.2081363483 -0.9525160263 -8.755197065
0.1936568633 -0.9682363355 -8.602518251
0.3658973742 -0.8945633076 -8.72467555
0.3803768592 -0.8788429984 -8.877354364
0.3762923099 -0.8797355221 -8.623336608
0.2371175043 -0.9457273863 -9.548372626
0.3000220596 -0.9539322637 -9.53970325
-0.2560235676 -0.96667054 -9.482073457
0 -1 -10
0.268569782 -0.949829825 -9.544037938
0.02199924601 -0.9603014018 -9.510888354
-0.009453031654 -0.9561989631 -9.515223042
0.1185587522 -0.9728636931 -9.774186313
0.1500110298 -0.9769661319 -9.769851625
-0.1280117838 -0.98333527 -9.741036729
0.5972073913 -0.8020868605 -8.472578865
0.6014911435 -0.7673548099 -8.25085596
0.5485328209 -0.8060624941 -8.745493908
0.204051799 -0.9534085501 -8.501179309
0.5993492674 -0.7847208352 -8.361717412
0.5750119822 -0.786708652 -8.498174934
0.5728701061 -0.8040746773 -8.609036386
0.4006295952 -0.8777477053 -8.486879087
0.4027714713 -0.86038168 -8.376017634
0.3762923099 -0.8797355221 -8.623336608
0.1870504412 -0.9823503104 -7.692769582
0.2039596164 -0.9534282746 -7.500399379
0.1883526134 -0.9821014678 -7.180102927
0.60105993 -0.7992039543 -7.436829627
0.1955050288 -0.9678892925 -7.59658448
0.1961561149 -0.9677648712 -7.340251153
0.1877015273 -0.9822258891 -7.436436254
0.3940551856 -0.8907771324 -7.564799604
0.4025097732 -0.8763161145 -7.468614503
0.3947062717 -0.890652711 -7.308466277
0.8962166451 -0.4436166421 -5.643552079
0.8788461538 -0.4222018923 -5.75
0.8947518828 -0.4465636217 -6.155942689
0.600667901 -0.7994986384 -5.899180563
0.8875313995 -0.4329092672 -5.696776039
0.8867990183 -0.434382757 -5.952971344
0.8954842639 -0.4450901319 -5.899747384
0.748442273 -0.6215576402 -5.771366321
0.7397570274 -0.6108502653 -5.824590282
0.7477098919 -0.62303113 -6.027561626
-0.6123496816 -0.7587179103 -5.499426008
-0.224404065 -0.9488244388 -5.74982407
-0.2242744429 -0.948855086 -5.249811725
-0.2430775448 -0.9700068594 -5.385146092
-0.4183768733 -0.8537711746 -5.624625039
-0.224339254 -0.9488397624 -5.499817897
-0.4183120622 -0.8537864982 -5.374618866
-0.4277136132 -0.8643623849 -5.44228605
-0.2337408049 -0.9594156491 -5.567485081
-0.2336759938 -0.9594309727 -5.317478908
-0.2249789789 -0.9486882834 -7.750089591
0.2039201237 -0.9534367222 -8.000584838
0.2039596164 -0.9534282746 -7.500399379
0.1870504412 -0.9823503104 -7.692769582
-0.0105294276 -0.9510625028 -7.875337215
0.20393987 -0.9534324984 -7.750492108
-0.01050968125 -0.951058279 -7.625244485
-0.01896426883 -0.9655192969 -7.721429587
0.1954852825 -0.9678935163 -7.84667721
0.1955050288 -0.9678892925 -7.59658448
-0.6220018342 -0.750825358 -9.005396732
-0.2312281034 -0.947184546 -9.254083295
-0.2243905125 -0.9488276439 -8.751248457
-0.2602631671 -0.9655377175 -8.969219258
-0.4266149688 -0.849004952 -9.129740014
-0.227809308 -0.948006095 -9.002665876
-0.4231961733 -0.849826501 -8.878322595
-0.4411325006 -0.8581815378 -8.987307995
-0.2457456353 -0.9563611317 -9.111651277
-0.2423268398 -0.9571826807 -8.860233858
0.1291185671 -0.9916291624 -9.144177798
0.3000220596 -0.9539322637 -9.53970325
-0.2560235676 -0.96667054 -9.482073457
0.2371175043 -0.9457273863 -9.548372626
0.2145703134 -0.972780713 -9.341940524
0.02199924601 -0.9603014018 -9.510888354
-0.06345250024 -0.9791498512 -9.313125627
0.1831180357 -0.9686782743 -9.346275212
0.268569782 -0.949829825 -9.544037938
-0.009453031654 -0.9561989631 -9.515223042
-0.2312281034 -0.947184546 -9.254083295
-0.2602631671 -0.9655377175 -8.969219258
-0.2560235676 -0.96667054 -9.482073457
0.1291185671 -0.9916291624 -9.144177798
-0.2457456353 -0.9563611317 -9.111651277
-0.2581433673 -0.9661041287 -9.225646358
-0.2436258355 -0.956927543 -9.368078376
-0.05105476816 -0.9694068542 -9.199130546
-0.06557229997 -0.9785834399 -9.056698528
-0.06345250024 -0.9791498512 -9.313125627
-0.2312281034 -0.947184546 -9.254083295
0.2371175043 -0.9457273863 -9.548372626
0.2122208975 -0.9516235026 -9.009214821
0.1291185671 -0.9916291624 -9.144177798
0.002944700429 -0.9464559661 -9.401227961
0.2246692009 -0.9486754444 -9.278793723
-0.009503602963 -0.9494040243 -9.131649058
-0.05105476816 -0.9694068542 -9.199130546
0.1831180357 -0.9686782743 -9.346275212
0.1706697323 -0.9716263325 -9.076696309
0.5723248475 -0.8200269928 -9.051940494
0.5485328209 -0.8060624941 -8.745493908
0.6221628501 -0.7506919394 -9.204994437
0.2122208975 -0.9516235026 -9.009214821
0.5604288342 -0.8130447435 -8.898717201
0.5853478355 -0.7783772168 -8.975244173
0.5972438488 -0.7853594661 -9.128467466
0.3922728725 -0.8858252477 -9.030577657
0.3803768592 -0.8788429984 -8.877354364
0.4171918738 -0.851157721 -9.107104629
-0.5 -0.8660254038 -10
-0.252348569 -0.9417776806 -9.671174637
-0.2560235676 -0.96667054 -9.482073457
0 -1 -10
-0.3761742845 -0.9039015422 -9.835587319
-0.2541860683 -0.9542241103 -9.576624047
-0.3780117838 -0.9163479719 -9.741036729
-0.25 -0.9330127019 -10
-0.1261742845 -0.9708888403 -9.835587319
-0.1280117838 -0.98333527 -9.741036729
-0.2246726605 -0.9487608738 -6.749868302
0.2040612436 -0.9534065286 -7.000254943
0.2041708111 -0.9533830709 -6.500252217
0.1897153212 -0.98183914 -6.66752578
-0.01030570842 -0.9510837012 -6.875061622
0.2041160273 -0.9533947998 -6.75025358
-0.0102509247 -0.9510719724 -6.625060259
-0.01747866963 -0.9653000069 -6.708697041
0.1968882824 -0.9676228343 -6.833890361
0.1969430661 -0.9676111055 -6.583888998
-0.6126631207 -0.7584648314 -6.499272303
-0.2246726605 -0.9487608738 -6.749868302
-0.2245376597 -0.9487928327 -6.249831361
-0.245575461 -0.969377477 -6.410175049
-0.4186678906 -0.8536128526 -6.624570302
-0.2246051601 -0.9487768532 -6.499849832
-0.4186003902 -0.8536288321 -6.374551832
-0.4291192908 -0.8639211542 -6.454723676
-0.2351240607 -0.9590691754 -6.580021675
-0.2350565603 -0.9590851549 -6.330003205
-0.224404065 -0.9488244388 -5.74982407
-0.2430775448 -0.9700068594 -5.385146092
-0.2444399619 -0.9696644291 -5.897654123
0.1924510778 -0.9813065692 -5.642480119
-0.2337408049 -0.9594156491 -5.567485081
-0.2437587533 -0.9698356442 -5.641400107
-0.2344220135 -0.9592444339 -5.823739096
-0.01597649363 -0.965065504 -5.696152095
-0.02531323349 -0.9756567143 -5.513813105
-0.02599444205 -0.9754854991 -5.770067121
0.1938235058 -0.9810364155 -5.129975304
0.2045097222 -0.9533104287 -5.000175629
0.2044019868 -0.9533335344 -5.500222917
-0.2242744429 -0.948855086 -5.249811725
0.199166614 -0.9671734221 -5.065075467
0.2044558545 -0.9533219816 -5.250199273
0.1991127463 -0.967184975 -5.31509911
-0.01522546854 -0.9649457508 -5.189893515
-0.009882360336 -0.9510827574 -5.124993677
-0.009936228063 -0.9510943102 -5.375017321
0.6013915226 -0.7674328873 -6.250395423
0.2042775337 -0.9533602096 -6.00018891
0.2041708111 -0.9533830709 -6.500252217
0.1910762906 -0.9815751888 -6.154993988
0.4028345282 -0.8603965485 -6.125292166
0.2042241724 -0.9533716402 -6.250220563
0.4027811668 -0.8604079791 -6.37532382
0.3962339066 -0.874504038 -6.202694705
0.1976769122 -0.9674676992 -6.077591449
0.1976235508 -0.9674791298 -6.327623102
0.8952706741 -0.445522637 -5.130936216
0.8788461538 -0.4222018923 -4.75
0.6015875971 -0.767279195 -5.250380109
0.6026149671 -0.7980320805 -4.874173489
0.887058414 -0.4338622647 -4.940468108
0.7402168755 -0.5947405436 -5.000190055
0.7484291356 -0.606400916 -5.190658163
0.7489428206 -0.6217773587 -5.002554853
0.7407305605 -0.6101169864 -4.812086745
0.6021012821 -0.7826556377 -5.062276799
0.1897153212 -0.98183914 -6.66752578
0.5987520175 -0.8009344677 -6.924235845
0.5300331523 -0.8183458056 -6.750275839
0.6035309364 -0.7973395818 -6.411739255
0.3942336694 -0.8913868039 -6.795880812
0.5643925849 -0.8096401366 -6.837255842
0.3598742367 -0.9000924728 -6.70890081
0.3966231288 -0.8895893609 -6.539632518
0.601141477 -0.7991370248 -6.66798755
0.5667820443 -0.8078426937 -6.581007547
0.1897153212 -0.98183914 -6.66752578
0.2040612436 -0.9534065286 -7.000254943
0.2041708111 -0.9533830709 -6.500252217
0.5300331523 -0.8183458056 -6.750275839
0.1968882824 -0.9676228343 -6.833890361
0.2041160273 -0.9533947998 -6.75025358
0.1969430661 -0.9676111055 -6.583888998
0.3598742367 -0.9000924728 -6.70890081
0.367047198 -0.8858761671 -6.875265391
0.3671019817 -0.8858644382 -6.625264028
0.1924510778 -0.9813065692 -5.642480119
0.2042775337 -0.9533602096 -6.00018891
0.2044019868 -0.9533335344 -5.500222917
0.5301781132 -0.8182518978 -5.750238232
0.1983643058 -0.9673333894 -5.821334514
0.2043397603 -0.953346872 -5.750205913
0.1984265323 -0.9673200518 -5.571351518
0.3613145955 -0.8997792335 -5.696359176
0.3672278235 -0.8858060537 -5.875213571
0.36729005 -0.8857927161 -5.625230574
0.1924510778 -0.9813065692 -5.642480119
0.2044019868 -0.9533335344 -5.500222917
0.1938235058 -0.9810364155 -5.129975304
0.6051906583 -0.7960805658 -5.386716295
0.1984265323 -0.9673200518 -5.571351518
0.1991127463 -0.967184975 -5.31509911
0.1931372918 -0.9811714923 -5.386227712
0.398820868 -0.8886935675 -5.514598207
0.4047963225 -0.8747070501 -5.443469606
0.399507082 -0.8885584906 -5.2583458
0.5301781132 -0.8182518978 -5.750238232
0.8788461538 -0.4222018923 -5.75
0.6015875971 -0.767279195 -5.250380109
0.6051906583 -0.7960805658 -5.386716295
0.7045121335 -0.6202268951 -5.750119116
0.7402168755 -0.5947405436 -5.500190055
0.5658828551 -0.7927655464 -5.500309171
0.5676843857 -0.8071662318 -5.568477264
0.742018406 -0.609141229 -5.568358148
0.6033891277 -0.7816798804 -5.318548202
0.5301781132 -0.8182518978 -5.750238232
0.6051906583 -0.7960805658 -5.386716295
0.1924510778 -0.9813065692 -5.642480119
0.600667901 -0.7994986384 -5.899180563
0.5676843857 -0.8071662318 -5.568477264
0.398820868 -0.8886935675 -5.514598207
0.3613145955 -0.8997792335 -5.696359176
0.5654230071 -0.8088752681 -5.824709398
0.6029292796 -0.7977896021 -5.642948429
0.3965594894 -0.8904026038 -5.770830341
0.5987520175 -0.8009344677 -6.924235845
0.5300331523 -0.8183458056 -6.750275839
0.6012687555 -0.7675290768 -7.250472144
0.2040612436 -0.9534065286 -7.000254943
0.5643925849 -0.8096401366 -6.837255842
0.5656509539 -0.7929374412 -7.000373992
0.6000103865 -0.7842317722 -7.087353994
0.4014066306 -0.8771704982 -6.962245394
0.367047198 -0.8858761671 -6.875265391
0.4026649996 -0.8604678027 -7.125363543
0.1883526134 -0.9821014678 -7.180102927
0.2040612436 -0.9534065286 -7.000254943
0.1897153212 -0.98183914 -6.66752578
0.5987520175 -0.8009344677 -6.924235845
0.1962069285 -0.9677539982 -7.090178935
0.1968882824 -0.9676228343 -6.833890361
0.1890339673 -0.9819703039 -6.923814353
0.3935523155 -0.8915179677 -7.052169386
0.4014066306 -0.8771704982 -6.962245394
0.3942336694 -0.8913868039 -6.795880812
0.6015875971 -0.767279195 -5.250380109
0.9124204594 -0.3436770364 -5.250075051
0.8788461538 -0.4222018923 -4.75
0.8952706741 -0.445522637 -5.130936216
0.7570040282 -0.5554781157 -5.25022758
0.8956333066 -0.3829394644 -5.000037526
0.7402168755 -0.5947405436 -5.000190055
0.7484291356 -0.606400916 -5.190658163
0.9038455667 -0.3945998367 -5.190505634
0.887058414 -0.4338622647 -4.940468108
0.8952706741 -0.445522637 -5.130936216
0.6051906583 -0.7960805658 -5.386716295
0.6026149671 -0.7980320805 -4.874173489
0.6015875971 -0.767279195 -5.250380109
0.7502306662 -0.6208016014 -5.258826256
0.6039028127 -0.7970563231 -5.130444892
0.7489428206 -0.6217773587 -5.002554853
0.7484291356 -0.606400916 -5.190658163
0.6033891277 -0.7816798804 -5.318548202
0.6021012821 -0.7826556377 -5.062276799
0.8912999002 -0.4534142564 -7.180800132
0.5987520175 -0.8009344677 -6.924235845
0.6012687555 -0.7675290768 -7.250472144
0.60105993 -0.7992039543 -7.436829627
0.7450259588 -0.6271743621 -7.052517988
0.6000103865 -0.7842317722 -7.087353994
0.7462843278 -0.6104716666 -7.215636138
0.7461799151 -0.6263091054 -7.308814879
0.5999059738 -0.800069211 -7.180532736
0.6011643427 -0.7833665155 -7.343650885
0.8788461538 -0.4222018923 -6.75
0.5300331523 -0.8183458056 -6.750275839
0.6012687555 -0.7675290768 -7.250472144
0.5987520175 -0.8009344677 -6.924235845
0.7044396531 -0.6202738489 -6.75013792
0.5656509539 -0.7929374412 -7.000373992
0.7400574547 -0.5948654845 -7.000236072
0.7387990857 -0.61156818 -6.837117922
0.5643925849 -0.8096401366 -6.837255842
0.6000103865 -0.7842317722 -7.087353994
0.5300331523 -0.8183458056 -6.750275839
0.1897153212 -0.98183914 -6.66752578
0.2040612436 -0.9534065286 -7.000254943
0.5987520175 -0.8009344677 -6.924235845
0.3598742367 -0.9000924728 -6.70890081
0.1968882824 -0.9676228343 -6.833890361
0.367047198 -0.8858761671 -6.875265391
0.5643925849 -0.8096401366 -6.837255842
0.3942336694 -0.8913868039 -6.795880812
0.4014066306 -0.8771704982 -6.962245394
0.5300331523 -0.8183458056 -6.750275839
0.2041708111 -0.9533830709 -6.500252217
0.1897153212 -0.98183914 -6.66752578
0.6035309364 -0.7973395818 -6.411739255
0.3671019817 -0.8858644382 -6.625264028
0.1969430661 -0.9676111055 -6.583888998
0.3598742367 -0.9000924728 -6.70890081
0.5667820443 -0.8078426937 -6.581007547
0.4038508737 -0.8753613264 -6.455995736
0.3966231288 -0.8895893609 -6.539632518
0.1910762906 -0.9815751888 -6.154993988
0.1897153212 -0.98183914 -6.66752578
0.2041708111 -0.9533830709 -6.500252217
0.6035309364 -0.7973395818 -6.411739255
0.1903958059 -0.9817071644 -6.411259884
0.1969430661 -0.9676111055 -6.583888998
0.1976235508 -0.9674791298 -6.327623102
0.3973036135 -0.8894573853 -6.283366622
0.3966231288 -0.8895893609 -6.539632518
0.4038508737 -0.8753613264 -6.455995736
0.8947518828 -0.4465636217 -6.155942689
0.6035309364 -0.7973395818 -6.411739255
0.600667901 -0.7994986384 -5.899180563
0.6013915226 -0.7674328873 -6.250395423
0.7491414096 -0.6219516018 -6.283840972
0.6020994187 -0.7984191101 -6.155459909
0.7477098919 -0.62303113 -6.027561626
0.7480717027 -0.6069982545 -6.203169056
0.6024612295 -0.7823862346 -6.331067339
0.6010297118 -0.7834657628 -6.074787993
0.5970034454 -0.8022386716 -7.949478608
0.5299942763 -0.8183709838 -7.750464037
0.6014911435 -0.7673548099 -8.25085596
0.2039201237 -0.9534367222 -8.000584838
0.5634988608 -0.8103048277 -7.849971323
0.5657427099 -0.7928628969 -8.000659999
0.5992472944 -0.7847967407 -8.100167284
0.4004617845 -0.8778376969 -7.975031723
0.3669572 -0.885903853 -7.875524438
0.4027056336 -0.860395766 -8.125720399
0.6014911435 -0.7673548099 -8.25085596
0.5972073913 -0.8020868605 -8.472578865
0.8912946879 -0.4534245023 -8.205901749
0.5970034454 -0.8022386716 -7.949478608
0.5993492674 -0.7847208352 -8.361717412
0.7442510396 -0.6277556814 -8.339240307
0.7463929157 -0.6103896561 -8.228378854
0.5992472944 -0.7847967407 -8.100167284
0.5971054184 -0.802162766 -8.211028736
0.7441490667 -0.6278315869 -8.077690179
0.6221628501 -0.7506919394 -9.204994437
0.7181975312 -0.6958392818 -9.574292075
0.90446063 -0.4265571108 -9.228907255
0.5723248475 -0.8200269928 -9.051940494
0.6701801907 -0.7232656106 -9.389643256
0.8113290806 -0.5611981963 -9.401599665
0.7633117401 -0.5886245251 -9.216950846
0.5972438488 -0.7853594661 -9.128467466
0.6452611894 -0.7579331373 -9.313116285
0.7383927388 -0.6232920518 -9.140423875
0.1832619275 -0.983064121 -8.703857192
0.1291185671 -0.9916291624 -9.144177798
0.2122208975 -0.9516235026 -9.009214821
0.5723248475 -0.8200269928 -9.051940494
0.1561902473 -0.9873466417 -8.924017495
0.1706697323 -0.9716263325 -9.076696309
0.1977414125 -0.9673438118 -8.856536006
0.3777933875 -0.9015455569 -8.877898843
0.3507217073 -0.9058280776 -9.098059146
0.3922728725 -0.8858252477 -9.030577657
0.5485328209 -0.8060624941 -8.745493908
0.8788461538 -0.4222018923 -8.75
0.6014911435 -0.7673548099 -8.25085596
0.5972073913 -0.8020868605 -8.472578865
0.7136894874 -0.6141321932 -8.747746954
0.7401686487 -0.5947783511 -8.50042798
0.5750119822 -0.786708652 -8.498174934
0.5728701061 -0.8040746773 -8.609036386
0.7380267726 -0.6121443764 -8.611289432
0.5993492674 -0.7847208352 -8.361717412
0.5485328209 -0.8060624941 -8.745493908
0.1832619275 -0.983064121 -8.703857192
0.2122208975 -0.9516235026 -9.009214821
0.5723248475 -0.8200269928 -9.051940494
0.3658973742 -0.8945633076 -8.72467555
0.1977414125 -0.9673438118 -8.856536006
0.3803768592 -0.8788429984 -8.877354364
0.5604288342 -0.8130447435 -8.898717201
0.3777933875 -0.9015455569 -8.877898843
0.3922728725 -0.8858252477 -9.030577657
0.5485328209 -0.8060624941 -8.745493908
0.8999440444 -0.4360054093 -8.718677298
0.5972073913 -0.8020868605 -8.472578865
0.5723248475 -0.8200269928 -9.051940494
0.7242384326 -0.6210339517 -8.732085603
0.7485757179 -0.6190461349 -8.595628082
0.5728701061 -0.8040746773 -8.609036386
0.5604288342 -0.8130447435 -8.898717201
0.736134446 -0.628016201 -8.885308896
0.5847661194 -0.8110569266 -8.762259679
0.60105993 -0.7992039543 -7.436829627
0.1870504412 -0.9823503104 -7.692769582
0.2039596164 -0.9534282746 -7.500399379
0.5299942763 -0.8183709838 -7.750464037
0.3940551856 -0.8907771324 -7.564799604
0.1955050288 -0.9678892925 -7.59658448
0.4025097732 -0.8763161145 -7.468614503
0.5655271031 -0.808787469 -7.593646832
0.3585223588 -0.9003606471 -7.72161681
0.3669769463 -0.8858996292 -7.625431708
0.60105993 -0.7992039543 -7.436829627
0.5970034454 -0.8022386716 -7.949478608
0.1870504412 -0.9823503104 -7.692769582
0.5299942763 -0.8183709838 -7.750464037
0.5990316877 -0.8007213129 -7.693154117
0.3920269433 -0.892294491 -7.821124095
0.3940551856 -0.8907771324 -7.564799604
0.5655271031 -0.808787469 -7.593646832
0.5634988608 -0.8103048277 -7.849971323
0.3585223588 -0.9003606471 -7.72161681
0.2371175043 -0.9457273863 -9.548372626
0.1291185671 -0.9916291624 -9.144177798
0.5723248475 -0.8200269928 -9.051940494
0.2122208975 -0.9516235026 -9.009214821
0.1831180357 -0.9686782743 -9.346275212
0.3507217073 -0.9058280776 -9.098059146
0.4047211759 -0.8828771895 -9.30015656
0.2246692009 -0.9486754444 -9.278793723
0.1706697323 -0.9716263325 -9.076696309
0.3922728725 -0.8858252477 -9.030577657
-0.2560235676 -0.96667054 -9.482073457
-0.252348569 -0.9417776806 -9.671174637
-0.2312281034 -0.947184546 -9.254083295
0.2371175043 -0.9457273863 -9.548372626
-0.2541860683 -0.9542241103 -9.576624047
-0.2417883362 -0.9444811133 -9.462628966
-0.2436258355 -0.956927543 -9.368078376
-0.009453031654 -0.9561989631 -9.515223042
-0.007615532337 -0.9437525335 -9.609773632
0.002944700429 -0.9464559661 -9.401227961
-0.2243905125 -0.9488276439 -8.751248457
0.2122208975 -0.9516235026 -9.009214821
0.204051799 -0.9534085501 -8.501179309
0.1832619275 -0.983064121 -8.703857192
-0.006084807474 -0.9502255733 -8.880231639
0.2081363483 -0.9525160263 -8.755197065
-0.01016935672 -0.951118097 -8.626213883
-0.0205642925 -0.9659458825 -8.727552825
0.1977414125 -0.9673438118 -8.856536006
0.1936568633 -0.9682363355 -8.602518251
0.1870504412 -0.9823503104 -7.692769582
0.2039201237 -0.9534367222 -8.000584838
0.2039596164 -0.9534282746 -7.500399379
0.5299942763 -0.8183709838 -7.750464037
0.1954852825 -0.9678935163 -7.84667721
0.20393987 -0.9534324984 -7.750492108
0.1955050288 -0.9678892925 -7.59658448
0.3585223588 -0.9003606471 -7.72161681
0.3669572 -0.885903853 -7.875524438
0.3669769463 -0.8858996292 -7.625431708
0.1910762906 -0.9815751888 -6.154993988
0.2042775337 -0.9533602096 -6.00018891
0.2041708111 -0.9533830709 -6.500252217
-0.2245376597 -0.9487928327 -6.249831361
0.1976769122 -0.9674676992 -6.077591449
0.2042241724 -0.9533716402 -6.250220563
0.1976235508 -0.9674791298 -6.327623102
-0.01673068456 -0.9651840107 -6.202412675
-0.01013006299 -0.9510765211 -6.125010135
-0.01018342433 -0.9510879518 -6.375041789
-0.2507069066 -0.9680630387 -8.461145486
-0.2239433883 -0.9489332742 -8.250686056
-0.2243905125 -0.9488276439 -8.751248457
-0.6117427313 -0.75920737 -8.500571326
-0.2373251475 -0.9584981565 -8.355915771
-0.2241669504 -0.9488804591 -8.500967256
-0.2375487095 -0.9584453413 -8.606196972
-0.431224819 -0.8636352044 -8.480858406
-0.4178430598 -0.8540703221 -8.375628691
-0.4180666219 -0.854017507 -8.625909892
-0.975 0 -6.5
-0.8788461538 -0.4222018923 -6.75
-0.879422776 -0.4209995024 -6.249850001
-0.9015039062 -0.4327709637 -6.66875
-0.9269230769 -0.2111009462 -6.625
-0.8791344649 -0.4216006974 -6.499925001
-0.927211388 -0.2104997512 -6.374925001
-0.9382519531 -0.2163854818 -6.584375
-0.89017503 -0.427486428 -6.709375
-0.8904633411 -0.4268852331 -6.459300001
-0.6508818052 -0.7591790801 -7.177758924
-0.6125638658 -0.7585449956 -6.999453689
-0.6125924148 -0.7585219399 -7.499599535
-0.8790458067 -0.4217860473 -7.250779072
-0.6317228355 -0.7588620378 -7.088606306
-0.6125781403 -0.7585334677 -7.249526612
-0.63173711 -0.75885051 -7.338679229
-0.764963806 -0.5904825637 -7.214268998
-0.7458048363 -0.5901655214 -7.12511638
-0.7458191108 -0.5901539936 -7.375189303
-0.224404065 -0.9488244388 -5.74982407
0.2042775337 -0.9533602096 -6.00018891
0.2044019868 -0.9533335344 -5.500222917
0.1924510778 -0.9813065692 -5.642480119
-0.01006326565 -0.9510923242 -5.87500649
0.2043397603 -0.953346872 -5.750205913
-0.01000103912 -0.9510789866 -5.625023493
-0.01597649363 -0.965065504 -5.696152095
0.1983643058 -0.9673333894 -5.821334514
0.1984265323 -0.9673200518 -5.571351518
-0.975 0 -8
-0.9387897634 -0.3444906097 -8.204846283
-0.9015039063 -0.4327709637 -7.69375
-1 0 -7.95
-0.9568948817 -0.1722453049 -8.102423142
-0.9201468348 -0.3886307867 -7.949298142
-0.9382519531 -0.2163854818 -7.846875
-0.9875 0 -7.975
-0.9693948817 -0.1722453049 -8.077423142
-0.9507519531 -0.2163854818 -7.821875
-0.9015039063 -0.4327709637 -7.69375
-0.9387897634 -0.3444906097 -8.204846283
-0.975 0 -8
-0.8788461538 -0.4222018923 -7.75
-0.9201468348 -0.3886307867 -7.949298142
-0.9568948817 -0.1722453049 -8.102423142
-0.9382519531 -0.2163854818 -7.846875
-0.89017503 -0.427486428 -7.721875
-0.9088179586 -0.383346251 -7.977423142
-0.9269230769 -0.2111009462 -7.875
-0.9015039063 -0.4327709637 -7.69375
-0.975 0 -7.5
-0.975 0 -8
-1 0 -7.95
-0.9382519531 -0.2163854818 -7.596875
-0.975 0 -7.75
-0.9382519531 -0.2163854818 -7.846875
-0.9507519531 -0.2163854818 -7.821875
-0.9875 0 -7.725
-0.9875 0 -7.975
-0.975 0 -8
-0.975 0 -7.5
-0.9015039063 -0.4327709637 -7.69375
-0.8788461538 -0.4222018923 -7.75
-0.975 0 -7.75
-0.9382519531 -0.2163854818 -7.596875
-0.9382519531 -0.2163854818 -7.846875
-0.9269230769 -0.2111009462 -7.875
-0.9269230769 -0.2111009462 -7.625
-0.89017503 -0.427486428 -7.721875
-0.975 0 -6.5
-0.975 0 -6
-0.9386697607 -0.3448174593 -6.155536014
-0.879422776 -0.4209995024 -6.249850001
-0.975 0 -6.25
-0.9568348804 -0.1724087297 -6.077768007
-0.9568348804 -0.1724087297 -6.327768007
-0.927211388 -0.2104997512 -6.374925001
-0.927211388 -0.2104997512 -6.124925001
-0.9090462684 -0.3829084809 -6.202693008
-0.9386697607 -0.3448174593 -6.155536014
-0.975 0 -6
-0.975 0 -6.5
-1 0 -6.4125
-0.9568348804 -0.1724087297 -6.077768007
-0.975 0 -6.25
-0.9568348804 -0.1724087297 -6.327768007
-0.9693348804 -0.1724087297 -6.284018007
-0.9875 0 -6.20625
-0.9875 0 -6.45625
-0.9386697607 -0.3448174593 -6.155536014
-0.9015039062 -0.4327709637 -6.66875
-0.975 0 -6.5
-0.879422776 -0.4209995024 -6.249850001
-0.9200868335 -0.3887942115 -6.412143007
-0.9382519531 -0.2163854818 -6.584375
-0.9568348804 -0.1724087297 -6.327768007
-0.9090462684 -0.3829084809 -6.202693008
-0.8904633411 -0.4268852331 -6.459300001
-0.927211388 -0.2104997512 -6.374925001
-0.975 0 -6.5
-0.9015039062 -0.4327709637 -6.66875
-0.9386697607 -0.3448174593 -6.155536014
-1 0 -6.4125
-0.9382519531 -0.2163854818 -6.584375
-0.9200868335 -0.3887942115 -6.412143007
-0.9568348804 -0.1724087297 -6.327768007
-0.9875 0 -6.45625
-0.9507519531 -0.2163854818 -6.540625
-0.9693348804 -0.1724087297 -6.284018007
-0.6123496816 -0.7587179103 -5.499426008
-0.9015039063 -0.4327709637 -5.64375
-0.6122399352 -0.7588064719 -5.999856799
-0.5686265776 -0.8225957787 -5.64137958
-0.7569267939 -0.595744437 -5.571588004
-0.7568719207 -0.5957887178 -5.821803399
-0.6122948084 -0.7587621911 -5.749641403
-0.5904881296 -0.7906568445 -5.570402794
-0.7350652419 -0.6276833712 -5.64256479
-0.5904332564 -0.7907011253 -5.820618189
-0.6122399352 -0.7588064719 -5.999856799
-0.9015039063 -0.4327709637 -5.64375
-0.6123496816 -0.7587179103 -5.499426008
-0.8788461538 -0.4222018923 -5.75
-0.7568719207 -0.5957887178 -5.821803399
-0.7569267939 -0.595744437 -5.571588004
-0.6122948084 -0.7587621911 -5.749641403
-0.7455430445 -0.5905041821 -5.874928399
-0.89017503 -0.427486428 -5.696875
-0.7455979177 -0.5904599013 -5.624713004
0.8788461538 -0.4222018923 -6.75
0.6035309364 -0.7973395818 -6.411739255
0.5987520175 -0.8009344677 -6.924235845
0.8958091366 -0.4444389618 -6.668556668
0.7411885451 -0.6097707371 -6.580869628
0.601141477 -0.7991370248 -6.66798755
0.7387990857 -0.61156818 -6.837117922
0.8873276452 -0.4333204271 -6.709278334
0.7496700365 -0.6208892718 -6.540147961
0.7472805771 -0.6226867147 -6.796396256
0.5987520175 -0.8009344677 -6.924235845
0.6035309364 -0.7973395818 -6.411739255
0.8788461538 -0.4222018923 -6.75
0.5300331523 -0.8183458056 -6.750275839
0.601141477 -0.7991370248 -6.66798755
0.7411885451 -0.6097707371 -6.580869628
0.7387990857 -0.61156818 -6.837117922
0.5643925849 -0.8096401366 -6.837255842
0.5667820443 -0.8078426937 -6.581007547
0.7044396531 -0.6202738489 -6.75013792
1 0 -7.4375
1 0 -7.95
0.8788461538 -0.4222018923 -7.75
0.975 0 -7.5
1 0 -7.69375
0.9394230769 -0.2111009462 -7.85
0.9394230769 -0.2111009462 -7.59375
0.9875 0 -7.46875
0.9875 0 -7.725
0.9269230769 -0.2111009462 -7.625
0.8788461538 -0.4222018923 -7.75
1 0 -7.95
1 0 -7.4375
0.8954362405 -0.4451897788 -7.693590666
0.9394230769 -0.2111009462 -7.85
1 0 -7.69375
0.9394230769 -0.2111009462 -7.59375
0.8871411972 -0.4336958356 -7.721795333
0.9477181203 -0.2225948894 -7.821795333
0.9477181203 -0.2225948894 -7.565545333
0.8788461538 -0.4222018923 -7.75
0.9123919805 -0.3437526347 -7.250093223
1 0 -7.4375
0.975 0 -7.5
0.8956190672 -0.3829772635 -7.500046612
0.9561959903 -0.1718763173 -7.343796612
0.9394230769 -0.2111009462 -7.59375
0.9269230769 -0.2111009462 -7.625
0.9436959903 -0.1718763173 -7.375046612
0.9875 0 -7.46875
1 0 -7.4375
0.9123919805 -0.3437526347 -7.250093223
0.8788461538 -0.4222018923 -7.75
0.8954362405 -0.4451897788 -7.693590666
0.9561959903 -0.1718763173 -7.343796612
0.8956190672 -0.3829772635 -7.500046612
0.9394230769 -0.2111009462 -7.59375
0.9477181203 -0.2225948894 -7.565545333
0.9039141105 -0.3944712068 -7.471841945
0.8871411972 -0.4336958356 -7.721795333
-0.2243905125 -0.9488276439 -8.751248457
0.1832619275 -0.983064121 -8.703857192
0.1291185671 -0.9916291624 -9.144177798
0.2122208975 -0.9516235026 -9.009214821
-0.0205642925 -0.9659458825 -8.727552825
0.1561902473 -0.9873466417 -8.924017495
-0.04763597267 -0.9702284031 -8.947713127
-0.006084807474 -0.9502255733 -8.880231639
0.1977414125 -0.9673438118 -8.856536006
0.1706697323 -0.9716263325 -9.076696309
0.1291185671 -0.9916291624 -9.144177798
0.1832619275 -0.983064121 -8.703857192
-0.2243905125 -0.9488276439 -8.751248457
-0.2602631671 -0.9655377175 -8.969219258
0.1561902473 -0.9873466417 -8.924017495
-0.0205642925 -0.9659458825 -8.727552825
-0.04763597267 -0.9702284031 -8.947713127
-0.06557229997 -0.9785834399 -9.056698528
-0.0385006198 -0.9743009192 -8.836538225
-0.2423268398 -0.9571826807 -8.860233858
0.1291185671 -0.9916291624 -9.144177798
-0.2312281034 -0.947184546 -9.254083295
-0.2243905125 -0.9488276439 -8.751248457
0.2122208975 -0.9516235026 -9.009214821
-0.05105476816 -0.9694068542 -9.199130546
-0.227809308 -0.948006095 -9.002665876
-0.04763597267 -0.9702284031 -8.947713127
0.1706697323 -0.9716263325 -9.076696309
-0.009503602963 -0.9494040243 -9.131649058
-0.006084807474 -0.9502255733 -8.880231639
-0.2243905125 -0.9488276439 -8.751248457
-0.2312281034 -0.947184546 -9.254083295
0.1291185671 -0.9916291624 -9.144177798
-0.2602631671 -0.9655377175 -8.969219258
-0.227809308 -0.948006095 -9.002665876
-0.05105476816 -0.9694068542 -9.199130546
-0.04763597267 -0.9702284031 -8.947713127
-0.2423268398 -0.9571826807 -8.860233858
-0.2457456353 -0.9563611317 -9.111651277
-0.06557229997 -0.9785834399 -9.056698528
0.8788461538 -0.4222018923 -5.75
0.600667901 -0.7994986384 -5.899180563
0.6051906583 -0.7960805658 -5.386716295
0.5301781132 -0.8182518978 -5.750238232
0.7397570274 -0.6108502653 -5.824590282
0.6029292796 -0.7977896021 -5.642948429
0.742018406 -0.609141229 -5.568358148
0.7045121335 -0.6202268951 -5.750119116
0.5654230071 -0.8088752681 -5.824709398
0.5676843857 -0.8071662318 -5.568477264
0.6051906583 -0.7960805658 -5.386716295
0.600667901 -0.7994986384 -5.899180563
0.8788461538 -0.4222018923 -5.75
0.8962166451 -0.4436166421 -5.643552079
0.6029292796 -0.7977896021 -5.642948429
0.7397570274 -0.6108502653 -5.824590282
0.742018406 -0.609141229 -5.568358148
0.7507036517 -0.6198486039 -5.515134187
0.748442273 -0.6215576402 -5.771366321
0.8875313995 -0.4329092672 -5.696776039
0.7181975312 -0.6958392818 -9.574292075
0.5723248475 -0.8200269928 -9.051940494
0.2371175043 -0.9457273863 -9.548372626
0.3000220596 -0.9539322637 -9.53970325
0.6452611894 -0.7579331373 -9.313116285
0.4047211759 -0.8828771895 -9.30015656
0.4776575178 -0.820783334 -9.561332351
0.5091097954 -0.8248857728 -9.556997663
0.4361734536 -0.8869796283 -9.295821872
0.268569782 -0.949829825 -9.544037938
0.2371175043 -0.9457273863 -9.548372626
0.5723248475 -0.8200269928 -9.051940494
0.7181975312 -0.6958392818 -9.574292075
0.6221628501 -0.7506919394 -9.204994437
0.4047211759 -0.8828771895 -9.30015656
0.6452611894 -0.7579331373 -9.313116285
0.4776575178 -0.820783334 -9.561332351
0.4296401772 -0.8482096628 -9.376683532
0.5972438488 -0.7853594661 -9.128467466
0.6701801907 -0.7232656106 -9.389643256
0.2371175043 -0.9457273863 -9.548372626
0.6985134992 -0.6802234129 -9.634687677
0.7181975312 -0.6958392818 -9.574292075
0.3000220596 -0.9539322637 -9.53970325
0.4678155017 -0.8129753996 -9.591530152
0.7083555152 -0.6880313474 -9.604489876
0.4776575178 -0.820783334 -9.561332351
0.268569782 -0.949829825 -9.544037938
0.4992677794 -0.8170778383 -9.587195464
0.5091097954 -0.8248857728 -9.556997663
0.7181975312 -0.6958392818 -9.574292075
0.6985134992 -0.6802234129 -9.634687677
0.2371175043 -0.9457273863 -9.548372626
0.6221628501 -0.7506919394 -9.204994437
0.7083555152 -0.6880313474 -9.604489876
0.4678155017 -0.8129753996 -9.591530152
0.4776575178 -0.820783334 -9.561332351
0.6701801907 -0.7232656106 -9.389643256
0.6603381747 -0.7154576762 -9.419841057
0.4296401772 -0.8482096628 -9.376683532
-0.6126631207 -0.7584648314 -6.499272303
-0.9015039062 -0.4327709637 -6.66875
-0.6125638658 -0.7585449956 -6.999453689
-0.5704597295 -0.8213255731 -6.666417389
-0.7570835135 -0.5956178976 -6.584011152
-0.757033886 -0.5956579796 -6.834101844
-0.6126134933 -0.7585049135 -6.749362996
-0.5915614251 -0.7898952023 -6.582844846
-0.7359818179 -0.6270482684 -6.667583695
-0.5915117977 -0.7899352843 -6.832935539
-0.6125638658 -0.7585449956 -6.999453689
-0.9015039062 -0.4327709637 -6.66875
-0.6126631207 -0.7584648314 -6.499272303
-0.8788461538 -0.4222018923 -6.75
-0.757033886 -0.5956579796 -6.834101844
-0.7570835135 -0.5956178976 -6.584011152
-0.6126134933 -0.7585049135 -6.749362996
-0.7457050098 -0.5903734439 -6.874726844
-0.89017503 -0.427486428 -6.709375
-0.7457546373 -0.5903333619 -6.624636152
0.9292165806 -0.369535582 -9.625201451
0.6985134992 -0.6802234129 -9.634687677
0.8954107874 -0.385829654 -9.25
0.9070906812 -0.3575073372 -9.637969196
0.8138650399 -0.5248794974 -9.629944564
0.7969621433 -0.5330265334 -9.442343838
0.912313684 -0.377682618 -9.437600725
0.9181536309 -0.3635214596 -9.631585324
0.8028020902 -0.5188653751 -9.636328437
0.9012507343 -0.3716684956 -9.443984598
0.6985134992 -0.6802234129 -9.634687677
0.9292165806 -0.369535582 -9.625201451
0.8954107874 -0.385829654 -9.25
0.7181975312 -0.6958392818 -9.574292075
0.8138650399 -0.5248794974 -9.629944564
0.912313684 -0.377682618 -9.437600725
0.7969621433 -0.5330265334 -9.442343838
0.7083555152 -0.6880313474 -9.604489876
0.8237070559 -0.5326874319 -9.599746763
0.8068041593 -0.5408344679 -9.412146038
-0.2444399619 -0.9696644291 -5.897654123
-0.6123496816 -0.7587179103 -5.499426008
-0.6122399352 -0.7588064719 -5.999856799
-0.5686265776 -0.8225957787 -5.64137958
-0.4283948217 -0.8641911697 -5.698540065
-0.6122948084 -0.7587621911 -5.749641403
-0.4283399485 -0.8642354505 -5.948755461
-0.4065332698 -0.8961301039 -5.769516851
-0.5904881296 -0.7906568445 -5.570402794
-0.5904332564 -0.7907011253 -5.820618189
-0.6123496816 -0.7587179103 -5.499426008
-0.2444399619 -0.9696644291 -5.897654123
-0.6122399352 -0.7588064719 -5.999856799
-0.224404065 -0.9488244388 -5.74982407
-0.4283948217 -0.8641911697 -5.698540065
-0.4283399485 -0.8642354505 -5.948755461
-0.6122948084 -0.7587621911 -5.749641403
-0.4183768733 -0.8537711746 -5.624625039
-0.2344220135 -0.9592444339 -5.823739096
-0.4183220001 -0.8538154553 -5.874840434
-0.6123496816 -0.7587179103 -5.499426008
-0.2444399619 -0.9696644291 -5.897654123
-0.2430775448 -0.9700068594 -5.385146092
-0.5686265776 -0.8225957787 -5.64137958
-0.4283948217 -0.8641911697 -5.698540065
-0.2437587533 -0.9698356442 -5.641400107
-0.4277136132 -0.8643623849 -5.44228605
-0.5904881296 -0.7906568445 -5.570402794
-0.4065332698 -0.8961301039 -5.769516851
-0.4058520612 -0.8963013191 -5.513262836
-0.2444399619 -0.9696644291 -5.897654123
-0.6123496816 -0.7587179103 -5.499426008
-0.2430775448 -0.9700068594 -5.385146092
-0.224404065 -0.9488244388 -5.74982407
-0.4283948217 -0.8641911697 -5.698540065
-0.4277136132 -0.8643623849 -5.44228605
-0.2437587533 -0.9698356442 -5.641400107
-0.2344220135 -0.9592444339 -5.823739096
-0.4183768733 -0.8537711746 -5.624625039
-0.2337408049 -0.9594156491 -5.567485081
0.5970034454 -0.8022386716 -7.949478608
0.8788461538 -0.4222018923 -7.75
0.60105993 -0.7992039543 -7.436829627
0.8954362405 -0.4451897788 -7.693590666
0.7379247996 -0.6122202819 -7.849739304
0.7399530419 -0.6107029233 -7.593414813
0.5990316877 -0.8007213129 -7.693154117
0.746219843 -0.6237142252 -7.821534637
0.8871411972 -0.4336958356 -7.721795333
0.7482480853 -0.6221968665 -7.565210146
0.60105993 -0.7992039543 -7.436829627
0.8788461538 -0.4222018923 -7.75
0.5970034454 -0.8022386716 -7.949478608
0.5299942763 -0.8183709838 -7.750464037
0.7399530419 -0.6107029233 -7.593414813
0.7379247996 -0.6122202819 -7.849739304
0.5990316877 -0.8007213129 -7.693154117
0.5655271031 -0.808787469 -7.593646832
0.7044202151 -0.6202864381 -7.750232019
0.5634988608 -0.8103048277 -7.849971323
0.6221628501 -0.7506919394 -9.204994437
0.5485328209 -0.8060624941 -8.745493908
0.8999440444 -0.4360054093 -8.718677298
0.8788461538 -0.4222018923 -8.75
0.5853478355 -0.7783772168 -8.975244173
0.7242384326 -0.6210339517 -8.732085603
0.7610534473 -0.5933486744 -8.961835868
0.750504502 -0.5864469159 -8.977497219
0.7136894874 -0.6141321932 -8.747746954
0.8893950991 -0.4291036508 -8.734338649
0.8999440444 -0.4360054093 -8.718677298
0.5485328209 -0.8060624941 -8.745493908
0.6221628501 -0.7506919394 -9.204994437
0.5723248475 -0.8200269928 -9.051940494
0.7242384326 -0.6210339517 -8.732085603
0.5853478355 -0.7783772168 -8.975244173
0.7610534473 -0.5933486744 -8.961835868
0.736134446 -0.628016201 -8.885308896
0.5604288342 -0.8130447435 -8.898717201
0.5972438488 -0.7853594661 -9.128467466
0.8999440444 -0.4360054093 -8.718677298
0.90446063 -0.4265571108 -9.228907255
0.6221628501 -0.7506919394 -9.204994437
0.8788461538 -0.4222018923 -8.75
0.9022023372 -0.43128126 -8.973792277
0.7633117401 -0.5886245251 -9.216950846
0.7610534473 -0.5933486744 -8.961835868
0.8893950991 -0.4291036508 -8.734338649
0.8916533919 -0.4243795015 -8.989453628
0.750504502 -0.5864469159 -8.977497219
0.6221628501 -0.7506919394 -9.204994437
0.90446063 -0.4265571108 -9.228907255
0.8999440444 -0.4360054093 -8.718677298
0.5723248475 -0.8200269928 -9.051940494
0.7633117401 -0.5886245251 -9.216950846
0.9022023372 -0.43128126 -8.973792277
0.7610534473 -0.5933486744 -8.961835868
0.5972438488 -0.7853594661 -9.128467466
0.7383927388 -0.6232920518 -9.140423875
0.736134446 -0.628016201 -8.885308896
-0.2469518725 -0.9690277461 -6.922722903
-0.6126631207 -0.7584648314 -6.499272303
-0.6125638658 -0.7585449956 -6.999453689
-0.5704597295 -0.8213255731 -6.666417389
-0.4298074966 -0.8637462888 -6.710997603
-0.6126134933 -0.7585049135 -6.749362996
-0.4297578692 -0.8637863708 -6.961088296
-0.408705801 -0.8951766596 -6.794570146
-0.5915614251 -0.7898952023 -6.582844846
-0.5915117977 -0.7899352843 -6.832935539
-0.6126631207 -0.7584648314 -6.499272303
-0.2469518725 -0.9690277461 -6.922722903
-0.6125638658 -0.7585449956 -6.999453689
-0.2246726605 -0.9487608738 -6.749868302
-0.4298074966 -0.8637462888 -6.710997603
-0.4297578692 -0.8637863708 -6.961088296
-0.6126134933 -0.7585049135 -6.749362996
-0.4186678906 -0.8536128526 -6.624570302
-0.2358122665 -0.9588943099 -6.836295602
-0.4186182631 -0.8536529347 -6.874660995
-0.6126631207 -0.7584648314 -6.499272303
-0.2469518725 -0.9690277461 -6.922722903
-0.245575461 -0.969377477 -6.410175049
-0.5704597295 -0.8213255731 -6.666417389
-0.4298074966 -0.8637462888 -6.710997603
-0.2462636667 -0.9692026116 -6.666448976
-0.4291192908 -0.8639211542 -6.454723676
-0.5915614251 -0.7898952023 -6.582844846
-0.408705801 -0.8951766596 -6.794570146
-0.4080175952 -0.8953515251 -6.538296219
-0.2469518725 -0.9690277461 -6.922722903
-0.6126631207 -0.7584648314 -6.499272303
-0.245575461 -0.969377477 -6.410175049
-0.2246726605 -0.9487608738 -6.749868302
-0.4298074966 -0.8637462888 -6.710997603
-0.4291192908 -0.8639211542 -6.454723676
-0.2462636667 -0.9692026116 -6.666448976
-0.2358122665 -0.9588943099 -6.836295602
-0.4186678906 -0.8536128526 -6.624570302
-0.2351240607 -0.9590691754 -6.580021675
0.8912946879 -0.4534245023 -8.205901749
0.8999440444 -0.4360054093 -8.718677298
0.8788461538 -0.4222018923 -8.75
0.9124118411 -0.343699916 -8.250169006
0.8956193662 -0.4447149558 -8.462289524
0.8893950991 -0.4291036508 -8.734338649
0.8850704209 -0.4378131973 -8.477950874
0.9018532645 -0.3985622091 -8.228035377
0.9061779427 -0.3898526626 -8.484423152
0.8956289975 -0.3829509041 -8.500084503
0.8788461538 -0.4222018923 -8.75
0.8999440444 -0.4360054093 -8.718677298
0.8912946879 -0.4534245023 -8.205901749
0.5972073913 -0.8020868605 -8.472578865
0.8893950991 -0.4291036508 -8.734338649
0.8956193662 -0.4447149558 -8.462289524
0.8850704209 -0.4378131973 -8.477950874
0.7380267726 -0.6121443764 -8.611289432
0.7485757179 -0.6190461349 -8.595628082
0.7442510396 -0.6277556814 -8.339240307
0.8788461538 -0.4222018923 -8.75
0.6014911435 -0.7673548099 -8.25085596
0.8912946879 -0.4534245023 -8.205901749
0.9124118411 -0.343699916 -8.250169006
0.7401686487 -0.5947783511 -8.50042798
0.7463929157 -0.6103896561 -8.228378854
0.8850704209 -0.4378131973 -8.477950874
0.8956289975 -0.3829509041 -8.500084503
0.7569514923 -0.5555273629 -8.250512483
0.9018532645 -0.3985622091 -8.228035377
0.8912946879 -0.4534245023 -8.205901749
0.6014911435 -0.7673548099 -8.25085596
0.8788461538 -0.4222018923 -8.75
0.5972073913 -0.8020868605 -8.472578865
0.7463929157 -0.6103896561 -8.228378854
0.7401686487 -0.5947783511 -8.50042798
0.8850704209 -0.4378131973 -8.477950874
0.7442510396 -0.6277556814 -8.339240307
0.5993492674 -0.7847208352 -8.361717412
0.7380267726 -0.6121443764 -8.611289432
-0.2507069066 -0.9680630387 -8.461145486
-0.6117427313 -0.75920737 -8.500571326
-0.6112406027 -0.759611694 -8.000035786
-0.2239433883 -0.9489332742 -8.250686056
-0.431224819 -0.8636352044 -8.480858406
-0.611491667 -0.759409532 -8.250303556
-0.4309737546 -0.8638373664 -8.230590636
-0.2373251475 -0.9584981565 -8.355915771
-0.4178430598 -0.8540703221 -8.375628691
-0.4175919955 -0.8542724841 -8.125360921
-0.6112406027 -0.759611694 -8.000035786
-0.6117427313 -0.75920737 -8.500571326
-0.2507069066 -0.9680630387 -8.461145486
-0.6604389876 -0.7508797132 -8.203486353
-0.611491667 -0.759409532 -8.250303556
-0.431224819 -0.8636352044 -8.480858406
-0.4309737546 -0.8638373664 -8.230590636
-0.6358397951 -0.7552457036 -8.101761069
-0.6360908595 -0.7550435416 -8.35202884
-0.4555729471 -0.859471376 -8.33231592
-0.6112406027 -0.759611694 -8.000035786
-0.2495413309 -0.9683641485 -7.948080837
-0.2507069066 -0.9680630387 -8.461145486
-0.2239433883 -0.9489332742 -8.250686056
-0.4303909668 -0.8639879213 -7.974058311
-0.2501241187 -0.9682135936 -8.204613162
-0.4309737546 -0.8638373664 -8.230590636
-0.4175919955 -0.8542724841 -8.125360921
-0.2367423596 -0.9586487114 -8.099383447
-0.2373251475 -0.9584981565 -8.355915771
-0.2507069066 -0.9680630387 -8.461145486
-0.2495413309 -0.9683641485 -7.948080837
-0.6112406027 -0.759611694 -8.000035786
-0.6604389876 -0.7508797132 -8.203486353
-0.2501241187 -0.9682135936 -8.204613162
-0.4303909668 -0.8639879213 -7.974058311
-0.4309737546 -0.8638373664 -8.230590636
-0.4555729471 -0.859471376 -8.33231592
-0.4549901593 -0.8596219309 -8.075783595
-0.6358397951 -0.7552457036 -8.101761069
-0.6125924148 -0.7585219399 -7.499599535
-0.9015039063 -0.4327709637 -7.69375
-0.6112406027 -0.759611694 -8.000035786
-0.573899208 -0.8189259423 -7.691681788
-0.7570481605 -0.5956464518 -7.596674767
-0.7563722545 -0.5961913288 -7.846892893
-0.6119165087 -0.7590668169 -7.74981766
-0.5932458114 -0.7887239411 -7.595640661
-0.7377015571 -0.625848453 -7.692715894
-0.5925699053 -0.7892688182 -7.845858787
-0.6112406027 -0.759611694 -8.000035786
-0.9015039063 -0.4327709637 -7.69375
-0.6125924148 -0.7585219399 -7.499599535
-0.8788461538 -0.4222018923 -7.75
-0.7563722545 -0.5961913288 -7.846892893
-0.7570481605 -0.5956464518 -7.596674767
-0.6119165087 -0.7590668169 -7.74981766
-0.7450433783 -0.5909067932 -7.875017893
-0.89017503 -0.427486428 -7.721875
-0.7457192843 -0.5903619161 -7.624799767
-0.2495413309 -0.9683641485 -7.948080837
-0.2480911705 -0.9687366882 -7.435332827
-0.6125924148 -0.7585219399 -7.499599535
-0.573899208 -0.8189259423 -7.691681788
-0.2488162507 -0.9685504184 -7.691706832
-0.4303417927 -0.8636293141 -7.467466181
-0.4310668729 -0.8634430442 -7.723840186
-0.4117202695 -0.8936450454 -7.819881313
-0.4109951893 -0.8938313153 -7.563507308
-0.5932458114 -0.7887239411 -7.595640661
-0.6125924148 -0.7585219399 -7.499599535
-0.2480911705 -0.9687366882 -7.435332827
-0.2495413309 -0.9683641485 -7.948080837
-0.2249789789 -0.9486882834 -7.750089591
-0.4303417927 -0.8636293141 -7.467466181
-0.2488162507 -0.9685504184 -7.691706832
-0.4310668729 -0.8634430442 -7.723840186
-0.4187856969 -0.8536051116 -7.624844563
-0.2365350747 -0.9587124858 -7.592711209
-0.2372601549 -0.958526216 -7.849085214
-0.6125924148 -0.7585219399 -7.499599535
-0.6112406027 -0.759611694 -8.000035786
-0.2495413309 -0.9683641485 -7.948080837
-0.573899208 -0.8189259423 -7.691681788
-0.6119165087 -0.7590668169 -7.74981766
-0.4303909668 -0.8639879213 -7.974058311
-0.4310668729 -0.8634430442 -7.723840186
-0.5932458114 -0.7887239411 -7.595640661
-0.5925699053 -0.7892688182 -7.845858787
-0.4117202695 -0.8936450454 -7.819881313
-0.2495413309 -0.9683641485 -7.948080837
-0.6112406027 -0.759611694 -8.000035786
-0.6125924148 -0.7585219399 -7.499599535
-0.2249789789 -0.9486882834 -7.750089591
-0.4303909668 -0.8639879213 -7.974058311
-0.6119165087 -0.7590668169 -7.74981766
-0.4310668729 -0.8634430442 -7.723840186
-0.2372601549 -0.958526216 -7.849085214
-0.4181097908 -0.8541499887 -7.875062688
-0.4187856969 -0.8536051116 -7.624844563
0.8788461538 -0.4222018923 -5.75
0.9124204594 -0.3436770364 -5.250075051
1 0 -5.3875
0.975 0 -5.5
0.8956333066 -0.3829394644 -5.500037526
0.9562102297 -0.1718385182 -5.318787526
0.9394230769 -0.2111009462 -5.56875
0.9269230769 -0.2111009462 -5.625
0.9437102297 -0.1718385182 -5.375037526
0.9875 0 -5.44375
1 0 -5.3875
0.9124204594 -0.3436770364 -5.250075051
0.8788461538 -0.4222018923 -5.75
0.8962166451 -0.4436166421 -5.643552079
0.9562102297 -0.1718385182 -5.318787526
0.8956333066 -0.3829394644 -5.500037526
0.9394230769 -0.2111009462 -5.56875
0.9481083225 -0.221808321 -5.515526039
0.9043185522 -0.3936468392 -5.446813565
0.8875313995 -0.4329092672 -5.696776039
1 0 -5.3875
1 0 -5.9
0.8788461538 -0.4222018923 -5.75
0.975 0 -5.5
1 0 -5.64375
0.9394230769 -0.2111009462 -5.825
0.9394230769 -0.2111009462 -5.56875
0.9875 0 -5.44375
0.9875 0 -5.7
0.9269230769 -0.2111009462 -5.625
0.8788461538 -0.4222018923 -5.75
1 0 -5.9
1 0 -5.3875
0.8962166451 -0.4436166421 -5.643552079
0.9394230769 -0.2111009462 -5.825
1 0 -5.64375
0.9394230769 -0.2111009462 -5.56875
0.8875313995 -0.4329092672 -5.696776039
0.9481083225 -0.221808321 -5.771776039
0.9481083225 -0.221808321 -5.515526039
-0.245575461 -0.969377477 -6.410175049
-0.6122399352 -0.7588064719 -5.999856799
-0.6126631207 -0.7584648314 -6.499272303
-0.6485692593 -0.761155645 -6.152680071
-0.4289076981 -0.8640919745 -6.205015924
-0.6124515279 -0.7586356517 -6.249564551
-0.4291192908 -0.8639211542 -6.454723676
-0.4470723601 -0.865266561 -6.28142756
-0.6304045972 -0.7599810584 -6.076268435
-0.63061619 -0.7598102382 -6.325976187
-0.6122399352 -0.7588064719 -5.999856799
-0.245575461 -0.969377477 -6.410175049
-0.6126631207 -0.7584648314 -6.499272303
-0.2245376597 -0.9487928327 -6.249831361
-0.4289076981 -0.8640919745 -6.205015924
-0.4291192908 -0.8639211542 -6.454723676
-0.6124515279 -0.7586356517 -6.249564551
-0.4183887975 -0.8537996523 -6.12484408
-0.2350565603 -0.9590851549 -6.330003205
-0.4186003902 -0.8536288321 -6.374551832
-0.6122399352 -0.7588064719 -5.999856799
-0.245575461 -0.969377477 -6.410175049
-0.2444399619 -0.9696644291 -5.897654123
-0.6485692593 -0.761155645 -6.152680071
-0.4289076981 -0.8640919745 -6.205015924
-0.2450077114 -0.9695209531 -6.153914586
-0.4283399485 -0.8642354505 -5.948755461
-0.6304045972 -0.7599810584 -6.076268435
-0.4470723601 -0.865266561 -6.28142756
-0.4465046106 -0.865410037 -6.025167097
-0.245575461 -0.969377477 -6.410175049
-0.6122399352 -0.7588064719 -5.999856799
-0.2444399619 -0.9696644291 -5.897654123
-0.2245376597 -0.9487928327 -6.249831361
-0.4289076981 -0.8640919745 -6.205015924
-0.4283399485 -0.8642354505 -5.948755461
-0.2450077114 -0.9695209531 -6.153914586
-0.2350565603 -0.9590851549 -6.330003205
-0.4183887975 -0.8537996523 -6.12484408
-0.2344888108 -0.9592286309 -6.073742742
-0.8443747687 -0.4875 -10
-0.7159649929 -0.6981361822 -9.577780302
-0.9374827987 -0.3480316108 -9.647975972
-0.8660254038 -0.5 -10
-0.7801698808 -0.5928180911 -9.788890151
-0.8267238958 -0.5230838965 -9.612878137
-0.8909287837 -0.4177658054 -9.823987986
-0.8552000862 -0.49375 -10
-0.7909951984 -0.5990680911 -9.788890151
-0.9017541012 -0.4240158054 -9.823987986
-0.9374827987 -0.3480316108 -9.647975972
-0.7159649929 -0.6981361822 -9.577780302
-0.8443747687 -0.4875 -10
-0.9047163309 -0.3634740165 -9.628848687
-0.8267238958 -0.5230838965 -9.612878137
-0.7801698808 -0.5928180911 -9.788890151
-0.8909287837 -0.4177658054 -9.823987986
-0.9210995648 -0.3557528136 -9.638412329
-0.8103406619 -0.5308050994 -9.603314494
-0.8745455498 -0.4254870082 -9.814424343
-0.2480911705 -0.9687366882 -7.435332827
-0.2469518725 -0.9690277461 -6.922722903
-0.6125638658 -0.7585449956 -6.999453689
-0.6508818052 -0.7591790801 -7.177758924
-0.2475215215 -0.9688822171 -7.179027865
-0.4297578692 -0.8637863708 -6.961088296
-0.4303275182 -0.8636408419 -7.217393258
-0.4494864879 -0.8639578841 -7.306545875
-0.4489168389 -0.8641034131 -7.050240914
-0.6317228355 -0.7588620378 -7.088606306
-0.6125638658 -0.7585449956 -6.999453689
-0.2469518725 -0.9690277461 -6.922722903
-0.2480911705 -0.9687366882 -7.435332827
-0.2248170417 -0.9487266718 -7.249929493
-0.4297578692 -0.8637863708 -6.961088296
-0.2475215215 -0.9688822171 -7.179027865
-0.4303275182 -0.8636408419 -7.217393258
-0.4186904537 -0.8536358337 -7.124691591
-0.2358844571 -0.9588772089 -7.086326198
-0.2364541061 -0.95873168 -7.34263116
-0.6125638658 -0.7585449956 -6.999453689
-0.6125924148 -0.7585219399 -7.499599535
-0.2480911705 -0.9687366882 -7.435332827
-0.6508818052 -0.7591790801 -7.177758924
-0.6125781403 -0.7585334677 -7.249526612
-0.4303417927 -0.8636293141 -7.467466181
-0.4303275182 -0.8636408419 -7.217393258
-0.6317228355 -0.7588620378 -7.088606306
-0.63173711 -0.75885051 -7.338679229
-0.4494864879 -0.8639578841 -7.306545875
-0.2480911705 -0.9687366882 -7.435332827
-0.6125924148 -0.7585219399 -7.499599535
-0.6125638658 -0.7585449956 -6.999453689
-0.2248170417 -0.9487266718 -7.249929493
-0.4303417927 -0.8636293141 -7.467466181
-0.6125781403 -0.7585334677 -7.249526612
-0.4303275182 -0.8636408419 -7.217393258
-0.2364541061 -0.95873168 -7.34263116
-0.4187047282 -0.8536243058 -7.374764514
-0.4186904537 -0.8536358337 -7.124691591
0.8788461538 -0.4222018923 -6.75
1 0 -6.4125
0.9124029458 -0.3437235291 -6.250078075
0.8958091366 -0.4444389618 -6.668556668
0.9394230769 -0.2111009462 -6.58125
0.9562014729 -0.1718617645 -6.331289037
0.8956245498 -0.3829627107 -6.500039037
0.8873276452 -0.4333204271 -6.709278334
0.9479045683 -0.2222194809 -6.540528334
0.9041060412 -0.3940812454 -6.459317371
1 0 -6.4125
0.8788461538 -0.4222018923 -6.75
0.9124029458 -0.3437235291 -6.250078075
0.975 0 -6.5
0.9394230769 -0.2111009462 -6.58125
0.8956245498 -0.3829627107 -6.500039037
0.9562014729 -0.1718617645 -6.331289037
0.9875 0 -6.45625
0.9269230769 -0.2111009462 -6.625
0.9437014729 -0.1718617645 -6.375039037
1 0 -6.4125
0.8788461538 -0.4222018923 -6.75
1 0 -6.925
0.8958091366 -0.4444389618 -6.668556668
0.9394230769 -0.2111009462 -6.58125
0.9394230769 -0.2111009462 -6.8375
1 0 -6.66875
0.9479045683 -0.2222194809 -6.540528334
0.8873276452 -0.4333204271 -6.709278334
0.9479045683 -0.2222194809 -6.796778334
0.8788461538 -0.4222018923 -6.75
1 0 -6.4125
1 0 -6.925
0.975 0 -6.5
0.9394230769 -0.2111009462 -6.58125
1 0 -6.66875
0.9394230769 -0.2111009462 -6.8375
0.9269230769 -0.2111009462 -6.625
0.9875 0 -6.45625
0.9875 0 -6.7125
0.4875 -0.8443747687 -10
0 -1 -10
0.3000220596 -0.9539322637 -9.53970325
0.2371175043 -0.9457273863 -9.548372626
0.24375 -0.9221873843 -10
0.1500110298 -0.9769661319 -9.769851625
0.3937610298 -0.8991535162 -9.769851625
0.3623087522 -0.8950510775 -9.774186313
0.1185587522 -0.9728636931 -9.774186313
0.268569782 -0.949829825 -9.544037938
0.3000220596 -0.9539322637 -9.53970325
0 -1 -10
0.4875 -0.8443747687 -10
0.5 -0.8660254038 -10
0.1500110298 -0.9769661319 -9.769851625
0.24375 -0.9221873843 -10
0.3937610298 -0.8991535162 -9.769851625
0.4000110298 -0.9099788337 -9.769851625
0.25 -0.9330127019 -10
0.49375 -0.8552000862 -10
0.3000220596 -0.9539322637 -9.53970325
0.6985134992 -0.6802234129 -9.634687677
0.4875 -0.8443747687 -10
0.2371175043 -0.9457273863 -9.548372626
0.4992677794 -0.8170778383 -9.587195464
0.5930067496 -0.7622990908 -9.817343838
0.3937610298 -0.8991535162 -9.769851625
0.268569782 -0.949829825 -9.544037938
0.4678155017 -0.8129753996 -9.591530152
0.3623087522 -0.8950510775 -9.774186313
0.4875 -0.8443747687 -10
0.6985134992 -0.6802234129 -9.634687677
0.3000220596 -0.9539322637 -9.53970325
0.5 -0.8660254038 -10
0.5930067496 -0.7622990908 -9.817343838
0.4992677794 -0.8170778383 -9.587195464
0.3937610298 -0.8991535162 -9.769851625
0.49375 -0.8552000862 -10
0.5992567496 -0.7731244083 -9.817343838
0.4000110298 -0.9099788337 -9.769851625
-0.975 0 -7.5
-0.9015039063 -0.4327709637 -7.69375
-0.9388793844 -0.3442462804 -7.180551785
-1 0 -7.4375
-0.9382519531 -0.2163854818 -7.596875
-0.9201916453 -0.3885086221 -7.437150892
-0.9569396922 -0.1721231402 -7.340275892
-0.9875 0 -7.46875
-0.9507519531 -0.2163854818 -7.565625
-0.9694396922 -0.1721231402 -7.309025892
-0.9388793844 -0.3442462804 -7.180551785
-0.9015039063 -0.4327709637 -7.69375
-0.975 0 -7.5
-0.8790458067 -0.4217860473 -7.250779072
-0.9201916453 -0.3885086221 -7.437150892
-0.9382519531 -0.2163854818 -7.596875
-0.9569396922 -0.1721231402 -7.340275892
-0.9089625955 -0.3830161639 -7.215665428
-0.8902748565 -0.4272785055 -7.472264536
-0.9270229034 -0.2108930237 -7.375389536
-0.9388793844 -0.3442462804 -7.180551785
-0.975 0 -7
-0.975 0 -7.5
-1 0 -7.4375
-0.9569396922 -0.1721231402 -7.090275892
-0.975 0 -7.25
-0.9569396922 -0.1721231402 -7.340275892
-0.9694396922 -0.1721231402 -7.309025892
-0.9875 0 -7.21875
-0.9875 0 -7.46875
-0.975 0 -7.5
-0.975 0 -7
-0.9388793844 -0.3442462804 -7.180551785
-0.8790458067 -0.4217860473 -7.250779072
-0.975 0 -7.25
-0.9569396922 -0.1721231402 -7.090275892
-0.9569396922 -0.1721231402 -7.340275892
-0.9270229034 -0.2108930237 -7.375389536
-0.9270229034 -0.2108930237 -7.125389536
-0.9089625955 -0.3830161639 -7.215665428
0.8954362405 -0.4451897788 -7.693590666
0.8788461538 -0.4222018923 -7.75
0.6012687555 -0.7675290768 -7.250472144
0.9123919805 -0.3437526347 -7.250093223
0.8871411972 -0.4336958356 -7.721795333
0.7400574547 -0.5948654845 -7.500236072
0.748352498 -0.6063594278 -7.472031405
0.9039141105 -0.3944712068 -7.471841945
0.8956190672 -0.3829772635 -7.500046612
0.756830368 -0.5556408557 -7.250282683
0.6012687555 -0.7675290768 -7.250472144
0.8788461538 -0.4222018923 -7.75
0.8954362405 -0.4451897788 -7.693590666
0.60105993 -0.7992039543 -7.436829627
0.7400574547 -0.5948654845 -7.500236072
0.8871411972 -0.4336958356 -7.721795333
0.748352498 -0.6063594278 -7.472031405
0.6011643427 -0.7833665155 -7.343650885
0.7399530419 -0.6107029233 -7.593414813
0.7482480853 -0.6221968665 -7.565210146
0.6012687555 -0.7675290768 -7.250472144
0.8912999002 -0.4534142564 -7.180800132
0.8954362405 -0.4451897788 -7.693590666
0.9123919805 -0.3437526347 -7.250093223
0.7462843278 -0.6104716666 -7.215636138
0.8933680704 -0.4493020176 -7.437195399
0.748352498 -0.6063594278 -7.472031405
0.756830368 -0.5556408557 -7.250282683
0.9018459404 -0.3985834456 -7.215446677
0.9039141105 -0.3944712068 -7.471841945
0.8954362405 -0.4451897788 -7.693590666
0.8912999002 -0.4534142564 -7.180800132
0.6012687555 -0.7675290768 -7.250472144
0.60105993 -0.7992039543 -7.436829627
0.8933680704 -0.4493020176 -7.437195399
0.7462843278 -0.6104716666 -7.215636138
0.748352498 -0.6063594278 -7.472031405
0.7482480853 -0.6221968665 -7.565210146
0.7461799151 -0.6263091054 -7.308814879
0.6011643427 -0.7833665155 -7.343650885
0.6015875971 -0.767279195 -5.250380109
0.8952706741 -0.445522637 -5.130936216
0.8962166451 -0.4436166421 -5.643552079
0.9124204594 -0.3436770364 -5.250075051
0.7484291356 -0.606400916 -5.190658163
0.8957436596 -0.4445696395 -5.387244148
0.7489021211 -0.6054479185 -5.446966094
0.7570040282 -0.5554781157 -5.25022758
0.9038455667 -0.3945998367 -5.190505634
0.9043185522 -0.3936468392 -5.446813565
0.8962166451 -0.4436166421 -5.643552079
0.8952706741 -0.445522637 -5.130936216
0.6015875971 -0.767279195 -5.250380109
0.6051906583 -0.7960805658 -5.386716295
0.8957436596 -0.4445696395 -5.387244148
0.7484291356 -0.606400916 -5.190658163
0.7489021211 -0.6054479185 -5.446966094
0.7507036517 -0.6198486039 -5.515134187
0.7502306662 -0.6208016014 -5.258826256
0.6033891277 -0.7816798804 -5.318548202
0.8962166451 -0.4436166421 -5.643552079
0.8788461538 -0.4222018923 -5.75
0.6015875971 -0.767279195 -5.250380109
0.9124204594 -0.3436770364 -5.250075051
0.8875313995 -0.4329092672 -5.696776039
0.7402168755 -0.5947405436 -5.500190055
0.7489021211 -0.6054479185 -5.446966094
0.9043185522 -0.3936468392 -5.446813565
0.8956333066 -0.3829394644 -5.500037526
0.7570040282 -0.5554781157 -5.25022758
0.6015875971 -0.767279195 -5.250380109
0.8788461538 -0.4222018923 -5.75
0.8962166451 -0.4436166421 -5.643552079
0.6051906583 -0.7960805658 -5.386716295
0.7402168755 -0.5947405436 -5.500190055
0.8875313995 -0.4329092672 -5.696776039
0.7489021211 -0.6054479185 -5.446966094
0.6033891277 -0.7816798804 -5.318548202
0.742018406 -0.609141229 -5.568358148
0.7507036517 -0.6198486039 -5.515134187
-0.9098954474 -0.4148376488 -9.231828986
-0.975 0 -9.5
-0.975 0 -9
-0.8841482528 -0.4109828063 -9.229013854
-0.9424477237 -0.2074188244 -9.365914493
-0.975 0 -9.25
-0.9424477237 -0.2074188244 -9.115914493
-0.8970218501 -0.4129102275 -9.23042142
-0.9295741264 -0.2054914031 -9.364506927
-0.9295741264 -0.2054914031 -9.114506927
-0.975 0 -9
-0.975 0 -9.5
-0.9098954474 -0.4148376488 -9.231828986
-1 0 -9.4875
-0.975 0 -9.25
-0.9424477237 -0.2074188244 -9.365914493
-0.9424477237 -0.2074188244 -9.115914493
-0.9875 0 -9.24375
-0.9875 0 -9.49375
-0.9549477237 -0.2074188244 -9.359664493
0.1924510778 -0.9813065692 -5.642480119
-0.2242744429 -0.948855086 -5.249811725
0.1938235058 -0.9810364155 -5.129975304
0.2044019868 -0.9533335344 -5.500222917
-0.01591168257 -0.9650808276 -5.446145922
-0.01522546854 -0.9649457508 -5.189893515
0.1931372918 -0.9811714923 -5.386227712
0.1984265323 -0.9673200518 -5.571351518
-0.009936228063 -0.9510943102 -5.375017321
0.1991127463 -0.967184975 -5.31509911
-0.2242744429 -0.948855086 -5.249811725
0.1924510778 -0.9813065692 -5.642480119
0.1938235058 -0.9810364155 -5.129975304
-0.2430775448 -0.9700068594 -5.385146092
-0.01591168257 -0.9650808276 -5.446145922
0.1931372918 -0.9811714923 -5.386227712
-0.01522546854 -0.9649457508 -5.189893515
-0.2336759938 -0.9594309727 -5.317478908
-0.02531323349 -0.9756567143 -5.513813105
-0.02462701946 -0.9755216374 -5.257560698
-0.2242744429 -0.948855086 -5.249811725
0.1924510778 -0.9813065692 -5.642480119
-0.224404065 -0.9488244388 -5.74982407
0.2044019868 -0.9533335344 -5.500222917
-0.01591168257 -0.9650808276 -5.446145922
-0.01597649363 -0.965065504 -5.696152095
-0.224339254 -0.9488397624 -5.499817897
-0.009936228063 -0.9510943102 -5.375017321
0.1984265323 -0.9673200518 -5.571351518
-0.01000103912 -0.9510789866 -5.625023493
0.1924510778 -0.9813065692 -5.642480119
-0.2242744429 -0.948855086 -5.249811725
-0.224404065 -0.9488244388 -5.74982407
-0.2430775448 -0.9700068594 -5.385146092
-0.01591168257 -0.9650808276 -5.446145922
-0.224339254 -0.9488397624 -5.499817897
-0.01597649363 -0.965065504 -5.696152095
-0.02531323349 -0.9756567143 -5.513813105
-0.2336759938 -0.9594309727 -5.317478908
-0.2337408049 -0.9594156491 -5.567485081
0.6013915226 -0.7674328873 -6.250395423
0.8947518828 -0.4465636217 -6.155942689
0.8958091366 -0.4444389618 -6.668556668
0.9124029458 -0.3437235291 -6.250078075
0.7480717027 -0.6069982545 -6.203169056
0.8952805097 -0.4455012917 -6.412249678
0.7486003296 -0.6059359246 -6.459476045
0.7568972342 -0.5555782082 -6.250236749
0.9035774143 -0.3951435754 -6.203010382
0.9041060412 -0.3940812454 -6.459317371
0.8958091366 -0.4444389618 -6.668556668
0.8947518828 -0.4465636217 -6.155942689
0.6013915226 -0.7674328873 -6.250395423
0.6035309364 -0.7973395818 -6.411739255
0.8952805097 -0.4455012917 -6.412249678
0.7480717027 -0.6069982545 -6.203169056
0.7486003296 -0.6059359246 -6.459476045
0.7496700365 -0.6208892718 -6.540147961
0.7491414096 -0.6219516018 -6.283840972
0.6024612295 -0.7823862346 -6.331067339
0.8958091366 -0.4444389618 -6.668556668
0.8788461538 -0.4222018923 -6.75
0.6013915226 -0.7674328873 -6.250395423
0.9124029458 -0.3437235291 -6.250078075
0.8873276452 -0.4333204271 -6.709278334
0.7401188382 -0.5948173898 -6.500197711
0.7486003296 -0.6059359246 -6.459476045
0.9041060412 -0.3940812454 -6.459317371
0.8956245498 -0.3829627107 -6.500039037
0.7568972342 -0.5555782082 -6.250236749
0.6013915226 -0.7674328873 -6.250395423
0.8788461538 -0.4222018923 -6.75
0.8958091366 -0.4444389618 -6.668556668
0.6035309364 -0.7973395818 -6.411739255
0.7401188382 -0.5948173898 -6.500197711
0.8873276452 -0.4333204271 -6.709278334
0.7486003296 -0.6059359246 -6.459476045
0.6024612295 -0.7823862346 -6.331067339
0.7411885451 -0.6097707371 -6.580869628
0.7496700365 -0.6208892718 -6.540147961
0.1910762906 -0.9815751888 -6.154993988
-0.224404065 -0.9488244388 -5.74982407
0.1924510778 -0.9813065692 -5.642480119
0.2042775337 -0.9533602096 -6.00018891
-0.01666388722 -0.9651998138 -5.952409029
-0.01597649363 -0.965065504 -5.696152095
0.1917636842 -0.981440879 -5.898737054
0.1976769122 -0.9674676992 -6.077591449
-0.01006326565 -0.9510923242 -5.87500649
0.1983643058 -0.9673333894 -5.821334514
-0.224404065 -0.9488244388 -5.74982407
0.1910762906 -0.9815751888 -6.154993988
0.1924510778 -0.9813065692 -5.642480119
-0.2444399619 -0.9696644291 -5.897654123
-0.01666388722 -0.9651998138 -5.952409029
0.1917636842 -0.981440879 -5.898737054
-0.01597649363 -0.965065504 -5.696152095
-0.2344220135 -0.9592444339 -5.823739096
-0.02668183565 -0.9756198089 -6.026324055
-0.02599444205 -0.9754854991 -5.770067121
-0.224404065 -0.9488244388 -5.74982407
0.1910762906 -0.9815751888 -6.154993988
-0.2245376597 -0.9487928327 -6.249831361
0.2042775337 -0.9533602096 -6.00018891
-0.01666388722 -0.9651998138 -5.952409029
-0.01673068456 -0.9651840107 -6.202412675
-0.2244708624 -0.9488086357 -5.999827716
-0.01006326565 -0.9510923242 -5.87500649
0.1976769122 -0.9674676992 -6.077591449
-0.01013006299 -0.9510765211 -6.125010135
0.1910762906 -0.9815751888 -6.154993988
-0.224404065 -0.9488244388 -5.74982407
-0.2245376597 -0.9487928327 -6.249831361
-0.2444399619 -0.9696644291 -5.897654123
-0.01666388722 -0.9651998138 -5.952409029
-0.2244708624 -0.9488086357 -5.999827716
-0.01673068456 -0.9651840107 -6.202412675
-0.02668183565 -0.9756198089 -6.026324055
-0.2344220135 -0.9592444339 -5.823739096
-0.2344888108 -0.9592286309 -6.073742742
0.6051906583 -0.7960805658 -5.386716295
0.2045097222 -0.9533104287 -5.000175629
0.2044019868 -0.9533335344 -5.500222917
0.1938235058 -0.9810364155 -5.129975304
0.4048501902 -0.8746954972 -5.193445962
0.2044558545 -0.9533219816 -5.250199273
0.4047963225 -0.8747070501 -5.443469606
0.399507082 -0.8885584906 -5.2583458
0.199166614 -0.9671734221 -5.065075467
0.1991127463 -0.967184975 -5.31509911
0.2045097222 -0.9533104287 -5.000175629
0.6051906583 -0.7960805658 -5.386716295
0.2044019868 -0.9533335344 -5.500222917
0.6015875971 -0.767279195 -5.250380109
0.4048501902 -0.8746954972 -5.193445962
0.4047963225 -0.8747070501 -5.443469606
0.2044558545 -0.9533219816 -5.250199273
0.4030486597 -0.8602948118 -5.125277869
0.6033891277 -0.7816798804 -5.318548202
0.4029947919 -0.8603063647 -5.375301513
0.2045097222 -0.9533104287 -5.000175629
0.6051906583 -0.7960805658 -5.386716295
0.6026149671 -0.7980320805 -4.874173489
0.1938235058 -0.9810364155 -5.129975304
0.4048501902 -0.8746954972 -5.193445962
0.6039028127 -0.7970563231 -5.130444892
0.4035623447 -0.8756712546 -4.937174559
0.199166614 -0.9671734221 -5.065075467
0.399507082 -0.8885584906 -5.2583458
0.3982192365 -0.889534248 -5.002074397
0.6051906583 -0.7960805658 -5.386716295
0.2045097222 -0.9533104287 -5.000175629
0.6026149671 -0.7980320805 -4.874173489
0.6015875971 -0.767279195 -5.250380109
0.4048501902 -0.8746954972 -5.193445962
0.4035623447 -0.8756712546 -4.937174559
0.6039028127 -0.7970563231 -5.130444892
0.6033891277 -0.7816798804 -5.318548202
0.4030486597 -0.8602948118 -5.125277869
0.6021012821 -0.7826556377 -5.062276799
0.1897153212 -0.98183914 -6.66752578
0.1910762906 -0.9815751888 -6.154993988
-0.2245376597 -0.9487928327 -6.249831361
-0.245575461 -0.969377477 -6.410175049
0.1903958059 -0.9817071644 -6.411259884
-0.01673068456 -0.9651840107 -6.202412675
-0.01741116926 -0.9653159864 -6.458678571
-0.02793006988 -0.9756083085 -6.538850414
-0.02724958518 -0.9754763329 -6.282584518
-0.2350565603 -0.9590851549 -6.330003205
-0.2245376597 -0.9487928327 -6.249831361
0.1910762906 -0.9815751888 -6.154993988
0.1897153212 -0.98183914 -6.66752578
0.2041708111 -0.9533830709 -6.500252217
-0.01673068456 -0.9651840107 -6.202412675
0.1903958059 -0.9817071644 -6.411259884
-0.01741116926 -0.9653159864 -6.458678571
-0.01018342433 -0.9510879518 -6.375041789
0.1976235508 -0.9674791298 -6.327623102
0.1969430661 -0.9676111055 -6.583888998
-0.2245376597 -0.9487928327 -6.249831361
-0.2246726605 -0.9487608738 -6.749868302
0.1897153212 -0.98183914 -6.66752578
-0.245575461 -0.969377477 -6.410175049
-0.2246051601 -0.9487768532 -6.499849832
-0.01747866963 -0.9653000069 -6.708697041
-0.01741116926 -0.9653159864 -6.458678571
-0.2350565603 -0.9590851549 -6.330003205
-0.2351240607 -0.9590691754 -6.580021675
-0.02793006988 -0.9756083085 -6.538850414
0.1897153212 -0.98183914 -6.66752578
-0.2246726605 -0.9487608738 -6.749868302
-0.2245376597 -0.9487928327 -6.249831361
0.2041708111 -0.9533830709 -6.500252217
-0.01747866963 -0.9653000069 -6.708697041
-0.2246051601 -0.9487768532 -6.499849832
-0.01741116926 -0.9653159864 -6.458678571
0.1969430661 -0.9676111055 -6.583888998
-0.0102509247 -0.9510719724 -6.625060259
-0.01018342433 -0.9510879518 -6.375041789
-0.6590115862 -0.7185601779 -9.547117703
-0.6220018342 -0.750825358 -9.005396732
-0.9098954474 -0.4148376488 -9.231828986
-0.6409377793 -0.7675928368 -9.112298836
-0.6405067102 -0.7346927679 -9.276257217
-0.7659486408 -0.5828315034 -9.118612859
-0.7844535168 -0.5666989133 -9.389473344
-0.6499746827 -0.7430765073 -9.329708269
-0.6314698067 -0.7592090974 -9.058847784
-0.7754166133 -0.5912152428 -9.172063911
-0.9098954474 -0.4148376488 -9.231828986
-0.6220018342 -0.750825358 -9.005396732
-0.6590115862 -0.7185601779 -9.547117703
-0.8841482528 -0.4109828063 -9.229013854
-0.7659486408 -0.5828315034 -9.118612859
-0.6405067102 -0.7346927679 -9.276257217
-0.7844535168 -0.5666989133 -9.389473344
-0.8970218501 -0.4129102275 -9.23042142
-0.7530750435 -0.5809040821 -9.117205293
-0.7715799195 -0.5647714921 -9.388065778
-0.9098954474 -0.4148376488 -9.231828986
-0.7159649929 -0.6981361822 -9.577780302
-0.6590115862 -0.7185601779 -9.547117703
-0.6409377793 -0.7675928368 -9.112298836
-0.8129302201 -0.5564869155 -9.404804644
-0.6874882896 -0.70834818 -9.562449002
-0.7844535168 -0.5666989133 -9.389473344
-0.7754166133 -0.5912152428 -9.172063911
-0.6784513861 -0.7328645095 -9.345039569
-0.6499746827 -0.7430765073 -9.329708269
0.1883526134 -0.9821014678 -7.180102927
0.1897153212 -0.98183914 -6.66752578
-0.2246726605 -0.9487608738 -6.749868302
-0.2469518725 -0.9690277461 -6.922722903
0.1890339673 -0.9819703039 -6.923814353
-0.01747866963 -0.9653000069 -6.708697041
-0.01816002352 -0.9654311708 -6.964985614
-0.02929962955 -0.9755646069 -7.051412915
-0.02861827566 -0.9754334431 -6.795124341
-0.2358122665 -0.9588943099 -6.836295602
-0.2246726605 -0.9487608738 -6.749868302
0.1897153212 -0.98183914 -6.66752578
0.1883526134 -0.9821014678 -7.180102927
0.2040612436 -0.9534065286 -7.000254943
-0.01747866963 -0.9653000069 -6.708697041
0.1890339673 -0.9819703039 -6.923814353
-0.01816002352 -0.9654311708 -6.964985614
-0.01030570842 -0.9510837012 -6.875061622
0.1968882824 -0.9676228343 -6.833890361
0.1962069285 -0.9677539982 -7.090178935
-0.2246726605 -0.9487608738 -6.749868302
-0.2248170417 -0.9487266718 -7.249929493
0.1883526134 -0.9821014678 -7.180102927
-0.2469518725 -0.9690277461 -6.922722903
-0.2247448511 -0.9487437728 -6.999898897
-0.01823221412 -0.9654140698 -7.21501621
-0.01816002352 -0.9654311708 -6.964985614
-0.2358122665 -0.9588943099 -6.836295602
-0.2358844571 -0.9588772089 -7.086326198
-0.02929962955 -0.9755646069 -7.051412915
0.1883526134 -0.9821014678 -7.180102927
-0.2248170417 -0.9487266718 -7.249929493
-0.2246726605 -0.9487608738 -6.749868302
0.2040612436 -0.9534065286 -7.000254943
-0.01823221412 -0.9654140698 -7.21501621
-0.2247448511 -0.9487437728 -6.999898897
-0.01816002352 -0.9654311708 -6.964985614
0.1962069285 -0.9677539982 -7.090178935
-0.01037789901 -0.9510666002 -7.125092218
-0.01030570842 -0.9510837012 -6.875061622
0.5301781132 -0.8182518978 -5.750238232
0.1910762906 -0.9815751888 -6.154993988
0.6013915226 -0.7674328873 -6.250395423
0.600667901 -0.7994986384 -5.899180563
0.3606272019 -0.8999135433 -5.95261611
0.3962339066 -0.874504038 -6.202694705
0.5657848179 -0.7928423926 -6.000316827
0.5654230071 -0.8088752681 -5.824709398
0.3958720958 -0.8905369136 -6.027087276
0.6010297118 -0.7834657628 -6.074787993
0.1910762906 -0.9815751888 -6.154993988
0.5301781132 -0.8182518978 -5.750238232
0.6013915226 -0.7674328873 -6.250395423
0.2042775337 -0.9533602096 -6.00018891
0.3606272019 -0.8999135433 -5.95261611
0.5657848179 -0.7928423926 -6.000316827
0.3962339066 -0.874504038 -6.202694705
0.1976769122 -0.9674676992 -6.077591449
0.3672278235 -0.8858060537 -5.875213571
0.4028345282 -0.8603965485 -6.125292166
0.1910762906 -0.9815751888 -6.154993988
0.5301781132 -0.8182518978 -5.750238232
0.1924510778 -0.9813065692 -5.642480119
0.600667901 -0.7994986384 -5.899180563
0.3606272019 -0.8999135433 -5.95261611
0.3613145955 -0.8997792335 -5.696359176
0.1917636842 -0.981440879 -5.898737054
0.3958720958 -0.8905369136 -6.027087276
0.5654230071 -0.8088752681 -5.824709398
0.3965594894 -0.8904026038 -5.770830341
0.5301781132 -0.8182518978 -5.750238232
0.1910762906 -0.9815751888 -6.154993988
0.1924510778 -0.9813065692 -5.642480119
0.2042775337 -0.9533602096 -6.00018891
0.3606272019 -0.8999135433 -5.95261611
0.1917636842 -0.981440879 -5.898737054
0.3613145955 -0.8997792335 -5.696359176
0.3672278235 -0.8858060537 -5.875213571
0.1976769122 -0.9674676992 -6.077591449
0.1983643058 -0.9673333894 -5.821334514
0.1870504412 -0.9823503104 -7.692769582
-0.2248170417 -0.9487266718 -7.249929493
-0.2249789789 -0.9486882834 -7.750089591
-0.2480911705 -0.9687366882 -7.435332827
-0.01888330021 -0.9655384911 -7.471349537
-0.2248980103 -0.9487074776 -7.500009542
-0.01896426883 -0.9655192969 -7.721429587
-0.03052036465 -0.9755434993 -7.564051205
-0.2364541061 -0.95873168 -7.34263116
-0.2365350747 -0.9587124858 -7.592711209
-0.2248170417 -0.9487266718 -7.249929493
0.1870504412 -0.9823503104 -7.692769582
-0.2249789789 -0.9486882834 -7.750089591
0.2039596164 -0.9534282746 -7.500399379
-0.01888330021 -0.9655384911 -7.471349537
-0.01896426883 -0.9655192969 -7.721429587
-0.2248980103 -0.9487074776 -7.500009542
-0.01042871263 -0.9510774732 -7.375164436
0.1955050288 -0.9678892925 -7.59658448
-0.01050968125 -0.951058279 -7.625244485
-0.2248170417 -0.9487266718 -7.249929493
0.1870504412 -0.9823503104 -7.692769582
0.1883526134 -0.9821014678 -7.180102927
-0.2480911705 -0.9687366882 -7.435332827
-0.01888330021 -0.9655384911 -7.471349537
0.1877015273 -0.9822258891 -7.436436254
-0.01823221412 -0.9654140698 -7.21501621
-0.2364541061 -0.95873168 -7.34263116
-0.03052036465 -0.9755434993 -7.564051205
-0.02986927856 -0.975419078 -7.307717877
0.1870504412 -0.9823503104 -7.692769582
-0.2248170417 -0.9487266718 -7.249929493
0.1883526134 -0.9821014678 -7.180102927
0.2039596164 -0.9534282746 -7.500399379
-0.01888330021 -0.9655384911 -7.471349537
-0.01823221412 -0.9654140698 -7.21501621
0.1877015273 -0.9822258891 -7.436436254
0.1955050288 -0.9678892925 -7.59658448
-0.01042871263 -0.9510774732 -7.375164436
0.1961561149 -0.9677648712 -7.340251153
0.8788461538 -0.4222018923 -8.75
1 0 -8.975
0.8954107874 -0.385829654 -9.25
0.975 0 -9
0.9394230769 -0.2111009462 -8.8625
0.9477053937 -0.192914827 -9.1125
0.8871284706 -0.4040157731 -9
0.9269230769 -0.2111009462 -8.875
0.9875 0 -8.9875
0.9352053937 -0.192914827 -9.125
0.8954107874 -0.385829654 -9.25
1 0 -8.975
0.8788461538 -0.4222018923 -8.75
0.90446063 -0.4265571108 -9.228907255
0.9477053937 -0.192914827 -9.1125
0.9394230769 -0.2111009462 -8.8625
0.8871284706 -0.4040157731 -9
0.8999357087 -0.4061933824 -9.239453628
0.952230315 -0.2132785554 -9.101953628
0.8916533919 -0.4243795015 -8.989453628
0.60105993 -0.7992039543 -7.436829627
0.5987520175 -0.8009344677 -6.924235845
0.2040612436 -0.9534065286 -7.000254943
0.1883526134 -0.9821014678 -7.180102927
0.5999059738 -0.800069211 -7.180532736
0.4014066306 -0.8771704982 -6.962245394
0.4025605868 -0.8763052415 -7.218542285
0.3947062717 -0.890652711 -7.308466277
0.3935523155 -0.8915179677 -7.052169386
0.1962069285 -0.9677539982 -7.090178935
0.2040612436 -0.9534065286 -7.000254943
0.5987520175 -0.8009344677 -6.924235845
0.60105993 -0.7992039543 -7.436829627
0.6012687555 -0.7675290768 -7.250472144
0.4014066306 -0.8771704982 -6.962245394
0.5999059738 -0.800069211 -7.180532736
0.4025605868 -0.8763052415 -7.218542285
0.4026649996 -0.8604678027 -7.125363543
0.6000103865 -0.7842317722 -7.087353994
0.6011643427 -0.7833665155 -7.343650885
0.2040612436 -0.9534065286 -7.000254943
0.2039596164 -0.9534282746 -7.500399379
0.60105993 -0.7992039543 -7.436829627
0.1883526134 -0.9821014678 -7.180102927
0.20401043 -0.9534174016 -7.250327161
0.4025097732 -0.8763161145 -7.468614503
0.4025605868 -0.8763052415 -7.218542285
0.1962069285 -0.9677539982 -7.090178935
0.1961561149 -0.9677648712 -7.340251153
0.3947062717 -0.890652711 -7.308466277
0.60105993 -0.7992039543 -7.436829627
0.2039596164 -0.9534282746 -7.500399379
0.2040612436 -0.9534065286 -7.000254943
0.6012687555 -0.7675290768 -7.250472144
0.4025097732 -0.8763161145 -7.468614503
0.20401043 -0.9534174016 -7.250327161
0.4025605868 -0.8763052415 -7.218542285
0.6011643427 -0.7833665155 -7.343650885
0.4026141859 -0.8604786757 -7.375435761
0.4026649996 -0.8604678027 -7.125363543
0.1857679082 -0.9825936517 -8.205617845
-0.2249789789 -0.9486882834 -7.750089591
-0.2239433883 -0.9489332742 -8.250686056
-0.2495413309 -0.9683641485 -7.948080837
-0.01960553535 -0.9656409675 -7.977853718
-0.2244611836 -0.9488107788 -8.000387823
-0.01908774006 -0.9657634629 -8.228151951
-0.03188671136 -0.9754789001 -8.076849341
-0.2372601549 -0.958526216 -7.849085214
-0.2367423596 -0.9586487114 -8.099383447
-0.2249789789 -0.9486882834 -7.750089591
0.1857679082 -0.9825936517 -8.205617845
-0.2239433883 -0.9489332742 -8.250686056
0.2039201237 -0.9534367222 -8.000584838
-0.01960553535 -0.9656409675 -7.977853718
-0.01908774006 -0.9657634629 -8.228151951
-0.2244611836 -0.9488107788 -8.000387823
-0.0105294276 -0.9510625028 -7.875337215
0.1948440159 -0.9680151869 -8.103101342
-0.01001163232 -0.9511849982 -8.125635447
-0.2249789789 -0.9486882834 -7.750089591
0.1857679082 -0.9825936517 -8.205617845
0.1870504412 -0.9823503104 -7.692769582
-0.2495413309 -0.9683641485 -7.948080837
-0.01960553535 -0.9656409675 -7.977853718
0.1864091747 -0.9824719811 -7.949193714
-0.01896426883 -0.9655192969 -7.721429587
-0.2372601549 -0.958526216 -7.849085214
-0.03188671136 -0.9754789001 -8.076849341
-0.03124544484 -0.9753572295 -7.82042521
0.1857679082 -0.9825936517 -8.205617845
-0.2249789789 -0.9486882834 -7.750089591
0.1870504412 -0.9823503104 -7.692769582
0.2039201237 -0.9534367222 -8.000584838
-0.01960553535 -0.9656409675 -7.977853718
-0.01896426883 -0.9655192969 -7.721429587
0.1864091747 -0.9824719811 -7.949193714
0.1948440159 -0.9680151869 -8.103101342
-0.0105294276 -0.9510625028 -7.875337215
0.1954852825 -0.9678935163 -7.84667721
0.1832619275 -0.983064121 -8.703857192
-0.2239433883 -0.9489332742 -8.250686056
-0.2243905125 -0.9488276439 -8.751248457
-0.2507069066 -0.9680630387 -8.461145486
-0.02034073043 -0.9659986976 -8.477271624
-0.2241669504 -0.9488804591 -8.500967256
-0.0205642925 -0.9659458825 -8.727552825
-0.03372248955 -0.9755635799 -8.582501339
-0.2373251475 -0.9584981565 -8.355915771
-0.2375487095 -0.9584453413 -8.606196972
-0.2239433883 -0.9489332742 -8.250686056
0.1832619275 -0.983064121 -8.703857192
-0.2243905125 -0.9488276439 -8.751248457
0.204051799 -0.9534085501 -8.501179309
-0.02034073043 -0.9659986976 -8.477271624
-0.0205642925 -0.9659458825 -8.727552825
-0.2241669504 -0.9488804591 -8.500967256
-0.009945794646 -0.9511709121 -8.375932682
0.1936568633 -0.9682363355 -8.602518251
-0.01016935672 -0.951118097 -8.626213883
-0.2239433883 -0.9489332742 -8.250686056
0.1832619275 -0.983064121 -8.703857192
0.1857679082 -0.9825936517 -8.205617845
-0.2507069066 -0.9680630387 -8.461145486
-0.02034073043 -0.9659986976 -8.477271624
0.1845149178 -0.9828288863 -8.454737519
-0.01908774006 -0.9657634629 -8.228151951
-0.2373251475 -0.9584981565 -8.355915771
-0.03372248955 -0.9755635799 -8.582501339
-0.03246949919 -0.9753283452 -8.333381666
0.1832619275 -0.983064121 -8.703857192
-0.2239433883 -0.9489332742 -8.250686056
0.1857679082 -0.9825936517 -8.205617845
0.204051799 -0.9534085501 -8.501179309
-0.02034073043 -0.9659986976 -8.477271624
-0.01908774006 -0.9657634629 -8.228151951
0.1845149178 -0.9828288863 -8.454737519
0.1936568633 -0.9682363355 -8.602518251
-0.009945794646 -0.9511709121 -8.375932682
0.1949098536 -0.9680011009 -8.353398577
-0.6220018342 -0.750825358 -9.005396732
-0.6117427313 -0.75920737 -8.500571326
-0.8953751811 -0.4453125701 -8.714495063
-0.5661309937 -0.8243152904 -8.698395951
-0.6168722828 -0.755016364 -8.752984029
-0.7535589562 -0.6022599701 -8.607533195
-0.7586885076 -0.5980689641 -8.859945897
-0.594066414 -0.7875703242 -8.851896341
-0.5889368625 -0.7917613302 -8.599483638
-0.7307530874 -0.6348139303 -8.706445507
-0.6117427313 -0.75920737 -8.500571326
-0.6220018342 -0.750825358 -9.005396732
-0.8953751811 -0.4453125701 -8.714495063
-0.8788461538 -0.4222018923 -8.75
-0.6168722828 -0.755016364 -8.752984029
-0.7586885076 -0.5980689641 -8.859945897
-0.7535589562 -0.6022599701 -8.607533195
-0.7452944426 -0.5907046312 -8.625285663
-0.750423994 -0.5865136252 -8.877698366
-0.8871106675 -0.4337572312 -8.732247532
-0.975 0 -7
-0.975 0 -6.5
-0.9015039062 -0.4327709637 -6.66875
-0.8788461538 -0.4222018923 -6.75
-0.975 0 -6.75
-0.9382519531 -0.2163854818 -6.584375
-0.9382519531 -0.2163854818 -6.834375
-0.9269230769 -0.2111009462 -6.875
-0.9269230769 -0.2111009462 -6.625
-0.89017503 -0.427486428 -6.709375
-0.9015039062 -0.4327709637 -6.66875
-0.975 0 -6.5
-0.975 0 -7
-1 0 -6.925
-0.9382519531 -0.2163854818 -6.584375
-0.975 0 -6.75
-0.9382519531 -0.2163854818 -6.834375
-0.9507519531 -0.2163854818 -6.796875
-0.9875 0 -6.7125
-0.9875 0 -6.9625
-0.9015039062 -0.4327709637 -6.66875
-0.9388793844 -0.3442462804 -7.180551785
-0.975 0 -7
-0.8788461538 -0.4222018923 -6.75
-0.9201916453 -0.3885086221 -6.924650892
-0.9569396922 -0.1721231402 -7.090275892
-0.9382519531 -0.2163854818 -6.834375
-0.89017503 -0.427486428 -6.709375
-0.9088627691 -0.3832240864 -6.965275892
-0.9269230769 -0.2111009462 -6.875
-0.975 0 -7
-0.9388793844 -0.3442462804 -7.180551785
-0.9015039062 -0.4327709637 -6.66875
-1 0 -6.925
-0.9569396922 -0.1721231402 -7.090275892
-0.9201916453 -0.3885086221 -6.924650892
-0.9382519531 -0.2163854818 -6.834375
-0.9875 0 -6.9625
-0.9694396922 -0.1721231402 -7.052775892
-0.9507519531 -0.2163854818 -6.796875
-0.6220018342 -0.750825358 -9.005396732
-0.6590115862 -0.7185601779 -9.547117703
-0.2560235676 -0.96667054 -9.482073457
-0.6409377793 -0.7675928368 -9.112298836
-0.6405067102 -0.7346927679 -9.276257217
-0.4575175769 -0.8426153589 -9.51459558
-0.4390127009 -0.858747949 -9.243735095
-0.6314698067 -0.7592090974 -9.058847784
-0.6499746827 -0.7430765073 -9.329708269
-0.4484806734 -0.8671316884 -9.297186147
-0.2560235676 -0.96667054 -9.482073457
-0.6590115862 -0.7185601779 -9.547117703
-0.6220018342 -0.750825358 -9.005396732
-0.2312281034 -0.947184546 -9.254083295
-0.4575175769 -0.8426153589 -9.51459558
-0.6405067102 -0.7346927679 -9.276257217
-0.4390127009 -0.858747949 -9.243735095
-0.2436258355 -0.956927543 -9.368078376
-0.4451198448 -0.8328723619 -9.400600499
-0.4266149688 -0.849004952 -9.129740014
-0.2560235676 -0.96667054 -9.482073457
-0.2602631671 -0.9655377175 -8.969219258
-0.6220018342 -0.750825358 -9.005396732
-0.6409377793 -0.7675928368 -9.112298836
-0.2581433673 -0.9661041287 -9.225646358
-0.4411325006 -0.8581815378 -8.987307995
-0.4390127009 -0.858747949 -9.243735095
-0.4484806734 -0.8671316884 -9.297186147
-0.4506004732 -0.8665652771 -9.040759047
-0.6314698067 -0.7592090974 -9.058847784
-0.6220018342 -0.750825358 -9.005396732
-0.2602631671 -0.9655377175 -8.969219258
-0.2560235676 -0.96667054 -9.482073457
-0.2312281034 -0.947184546 -9.254083295
-0.4411325006 -0.8581815378 -8.987307995
-0.2581433673 -0.9661041287 -9.225646358
-0.4390127009 -0.858747949 -9.243735095
-0.4266149688 -0.849004952 -9.129740014
-0.2457456353 -0.9563611317 -9.111651277
-0.2436258355 -0.956927543 -9.368078376
0.5972073913 -0.8020868605 -8.472578865
0.2039201237 -0.9534367222 -8.000584838
0.5970034454 -0.8022386716 -7.949478608
0.6014911435 -0.7673548099 -8.25085596
0.4005637575 -0.8777617913 -8.236581851
0.4004617845 -0.8778376969 -7.975031723
0.5971054184 -0.802162766 -8.211028736
0.5993492674 -0.7847208352 -8.361717412
0.4027056336 -0.860395766 -8.125720399
0.5992472944 -0.7847967407 -8.100167284
0.2039201237 -0.9534367222 -8.000584838
0.5972073913 -0.8020868605 -8.472578865
0.5970034454 -0.8022386716 -7.949478608
0.1857679082 -0.9825936517 -8.205617845
0.4005637575 -0.8777617913 -8.236581851
0.5971054184 -0.802162766 -8.211028736
0.4004617845 -0.8778376969 -7.975031723
0.1948440159 -0.9680151869 -8.103101342
0.3914876498 -0.8923402561 -8.339098355
0.3913856768 -0.8924161616 -8.077548227
0.2039201237 -0.9534367222 -8.000584838
0.5972073913 -0.8020868605 -8.472578865
0.204051799 -0.9534085501 -8.501179309
0.6014911435 -0.7673548099 -8.25085596
0.4005637575 -0.8777617913 -8.236581851
0.4006295952 -0.8777477053 -8.486879087
0.2039859614 -0.9534226361 -8.250882074
0.4027056336 -0.860395766 -8.125720399
0.5993492674 -0.7847208352 -8.361717412
0.4027714713 -0.86038168 -8.376017634
0.5972073913 -0.8020868605 -8.472578865
0.2039201237 -0.9534367222 -8.000584838
0.204051799 -0.9534085501 -8.501179309
0.1857679082 -0.9825936517 -8.205617845
0.4005637575 -0.8777617913 -8.236581851
0.2039859614 -0.9534226361 -8.250882074
0.4006295952 -0.8777477053 -8.486879087
0.3914876498 -0.8923402561 -8.339098355
0.1948440159 -0.9680151869 -8.103101342
0.1949098536 -0.9680011009 -8.353398577
-0.975 0 -9.5
-0.9374827987 -0.3480316108 -9.647975972
-0.9098954474 -0.4148376488 -9.231828986
-1 0 -9.4875
-0.9562413994 -0.1740158054 -9.573987986
-0.923689123 -0.3814346298 -9.439902479
-0.9424477237 -0.2074188244 -9.365914493
-0.9875 0 -9.49375
-0.9687413994 -0.1740158054 -9.567737986
-0.9549477237 -0.2074188244 -9.359664493
-0.9374827987 -0.3480316108 -9.647975972
-0.975 0 -9.5
-0.9098954474 -0.4148376488 -9.231828986
-0.9047163309 -0.3634740165 -9.628848687
-0.9562413994 -0.1740158054 -9.573987986
-0.9424477237 -0.2074188244 -9.365914493
-0.923689123 -0.3814346298 -9.439902479
-0.9210995648 -0.3557528136 -9.638412329
-0.9398581654 -0.1817370082 -9.564424343
-0.9073058891 -0.3891558327 -9.430338836
-0.9015039063 -0.4327709637 -5.64375
-0.975 0 -6
-0.975 0 -5.5
-0.8788461538 -0.4222018923 -5.75
-0.9382519531 -0.2163854818 -5.821875
-0.975 0 -5.75
-0.9382519531 -0.2163854818 -5.571875
-0.89017503 -0.427486428 -5.696875
-0.9269230769 -0.2111009462 -5.875
-0.9269230769 -0.2111009462 -5.625
-0.975 0 -6
-0.9015039063 -0.4327709637 -5.64375
-0.975 0 -5.5
-1 0 -5.9
-0.9382519531 -0.2163854818 -5.821875
-0.9382519531 -0.2163854818 -5.571875
-0.975 0 -5.75
-0.9875 0 -5.95
-0.9507519531 -0.2163854818 -5.771875
-0.9875 0 -5.7
-0.975 0 -6
-0.9015039063 -0.4327709637 -5.64375
-0.9386697607 -0.3448174593 -6.155536014
-0.8788461538 -0.4222018923 -5.75
-0.9382519531 -0.2163854818 -5.821875
-0.9200868335 -0.3887942115 -5.899643007
-0.9568348804 -0.1724087297 -6.077768007
-0.9269230769 -0.2111009462 -5.875
-0.89017503 -0.427486428 -5.696875
-0.9087579573 -0.3835096758 -5.952768007
-0.9015039063 -0.4327709637 -5.64375
-0.975 0 -6
-0.9386697607 -0.3448174593 -6.155536014
-1 0 -5.9
-0.9382519531 -0.2163854818 -5.821875
-0.9568348804 -0.1724087297 -6.077768007
-0.9200868335 -0.3887942115 -5.899643007
-0.9507519531 -0.2163854818 -5.771875
-0.9875 0 -5.95
-0.9693348804 -0.1724087297 -6.027768007
-0.2560235676 -0.96667054 -9.482073457
-0.7159649929 -0.6981361822 -9.577780302
-0.4875 -0.8443747687 -10
-0.5 -0.8660254038 -10
-0.4859942803 -0.8324033611 -9.52992688
-0.6017324965 -0.7712554754 -9.788890151
-0.3717617838 -0.9055226543 -9.741036729
-0.3780117838 -0.9163479719 -9.741036729
-0.6079824965 -0.782080793 -9.788890151
-0.49375 -0.8552000862 -10
-0.4875 -0.8443747687 -10
-0.7159649929 -0.6981361822 -9.577780302
-0.2560235676 -0.96667054 -9.482073457
-0.6590115862 -0.7185601779 -9.547117703
-0.6017324965 -0.7712554754 -9.788890151
-0.4859942803 -0.8324033611 -9.52992688
-0.3717617838 -0.9055226543 -9.741036729
-0.5732557931 -0.7814674733 -9.773558851
-0.6874882896 -0.70834818 -9.562449002
-0.4575175769 -0.8426153589 -9.51459558
-0.4875 -0.8443747687 -10
-0.252348569 -0.9417776806 -9.671174637
-0.2560235676 -0.96667054 -9.482073457
-0.5 -0.8660254038 -10
-0.3699242845 -0.8930762247 -9.835587319
-0.2541860683 -0.9542241103 -9.576624047
-0.3717617838 -0.9055226543 -9.741036729
-0.49375 -0.8552000862 -10
-0.3761742845 -0.9039015422 -9.835587319
-0.3780117838 -0.9163479719 -9.741036729
-0.2560235676 -0.96667054 -9.482073457
-0.252348569 -0.9417776806 -9.671174637
-0.4875 -0.8443747687 -10
-0.6590115862 -0.7185601779 -9.547117703
-0.2541860683 -0.9542241103 -9.576624047
-0.3699242845 -0.8930762247 -9.835587319
-0.3717617838 -0.9055226543 -9.741036729
-0.4575175769 -0.8426153589 -9.51459558
-0.4556800776 -0.8301689292 -9.60914617
-0.5732557931 -0.7814674733 -9.773558851
-0.6590115862 -0.7185601779 -9.547117703
-0.9047163309 -0.3634740165 -9.628848687
-0.9098954474 -0.4148376488 -9.231828986
-0.8841482528 -0.4109828063 -9.229013854
-0.7818639585 -0.5410170972 -9.587983195
-0.9073058891 -0.3891558327 -9.430338836
-0.7844535168 -0.5666989133 -9.389473344
-0.7715799195 -0.5647714921 -9.388065778
-0.8944322918 -0.3872284114 -9.42893127
-0.8970218501 -0.4129102275 -9.23042142
-0.9098954474 -0.4148376488 -9.231828986
-0.9047163309 -0.3634740165 -9.628848687
-0.6590115862 -0.7185601779 -9.547117703
-0.7159649929 -0.6981361822 -9.577780302
-0.9073058891 -0.3891558327 -9.430338836
-0.7818639585 -0.5410170972 -9.587983195
-0.7844535168 -0.5666989133 -9.389473344
-0.8129302201 -0.5564869155 -9.404804644
-0.8103406619 -0.5308050994 -9.603314494
-0.6874882896 -0.70834818 -9.562449002
0.8912999002 -0.4534142564 -7.180800132
0.8788461538 -0.4222018923 -6.75
0.6012687555 -0.7675290768 -7.250472144
0.5987520175 -0.8009344677 -6.924235845
0.885073027 -0.4378080744 -6.965400066
0.7400574547 -0.5948654845 -7.000236072
0.7462843278 -0.6104716666 -7.215636138
0.7450259588 -0.6271743621 -7.052517988
0.7387990857 -0.61156818 -6.837117922
0.6000103865 -0.7842317722 -7.087353994
0.6012687555 -0.7675290768 -7.250472144
0.8788461538 -0.4222018923 -6.75
0.8912999002 -0.4534142564 -7.180800132
0.9123919805 -0.3437526347 -7.250093223
0.7400574547 -0.5948654845 -7.000236072
0.885073027 -0.4378080744 -6.965400066
0.7462843278 -0.6104716666 -7.215636138
0.756830368 -0.5556408557 -7.250282683
0.8956190672 -0.3829772635 -7.000046612
0.9018459404 -0.3985834456 -7.215446677
-0.9387897634 -0.3444906097 -8.204846283
-0.8788461538 -0.4222018923 -7.75
-0.6604389876 -0.7508797132 -8.203486353
-0.879020723 -0.4218383204 -8.249842909
-0.9088179586 -0.383346251 -7.977423142
-0.7696425707 -0.5865408027 -7.976743176
-0.7996143755 -0.5476851615 -8.204166318
-0.9089052432 -0.383164465 -8.227344596
-0.8789334384 -0.4220201063 -7.999921454
-0.7697298553 -0.5863590168 -8.226664631
-0.6604389876 -0.7508797132 -8.203486353
-0.8788461538 -0.4222018923 -7.75
-0.9387897634 -0.3444906097 -8.204846283
-0.9015039063 -0.4327709637 -7.69375
-0.7696425707 -0.5865408027 -7.976743176
-0.9088179586 -0.383346251 -7.977423142
-0.7996143755 -0.5476851615 -8.204166318
-0.7809714469 -0.5918253384 -7.948618176
-0.89017503 -0.427486428 -7.721875
-0.9201468348 -0.3886307867 -7.949298142
0.975 0 -6
0.8947518828 -0.4465636217 -6.155942689
1 0 -6.4125
1 0 -5.9
0.9348759414 -0.2232818108 -6.077971344
0.9473759414 -0.2232818108 -6.284221344
0.9875 0 -6.20625
0.9875 0 -5.95
0.9473759414 -0.2232818108 -6.027971344
1 0 -6.15625
0.8947518828 -0.4465636217 -6.155942689
0.975 0 -6
1 0 -6.4125
0.9124029458 -0.3437235291 -6.250078075
0.9348759414 -0.2232818108 -6.077971344
0.9875 0 -6.20625
0.9473759414 -0.2232818108 -6.284221344
0.9035774143 -0.3951435754 -6.203010382
0.9437014729 -0.1718617645 -6.125039037
0.9562014729 -0.1718617645 -6.331289037
0.8947518828 -0.4465636217 -6.155942689
0.975 0 -6
0.8788461538 -0.4222018923 -5.75
1 0 -5.9
0.9348759414 -0.2232818108 -6.077971344
0.9269230769 -0.2111009462 -5.875
0.8867990183 -0.434382757 -5.952971344
0.9473759414 -0.2232818108 -6.027971344
0.9875 0 -5.95
0.9394230769 -0.2111009462 -5.825
0.975 0 -6
0.8947518828 -0.4465636217 -6.155942689
0.8788461538 -0.4222018923 -5.75
0.9124029458 -0.3437235291 -6.250078075
0.9348759414 -0.2232818108 -6.077971344
0.8867990183 -0.434382757 -5.952971344
0.9269230769 -0.2111009462 -5.875
0.9437014729 -0.1718617645 -6.125039037
0.9035774143 -0.3951435754 -6.203010382
0.8956245498 -0.3829627107 -6.000039037
0.8952706741 -0.445522637 -5.130936216
1 0 -5.3875
0.975 0 -5
1 0 -4.875
0.947635337 -0.2227613185 -5.259218108
0.9875 0 -5.19375
0.935135337 -0.2227613185 -5.065468108
0.947635337 -0.2227613185 -5.002968108
1 0 -5.13125
0.9875 0 -4.9375
0.975 0 -5
1 0 -5.3875
0.8952706741 -0.445522637 -5.130936216
0.9124204594 -0.3436770364 -5.250075051
0.9875 0 -5.19375
0.947635337 -0.2227613185 -5.259218108
0.935135337 -0.2227613185 -5.065468108
0.9437102297 -0.1718385182 -5.125037526
0.9562102297 -0.1718385182 -5.318787526
0.9038455667 -0.3945998367 -5.190505634
0.975 0 -5
0.8788461538 -0.4222018923 -4.75
0.8952706741 -0.445522637 -5.130936216
1 0 -4.875
0.9269230769 -0.2111009462 -4.875
0.887058414 -0.4338622647 -4.940468108
0.935135337 -0.2227613185 -5.065468108
0.9875 0 -4.9375
0.9394230769 -0.2111009462 -4.8125
0.947635337 -0.2227613185 -5.002968108
0.8952706741 -0.445522637 -5.130936216
0.8788461538 -0.4222018923 -4.75
0.975 0 -5
0.9124204594 -0.3436770364 -5.250075051
0.887058414 -0.4338622647 -4.940468108
0.9269230769 -0.2111009462 -4.875
0.935135337 -0.2227613185 -5.065468108
0.9038455667 -0.3945998367 -5.190505634
0.8956333066 -0.3829394644 -5.000037526
0.9437102297 -0.1718385182 -5.125037526
0.8912999002 -0.4534142564 -7.180800132
0.975 0 -7
0.8788461538 -0.4222018923 -6.75
1 0 -6.925
0.9331499501 -0.2267071282 -7.090400066
0.9269230769 -0.2111009462 -6.875
0.885073027 -0.4378080744 -6.965400066
0.9456499501 -0.2267071282 -7.052900066
0.9875 0 -6.9625
0.9394230769 -0.2111009462 -6.8375
0.975 0 -7
0.8912999002 -0.4534142564 -7.180800132
0.8788461538 -0.4222018923 -6.75
0.9123919805 -0.3437526347 -7.250093223
0.9331499501 -0.2267071282 -7.090400066
0.885073027 -0.4378080744 -6.965400066
0.9269230769 -0.2111009462 -6.875
0.9436959903 -0.1718763173 -7.125046612
0.9018459404 -0.3985834456 -7.215446677
0.8956190672 -0.3829772635 -7.000046612
0.975 0 -7
0.8912999002 -0.4534142564 -7.180800132
1 0 -7.4375
1 0 -6.925
0.9331499501 -0.2267071282 -7.090400066
0.9456499501 -0.2267071282 -7.309150066
0.9875 0 -7.21875
0.9875 0 -6.9625
0.9456499501 -0.2267071282 -7.052900066
1 0 -7.18125
0.8912999002 -0.4534142564 -7.180800132
0.975 0 -7
1 0 -7.4375
0.9123919805 -0.3437526347 -7.250093223
0.9331499501 -0.2267071282 -7.090400066
0.9875 0 -7.21875
0.9456499501 -0.2267071282 -7.309150066
0.9018459404 -0.3985834456 -7.215446677
0.9436959903 -0.1718763173 -7.125046612
0.9561959903 -0.1718763173 -7.343796612
0.6014911435 -0.7673548099 -8.25085596
0.8788461538 -0.4222018923 -7.75
0.8912946879 -0.4534245023 -8.205901749
0.9124118411 -0.343699916 -8.250169006
0.7401686487 -0.5947783511 -8.00042798
0.8850704209 -0.4378131973 -7.977950874
0.7463929157 -0.6103896561 -8.228378854
0.7569514923 -0.5555273629 -8.250512483
0.8956289975 -0.3829509041 -8.000084503
0.9018532645 -0.3985622091 -8.228035377
0.8912946879 -0.4534245023 -8.205901749
0.8788461538 -0.4222018923 -7.75
0.6014911435 -0.7673548099 -8.25085596
0.5970034454 -0.8022386716 -7.949478608
0.8850704209 -0.4378131973 -7.977950874
0.7401686487 -0.5947783511 -8.00042798
0.7463929157 -0.6103896561 -8.228378854
0.7441490667 -0.6278315869 -8.077690179
0.7379247996 -0.6122202819 -7.849739304
0.5992472944 -0.7847967407 -8.100167284
0.8788461538 -0.4222018923 -5.75
0.6013915226 -0.7674328873 -6.250395423
0.8947518828 -0.4465636217 -6.155942689
0.600667901 -0.7994986384 -5.899180563
0.7401188382 -0.5948173898 -6.000197711
0.7480717027 -0.6069982545 -6.203169056
0.8867990183 -0.434382757 -5.952971344
0.7397570274 -0.6108502653 -5.824590282
0.6010297118 -0.7834657628 -6.074787993
0.7477098919 -0.62303113 -6.027561626
0.8947518828 -0.4465636217 -6.155942689
0.6013915226 -0.7674328873 -6.250395423
0.8788461538 -0.4222018923 -5.75
0.9124029458 -0.3437235291 -6.250078075
0.7480717027 -0.6069982545 -6.203169056
0.7401188382 -0.5948173898 -6.000197711
0.8867990183 -0.434382757 -5.952971344
0.9035774143 -0.3951435754 -6.203010382
0.7568972342 -0.5555782082 -6.250236749
0.8956245498 -0.3829627107 -6.000039037
CELLS 3292 36212
10 0 1 2 3 4 5 6 7 8 9
10 10 11 12 13 14 15 16 17 18 19
10 20 21 22 23 24 25 26 27 28 29
10 30 31 32 33 34 35 36 37 38 39
10 40 41 42 43 44 45 46 47 48 49
10 50 51 52 53 54 55 56 57 58 59
10 60 61 62 63 64 65 66 67 68 69
10 70 71 72 73 74 75 76 77 78 79
10 80 81 82 83 84 85 86 87 88 89
10 90 91 92 93 94 95 96 97 98 99
10 100 101 102 103 104 105 106 107 108 109
10 110 111 112 113 114 115 116 117 118 119
10 120 121 122 123 124 125 126 127 128 129
10 130 131 132 133 134 135 136 137 138 139
10 140 141 142 143 144 145 146 147 148 149
10 150 151 152 153 154 155 156 157 158 159
10 160 161 162 163 164 165 166 167 168 169
10 170 171 172 173 174 175 176 177 178 179
10 180 181 182 183 184 185 186 187 188 189
10 190 191 192 193 194 195 196 197 198 199
10 200 201 202 203 204 205 206 207 208 209
10 210 211 212 213 214 215 216 217 218 219
10 220 221 222 223 224 225 226 227 228 229
10 230 231 232 233 234 235 236 237 238 239
10 240 241 242 243 244 245 246 247 248 249
10 250 251 252 253 254 255 256 257 258 259
10 260 261 262 263 264 265 266 267 268 269
10 270 271 272 273 274 275 276 277 278 279
10 280 281 282 283 284 285 286 287 288 289
10 290 291 292 293 294 295 296 297 298 299
10 300 301 302 303 304 305 306 307 308 309
10 310 311 312 313 314 315 316 317 318 319
10 320 321 322 323 324 325 326 327 328 329
10 330 331 332 333 334 335 336 337 338 339
10 340 341 342 343 344 345 346 347 348 349
10 350 351 352 353 354 355 356 357 358 359
10 360 361 362 363 364 365 366 367 368 369
10 370 371 372 373 374 375 376 377 378 379
10 380 381 382 383 384 385 386 387 388 389
10 390 391 392 393 394 395 396 397 398 399
10 400 401 402 403 404 405 406 407 408 409
10 410 411 412 413 414 415 416 417 418 419
10 420 421 422 423 424 425 426 427 428 429
10 430 431 432 433 434 435 436 437 438 439
10 440 441 442 443 444 445 446 447 448 449
10 450 451 452 453 454 455 456 457 458 459
10 460 461 462 463 464 465 466 467 468 469
10 470 471 472 473 474 475 476 477 478 479
10 480 481 482 483 484 485 486 487 488 489
10 490 491 492 493 494 495 496 497 498 499
10 500 501 502 503 504 505 506 507 508 509
10 510 511 512 513 514 515 516 517 518 519
10 520 521 522 523 524 525 526 527 528 529
10 530 531 532 533 534 535 536 537 538 539
10 540 541 542 543 544 545 546 547 548 549
10 550 551 552 553 554 555 556 557 558 559
10 560 561 562 563 564 565 566 567 568 569
10 570 571 572 573 574 575 576 577 578 579
10 580 581 582 583 584 585 586 587 588 589
10 590 591 592 593 594 595 596 597 598 599
10 600 601 602 603 604 605 606 607 608 609
10 610 611 612 613 614 615 616 617 618 619
10 620 621 622 623 624 625 626 627 628 629
10 630 631 632 633 634 635 636 637 638 639
10 640 641 642 643 644 645 646 647 648 649
10 650 651 652 653 654 655 656 657 658 659
10 660 661 662 663 664 665 666 667 668 669
10 670 671 672 673 674 675 676 677 678 679
10 680 681 682 683 684 685 686 687 688 689
10 690 691 692 693 694 695 696 697 698 699
10 700 701 702 703 704 705 706 707 708 709
10 710 711 712 713 714 715 716 717 718 719
10 720 721 722 723 724 725 726 727 728 729
10 730 731 732 733 734 735 736 737 738 739
10 740 741 742 743 744 745 746 747 748 749
10 750 751 752 753 754 755 756 757 758 759
10 760 761 762 763 764 765 766 767 768 769
10 770 771 772 773 774 775 776 777 778 779
10 780 781 782 783 784 785 786 787 788 789
10 790 791 792 793 794 795 796 797 798 799
10 800 801 802 803 804 805 806 807 808 809
10 810 811 812 813 814 815 816 817 818 819
10 820 821 822 823 824 825 826 827 828 829
10 830 831 832 833 834 835 836 837 838 839
10 840 841 842 843 844 845 846 847 848 849
10 850 851 852 853 854 855 856 857 858 859
10 860 861 862 863 864 865 866 867 868 869
10 870 871 872 873 874 875 876 877 878 879
10 880 881 882 883 884 885 886 887 888 889
10 890 891 892 893 894 895 896 897 898 899
10 900 901 902 903 904 905 906 907 908 909
10 910 911 912 913 914 915 916 917 918 919
10 920 921 922 923 924 925 926 927 928 929
10 930 931 932 933 934 935 936 937 938 939
10 940 941 942 943 944 945 946 947 948 949
10 950 951 952 953 954 955 956 957 958 959
10 960 961 962 963 964 965 966 967 968 969
10 970 971 972 973 974 975 976 977 978 979
10 980 981 982 983 984 985 986 987 988 989
10 990 991 992 993 994 995 996 997 998 999
10 1000 1001 1002 1003 1004 1005 1006 1007 1008 1009
10 1010 1011 1012 1013 1014 1015 1016 1017 1018 1019
10 1020 1021 1022 1023 1024 1025 1026 1027 1028 1029
10 1030 1031 1032 1033 1034 1035 1036 1037 1038 1039
10 1040 1041 1042 1043 1044 1045 1046 1047 1048 1049
10 1050 1051 1052 1053 1054 1055 1056 1057 1058 1059
10 1060 1061 1062 1063 1064 1065 1066 1067 1068 1069
10 1070 1071 1072 1073 1074 1075 1076 1077 1078 1079
10 1080 1081 1082 1083 1084 1085 1086 1087 1088 1089
10 1090 1091 1092 1093 1094 1095 1096 1097 1098 1099
10 1100 1101 1102 1103 1104 1105 1106 1107 1108 1109
10 1110 1111 1112 1113 1114 1115 1116 1117 1118 1119
10 1120 1121 1122 1123 1124 1125 1126 1127 1128 1129
10 1130 1131 1132 1133 1134 1135 1136 1137 1138 1139
10 1140 1141 1142 1143 1144 1145 1146 1147 1148 1149
10 1150 1151 1152 1153 1154 1155 1156 1157 1158 1159
10 1160 1161 1162 1163 1164 1165 1166 1167 1168 1169
10 1170 1171 1172 1173 1174 1175 1176 1177 1178 1179
10 1180 1181 1182 1183 1184 1185 1186 1187 1188 1189
10 1190 1191 1192 1193 1194 1195 1196 1197 1198 1199
10 1200 1201 1202 1203 1204 1205 1206 1207 1208 1209
10 1210 1211 1212 1213 1214 1215 1216 1217 1218 1219
10 1220 1221 1222 1223 1224 1225 1226 1227 1228 1229
10 1230 1231 1232 1233 1234 1235 1236 1237 1238 1239
10 1240 1241 1242 1243 1244 1245 1246 1247 1248 1249
10 1250 1251 1252 1253 1254 1255 1256 1257 1258 1259
10 1260 1261 1262 1263 1264 1265 1266 1267 1268 1269
10 1270 1271 1272 1273 1274 1275 1276 1277 1278 1279
10 1280 1281 1282 1283 1284 1285 1286 1287 1288 1289
10 1290 1291 1292 1293 1294 1295 1296 1297 1298 1299
10 1300 1301 1302 1303 1304 1305 1306 1307 1308 1309
10 1310 1311 1312 1313 1314 1315 1316 1317 1318 1319
10 1320 1321 1322 1323 1324 1325 1326 1327 1328 1329
10 1330 1331 1332 1333 1334 1335 1336 1337 1338 1339
10 1340 1341 1342 1343 1344 1345 1346 1347 1348 1349
10 1350 1351 1352 1353 1354 1355 1356 1357 1358 1359
10 1360 1361 1362 1363 1364 1365 1366 1367 1368 1369
10 1370 1371 1372 1373 1374 1375 1376 1377 1378 1379
10 1380 1381 1382 1383 1384 1385 1386 1387 1388 1389
10 1390 1391 1392 1393 1394 1395 1396 1397 1398 1399
10 1400 1401 1402 1403 1404 1405 1406 1407 1408 1409
10 1410 1411 1412 1413 1414 1415 1416 1417 1418 1419
10 1420 1421 1422 1423 1424 1425 1426 1427 1428 1429
10 1430 1431 1432 1433 1434 1435 1436 1437 1438 1439
10 1440 1441 1442 1443 1444 1445 1446 1447 1448 1449
10 1450 1451 1452 1453 1454 1455 1456 1457 1458 1459
10 1460 1461 1462 1463 1464 1465 1466 1467 1468 1469
10 1470 1471 1472 1473 1474 1475 1476 1477 1478 1479
10 1480 1481 1482 1483 1484 1485 1486 1487 1488 1489
10 1490 1491 1492 1493 1494 1495 1496 1497 1498 1499
10 1500 1501 1502 1503 1504 1505 1506 1507 1508 1509
10 1510 1511 1512 1513 1514 1515 1516 1517 1518 1519
10 1520 1521 1522 1523 1524 1525 1526 1527 1528 1529
10 1530 1531 1532 1533 1534 1535 1536 1537 1538 1539
10 1540 1541 1542 1543 1544 1545 1546 1547 1548 1549
10 1550 1551 1552 1553 1554 1555 1556 1557 1558 1559
10 1560 1561 1562 1563 1564 1565 1566 1567 1568 1569
10 1570 1571 1572 1573 1574 1575 1576 1577 1578 1579
10 1580 1581 1582 1583 1584 1585 1586 1587 1588 1589
10 1590 1591 1592 1593 1594 1595 1596 1597 1598 1599
10 1600 1601 1602 1603 1604 1605 1606 1607 1608 1609
10 1610 1611 1612 1613 1614 1615 1616 1617 1618 1619
10 1620 1621 1622 1623 1624 1625 1626 1627 1628 1629
10 1630 1631 1632 1633 1634 1635 1636 1637 1638 1639
10 1640 1641 1642 1643 1644 1645 1646 1647 1648 1649
10 1650 1651 1652 1653 1654 1655 1656 1657 1658 1659
10 1660 1661 1662 1663 1664 1665 1666 1667 1668 1669
10 1670 1671 1672 1673 1674 1675 1676 1677 1678 1679
10 1680 1681 1682 1683 1684 1685 1686 1687 1688 1689
10 1690 1691 1692 1693 1694 1695 1696 1697 1698 1699
10 1700 1701 1702 1703 1704 1705 1706 1707 1708 1709
10 1710 1711 1712 1713 1714 1715 1716 1717 1718 1719
10 1720 1721 1722 1723 1724 1725 1726 1727 1728 1729
10 1730 1731 1732 1733 1734 1735 1736 1737 1738 1739
10 1740 1741 1742 1743 1744 1745 1746 1747 1748 1749
10 1750 1751 1752 1753 1754 1755 1756 1757 1758 1759
10 1760 1761 1762 1763 1764 1765 1766 1767 1768 1769
10 1770 1771 1772 1773 1774 1775 1776 1777 1778 1779
10 1780 1781 1782 1783 1784 1785 1786 1787 1788 1789
10 1790 1791 1792 1793 1794 1795 1796 1797 1798 1799
10 1800 1801 1802 1803 1804 1805 1806 1807 1808 1809
10 1810 1811 1812 1813 1814 1815 1816 1817 1818 1819
10 1820 1821 1822 1823 1824 1825 1826 1827 1828 1829
10 1830 1831 1832 1833 1834 1835 1836 1837 1838 1839
10 1840 1841 1842 1843 1844 1845 1846 1847 1848 1849
10 1850 1851 1852 1853 1854 1855 1856 1857 1858 1859
10 1860 1861 1862 1863 1864 1865 1866 1867 1868 1869
10 1870 1871 1872 1873 1874 1875 1876 1877 1878 1879
10 1880 1881 1882 1883 1884 1885 1886 1887 1888 1889
10 1890 1891 1892 1893 1894 1895 1896 1897 1898 1899
10 1900 1901 1902 1903 1904 1905 1906 1907 1908 1909
10 1910 1911 1912 1913 1914 1915 1916 1917 1918 1919
10 1920 1921 1922 1923 1924 1925 1926 1927 1928 1929
10 1930 1931 1932 1933 1934 1935 1936 1937 1938 1939
10 1940 1941 1942 1943 1944 1945 1946 1947 1948 1949
10 1950 1951 1952 1953 1954 1955 1956 1957 1958 1959
10 1960 1961 1962 1963 1964 1965 1966 1967 1968 1969
10 1970 1971 1972 1973 1974 1975 1976 1977 1978 1979
10 1980 1981 1982 1983 1984 1985 1986 1987 1988 1989
10 1990 1991 1992 1993 1994 1995 1996 1997 1998 1999
10 2000 2001 2002 2003 2004 2005 2006 2007 2008 2009
10 2010 2011 2012 2013 2014 2015 2016 2017 2018 2019
10 2020 2021 2022 2023 2024 2025 2026 2027 2028 2029
10 2030 2031 2032 2033 2034 2035 2036 2037 2038 2039
10 2040 2041 2042 2043 2044 2045 2046 2047 2048 2049
10 2050 2051 2052 2053 2054 2055 2056 2057 2058 2059
10 2060 2061 2062 2063 2064 2065 2066 2067 2068 2069
10 2070 2071 2072 2073 2074 2075 2076 2077 2078 2079
10 2080 2081 2082 2083 2084 2085 2086 2087 2088 2089
10 2090 2091 2092 2093 2094 2095 2096 2097 2098 2099
10 2100 2101 2102 2103 2104 2105 2106 2107 2108 2109
10 2110 2111 2112 2113 2114 2115 2116 2117 2118 2119
10 2120 2121 2122 2123 2124 2125 2126 2127 2128 2129
10 2130 2131 2132 2133 2134 2135 2136 2137 2138 2139
10 2140 2141 2142 2143 2144 2145 2146 2147 2148 2149
10 2150 2151 2152 2153 2154 2155 2156 2157 2158 2159
10 2160 2161 2162 2163 2164 2165 2166 2167 2168 2169
10 2170 2171 2172 2173 2174 2175 2176 2177 2178 2179
10 2180 2181 2182 2183 2184 2185 2186 2187 2188 2189
10 2190 2191 2192 2193 2194 2195 2196 2197 2198 2199
10 2200 2201 2202 2203 2204 2205 2206 2207 2208 2209
10 2210 2211 2212 2213 2214 2215 2216 2217 2218 2219
10 2220 2221 2222 2223 2224 2225 2226 2227 2228 2229
10 2230 2231 2232 2233 2234 2235 2236 2237 2238 2239
10 2240 2241 2242 2243 2244 2245 2246 2247 2248 2249
10 2250 2251 2252 2253 2254 2255 2256 2257 2258 2259
10 2260 2261 2262 2263 2264 2265 2266 2267 2268 2269
10 2270 2271 2272 2273 2274 2275 2276 2277 2278 2279
10 2280 2281 2282 2283 2284 2285 2286 2287 2288 2289
10 2290 2291 2292 2293 2294 2295 2296 2297 2298 2299
10 2300 2301 2302 2303 2304 2305 2306 2307 2308 2309
10 2310 2311 2312 2313 2314 2315 2316 2317 2318 2319
10 2320 2321 2322 2323 2324 2325 2326 2327 2328 2329
10 2330 2331 2332 2333 2334 2335 2336 2337 2338 2339
10 2340 2341 2342 2343 2344 2345 2346 2347 2348 2349
10 2350 2351 2352 2353 2354 2355 2356 2357 2358 2359
10 2360 2361 2362 2363 2364 2365 2366 2367 2368 2369
10 2370 2371 2372 2373 2374 2375 2376 2377 2378 2379
10 2380 2381 2382 2383 2384 2385 2386 2387 2388 2389
10 2390 2391 2392 2393 2394 2395 2396 2397 2398 2399
10 2400 2401 2402 2403 2404 2405 2406 2407 2408 2409
10 2410 2411 2412 2413 2414 2415 2416 2417 2418 2419
10 2420 2421 2422 2423 2424 2425 2426 2427 2428 2429
10 2430 2431 2432 2433 2434 2435 2436 2437 2438 2439
10 2440 2441 2442 2443 2444 2445 2446 2447 2448 2449
10 2450 2451 2452 2453 2454 2455 2456 2457 2458 2459
10 2460 2461 2462 2463 2464 2465 2466 2467 2468 2469
10 2470 2471 2472 2473 2474 2475 2476 2477 2478 2479
10 2480 2481 2482 2483 2484 2485 2486 2487 2488 2489
10 2490 2491 2492 2493 2494 2495 2496 2497 2498 2499
10 2500 2501 2502 2503 2504 2505 2506 2507 2508 2509
10 2510 2511 2512 2513 2514 2515 2516 2517 2518 2519
10 2520 2521 2522 2523 2524 2525 2526 2527 2528 2529
10 2530 2531 2532 2533 2534 2535 2536 2537 2538 2539
10 2540 2541 2542 2543 2544 2545 2546 2547 2548 2549
10 2550 2551 2552 2553 2554 2555 2556 2557 2558 2559
10 2560 2561 2562 2563 2564 2565 2566 2567 2568 2569
10 2570 2571 2572 2573 2574 2575 2576 2577 2578 2579
10 2580 2581 2582 2583 2584 2585 2586 2587 2588 2589
10 2590 2591 2592 2593 2594 2595 2596 2597 2598 2599
10 2600 2601 2602 2603 2604 2605 2606 2607 2608 2609
10 2610 2611 2612 2613 2614 2615 2616 2617 2618 2619
10 2620 2621 2622 2623 2624 2625 2626 2627 2628 2629
10 2630 2631 2632 2633 2634 2635 2636 2637 2638 2639
10 2640 2641 2642 2643 2644 2645 2646 2647 2648 2649
10 2650 2651 2652 2653 2654 2655 2656 2657 2658 2659
10 2660 2661 2662 2663 2664 2665 2666 2667 2668 2669
10 2670 2671 2672 2673 2674 2675 2676 2677 2678 2679
10 2680 2681 2682 2683 2684 2685 2686 2687 2688 2689
10 2690 2691 2692 2693 2694 2695 2696 2697 2698 2699
10 2700 2701 2702 2703 2704 2705 2706 2707 2708 2709
10 2710 2711 2712 2713 2714 2715 2716 2717 2718 2719
10 2720 2721 2722 2723 2724 2725 2726 2727 2728 2729
10 2730 2731 2732 2733 2734 2735 2736 2737 2738 2739
10 2740 2741 2742 2743 2744 2745 2746 2747 2748 2749
10 2750 2751 2752 2753 2754 2755 2756 2757 2758 2759
10 2760 2761 2762 2763 2764 2765 2766 2767 2768 2769
10 2770 2771 2772 2773 2774 2775 2776 2777 2778 2779
10 2780 2781 2782 2783 2784 2785 2786 2787 2788 2789
10 2790 2791 2792 2793 2794 2795 2796 2797 2798 2799
10 2800 2801 2802 2803 2804 2805 2806 2807 2808 2809
10 2810 2811 2812 2813 2814 2815 2816 2817 2818 2819
10 2820 2821 2822 2823 2824 2825 2826 2827 2828 2829
10 2830 2831 2832 2833 2834 2835 2836 2837 2838 2839
10 2840 2841 2842 2843 2844 2845 2846 2847 2848 2849
10 2850 2851 2852 2853 2854 2855 2856 2857 2858 2859
10 2860 2861 2862 2863 2864 2865 2866 2867 2868 2869
10 2870 2871 2872 2873 2874 2875 2876 2877 2878 2879
10 2880 2881 2882 2883 2884 2885 2886 2887 2888 2889
10 2890 2891 2892 2893 2894 2895 2896 2897 2898 2899
10 2900 2901 2902 2903 2904 2905 2906 2907 2908 2909
10 2910 2911 2912 2913 2914 2915 2916 2917 2918 2919
10 2920 2921 2922 2923 2924 2925 2926 2927 2928 2929
10 2930 2931 2932 2933 2934 2935 2936 2937 2938 2939
10 2940 2941 2942 2943 2944 2945 2946 2947 2948 2949
10 2950 2951 2952 2953 2954 2955 2956 2957 2958 2959
10 2960 2961 2962 2963 2964 2965 2966 2967 2968 2969
10 2970 2971 2972 2973 2974 2975 2976 2977 2978 2979
10 2980 2981 2982 2983 2984 2985 2986 2987 2988 2989
10 2990 2991 2992 2993 2994 2995 2996 2997 2998 2999
10 3000 3001 3002 3003 3004 3005 3006 3007 3008 3009
10 3010 3011 3012 3013 3014 3015 3016 3017 3018 3019
10 3020 3021 3022 3023 3024 3025 3026 3027 3028 3029
10 3030 3031 3032 3033 3034 3035 3036 3037 3038 3039
10 3040 3041 3042 3043 3044 3045 3046 3047 3048 3049
10 3050 3051 3052 3053 3054 3055 3056 3057 3058 3059
10 3060 3061 3062 3063 3064 3065 3066 3067 3068 3069
10 3070 3071 3072 3073 3074 3075 3076 3077 3078 3079
10 3080 3081 3082 3083 3084 3085 3086 3087 3088 3089
10 3090 3091 3092 3093 3094 3095 3096 3097 3098 3099
10 3100 3101 3102 3103 3104 3105 3106 3107 3108 3109
10 3110 3111 3112 3113 3114 3115 3116 3117 3118 3119
10 3120 3121 3122 3123 3124 3125 3126 3127 3128 3129
10 3130 3131 3132 3133 3134 3135 3136 3137 3138 3139
10 3140 3141 3142 3143 3144 3145 3146 3147 3148 3149
10 3150 3151 3152 3153 3154 3155 3156 3157 3158 3159
10 3160 3161 3162 3163 3164 3165 3166 3167 3168 3169
10 3170 3171 3172 3173 3174 3175 3176 3177 3178 3179
10 3180 3181 3182 3183 3184 3185 3186 3187 3188 3189
10 3190 3191 3192 3193 3194 3195 3196 3197 3198 3199
10 3200 3201 3202 3203 3204 3205 3206 3207 3208 3209
10 3210 3211 3212 3213 3214 3215 3216 3217 3218 3219
10 3220 3221 3222 3223 3224 3225 3226 3227 3228 3229
10 3230 3231 3232 3233 3234 3235 3236 3237 3238 3239
10 3240 3241 3242 3243 3244 3245 3246 3247 3248 3249
10 3250 3251 3252 3253 3254 3255 3256 3257 3258 3259
10 3260 3261 3262 3263 3264 3265 3266 3267 3268 3269
10 3270 3271 3272 3273 3274 3275 3276 3277 3278 3279
10 3280 3281 3282 3283 3284 3285 3286 3287 3288 3289
10 3290 3291 3292 3293 3294 3295 3296 3297 3298 3299
10 3300 3301 3302 3303 3304 3305 3306 3307 3308 3309
10 3310 3311 3312 3313 3314 3315 3316 3317 3318 3319
10 3320 3321 3322 3323 3324 3325 3326 3327 3328 3329
10 3330 3331 3332 3333 3334 3335 3336 3337 3338 3339
10 3340 3341 3342 3343 3344 3345 3346 3347 3348 3349
10 3350 3351 3352 3353 3354 3355 3356 3357 3358 3359
10 3360 3361 3362 3363 3364 3365 3366 3367 3368 3369
10 3370 3371 3372 3373 3374 3375 3376 3377 3378 3379
10 3380 3381 3382 3383 3384 3385 3386 3387 3388 3389
10 3390 3391 3392 3393 3394 3395 3396 3397 3398 3399
10 3400 3401 3402 3403 3404 3405 3406 3407 3408 3409
10 3410 3411 3412 3413 3414 3415 3416 3417 3418 3419
10 3420 3421 3422 3423 3424 3425 3426 3427 3428 3429
10 3430 3431 3432 3433 3434 3435 3436 3437 3438 3439
10 3440 3441 3442 3443 3444 3445 3446 3447 3448 3449
10 3450 3451 3452 3453 3454 3455 3456 3457 3458 3459
10 3460 3461 3462 3463 3464 3465 3466 3467 3468 3469
10 3470 3471 3472 3473 3474 3475 3476 3477 3478 3479
10 3480 3481 3482 3483 3484 3485 3486 3487 3488 3489
10 3490 3491 3492 3493 3494 3495 3496 3497 3498 3499
10 3500 3501 3502 3503 3504 3505 3506 3507 3508 3509
10 3510 3511 3512 3513 3514 3515 3516 3517 3518 3519
10 3520 3521 3522 3523 3524 3525 3526 3527 3528 3529
10 3530 3531 3532 3533 3534 3535 3536 3537 3538 3539
10 3540 3541 3542 3543 3544 3545 3546 3547 3548 3549
10 3550 3551 3552 3553 3554 3555 3556 3557 3558 3559
10 3560 3561 3562 3563 3564 3565 3566 3567 3568 3569
10 3570 3571 3572 3573 3574 3575 3576 3577 3578 3579
10 3580 3581 3582 3583 3584 3585 3586 3587 3588 3589
10 3590 3591 3592 3593 3594 3595 3596 3597 3598 3599
10 3600 3601 3602 3603 3604 3605 3606 3607 3608 3609
10 3610 3611 3612 3613 3614 3615 3616 3617 3618 3619
10 3620 3621 3622 3623 3624 3625 3626 3627 3628 3629
10 3630 3631 3632 3633 3634 3635 3636 3637 3638 3639
10 3640 3641 3642 3643 3644 3645 3646 3647 3648 3649
10 3650 3651 3652 3653 3654 3655 3656 3657 3658 3659
10 3660 3661 3662 3663 3664 3665 3666 3667 3668 3669
10 3670 3671 3672 3673 3674 3675 3676 3677 3678 3679
10 3680 3681 3682 3683 3684 3685 3686 3687 3688 3689
10 3690 3691 3692 3693 3694 3695 3696 3697 3698 3699
10 3700 3701 3702 3703 3704 3705 3706 3707 3708 3709
10 3710 3711 3712 3713 3714 3715 3716 3717 3718 3719
10 3720 3721 3722 3723 3724 3725 3726 3727 3728 3729
10 3730 3731 3732 3733 3734 3735 3736 3737 3738 3739
10 3740 3741 3742 3743 3744 3745 3746 3747 3748 3749
10 3750 3751 3752 3753 3754 3755 3756 3757 3758 3759
10 3760 3761 3762 3763 3764 3765 3766 3767 3768 3769
10 3770 3771 3772 3773 3774 3775 3776 3777 3778 3779
10 3780 3781 3782 3783 3784 3785 3786 3787 3788 3789
10 3790 3791 3792 3793 3794 3795 3796 3797 3798 3799
10 3800 3801 3802 3803 3804 3805 3806 3807 3808 3809
10 3810 3811 3812 3813 3814 3815 3816 3817 3818 3819
10 3820 3821 3822 3823 3824 3825 3826 3827 3828 3829
10 3830 3831 3832 3833 3834 3835 3836 3837 3838 3839
10 3840 3841 3842 3843 3844 3845 3846 3847 3848 3849
10 3850 3851 3852 3853 3854 3855 3856 3857 3858 3859
10 3860 3861 3862 3863 3864 3865 3866 3867 3868 3869
10 3870 3871 3872 3873 3874 3875 3876 3877 3878 3879
10 3880 3881 3882 3883 3884 3885 3886 3887 3888 3889
10 3890 3891 3892 3893 3894 3895 3896 3897 3898 3899
10 3900 3901 3902 3903 3904 3905 3906 3907 3908 3909
10 3910 3911 3912 3913 3914 3915 3916 3917 3918 3919
10 3920 3921 3922 3923 3924 3925 3926 3927 3928 3929
10 3930 3931 3932 3933 3934 3935 3936 3937 3938 3939
10 3940 3941 3942 3943 3944 3945 3946 3947 3948 3949
10 3950 3951 3952 3953 3954 3955 3956 3957 3958 3959
10 3960 3961 3962 3963 3964 3965 3966 3967 3968 3969
10 3970 3971 3972 3973 3974 3975 3976 3977 3978 3979
10 3980 3981 3982 3983 3984 3985 3986 3987 3988 3989
10 3990 3991 3992 3993 3994 3995 3996 3997 3998 3999
10 4000 4001 4002 4003 4004 4005 4006 4007 4008 4009
10 4010 4011 4012 4013 4014 4015 4016 4017 4018 4019
10 4020 4021 4022 4023 4024 4025 4026 4027 4028 4029
10 4030 4031 4032 4033 4034 4035 4036 4037 4038 4039
10 4040 4041 4042 4043 4044 4045 4046 4047 4048 4049
10 4050 4051 4052 4053 4054 4055 4056 4057 4058 4059
10 4060 4061 4062 4063 4064 4065 4066 4067 4068 4069
10 4070 4071 4072 4073 4074 4075 4076 4077 4078 4079
10 4080 4081 4082 4083 4084 4085 4086 4087 4088 4089
10 4090 4091 4092 4093 4094 4095 4096 4097 4098 4099
10 4100 4101 4102 4103 4104 4105 4106 4107 4108 4109
10 4110 4111 4112 4113 4114 4115 4116 4117 4118 4119
10 4120 4121 4122 4123 4124 4125 4126 4127 4128 4129
10 4130 4131 4132 4133 4134 4135 4136 4137 4138 4139
10 4140 4141 4142 4143 4144 4145 4146 4147 4148 4149
10 4150 4151 4152 4153 4154 4155 4156 4157 4158 4159
10 4160 4161 4162 4163 4164 4165 4166 4167 4168 4169
10 4170 4171 4172 4173 4174 4175 4176 4177 4178 4179
10 4180 4181 4182 4183 4184 4185 4186 4187 4188 4189
10 4190 4191 4192 4193 4194 4195 4196 4197 4198 4199
10 4200 4201 4202 4203 4204 4205 4206 4207 4208 4209
10 4210 4211 4212 4213 4214 4215 4216 4217 4218 4219
10 4220 4221 4222 4223 4224 4225 4226 4227 4228 4229
10 4230 4231 4232 4233 4234 4235 4236 4237 4238 4239
10 4240 4241 4242 4243 4244 4245 4246 4247 4248 4249
10 4250 4251 4252 4253 4254 4255 4256 4257 4258 4259
10 4260 4261 4262 4263 4264 4265 4266 4267 4268 4269
10 4270 4271 4272 4273 4274 4275 4276 4277 4278 4279
10 4280 4281 4282 4283 4284 4285 4286 4287 4288 4289
10 4290 4291 4292 4293 4294 4295 4296 4297 4298 4299
10 4300 4301 4302 4303 4304 4305 4306 4307 4308 4309
10 4310 4311 4312 4313 4314 4315 4316 4317 4318 4319
10 4320 4321 4322 4323 4324 4325 4326 4327 4328 4329
10 4330 4331 4332 4333 4334 4335 4336 4337 4338 4339
10 4340 4341 4342 4343 4344 4345 4346 4347 4348 4349
10 4350 4351 4352 4353 4354 4355 4356 4357 4358 4359
10 4360 4361 4362 4363 4364 4365 4366 4367 4368 4369
10 4370 4371 4372 4373 4374 4375 4376 4377 4378 4379
10 4380 4381 4382 4383 4384 4385 4386 4387 4388 4389
10 4390 4391 4392 4393 4394 4395 4396 4397 4398 4399
10 4400 4401 4402 4403 4404 4405 4406 4407 4408 4409
10 4410 4411 4412 4413 4414 4415 4416 4417 4418 4419
10 4420 4421 4422 4423 4424 4425 4426 4427 4428 4429
10 4430 4431 4432 4433 4434 4435 4436 4437 4438 4439
10 4440 4441 4442 4443 4444 4445 4446 4447 4448 4449
10 4450 4451 4452 4453 4454 4455 4456 4457 4458 4459
10 4460 4461 4462 4463 4464 4465 4466 4467 4468 4469
10 4470 4471 4472 4473 4474 4475 4476 4477 4478 4479
10 4480 4481 4482 4483 4484 4485 4486 4487 4488 4489
10 4490 4491 4492 4493 4494 4495 4496 4497 4498 4499
10 4500 4501 4502 4503 4504 4505 4506 4507 4508 4509
10 4510 4511 4512 4513 4514 4515 4516 4517 4518 4519
10 4520 4521 4522 4523 4524 4525 4526 4527 4528 4529
10 4530 4531 4532 4533 4534 4535 4536 4537 4538 4539
10 4540 4541 4542 4543 4544 4545 4546 4547 4548 4549
10 4550 4551 4552 4553 4554 4555 4556 4557 4558 4559
10 4560 4561 4562 4563 4564 4565 4566 4567 4568 4569
10 4570 4571 4572 4573 4574 4575 4576 4577 4578 4579
10 4580 4581 4582 4583 4584 4585 4586 4587 4588 4589
10 4590 4591 4592 4593 4594 4595 4596 4597 4598 4599
10 4600 4601 4602 4603 4604 4605 4606 4607 4608 4609
10 4610 4611 4612 4613 4614 4615 4616 4617 4618 4619
10 4620 4621 4622 4623 4624 4625 4626 4627 4628 4629
10 4630 4631 4632 4633 4634 4635 4636 4637 4638 4639
10 4640 4641 4642 4643 4644 4645 4646 4647 4648 4649
10 4650 4651 4652 4653 4654 4655 4656 4657 4658 4659
10 4660 4661 4662 4663 4664 4665 4666 4667 4668 4669
10 4670 4671 4672 4673 4674 4675 4676 4677 4678 4679
10 4680 4681 4682 4683 4684 4685 4686 4687 4688 4689
10 4690 4691 4692 4693 4694 4695 4696 4697 4698 4699
10 4700 4701 4702 4703 4704 4705 4706 4707 4708 4709
10 4710 4711 4712 4713 4714 4715 4716 4717 4718 4719
10 4720 4721 4722 4723 4724 4725 4726 4727 4728 4729
10 4730 4731 4732 4733 4734 4735 4736 4737 4738 4739
10 4740 4741 4742 4743 4744 4745 4746 4747 4748 4749
10 4750 4751 4752 4753 4754 4755 4756 4757 4758 4759
10 4760 4761 4762 4763 4764 4765 4766 4767 4768 4769
10 4770 4771 4772 4773 4774 4775 4776 4777 4778 4779
10 4780 4781 4782 4783 4784 4785 4786 4787 4788 4789
10 4790 4791 4792 4793 4794 4795 4796 4797 4798 4799
10 4800 4801 4802 4803 4804 4805 4806 4807 4808 4809
10 4810 4811 4812 4813 4814 4815 4816 4817 4818 4819
10 4820 4821 4822 4823 4824 4825 4826 4827 4828 4829
10 4830 4831 4832 4833 4834 4835 4836 4837 4838 4839
10 4840 4841 4842 4843 4844 4845 4846 4847 4848 4849
10 4850 4851 4852 4853 4854 4855 4856 4857 4858 4859
10 4860 4861 4862 4863 4864 4865 4866 4867 4868 4869
10 4870 4871 4872 4873 4874 4875 4876 4877 4878 4879
10 4880 4881 4882 4883 4884 4885 4886 4887 4888 4889
10 4890 4891 4892 4893 4894 4895 4896 4897 4898 4899
10 4900 4901 4902 4903 4904 4905 4906 4907 4908 4909
10 4910 4911 4912 4913 4914 4915 4916 4917 4918 4919
10 4920 4921 4922 4923 4924 4925 4926 4927 4928 4929
10 4930 4931 4932 4933 4934 4935 4936 4937 4938 4939
10 4940 4941 4942 4943 4944 4945 4946 4947 4948 4949
10 4950 4951 4952 4953 4954 4955 4956 4957 4958 4959
10 4960 4961 4962 4963 4964 4965 4966 4967 4968 4969
10 4970 4971 4972 4973 4974 4975 4976 4977 4978 4979
10 4980 4981 4982 4983 4984 4985 4986 4987 4988 4989
10 4990 4991 4992 4993 4994 4995 4996 4997 4998 4999
10 5000 5001 5002 5003 5004 5005 5006 5007 5008 5009
10 5010 5011 5012 5013 5014 5015 5016 5017 5018 5019
10 5020 5021 5022 5023 5024 5025 5026 5027 5028 5029
10 5030 5031 5032 5033 5034 5035 5036 5037 5038 5039
10 5040 5041 5042 5043 5044 5045 5046 5047 5048 5049
10 5050 5051 5052 5053 5054 5055 5056 5057 5058 5059
10 5060 5061 5062 5063 5064 5065 5066 5067 5068 5069
10 5070 5071 5072 5073 5074 5075 5076 5077 5078 5079
10 5080 5081 5082 5083 5084 5085 5086 5087 5088 5089
10 5090 5091 5092 5093 5094 5095 5096 5097 5098 5099
10 5100 5101 5102 5103 5104 5105 5106 5107 5108 5109
10 5110 5111 5112 5113 5114 5115 5116 5117 5118 5119
10 5120 5121 5122 5123 5124 5125 5126 5127 5128 5129
10 5130 5131 5132 5133 5134 5135 5136 5137 5138 5139
10 5140 5141 5142 5143 5144 5145 5146 5147 5148 5149
10 5150 5151 5152 5153 5154 5155 5156 5157 5158 5159
10 5160 5161 5162 5163 5164 5165 5166 5167 5168 5169
10 5170 5171 5172 5173 5174 5175 5176 5177 5178 5179
10 5180 5181 5182 5183 5184 5185 5186 5187 5188 5189
10 5190 5191 5192 5193 5194 5195 5196 5197 5198 5199
10 5200 5201 5202 5203 5204 5205 5206 5207 5208 5209
10 5210 5211 5212 5213 5214 5215 5216 5217 5218 5219
10 5220 5221 5222 5223 5224 5225 5226 5227 5228 5229
10 5230 5231 5232 5233 5234 5235 5236 5237 5238 5239
10 5240 5241 5242 5243 5244 5245 5246 5247 5248 5249
10 5250 5251 5252 5253 5254 5255 5256 5257 5258 5259
10 5260 5261 5262 5263 5264 5265 5266 5267 5268 5269
10 5270 5271 5272 5273 5274 5275 5276 5277 5278 5279
10 5280 5281 5282 5283 5284 5285 5286 5287 5288 5289
10 5290 5291 5292 5293 5294 5295 5296 5297 5298 5299
10 5300 5301 5302 5303 5304 5305 5306 5307 5308 5309
10 5310 5311 5312 5313 5314 5315 5316 5317 5318 5319
10 5320 5321 5322 5323 5324 5325 5326 5327 5328 5329
10 5330 5331 5332 5333 5334 5335 5336 5337 5338 5339
10 5340 5341 5342 5343 5344 5345 5346 5347 5348 5349
10 5350 5351 5352 5353 5354 5355 5356 5357 5358 5359
10 5360 5361 5362 5363 5364 5365 5366 5367 5368 5369
10 5370 5371 5372 5373 5374 5375 5376 5377 5378 5379
10 5380 5381 5382 5383 5384 5385 5386 5387 5388 5389
10 5390 5391 5392 5393 5394 5395 5396 5397 5398 5399
10 5400 5401 5402 5403 5404 5405 5406 5407 5408 5409
10 5410 5411 5412 5413 5414 5415 5416 5417 5418 5419
10 5420 5421 5422 5423 5424 5425 5426 5427 5428 5429
10 5430 5431 5432 5433 5434 5435 5436 5437 5438 5439
10 5440 5441 5442 5443 5444 5445 5446 5447 5448 5449
10 5450 5451 5452 5453 5454 5455 5456 5457 5458 5459
10 5460 5461 5462 5463 5464 5465 5466 5467 5468 5469
10 5470 5471 5472 5473 5474 5475 5476 5477 5478 5479
10 5480 5481 5482 5483 5484 5485 5486 5487 5488 5489
10 5490 5491 5492 5493 5494 5495 5496 5497 5498 5499
10 5500 5501 5502 5503 5504 5505 5506 5507 5508 5509
10 5510 5511 5512 5513 5514 5515 5516 5517 5518 5519
10 5520 5521 5522 5523 5524 5525 5526 5527 5528 5529
10 5530 5531 5532 5533 5534 5535 5536 5537 5538 5539
10 5540 5541 5542 5543 5544 5545 5546 5547 5548 5549
10 5550 5551 5552 5553 5554 5555 5556 5557 5558 5559
10 5560 5561 5562 5563 5564 5565 5566 5567 5568 5569
10 5570 5571 5572 5573 5574 5575 5576 5577 5578 5579
10 5580 5581 5582 5583 5584 5585 5586 5587 5588 5589
10 5590 5591 5592 5593 5594 5595 5596 5597 5598 5599
10 5600 5601 5602 5603 5604 5605 5606 5607 5608 5609
10 5610 5611 5612 5613 5614 5615 5616 5617 5618 5619
10 5620 5621 5622 5623 5624 5625 5626 5627 5628 5629
10 5630 5631 5632 5633 5634 5635 5636 5637 5638 5639
10 5640 5641 5642 5643 5644 5645 5646 5647 5648 5649
10 5650 5651 5652 5653 5654 5655 5656 5657 5658 5659
10 5660 5661 5662 5663 5664 5665 5666 5667 5668 5669
10 5670 5671 5672 5673 5674 5675 5676 5677 5678 5679
10 5680 5681 5682 5683 5684 5685 5686 5687 5688 5689
10 5690 5691 5692 5693 5694 5695 5696 5697 5698 5699
10 5700 5701 5702 5703 5704 5705 5706 5707 5708 5709
10 5710 5711 5712 5713 5714 5715 5716 5717 5718 5719
10 5720 5721 5722 5723 5724 5725 5726 5727 5728 5729
10 5730 5731 5732 5733 5734 5735 5736 5737 5738 5739
10 5740 5741 5742 5743 5744 5745 5746 5747 5748 5749
10 5750 5751 5752 5753 5754 5755 5756 5757 5758 5759
10 5760 5761 5762 5763 5764 5765 5766 5767 5768 5769
10 5770 5771 5772 5773 5774 5775 5776 5777 5778 5779
10 5780 5781 5782 5783 5784 5785 5786 5787 5788 5789
10 5790 5791 5792 5793 5794 5795 5796 5797 5798 5799
10 5800 5801 5802 5803 5804 5805 5806 5807 5808 5809
10 5810 5811 5812 5813 5814 5815 5816 5817 5818 5819
10 5820 5821 5822 5823 5824 5825 5826 5827 5828 5829
10 5830 5831 5832 5833 5834 5835 5836 5837 5838 5839
10 5840 5841 5842 5843 5844 5845 5846 5847 5848 5849
10 5850 5851 5852 5853 5854 5855 5856 5857 5858 5859
10 5860 5861 5862 5863 5864 5865 5866 5867 5868 5869
10 5870 5871 5872 5873 5874 5875 5876 5877 5878 5879
10 5880 5881 5882 5883 5884 5885 5886 5887 5888 5889
10 5890 5891 5892 5893 5894 5895 5896 5897 5898 5899
10 5900 5901 5902 5903 5904 5905 5906 5907 5908 5909
10 5910 5911 5912 5913 5914 5915 5916 5917 5918 5919
10 5920 5921 5922 5923 5924 5925 5926 5927 5928 5929
10 5930 5931 5932 5933 5934 5935 5936 5937 5938 5939
10 5940 5941 5942 5943 5944 5945 5946 5947 5948 5949
10 5950 5951 5952 5953 5954 5955 5956 5957 5958 5959
10 5960 5961 5962 5963 5964 5965 5966 5967 5968 5969
10 5970 5971 5972 5973 5974 5975 5976 5977 5978 5979
10 5980 5981 5982 5983 5984 5985 5986 5987 5988 5989
10 5990 5991 5992 5993 5994 5995 5996 5997 5998 5999
10 6000 6001 6002 6003 6004 6005 6006 6007 6008 6009
10 6010 6011 6012 6013 6014 6015 6016 6017 6018 6019
10 6020 6021 6022 6023 6024 6025 6026 6027 6028 6029
10 6030 6031 6032 6033 6034 6035 6036 6037 6038 6039
10 6040 6041 6042 6043 6044 6045 6046 6047 6048 6049
10 6050 6051 6052 6053 6054 6055 6056 6057 6058 6059
10 6060 6061 6062 6063 6064 6065 6066 6067 6068 6069
10 6070 6071 6072 6073 6074 6075 6076 6077 6078 6079
10 6080 6081 6082 6083 6084 6085 6086 6087 6088 6089
10 6090 6091 6092 6093 6094 6095 6096 6097 6098 6099
10 6100 6101 6102 6103 6104 6105 6106 6107 6108 6109
10 6110 6111 6112 6113 6114 6115 6116 6117 6118 6119
10 6120 6121 6122 6123 6124 6125 6126 6127 6128 6129
10 6130 6131 6132 6133 6134 6135 6136 6137 6138 6139
10 6140 6141 6142 6143 6144 6145 6146 6147 6148 6149
10 6150 6151 6152 6153 6154 6155 6156 6157 6158 6159
10 6160 6161 6162 6163 6164 6165 6166 6167 6168 6169
10 6170 6171 6172 6173 6174 6175 6176 6177 6178 6179
10 6180 6181 6182 6183 6184 6185 6186 6187 6188 6189
10 6190 6191 6192 6193 6194 6195 6196 6197 6198 6199
10 6200 6201 6202 6203 6204 6205 6206 6207 6208 6209
10 6210 6211 6212 6213 6214 6215 6216 6217 6218 6219
10 6220 6221 6222 6223 6224 6225 6226 6227 6228 6229
10 6230 6231 6232 6233 6234 6235 6236 6237 6238 6239
10 6240 6241 6242 6243 6244 6245 6246 6247 6248 6249
10 6250 6251 6252 6253 6254 6255 6256 6257 6258 6259
10 6260 6261 6262 6263 6264 6265 6266 6267 6268 6269
10 6270 6271 6272 6273 6274 6275 6276 6277 6278 6279
10 6280 6281 6282 6283 6284 6285 6286 6287 6288 6289
10 6290 6291 6292 6293 6294 6295 6296 6297 6298 6299
10 6300 6301 6302 6303 6304 6305 6306 6307 6308 6309
10 6310 6311 6312 6313 6314 6315 6316 6317 6318 6319
10 6320 6321 6322 6323 6324 6325 6326 6327 6328 6329
10 6330 6331 6332 6333 6334 6335 6336 6337 6338 6339
10 6340 6341 6342 6343 6344 6345 6346 6347 6348 6349
10 6350 6351 6352 6353 6354 6355 6356 6357 6358 6359
10 6360 6361 6362 6363 6364 6365 6366 6367 6368 6369
10 6370 6371 6372 6373 6374 6375 6376 6377 6378 6379
10 6380 6381 6382 6383 6384 6385 6386 6387 6388 6389
10 6390 6391 6392 6393 6394 6395 6396 6397 6398 6399
10 6400 6401 6402 6403 6404 6405 6406 6407 6408 6409
10 6410 6411 6412 6413 6414 6415 6416 6417 6418 6419
10 6420 6421 6422 6423 6424 6425 6426 6427 6428 6429
10 6430 6431 6432 6433 6434 6435 6436 6437 6438 6439
10 6440 6441 6442 6443 6444 6445 6446 6447 6448 6449
10 6450 6451 6452 6453 6454 6455 6456 6457 6458 6459
10 6460 6461 6462 6463 6464 6465 6466 6467 6468 6469
10 6470 6471 6472 6473 6474 6475 6476 6477 6478 6479
10 6480 6481 6482 6483 6484 6485 6486 6487 6488 6489
10 6490 6491 6492 6493 6494 6495 6496 6497 6498 6499
10 6500 6501 6502 6503 6504 6505 6506 6507 6508 6509
10 6510 6511 6512 6513 6514 6515 6516 6517 6518 6519
10 6520 6521 6522 6523 6524 6525 6526 6527 6528 6529
10 6530 6531 6532 6533 6534 6535 6536 6537 6538 6539
10 6540 6541 6542 6543 6544 6545 6546 6547 6548 6549
10 6550 6551 6552 6553 6554 6555 6556 6557 6558 6559
10 6560 6561 6562 6563 6564 6565 6566 6567 6568 6569
10 6570 6571 6572 6573 6574 6575 6576 6577 6578 6579
10 6580 6581 6582 6583 6584 6585 6586 6587 6588 6589
10 6590 6591 6592 6593 6594 6595 6596 6597 6598 6599
10 6600 6601 6602 6603 6604 6605 6606 6607 6608 6609
10 6610 6611 6612 6613 6614 6615 6616 6617 6618 6619
10 6620 6621 6622 6623 6624 6625 6626 6627 6628 6629
10 6630 6631 6632 6633 6634 6635 6636 6637 6638 6639
10 6640 6641 6642 6643 6644 6645 6646 6647 6648 6649
10 6650 6651 6652 6653 6654 6655 6656 6657 6658 6659
10 6660 6661 6662 6663 6664 6665 6666 6667 6668 6669
10 6670 6671 6672 6673 6674 6675 6676 6677 6678 6679
10 6680 6681 6682 6683 6684 6685 6686 6687 6688 6689
10 6690 6691 6692 6693 6694 6695 6696 6697 6698 6699
10 6700 6701 6702 6703 6704 6705 6706 6707 6708 6709
10 6710 6711 6712 6713 6714 6715 6716 6717 6718 6719
10 6720 6721 6722 6723 6724 6725 6726 6727 6728 6729
10 6730 6731 6732 6733 6734 6735 6736 6737 6738 6739
10 6740 6741 6742 6743 6744 6745 6746 6747 6748 6749
10 6750 6751 6752 6753 6754 6755 6756 6757 6758 6759
10 6760 6761 6762 6763 6764 6765 6766 6767 6768 6769
10 6770 6771 6772 6773 6774 6775 6776 6777 6778 6779
10 6780 6781 6782 6783 6784 6785 6786 6787 6788 6789
10 6790 6791 6792 6793 6794 6795 6796 6797 6798 6799
10 6800 6801 6802 6803 6804 6805 6806 6807 6808 6809
10 6810 6811 6812 6813 6814 6815 6816 6817 6818 6819
10 6820 6821 6822 6823 6824 6825 6826 6827 6828 6829
10 6830 6831 6832 6833 6834 6835 6836 6837 6838 6839
10 6840 6841 6842 6843 6844 6845 6846 6847 6848 6849
10 6850 6851 6852 6853 6854 6855 6856 6857 6858 6859
10 6860 6861 6862 6863 6864 6865 6866 6867 6868 6869
10 6870 6871 6872 6873 6874 6875 6876 6877 6878 6879
10 6880 6881 6882 6883 6884 6885 6886 6887 6888 6889
10 6890 6891 6892 6893 6894 6895 6896 6897 6898 6899
10 6900 6901 6902 6903 6904 6905 6906 6907 6908 6909
10 6910 6911 6912 6913 6914 6915 6916 6917 6918 6919
10 6920 6921 6922 6923 6924 6925 6926 6927 6928 6929
10 6930 6931 6932 6933 6934 6935 6936 6937 6938 6939
10 6940 6941 6942 6943 6944 6945 6946 6947 6948 6949
10 6950 6951 6952 6953 6954 6955 6956 6957 6958 6959
10 6960 6961 6962 6963 6964 6965 6966 6967 6968 6969
10 6970 6971 6972 6973 6974 6975 6976 6977 6978 6979
10 6980 6981 6982 6983 6984 6985 6986 6987 6988 6989
10 6990 6991 6992 6993 6994 6995 6996 6997 6998 6999
10 7000 7001 7002 7003 7004 7005 7006 7007 7008 7009
10 7010 7011 7012 7013 7014 7015 7016 7017 7018 7019
10 7020 7021 7022 7023 7024 7025 7026 7027 7028 7029
10 7030 7031 7032 7033 7034 7035 7036 7037 7038 7039
10 7040 7041 7042 7043 7044 7045 7046 7047 7048 7049
10 7050 7051 7052 7053 7054 7055 7056 7057 7058 7059
10 7060 7061 7062 7063 7064 7065 7066 7067 7068 7069
10 7070 7071 7072 7073 7074 7075 7076 7077 7078 7079
10 7080 7081 7082 7083 7084 7085 7086 7087 7088 7089
10 7090 7091 7092 7093 7094 7095 7096 7097 7098 7099
10 7100 7101 7102 7103 7104 7105 7106 7107 7108 7109
10 7110 7111 7112 7113 7114 7115 7116 7117 7118 7119
10 7120 7121 7122 7123 7124 7125 7126 7127 7128 7129
10 7130 7131 7132 7133 7134 7135 7136 7137 7138 7139
10 7140 7141 7142 7143 7144 7145 7146 7147 7148 7149
10 7150 7151 7152 7153 7154 7155 7156 7157 7158 7159
10 7160 7161 7162 7163 7164 7165 7166 7167 7168 7169
10 7170 7171 7172 7173 7174 7175 7176 7177 7178 7179
10 7180 7181 7182 7183 7184 7185 7186 7187 7188 7189
10 7190 7191 7192 7193 7194 7195 7196 7197 7198 7199
10 7200 7201 7202 7203 7204 7205 7206 7207 7208 7209
10 7210 7211 7212 7213 7214 7215 7216 7217 7218 7219
10 7220 7221 7222 7223 7224 7225 7226 7227 7228 7229
10 7230 7231 7232 7233 7234 7235 7236 7237 7238 7239
10 7240 7241 7242 7243 7244 7245 7246 7247 7248 7249
10 7250 7251 7252 7253 7254 7255 7256 7257 7258 7259
10 7260 7261 7262 7263 7264 7265 7266 7267 7268 7269
10 7270 7271 7272 7273 7274 7275 7276 7277 7278 7279
10 7280 7281 7282 7283 7284 7285 7286 7287 7288 7289
10 7290 7291 7292 7293 7294 7295 7296 7297 7298 7299
10 7300 7301 7302 7303 7304 7305 7306 7307 7308 7309
10 7310 7311 7312 7313 7314 7315 7316 7317 7318 7319
10 7320 7321 7322 7323 7324 7325 7326 7327 7328 7329
10 7330 7331 7332 7333 7334 7335 7336 7337 7338 7339
10 7340 7341 7342 7343 7344 7345 7346 7347 7348 7349
10 7350 7351 7352 7353 7354 7355 7356 7357 7358 7359
10 7360 7361 7362 7363 7364 7365 7366 7367 7368 7369
10 7370 7371 7372 7373 7374 7375 7376 7377 7378 7379
10 7380 7381 7382 7383 7384 7385 7386 7387 7388 7389
10 7390 7391 7392 7393 7394 7395 7396 7397 7398 7399
10 7400 7401 7402 7403 7404 7405 7406 7407 7408 7409
10 7410 7411 7412 7413 7414 7415 7416 7417 7418 7419
10 7420 7421 7422 7423 7424 7425 7426 7427 7428 7429
10 7430 7431 7432 7433 7434 7435 7436 7437 7438 7439
10 7440 7441 7442 7443 7444 7445 7446 7447 7448 7449
10 7450 7451 7452 7453 7454 7455 7456 7457 7458 7459
10 7460 7461 7462 7463 7464 7465 7466 7467 7468 7469
10 7470 7471 7472 7473 7474 7475 7476 7477 7478 7479
10 7480 7481 7482 7483 7484 7485 7486 7487 7488 7489
10 7490 7491 7492 7493 7494 7495 7496 7497 7498 7499
10 7500 7501 7502 7503 7504 7505 7506 7507 7508 7509
10 7510 7511 7512 7513 7514 7515 7516 7517 7518 7519
10 7520 7521 7522 7523 7524 7525 7526 7527 7528 7529
10 7530 7531 7532 7533 7534 7535 7536 7537 7538 7539
10 7540 7541 7542 7543 7544 7545 7546 7547 7548 7549
10 7550 7551 7552 7553 7554 7555 7556 7557 7558 7559
10 7560 7561 7562 7563 7564 7565 7566 7567 7568 7569
10 7570 7571 7572 7573 7574 7575 7576 7577 7578 7579
10 7580 7581 7582 7583 7584 7585 7586 7587 7588 7589
10 7590 7591 7592 7593 7594 7595 7596 7597 7598 7599
10 7600 7601 7602 7603 7604 7605 7606 7607 7608 7609
10 7610 7611 7612 7613 7614 7615 7616 7617 7618 7619
10 7620 7621 7622 7623 7624 7625 7626 7627 7628 7629
10 7630 7631 7632 7633 7634 7635 7636 7637 7638 7639
10 7640 7641 7642 7643 7644 7645 7646 7647 7648 7649
10 7650 7651 7652 7653 7654 7655 7656 7657 7658 7659
10 7660 7661 7662 7663 7664 7665 7666 7667 7668 7669
10 7670 7671 7672 7673 7674 7675 7676 7677 7678 7679
10 7680 7681 7682 7683 7684 7685 7686 7687 7688 7689
10 7690 7691 7692 7693 7694 7695 7696 7697 7698 7699
10 7700 7701 7702 7703 7704 7705 7706 7707 7708 7709
10 7710 7711 7712 7713 7714 7715 7716 7717 7718 7719
10 7720 7721 7722 7723 7724 7725 7726 7727 7728 7729
10 7730 7731 7732 7733 7734 7735 7736 7737 7738 7739
10 7740 7741 7742 7743 7744 7745 7746 7747 7748 7749
10 7750 7751 7752 7753 7754 7755 7756 7757 7758 7759
10 7760 7761 7762 7763 7764 7765 7766 7767 7768 7769
10 7770 7771 7772 7773 7774 7775 7776 7777 7778 7779
10 7780 7781 7782 7783 7784 7785 7786 7787 7788 7789
10 7790 7791 7792 7793 7794 7795 7796 7797 7798 7799
10 7800 7801 7802 7803 7804 7805 7806 7807 7808 7809
10 7810 7811 7812 7813 7814 7815 7816 7817 7818 7819
10 7820 7821 7822 7823 7824 7825 7826 7827 7828 7829
10 7830 7831 7832 7833 7834 7835 7836 7837 7838 7839
10 7840 7841 7842 7843 7844 7845 7846 7847 7848 7849
10 7850 7851 7852 7853 7854 7855 7856 7857 7858 7859
10 7860 7861 7862 7863 7864 7865 7866 7867 7868 7869
10 7870 7871 7872 7873 7874 7875 7876 7877 7878 7879
10 7880 7881 7882 7883 7884 7885 7886 7887 7888 7889
10 7890 7891 7892 7893 7894 7895 7896 7897 7898 7899
10 7900 7901 7902 7903 7904 7905 7906 7907 7908 7909
10 7910 7911 7912 7913 7914 7915 7916 7917 7918 7919
10 7920 7921 7922 7923 7924 7925 7926 7927 7928 7929
10 7930 7931 7932 7933 7934 7935 7936 7937 7938 7939
10 7940 7941 7942 7943 7944 7945 7946 7947 7948 7949
10 7950 7951 7952 7953 7954 7955 7956 7957 7958 7959
10 7960 7961 7962 7963 7964 7965 7966 7967 7968 7969
10 7970 7971 7972 7973 7974 7975 7976 7977 7978 7979
10 7980 7981 7982 7983 7984 7985 7986 7987 7988 7989
10 7990 7991 7992 7993 7994 7995 7996 7997 7998 7999
10 8000 8001 8002 8003 8004 8005 8006 8007 8008 8009
10 8010 8011 8012 8013 8014 8015 8016 8017 8018 8019
10 8020 8021 8022 8023 8024 8025 8026 8027 8028 8029
10 8030 8031 8032 8033 8034 8035 8036 8037 8038 8039
10 8040 8041 8042 8043 8044 8045 8046 8047 8048 8049
10 8050 8051 8052 8053 8054 8055 8056 8057 8058 8059
10 8060 8061 8062 8063 8064 8065 8066 8067 8068 8069
10 8070 8071 8072 8073 8074 8075 8076 8077 8078 8079
10 8080 8081 8082 8083 8084 8085 8086 8087 8088 8089
10 8090 8091 8092 8093 8094 8095 8096 8097 8098 8099
10 8100 8101 8102 8103 8104 8105 8106 8107 8108 8109
10 8110 8111 8112 8113 8114 8115 8116 8117 8118 8119
10 8120 8121 8122 8123 8124 8125 8126 8127 8128 8129
10 8130 8131 8132 8133 8134 8135 8136 8137 8138 8139
10 8140 8141 8142 8143 8144 8145 8146 8147 8148 8149
10 8150 8151 8152 8153 8154 8155 8156 8157 8158 8159
10 8160 8161 8162 8163 8164 8165 8166 8167 8168 8169
10 8170 8171 8172 8173 8174 8175 8176 8177 8178 8179
10 8180 8181 8182 8183 8184 8185 8186 8187 8188 8189
10 8190 8191 8192 8193 8194 8195 8196 8197 8198 8199
10 8200 8201 8202 8203 8204 8205 8206 8207 8208 8209
10 8210 8211 8212 8213 8214 8215 8216 8217 8218 8219
10 8220 8221 8222 8223 8224 8225 8226 8227 8228 8229
10 8230 8231 8232 8233 8234 8235 8236 8237 8238 8239
10 8240 8241 8242 8243 8244 8245 8246 8247 8248 8249
10 8250 8251 8252 8253 8254 8255 8256 8257 8258 8259
10 8260 8261 8262 8263 8264 8265 8266 8267 8268 8269
10 8270 8271 8272 8273 8274 8275 8276 8277 8278 8279
10 8280 8281 8282 8283 8284 8285 8286 8287 8288 8289
10 8290 8291 8292 8293 8294 8295 8296 8297 8298 8299
10 8300 8301 8302 8303 8304 8305 8306 8307 8308 8309
10 8310 8311 8312 8313 8314 8315 8316 8317 8318 8319
10 8320 8321 8322 8323 8324 8325 8326 8327 8328 8329
10 8330 8331 8332 8333 8334 8335 8336 8337 8338 8339
10 8340 8341 8342 8343 8344 8345 8346 8347 8348 8349
10 8350 8351 8352 8353 8354 8355 8356 8357 8358 8359
10 8360 8361 8362 8363 8364 8365 8366 8367 8368 8369
10 8370 8371 8372 8373 8374 8375 8376 8377 8378 8379
10 8380 8381 8382 8383 8384 8385 8386 8387 8388 8389
10 8390 8391 8392 8393 8394 8395 8396 8397 8398 8399
10 8400 8401 8402 8403 8404 8405 8406 8407 8408 8409
10 8410 8411 8412 8413 8414 8415 8416 8417 8418 8419
10 8420 8421 8422 8423 8424 8425 8426 8427 8428 8429
10 8430 8431 8432 8433 8434 8435 8436 8437 8438 8439
10 8440 8441 8442 8443 8444 8445 8446 8447 8448 8449
10 8450 8451 8452 8453 8454 8455 8456 8457 8458 8459
10 8460 8461 8462 8463 8464 8465 8466 8467 8468 8469
10 8470 8471 8472 8473 8474 8475 8476 8477 8478 8479
10 8480 8481 8482 8483 8484 8485 8486 8487 8488 8489
10 8490 8491 8492 8493 8494 8495 8496 8497 8498 8499
10 8500 8501 8502 8503 8504 8505 8506 8507 8508 8509
10 8510 8511 8512 8513 8514 8515 8516 8517 8518 8519
10 8520 8521 8522 8523 8524 8525 8526 8527 8528 8529
10 8530 8531 8532 8533 8534 8535 8536 8537 8538 8539
10 8540 8541 8542 8543 8544 8545 8546 8547 8548 8549
10 8550 8551 8552 8553 8554 8555 8556 8557 8558 8559
10 8560 8561 8562 8563 8564 8565 8566 8567 8568 8569
10 8570 8571 8572 8573 8574 8575 8576 8577 8578 8579
10 8580 8581 8582 8583 8584 8585 8586 8587 8588 8589
10 8590 8591 8592 8593 8594 8595 8596 8597 8598 8599
10 8600 8601 8602 8603 8604 8605 8606 8607 8608 8609
10 8610 8611 8612 8613 8614 8615 8616 8617 8618 8619
10 8620 8621 8622 8623 8624 8625 8626 8627 8628 8629
10 8630 8631 8632 8633 8634 8635 8636 8637 8638 8639
10 8640 8641 8642 8643 8644 8645 8646 8647 8648 8649
10 8650 8651 8652 8653 8654 8655 8656 8657 8658 8659
10 8660 8661 8662 8663 8664 8665 8666 8667 8668 8669
10 8670 8671 8672 8673 8674 8675 8676 8677 8678 8679
10 8680 8681 8682 8683 8684 8685 8686 8687 8688 8689
10 8690 8691 8692 8693 8694 8695 8696 8697 8698 8699
10 8700 8701 8702 8703 8704 8705 8706 8707 8708 8709
10 8710 8711 8712 8713 8714 8715 8716 8717 8718 8719
10 8720 8721 8722 8723 8724 8725 8726 8727 8728 8729
10 8730 8731 8732 8733 8734 8735 8736 8737 8738 8739
10 8740 8741 8742 8743 8744 8745 8746 8747 8748 8749
10 8750 8751 8752 8753 8754 8755 8756 8757 8758 8759
10 8760 8761 8762 8763 8764 8765 8766 8767 8768 8769
10 8770 8771 8772 8773 8774 8775 8776 8777 8778 8779
10 8780 8781 8782 8783 8784 8785 8786 8787 8788 8789
10 8790 8791 8792 8793 8794 8795 8796 8797 8798 8799
10 8800 8801 8802 8803 8804 8805 8806 8807 8808 8809
10 8810 8811 8812 8813 8814 8815 8816 8817 8818 8819
10 8820 8821 8822 8823 8824 8825 8826 8827 8828 8829
10 8830 8831 8832 8833 8834 8835 8836 8837 8838 8839
10 8840 8841 8842 8843 8844 8845 8846 8847 8848 8849
10 8850 8851 8852 8853 8854 8855 8856 8857 8858 8859
10 8860 8861 8862 8863 8864 8865 8866 8867 8868 8869
10 8870 8871 8872 8873 8874 8875 8876 8877 8878 8879
10 8880 8881 8882 8883 8884 8885 8886 8887 8888 8889
10 8890 8891 8892 8893 8894 8895 8896 8897 8898 8899
10 8900 8901 8902 8903 8904 8905 8906 8907 8908 8909
10 8910 8911 8912 8913 8914 8915 8916 8917 8918 8919
10 8920 8921 8922 8923 8924 8925 8926 8927 8928 8929
10 8930 8931 8932 8933 8934 8935 8936 8937 8938 8939
10 8940 8941 8942 8943 8944 8945 8946 8947 8948 8949
10 8950 8951 8952 8953 8954 8955 8956 8957 8958 8959
10 8960 8961 8962 8963 8964 8965 8966 8967 8968 8969
10 8970 8971 8972 8973 8974 8975 8976 8977 8978 8979
10 8980 8981 8982 8983 8984 8985 8986 8987 8988 8989
10 8990 8991 8992 8993 8994 8995 8996 8997 8998 8999
10 9000 9001 9002 9003 9004 9005 9006 9007 9008 9009
10 9010 9011 9012 9013 9014 9015 9016 9017 9018 9019
10 9020 9021 9022 9023 9024 9025 9026 9027 9028 9029
10 9030 9031 9032 9033 9034 9035 9036 9037 9038 9039
10 9040 9041 9042 9043 9044 9045 9046 9047 9048 9049
10 9050 9051 9052 9053 9054 9055 9056 9057 9058 9059
10 9060 9061 9062 9063 9064 9065 9066 9067 9068 9069
10 9070 9071 9072 9073 9074 9075 9076 9077 9078 9079
10 9080 9081 9082 9083 9084 9085 9086 9087 9088 9089
10 9090 9091 9092 9093 9094 9095 9096 9097 9098 9099
10 9100 9101 9102 9103 9104 9105 9106 9107 9108 9109
10 9110 9111 9112 9113 9114 9115 9116 9117 9118 9119
10 9120 9121 9122 9123 9124 9125 9126 9127 9128 9129
10 9130 9131 9132 9133 9134 9135 9136 9137 9138 9139
10 9140 9141 9142 9143 9144 9145 9146 9147 9148 9149
10 9150 9151 9152 9153 9154 9155 9156 9157 9158 9159
10 9160 9161 9162 9163 9164 9165 9166 9167 9168 9169
10 9170 9171 9172 9173 9174 9175 9176 9177 9178 9179
10 9180 9181 9182 9183 9184 9185 9186 9187 9188 9189
10 9190 9191 9192 9193 9194 9195 9196 9197 9198 9199
10 9200 9201 9202 9203 9204 9205 9206 9207 9208 9209
10 9210 9211 9212 9213 9214 9215 9216 9217 9218 9219
10 9220 9221 9222 9223 9224 9225 9226 9227 9228 9229
10 9230 9231 9232 9233 9234 9235 9236 9237 9238 9239
10 9240 9241 9242 9243 9244 9245 9246 9247 9248 9249
10 9250 9251 9252 9253 9254 9255 9256 9257 9258 9259
10 9260 9261 9262 9263 9264 9265 9266 9267 9268 9269
10 9270 9271 9272 9273 9274 9275 9276 9277 9278 9279
10 9280 9281 9282 9283 9284 9285 9286 9287 9288 9289
10 9290 9291 9292 9293 9294 9295 9296 9297 9298 9299
10 9300 9301 9302 9303 9304 9305 9306 9307 9308 9309
10 9310 9311 9312 9313 9314 9315 9316 9317 9318 9319
10 9320 9321 9322 9323 9324 9325 9326 9327 9328 9329
10 9330 9331 9332 9333 9334 9335 9336 9337 9338 9339
10 9340 9341 9342 9343 9344 9345 9346 9347 9348 9349
10 9350 9351 9352 9353 9354 9355 9356 9357 9358 9359
10 9360 9361 9362 9363 9364 9365 9366 9367 9368 9369
10 9370 9371 9372 9373 9374 9375 9376 9377 9378 9379
10 9380 9381 9382 9383 9384 9385 9386 9387 9388 9389
10 9390 9391 9392 9393 9394 9395 9396 9397 9398 9399
10 9400 9401 9402 9403 9404 9405 9406 9407 9408 9409
10 9410 9411 9412 9413 9414 9415 9416 9417 9418 9419
10 9420 9421 9422 9423 9424 9425 9426 9427 9428 9429
10 9430 9431 9432 9433 9434 9435 9436 9437 9438 9439
10 9440 9441 9442 9443 9444 9445 9446 9447 9448 9449
10 9450 9451 9452 9453 9454 9455 9456 9457 9458 9459
10 9460 9461 9462 9463 9464 9465 9466 9467 9468 9469
10 9470 9471 9472 9473 9474 9475 9476 9477 9478 9479
10 9480 9481 9482 9483 9484 9485 9486 9487 9488 9489
10 9490 9491 9492 9493 9494 9495 9496 9497 9498 9499
10 9500 9501 9502 9503 9504 9505 9506 9507 9508 9509
10 9510 9511 9512 9513 9514 9515 9516 9517 9518 9519
10 9520 9521 9522 9523 9524 9525 9526 9527 9528 9529
10 9530 9531 9532 9533 9534 9535 9536 9537 9538 9539
10 9540 9541 9542 9543 9544 9545 9546 9547 9548 9549
10 9550 9551 9552 9553 9554 9555 9556 9557 9558 9559
10 9560 9561 9562 9563 9564 9565 9566 9567 9568 9569
10 9570 9571 9572 9573 9574 9575 9576 9577 9578 9579
10 9580 9581 9582 9583 9584 9585 9586 9587 9588 9589
10 9590 9591 9592 9593 9594 9595 9596 9597 9598 9599
10 9600 9601 9602 9603 9604 9605 9606 9607 9608 9609
10 9610 9611 9612 9613 9614 9615 9616 9617 9618 9619
10 9620 9621 9622 9623 9624 9625 9626 9627 9628 9629
10 9630 9631 9632 9633 9634 9635 9636 9637 9638 9639
10 9640 9641 9642 9643 9644 9645 9646 9647 9648 9649
10 9650 9651 9652 9653 9654 9655 9656 9657 9658 9659
10 9660 9661 9662 9663 9664 9665 9666 9667 9668 9669
10 9670 9671 9672 9673 9674 9675 9676 9677 9678 9679
10 9680 9681 9682 9683 9684 9685 9686 9687 9688 9689
10 9690 9691 9692 9693 9694 9695 9696 9697 9698 9699
10 9700 9701 9702 9703 9704 9705 9706 9707 9708 9709
10 9710 9711 9712 9713 9714 9715 9716 9717 9718 9719
10 9720 9721 9722 9723 9724 9725 9726 9727 9728 9729
10 9730 9731 9732 9733 9734 9735 9736 9737 9738 9739
10 9740 9741 9742 9743 9744 9745 9746 9747 9748 9749
10 9750 9751 9752 9753 9754 9755 9756 9757 9758 9759
10 9760 9761 9762 9763 9764 9765 9766 9767 9768 9769
10 9770 9771 9772 9773 9774 9775 9776 9777 9778 9779
10 9780 9781 9782 9783 9784 9785 9786 9787 9788 9789
10 9790 9791 9792 9793 9794 9795 9796 9797 9798 9799
10 9800 9801 9802 9803 9804 9805 9806 9807 9808 9809
10 9810 9811 9812 9813 9814 9815 9816 9817 9818 9819
10 9820 9821 9822 9823 9824 9825 9826 9827 9828 9829
10 9830 9831 9832 9833 9834 9835 9836 9837 9838 9839
10 9840 9841 9842 9843 9844 9845 9846 9847 9848 9849
10 9850 9851 9852 9853 9854 9855 9856 9857 9858 9859
10 9860 9861 9862 9863 9864 9865 9866 9867 9868 9869
10 9870 9871 9872 9873 9874 9875 9876 9877 9878 9879
10 9880 9881 9882 9883 9884 9885 9886 9887 9888 9889
10 9890 9891 9892 9893 9894 9895 9896 9897 9898 9899
10 9900 9901 9902 9903 9904 9905 9906 9907 9908 9909
10 9910 9911 9912 9913 9914 9915 9916 9917 9918 9919
10 9920 9921 9922 9923 9924 9925 9926 9927 9928 9929
10 9930 9931 9932 9933 9934 9935 9936 9937 9938 9939
10 9940 9941 9942 9943 9944 9945 9946 9947 9948 9949
10 9950 9951 9952 9953 9954 9955 9956 9957 9958 9959
10 9960 9961 9962 9963 9964 9965 9966 9967 9968 9969
10 9970 9971 9972 9973 9974 9975 9976 9977 9978 9979
10 9980 9981 9982 9983 9984 9985 9986 9987 9988 9989
10 9990 9991 9992 9993 9994 9995 9996 9997 9998 9999
10 10000 10001 10002 10003 10004 10005 10006 10007 10008 10009
10 10010 10011 10012 10013 10014 10015 10016 10017 10018 10019
10 10020 10021 10022 10023 10024 10025 10026 10027 10028 10029
10 10030 10031 10032 10033 10034 10035 10036 10037 10038 10039
10 10040 10041 10042 10043 10044 10045 10046 10047 10048 10049
10 10050 10051 10052 10053 10054 10055 10056 10057 10058 10059
10 10060 10061 10062 10063 10064 10065 10066 10067 10068 10069
10 10070 10071 10072 10073 10074 10075 10076 10077 10078 10079
10 10080 10081 10082 10083 10084 10085 10086 10087 10088 10089
10 10090 10091 10092 10093 10094 10095 10096 10097 10098 10099
10 10100 10101 10102 10103 10104 10105 10106 10107 10108 10109
10 10110 10111 10112 10113 10114 10115 10116 10117 10118 10119
10 10120 10121 10122 10123 10124 10125 10126 10127 10128 10129
10 10130 10131 10132 10133 10134 10135 10136 10137 10138 10139
10 10140 10141 10142 10143 10144 10145 10146 10147 10148 10149
10 10150 10151 10152 10153 10154 10155 10156 10157 10158 10159
10 10160 10161 10162 10163 10164 10165 10166 10167 10168 10169
10 10170 10171 10172 10173 10174 10175 10176 10177 10178 10179
10 10180 10181 10182 10183 10184 10185 10186 10187 10188 10189
10 10190 10191 10192 10193 10194 10195 10196 10197 10198 10199
10 10200 10201 10202 10203 10204 10205 10206 10207 10208 10209
10 10210 10211 10212 10213 10214 10215 10216 10217 10218 10219
10 10220 10221 10222 10223 10224 10225 10226 10227 10228 10229
10 10230 10231 10232 10233 10234 10235 10236 10237 10238 10239
10 10240 10241 10242 10243 10244 10245 10246 10247 10248 10249
10 10250 10251 10252 10253 10254 10255 10256 10257 10258 10259
10 10260 10261 10262 10263 10264 10265 10266 10267 10268 10269
10 10270 10271 10272 10273 10274 10275 10276 10277 10278 10279
10 10280 10281 10282 10283 10284 10285 10286 10287 10288 10289
10 10290 10291 10292 10293 10294 10295 10296 10297 10298 10299
10 10300 10301 10302 10303 10304 10305 10306 10307 10308 10309
10 10310 10311 10312 10313 10314 10315 10316 10317 10318 10319
10 10320 10321 10322 10323 10324 10325 10326 10327 10328 10329
10 10330 10331 10332 10333 10334 10335 10336 10337 10338 10339
10 10340 10341 10342 10343 10344 10345 10346 10347 10348 10349
10 10350 10351 10352 10353 10354 10355 10356 10357 10358 10359
10 10360 10361 10362 10363 10364 10365 10366 10367 10368 10369
10 10370 10371 10372 10373 10374 10375 10376 10377 10378 10379
10 10380 10381 10382 10383 10384 10385 10386 10387 10388 10389
10 10390 10391 10392 10393 10394 10395 10396 10397 10398 10399
10 10400 10401 10402 10403 10404 10405 10406 10407 10408 10409
10 10410 10411 10412 10413 10414 10415 10416 10417 10418 10419
10 10420 10421 10422 10423 10424 10425 10426 10427 10428 10429
10 10430 10431 10432 10433 10434 10435 10436 10437 10438 10439
10 10440 10441 10442 10443 10444 10445 10446 10447 10448 10449
10 10450 10451 10452 10453 10454 10455 10456 10457 10458 10459
10 10460 10461 10462 10463 10464 10465 10466 10467 10468 10469
10 10470 10471 10472 10473 10474 10475 10476 10477 10478 10479
10 10480 10481 10482 10483 10484 10485 10486 10487 10488 10489
10 10490 10491 10492 10493 10494 10495 10496 10497 10498 10499
10 10500 10501 10502 10503 10504 10505 10506 10507 10508 10509
10 10510 10511 10512 10513 10514 10515 10516 10517 10518 10519
10 10520 10521 10522 10523 10524 10525 10526 10527 10528 10529
10 10530 10531 10532 10533 10534 10535 10536 10537 10538 10539
10 10540 10541 10542 10543 10544 10545 10546 10547 10548 10549
10 10550 10551 10552 10553 10554 10555 10556 10557 10558 10559
10 10560 10561 10562 10563 10564 10565 10566 10567 10568 10569
10 10570 10571 10572 10573 10574 10575 10576 10577 10578 10579
10 10580 10581 10582 10583 10584 10585 10586 10587 10588 10589
10 10590 10591 10592 10593 10594 10595 10596 10597 10598 10599
10 10600 10601 10602 10603 10604 10605 10606 10607 10608 10609
10 10610 10611 10612 10613 10614 10615 10616 10617 10618 10619
10 10620 10621 10622 10623 10624 10625 10626 10627 10628 10629
10 10630 10631 10632 10633 10634 10635 10636 10637 10638 10639
10 10640 10641 10642 10643 10644 10645 10646 10647 10648 10649
10 10650 10651 10652 10653 10654 10655 10656 10657 10658 10659
10 10660 10661 10662 10663 10664 10665 10666 10667 10668 10669
10 10670 10671 10672 10673 10674 10675 10676 10677 10678 10679
10 10680 10681 10682 10683 10684 10685 10686 10687 10688 10689
10 10690 10691 10692 10693 10694 10695 10696 10697 10698 10699
10 10700 10701 10702 10703 10704 10705 10706 10707 10708 10709
10 10710 10711 10712 10713 10714 10715 10716 10717 10718 10719
10 10720 10721 10722 10723 10724 10725 10726 10727 10728 10729
10 10730 10731 10732 10733 10734 10735 10736 10737 10738 10739
10 10740 10741 10742 10743 10744 10745 10746 10747 10748 10749
10 10750 10751 10752 10753 10754 10755 10756 10757 10758 10759
10 10760 10761 10762 10763 10764 10765 10766 10767 10768 10769
10 10770 10771 10772 10773 10774 10775 10776 10777 10778 10779
10 10780 10781 10782 10783 10784 10785 10786 10787 10788 10789
10 10790 10791 10792 10793 10794 10795 10796 10797 10798 10799
10 10800 10801 10802 10803 10804 10805 10806 10807 10808 10809
10 10810 10811 10812 10813 10814 10815 10816 10817 10818 10819
10 10820 10821 10822 10823 10824 10825 10826 10827 10828 10829
10 10830 10831 10832 10833 10834 10835 10836 10837 10838 10839
10 10840 10841 10842 10843 10844 10845 10846 10847 10848 10849
10 10850 10851 10852 10853 10854 10855 10856 10857 10858 10859
10 10860 10861 10862 10863 10864 10865 10866 10867 10868 10869
10 10870 10871 10872 10873 10874 10875 10876 10877 10878 10879
10 10880 10881 10882 10883 10884 10885 10886 10887 10888 10889
10 10890 10891 10892 10893 10894 10895 10896 10897 10898 10899
10 10900 10901 10902 10903 10904 10905 10906 10907 10908 10909
10 10910 10911 10912 10913 10914 10915 10916 10917 10918 10919
10 10920 10921 10922 10923 10924 10925 10926 10927 10928 10929
10 10930 10931 10932 10933 10934 10935 10936 10937 10938 10939
10 10940 10941 10942 10943 10944 10945 10946 10947 10948 10949
10 10950 10951 10952 10953 10954 10955 10956 10957 10958 10959
10 10960 10961 10962 10963 10964 10965 10966 10967 10968 10969
10 10970 10971 10972 10973 10974 10975 10976 10977 10978 10979
10 10980 10981 10982 10983 10984 10985 10986 10987 10988 10989
10 10990 10991 10992 10993 10994 10995 10996 10997 10998 10999
10 11000 11001 11002 11003 11004 11005 11006 11007 11008 11009
10 11010 11011 11012 11013 11014 11015 11016 11017 11018 11019
10 11020 11021 11022 11023 11024 11025 11026 11027 11028 11029
10 11030 11031 11032 11033 11034 11035 11036 11037 11038 11039
10 11040 11041 11042 11043 11044 11045 11046 11047 11048 11049
10 11050 11051 11052 11053 11054 11055 11056 11057 11058 11059
10 11060 11061 11062 11063 11064 11065 11066 11067 11068 11069
10 11070 11071 11072 11073 11074 11075 11076 11077 11078 11079
10 11080 11081 11082 11083 11084 11085 11086 11087 11088 11089
10 11090 11091 11092 11093 11094 11095 11096 11097 11098 11099
10 11100 11101 11102 11103 11104 11105 11106 11107 11108 11109
10 11110 11111 11112 11113 11114 11115 11116 11117 11118 11119
10 11120 11121 11122 11123 11124 11125 11126 11127 11128 11129
10 11130 11131 11132 11133 11134 11135 11136 11137 11138 11139
10 11140 11141 11142 11143 11144 11145 11146 11147 11148 11149
10 11150 11151 11152 11153 11154 11155 11156 11157 11158 11159
10 11160 11161 11162 11163 11164 11165 11166 11167 11168 11169
10 11170 11171 11172 11173 11174 11175 11176 11177 11178 11179
10 11180 11181 11182 11183 11184 11185 11186 11187 11188 11189
10 11190 11191 11192 11193 11194 11195 11196 11197 11198 11199
10 11200 11201 11202 11203 11204 11205 11206 11207 11208 11209
10 11210 11211 11212 11213 11214 11215 11216 11217 11218 11219
10 11220 11221 11222 11223 11224 11225 11226 11227 11228 11229
10 11230 11231 11232 11233 11234 11235 11236 11237 11238 11239
10 11240 11241 11242 11243 11244 11245 11246 11247 11248 11249
10 11250 11251 11252 11253 11254 11255 11256 11257 11258 11259
10 11260 11261 11262 11263 11264 11265 11266 11267 11268 11269
10 11270 11271 11272 11273 11274 11275 11276 11277 11278 11279
10 11280 11281 11282 11283 11284 11285 11286 11287 11288 11289
10 11290 11291 11292 11293 11294 11295 11296 11297 11298 11299
10 11300 11301 11302 11303 11304 11305 11306 11307 11308 11309
10 11310 11311 11312 11313 11314 11315 11316 11317 11318 11319
10 11320 11321 11322 11323 11324 11325 11326 11327 11328 11329
10 11330 11331 11332 11333 11334 11335 11336 11337 11338 11339
10 11340 11341 11342 11343 11344 11345 11346 11347 11348 11349
10 11350 11351 11352 11353 11354 11355 11356 11357 11358 11359
10 11360 11361 11362 11363 11364 11365 11366 11367 11368 11369
10 11370 11371 11372 11373 11374 11375 11376 11377 11378 11379
10 11380 11381 11382 11383 11384 11385 11386 11387 11388 11389
10 11390 11391 11392 11393 11394 11395 11396 11397 11398 11399
10 11400 11401 11402 11403 11404 11405 11406 11407 11408 11409
10 11410 11411 11412 11413 11414 11415 11416 11417 11418 11419
10 11420 11421 11422 11423 11424 11425 11426 11427 11428 11429
10 11430 11431 11432 11433 11434 11435 11436 11437 11438 11439
10 11440 11441 11442 11443 11444 11445 11446 11447 11448 11449
10 11450 11451 11452 11453 11454 11455 11456 11457 11458 11459
10 11460 11461 11462 11463 11464 11465 11466 11467 11468 11469
10 11470 11471 11472 11473 11474 11475 11476 11477 11478 11479
10 11480 11481 11482 11483 11484 11485 11486 11487 11488 11489
10 11490 11491 11492 11493 11494 11495 11496 11497 11498 11499
10 11500 11501 11502 11503 11504 11505 11506 11507 11508 11509
10 11510 11511 11512 11513 11514 11515 11516 11517 11518 11519
10 11520 11521 11522 11523 11524 11525 11526 11527 11528 11529
10 11530 11531 11532 11533 11534 11535 11536 11537 11538 11539
10 11540 11541 11542 11543 11544 11545 11546 11547 11548 11549
10 11550 11551 11552 11553 11554 11555 11556 11557 11558 11559
10 11560 11561 11562 11563 11564 11565 11566 11567 11568 11569
10 11570 11571 11572 11573 11574 11575 11576 11577 11578 11579
10 11580 11581 11582 11583 11584 11585 11586 11587 11588 11589
10 11590 11591 11592 11593 11594 11595 11596 11597 11598 11599
10 11600 11601 11602 11603 11604 11605 11606 11607 11608 11609
10 11610 11611 11612 11613 11614 11615 11616 11617 11618 11619
10 11620 11621 11622 11623 11624 11625 11626 11627 11628 11629
10 11630 11631 11632 11633 11634 11635 11636 11637 11638 11639
10 11640 11641 11642 11643 11644 11645 11646 11647 11648 11649
10 11650 11651 11652 11653 11654 11655 11656 11657 11658 11659
10 11660 11661 11662 11663 11664 11665 11666 11667 11668 11669
10 11670 11671 11672 11673 11674 11675 11676 11677 11678 11679
10 11680 11681 11682 11683 11684 11685 11686 11687 11688 11689
10 11690 11691 11692 11693 11694 11695 11696 11697 11698 11699
10 11700 11701 11702 11703 11704 11705 11706 11707 11708 11709
10 11710 11711 11712 11713 11714 11715 11716 11717 11718 11719
10 11720 11721 11722 11723 11724 11725 11726 11727 11728 11729
10 11730 11731 11732 11733 11734 11735 11736 11737 11738 11739
10 11740 11741 11742 11743 11744 11745 11746 11747 11748 11749
10 11750 11751 11752 11753 11754 11755 11756 11757 11758 11759
10 11760 11761 11762 11763 11764 11765 11766 11767 11768 11769
10 11770 11771 11772 11773 11774 11775 11776 11777 11778 11779
10 11780 11781 11782 11783 11784 11785 11786 11787 11788 11789
10 11790 11791 11792 11793 11794 11795 11796 11797 11798 11799
10 11800 11801 11802 11803 11804 11805 11806 11807 11808 11809
10 11810 11811 11812 11813 11814 11815 11816 11817 11818 11819
10 11820 11821 11822 11823 11824 11825 11826 11827 11828 11829
10 11830 11831 11832 11833 11834 11835 11836 11837 11838 11839
10 11840 11841 11842 11843 11844 11845 11846 11847 11848 11849
10 11850 11851 11852 11853 11854 11855 11856 11857 11858 11859
10 11860 11861 11862 11863 11864 11865 11866 11867 11868 11869
10 11870 11871 11872 11873 11874 11875 11876 11877 11878 11879
10 11880 11881 11882 11883 11884 11885 11886 11887 11888 11889
10 11890 11891 11892 11893 11894 11895 11896 11897 11898 11899
10 11900 11901 11902 11903 11904 11905 11906 11907 11908 11909
10 11910 11911 11912 11913 11914 11915 11916 11917 11918 11919
10 11920 11921 11922 11923 11924 11925 11926 11927 11928 11929
10 11930 11931 11932 11933 11934 11935 11936 11937 11938 11939
10 11940 11941 11942 11943 11944 11945 11946 11947 11948 11949
10 11950 11951 11952 11953 11954 11955 11956 11957 11958 11959
10 11960 11961 11962 11963 11964 11965 11966 11967 11968 11969
10 11970 11971 11972 11973 11974 11975 11976 11977 11978 11979
10 11980 11981 11982 11983 11984 11985 11986 11987 11988 11989
10 11990 11991 11992 11993 11994 11995 11996 11997 11998 11999
10 12000 12001 12002 12003 12004 12005 12006 12007 12008 12009
10 12010 12011 12012 12013 12014 12015 12016 12017 12018 12019
10 12020 12021 12022 12023 12024 12025 12026 12027 12028 12029
10 12030 12031 12032 12033 12034 12035 12036 12037 12038 12039
10 12040 12041 12042 12043 12044 12045 12046 12047 12048 12049
10 12050 12051 12052 12053 12054 12055 12056 12057 12058 12059
10 12060 12061 12062 12063 12064 12065 12066 12067 12068 12069
10 12070 12071 12072 12073 12074 12075 12076 12077 12078 12079
10 12080 12081 12082 12083 12084 12085 12086 12087 12088 12089
10 12090 12091 12092 12093 12094 12095 12096 12097 12098 12099
10 12100 12101 12102 12103 12104 12105 12106 12107 12108 12109
10 12110 12111 12112 12113 12114 12115 12116 12117 12118 12119
10 12120 12121 12122 12123 12124 12125 12126 12127 12128 12129
10 12130 12131 12132 12133 12134 12135 12136 12137 12138 12139
10 12140 12141 12142 12143 12144 12145 12146 12147 12148 12149
10 12150 12151 12152 12153 12154 12155 12156 12157 12158 12159
10 12160 12161 12162 12163 12164 12165 12166 12167 12168 12169
10 12170 12171 12172 12173 12174 12175 12176 12177 12178 12179
10 12180 12181 12182 12183 12184 12185 12186 12187 12188 12189
10 12190 12191 12192 12193 12194 12195 12196 12197 12198 12199
10 12200 12201 12202 12203 12204 12205 12206 12207 12208 12209
10 12210 12211 12212 12213 12214 12215 12216 12217 12218 12219
10 12220 12221 12222 12223 12224 12225 12226 12227 12228 12229
10 12230 12231 12232 12233 12234 12235 12236 12237 12238 12239
10 12240 12241 12242 12243 12244 12245 12246 12247 12248 12249
10 12250 12251 12252 12253 12254 12255 12256 12257 12258 12259
10 12260 12261 12262 12263 12264 12265 12266 12267 12268 12269
10 12270 12271 12272 12273 12274 12275 12276 12277 12278 12279
10 12280 12281 12282 12283 12284 12285 12286 12287 12288 12289
10 12290 12291 12292 12293 12294 12295 12296 12297 12298 12299
10 12300 12301 12302 12303 12304 12305 12306 12307 12308 12309
10 12310 12311 12312 12313 12314 12315 12316 12317 12318 12319
10 12320 12321 12322 12323 12324 12325 12326 12327 12328 12329
10 12330 12331 12332 12333 12334 12335 12336 12337 12338 12339
10 12340 12341 12342 12343 12344 12345 12346 12347 12348 12349
10 12350 12351 12352 12353 12354 12355 12356 12357 12358 12359
10 12360 12361 12362 12363 12364 12365 12366 12367 12368 12369
10 12370 12371 12372 12373 12374 12375 12376 12377 12378 12379
10 12380 12381 12382 12383 12384 12385 12386 12387 12388 12389
10 12390 12391 12392 12393 12394 12395 12396 12397 12398 12399
10 12400 12401 12402 12403 12404 12405 12406 12407 12408 12409
10 12410 12411 12412 12413 12414 12415 12416 12417 12418 12419
10 12420 12421 12422 12423 12424 12425 12426 12427 12428 12429
10 12430 12431 12432 12433 12434 12435 12436 12437 12438 12439
10 12440 12441 12442 12443 12444 12445 12446 12447 12448 12449
10 12450 12451 12452 12453 12454 12455 12456 12457 12458 12459
10 12460 12461 12462 12463 12464 12465 12466 12467 12468 12469
10 12470 12471 12472 12473 12474 12475 12476 12477 12478 12479
10 12480 12481 12482 12483 12484 12485 12486 12487 12488 12489
10 12490 12491 12492 12493 12494 12495 12496 12497 12498 12499
10 12500 12501 12502 12503 12504 12505 12506 12507 12508 12509
10 12510 12511 12512 12513 12514 12515 12516 12517 12518 12519
10 12520 12521 12522 12523 12524 12525 12526 12527 12528 12529
10 12530 12531 12532 12533 12534 12535 12536 12537 12538 12539
10 12540 12541 12542 12543 12544 12545 12546 12547 12548 12549
10 12550 12551 12552 12553 12554 12555 12556 12557 12558 12559
10 12560 12561 12562 12563 12564 12565 12566 12567 12568 12569
10 12570 12571 12572 12573 12574 12575 12576 12577 12578 12579
10 12580 12581 12582 12583 12584 12585 12586 12587 12588 12589
10 12590 12591 12592 12593 12594 12595 12596 12597 12598 12599
10 12600 12601 12602 12603 12604 12605 12606 12607 12608 12609
10 12610 12611 12612 12613 12614 12615 12616 12617 12618 12619
10 12620 12621 12622 12623 12624 12625 12626 12627 12628 12629
10 12630 12631 12632 12633 12634 12635 12636 12637 12638 12639
10 12640 12641 12642 12643 12644 12645 12646 12647 12648 12649
10 12650 12651 12652 12653 12654 12655 12656 12657 12658 12659
10 12660 12661 12662 12663 12664 12665 12666 12667 12668 12669
10 12670 12671 12672 12673 12674 12675 12676 12677 12678 12679
10 12680 12681 12682 12683 12684 12685 12686 12687 12688 12689
10 12690 12691 12692 12693 12694 12695 12696 12697 12698 12699
10 12700 12701 12702 12703 12704 12705 12706 12707 12708 12709
10 12710 12711 12712 12713 12714 12715 12716 12717 12718 12719
10 12720 12721 12722 12723 12724 12725 12726 12727 12728 12729
10 12730 12731 12732 12733 12734 12735 12736 12737 12738 12739
10 12740 12741 12742 12743 12744 12745 12746 12747 12748 12749
10 12750 12751 12752 12753 12754 12755 12756 12757 12758 12759
10 12760 12761 12762 12763 12764 12765 12766 12767 12768 12769
10 12770 12771 12772 12773 12774 12775 12776 12777 12778 12779
10 12780 12781 12782 12783 12784 12785 12786 12787 12788 12789
10 12790 12791 12792 12793 12794 12795 12796 12797 12798 12799
10 12800 12801 12802 12803 12804 12805 12806 12807 12808 12809
10 12810 12811 12812 12813 12814 12815 12816 12817 12818 12819
10 12820 12821 12822 12823 12824 12825 12826 12827 12828 12829
10 12830 12831 12832 12833 12834 12835 12836 12837 12838 12839
10 12840 12841 12842 12843 12844 12845 12846 12847 12848 12849
10 12850 12851 12852 12853 12854 12855 12856 12857 12858 12859
10 12860 12861 12862 12863 12864 12865 12866 12867 12868 12869
10 12870 12871 12872 12873 12874 12875 12876 12877 12878 12879
10 12880 12881 12882 12883 12884 12885 12886 12887 12888 12889
10 12890 12891 12892 12893 12894 12895 12896 12897 12898 12899
10 12900 12901 12902 12903 12904 12905 12906 12907 12908 12909
10 12910 12911 12912 12913 12914 12915 12916 12917 12918 12919
10 12920 12921 12922 12923 12924 12925 12926 12927 12928 12929
10 12930 12931 12932 12933 12934 12935 12936 12937 12938 12939
10 12940 12941 12942 12943 12944 12945 12946 12947 12948 12949
10 12950 12951 12952 12953 12954 12955 12956 12957 12958 12959
10 12960 12961 12962 12963 12964 12965 12966 12967 12968 12969
10 12970 12971 12972 12973 12974 12975 12976 12977 12978 12979
10 12980 12981 12982 12983 12984 12985 12986 12987 12988 12989
10 12990 12991 12992 12993 12994 12995 12996 12997 12998 12999
10 13000 13001 13002 13003 13004 13005 13006 13007 13008 13009
10 13010 13011 13012 13013 13014 13015 13016 13017 13018 13019
10 13020 13021 13022 13023 13024 13025 13026 13027 13028 13029
10 13030 13031 13032 13033 13034 13035 13036 13037 13038 13039
10 13040 13041 13042 13043 13044 13045 13046 13047 13048 13049
10 13050 13051 13052 13053 13054 13055 13056 13057 13058 13059
10 13060 13061 13062 13063 13064 13065 13066 13067 13068 13069
10 13070 13071 13072 13073 13074 13075 13076 13077 13078 13079
10 13080 13081 13082 13083 13084 13085 13086 13087 13088 13089
10 13090 13091 13092 13093 13094 13095 13096 13097 13098 13099
10 13100 13101 13102 13103 13104 13105 13106 13107 13108 13109
10 13110 13111 13112 13113 13114 13115 13116 13117 13118 13119
10 13120 13121 13122 13123 13124 13125 13126 13127 13128 13129
10 13130 13131 13132 13133 13134 13135 13136 13137 13138 13139
10 13140 13141 13142 13143 13144 13145 13146 13147 13148 13149
10 13150 13151 13152 13153 13154 13155 13156 13157 13158 13159
10 13160 13161 13162 13163 13164 13165 13166 13167 13168 13169
10 13170 13171 13172 13173 13174 13175 13176 13177 13178 13179
10 13180 13181 13182 13183 13184 13185 13186 13187 13188 13189
10 13190 13191 13192 13193 13194 13195 13196 13197 13198 13199
10 13200 13201 13202 13203 13204 13205 13206 13207 13208 13209
10 13210 13211 13212 13213 13214 13215 13216 13217 13218 13219
10 13220 13221 13222 13223 13224 13225 13226 13227 13228 13229
10 13230 13231 13232 13233 13234 13235 13236 13237 13238 13239
10 13240 13241 13242 13243 13244 13245 13246 13247 13248 13249
10 13250 13251 13252 13253 13254 13255 13256 13257 13258 13259
10 13260 13261 13262 13263 13264 13265 13266 13267 13268 13269
10 13270 13271 13272 13273 13274 13275 13276 13277 13278 13279
10 13280 13281 13282 13283 13284 13285 13286 13287 13288 13289
10 13290 13291 13292 13293 13294 13295 13296 13297 13298 13299
10 13300 13301 13302 13303 13304 13305 13306 13307 13308 13309
10 13310 13311 13312 13313 13314 13315 13316 13317 13318 13319
10 13320 13321 13322 13323 13324 13325 13326 13327 13328 13329
10 13330 13331 13332 13333 13334 13335 13336 13337 13338 13339
10 13340 13341 13342 13343 13344 13345 13346 13347 13348 13349
10 13350 13351 13352 13353 13354 13355 13356 13357 13358 13359
10 13360 13361 13362 13363 13364 13365 13366 13367 13368 13369
10 13370 13371 13372 13373 13374 13375 13376 13377 13378 13379
10 13380 13381 13382 13383 13384 13385 13386 13387 13388 13389
10 13390 13391 13392 13393 13394 13395 13396 13397 13398 13399
10 13400 13401 13402 13403 13404 13405 13406 13407 13408 13409
10 13410 13411 13412 13413 13414 13415 13416 13417 13418 13419
10 13420 13421 13422 13423 13424 13425 13426 13427 13428 13429
10 13430 13431 13432 13433 13434 13435 13436 13437 13438 13439
10 13440 13441 13442 13443 13444 13445 13446 13447 13448 13449
10 13450 13451 13452 13453 13454 13455 13456 13457 13458 13459
10 13460 13461 13462 13463 13464 13465 13466 13467 13468 13469
10 13470 13471 13472 13473 13474 13475 13476 13477 13478 13479
10 13480 13481 13482 13483 13484 13485 13486 13487 13488 13489
10 13490 13491 13492 13493 13494 13495 13496 13497 13498 13499
10 13500 13501 13502 13503 13504 13505 13506 13507 13508 13509
10 13510 13511 13512 13513 13514 13515 13516 13517 13518 13519
10 13520 13521 13522 13523 13524 13525 13526 13527 13528 13529
10 13530 13531 13532 13533 13534 13535 13536 13537 13538 13539
10 13540 13541 13542 13543 13544 13545 13546 13547 13548 13549
10 13550 13551 13552 13553 13554 13555 13556 13557 13558 13559
10 13560 13561 13562 13563 13564 13565 13566 13567 13568 13569
10 13570 13571 13572 13573 13574 13575 13576 13577 13578 13579
10 13580 13581 13582 13583 13584 13585 13586 13587 13588 13589
10 13590 13591 13592 13593 13594 13595 13596 13597 13598 13599
10 13600 13601 13602 13603 13604 13605 13606 13607 13608 13609
10 13610 13611 13612 13613 13614 13615 13616 13617 13618 13619
10 13620 13621 13622 13623 13624 13625 13626 13627 13628 13629
10 13630 13631 13632 13633 13634 13635 13636 13637 13638 13639
10 13640 13641 13642 13643 13644 13645 13646 13647 13648 13649
10 13650 13651 13652 13653 13654 13655 13656 13657 13658 13659
10 13660 13661 13662 13663 13664 13665 13666 13667 13668 13669
10 13670 13671 13672 13673 13674 13675 13676 13677 13678 13679
10 13680 13681 13682 13683 13684 13685 13686 13687 13688 13689
10 13690 13691 13692 13693 13694 13695 13696 13697 13698 13699
10 13700 13701 13702 13703 13704 13705 13706 13707 13708 13709
10 13710 13711 13712 13713 13714 13715 13716 13717 13718 13719
10 13720 13721 13722 13723 13724 13725 13726 13727 13728 13729
10 13730 13731 13732 13733 13734 13735 13736 13737 13738 13739
10 13740 13741 13742 13743 13744 13745 13746 13747 13748 13749
10 13750 13751 13752 13753 13754 13755 13756 13757 13758 13759
10 13760 13761 13762 13763 13764 13765 13766 13767 13768 13769
10 13770 13771 13772 13773 13774 13775 13776 13777 13778 13779
10 13780 13781 13782 13783 13784 13785 13786 13787 13788 13789
10 13790 13791 13792 13793 13794 13795 13796 13797 13798 13799
10 13800 13801 13802 13803 13804 13805 13806 13807 13808 13809
10 13810 13811 13812 13813 13814 13815 13816 13817 13818 13819
10 13820 13821 13822 13823 13824 13825 13826 13827 13828 13829
10 13830 13831 13832 13833 13834 13835 13836 13837 13838 13839
10 13840 13841 13842 13843 13844 13845 13846 13847 13848 13849
10 13850 13851 13852 13853 13854 13855 13856 13857 13858 13859
10 13860 13861 13862 13863 13864 13865 13866 13867 13868 13869
10 13870 13871 13872 13873 13874 13875 13876 13877 13878 13879
10 13880 13881 13882 13883 13884 13885 13886 13887 13888 13889
10 13890 13891 13892 13893 13894 13895 13896 13897 13898 13899
10 13900 13901 13902 13903 13904 13905 13906 13907 13908 13909
10 13910 13911 13912 13913 13914 13915 13916 13917 13918 13919
10 13920 13921 13922 13923 13924 13925 13926 13927 13928 13929
10 13930 13931 13932 13933 13934 13935 13936 13937 13938 13939
10 13940 13941 13942 13943 13944 13945 13946 13947 13948 13949
10 13950 13951 13952 13953 13954 13955 13956 13957 13958 13959
10 13960 13961 13962 13963 13964 13965 13966 13967 13968 13969
10 13970 13971 13972 13973 13974 13975 13976 13977 13978 13979
10 13980 13981 13982 13983 13984 13985 13986 13987 13988 13989
10 13990 13991 13992 13993 13994 13995 13996 13997 13998 13999
10 14000 14001 14002 14003 14004 14005 14006 14007 14008 14009
10 14010 14011 14012 14013 14014 14015 14016 14017 14018 14019
10 14020 14021 14022 14023 14024 14025 14026 14027 14028 14029
10 14030 14031 14032 14033 14034 14035 14036 14037 14038 14039
10 14040 14041 14042 14043 14044 14045 14046 14047 14048 14049
10 14050 14051 14052 14053 14054 14055 14056 14057 14058 14059
10 14060 14061 14062 14063 14064 14065 14066 14067 14068 14069
10 14070 14071 14072 14073 14074 14075 14076 14077 14078 14079
10 14080 14081 14082 14083 14084 14085 14086 14087 14088 14089
10 14090 14091 14092 14093 14094 14095 14096 14097 14098 14099
10 14100 14101 14102 14103 14104 14105 14106 14107 14108 14109
10 14110 14111 14112 14113 14114 14115 14116 14117 14118 14119
10 14120 14121 14122 14123 14124 14125 14126 14127 14128 14129
10 14130 14131 14132 14133 14134 14135 14136 14137 14138 14139
10 14140 14141 14142 14143 14144 14145 14146 14147 14148 14149
10 14150 14151 14152 14153 14154 14155 14156 14157 14158 14159
10 14160 14161 14162 14163 14164 14165 14166 14167 14168 14169
10 14170 14171 14172 14173 14174 14175 14176 14177 14178 14179
10 14180 14181 14182 14183 14184 14185 14186 14187 14188 14189
10 14190 14191 14192 14193 14194 14195 14196 14197 14198 14199
10 14200 14201 14202 14203 14204 14205 14206 14207 14208 14209
10 14210 14211 14212 14213 14214 14215 14216 14217 14218 14219
10 14220 14221 14222 14223 14224 14225 14226 14227 14228 14229
10 14230 14231 14232 14233 14234 14235 14236 14237 14238 14239
10 14240 14241 14242 14243 14244 14245 14246 14247 14248 14249
10 14250 14251 14252 14253 14254 14255 14256 14257 14258 14259
10 14260 14261 14262 14263 14264 14265 14266 14267 14268 14269
10 14270 14271 14272 14273 14274 14275 14276 14277 14278 14279
10 14280 14281 14282 14283 14284 14285 14286 14287 14288 14289
10 14290 14291 14292 14293 14294 14295 14296 14297 14298 14299
10 14300 14301 14302 14303 14304 14305 14306 14307 14308 14309
10 14310 14311 14312 14313 14314 14315 14316 14317 14318 14319
10 14320 14321 14322 14323 14324 14325 14326 14327 14328 14329
10 14330 14331 14332 14333 14334 14335 14336 14337 14338 14339
10 14340 14341 14342 14343 14344 14345 14346 14347 14348 14349
10 14350 14351 14352 14353 14354 14355 14356 14357 14358 14359
10 14360 14361 14362 14363 14364 14365 14366 14367 14368 14369
10 14370 14371 14372 14373 14374 14375 14376 14377 14378 14379
10 14380 14381 14382 14383 14384 14385 14386 14387 14388 14389
10 14390 14391 14392 14393 14394 14395 14396 14397 14398 14399
10 14400 14401 14402 14403 14404 14405 14406 14407 14408 14409
10 14410 14411 14412 14413 14414 14415 14416 14417 14418 14419
10 14420 14421 14422 14423 14424 14425 14426 14427 14428 14429
10 14430 14431 14432 14433 14434 14435 14436 14437 14438 14439
10 14440 14441 14442 14443 14444 14445 14446 14447 14448 14449
10 14450 14451 14452 14453 14454 14455 14456 14457 14458 14459
10 14460 14461 14462 14463 14464 14465 14466 14467 14468 14469
10 14470 14471 14472 14473 14474 14475 14476 14477 14478 14479
10 14480 14481 14482 14483 14484 14485 14486 14487 14488 14489
10 14490 14491 14492 14493 14494 14495 14496 14497 14498 14499
10 14500 14501 14502 14503 14504 14505 14506 14507 14508 14509
10 14510 14511 14512 14513 14514 14515 14516 14517 14518 14519
10 14520 14521 14522 14523 14524 14525 14526 14527 14528 14529
10 14530 14531 14532 14533 14534 14535 14536 14537 14538 14539
10 14540 14541 14542 14543 14544 14545 14546 14547 14548 14549
10 14550 14551 14552 14553 14554 14555 14556 14557 14558 14559
10 14560 14561 14562 14563 14564 14565 14566 14567 14568 14569
10 14570 14571 14572 14573 14574 14575 14576 14577 14578 14579
10 14580 14581 14582 14583 14584 14585 14586 14587 14588 14589
10 14590 14591 14592 14593 14594 14595 14596 14597 14598 14599
10 14600 14601 14602 14603 14604 14605 14606 14607 14608 14609
10 14610 14611 14612 14613 14614 14615 14616 14617 14618 14619
10 14620 14621 14622 14623 14624 14625 14626 14627 14628 14629
10 14630 14631 14632 14633 14634 14635 14636 14637 14638 14639
10 14640 14641 14642 14643 14644 14645 14646 14647 14648 14649
10 14650 14651 14652 14653 14654 14655 14656 14657 14658 14659
10 14660 14661 14662 14663 14664 14665 14666 14667 14668 14669
10 14670 14671 14672 14673 14674 14675 14676 14677 14678 14679
10 14680 14681 14682 14683 14684 14685 14686 14687 14688 14689
10 14690 14691 14692 14693 14694 14695 14696 14697 14698 14699
10 14700 14701 14702 14703 14704 14705 14706 14707 14708 14709
10 14710 14711 14712 14713 14714 14715 14716 14717 14718 14719
10 14720 14721 14722 14723 14724 14725 14726 14727 14728 14729
10 14730 14731 14732 14733 14734 14735 14736 14737 14738 14739
10 14740 14741 14742 14743 14744 14745 14746 14747 14748 14749
10 14750 14751 14752 14753 14754 14755 14756 14757 14758 14759
10 14760 14761 14762 14763 14764 14765 14766 14767 14768 14769
10 14770 14771 14772 14773 14774 14775 14776 14777 14778 14779
10 14780 14781 14782 14783 14784 14785 14786 14787 14788 14789
10 14790 14791 14792 14793 14794 14795 14796 14797 14798 14799
10 14800 14801 14802 14803 14804 14805 14806 14807 14808 14809
10 14810 14811 14812 14813 14814 14815 14816 14817 14818 14819
10 14820 14821 14822 14823 14824 14825 14826 14827 14828 14829
10 14830 14831 14832 14833 14834 14835 14836 14837 14838 14839
10 14840 14841 14842 14843 14844 14845 14846 14847 14848 14849
10 14850 14851 14852 14853 14854 14855 14856 14857 14858 14859
10 14860 14861 14862 14863 14864 14865 14866 14867 14868 14869
10 14870 14871 14872 14873 14874 14875 14876 14877 14878 14879
10 14880 14881 14882 14883 14884 14885 14886 14887 14888 14889
10 14890 14891 14892 14893 14894 14895 14896 14897 14898 14899
10 14900 14901 14902 14903 14904 14905 14906 14907 14908 14909
10 14910 14911 14912 14913 14914 14915 14916 14917 14918 14919
10 14920 14921 14922 14923 14924 14925 14926 14927 14928 14929
10 14930 14931 14932 14933 14934 14935 14936 14937 14938 14939
10 14940 14941 14942 14943 14944 14945 14946 14947 14948 14949
10 14950 14951 14952 14953 14954 14955 14956 14957 14958 14959
10 14960 14961 14962 14963 14964 14965 14966 14967 14968 14969
10 14970 14971 14972 14973 14974 14975 14976 14977 14978 14979
10 14980 14981 14982 14983 14984 14985 14986 14987 14988 14989
10 14990 14991 14992 14993 14994 14995 14996 14997 14998 14999
10 15000 15001 15002 15003 15004 15005 15006 15007 15008 15009
10 15010 15011 15012 15013 15014 15015 15016 15017 15018 15019
10 15020 15021 15022 15023 15024 15025 15026 15027 15028 15029
10 15030 15031 15032 15033 15034 15035 15036 15037 15038 15039
10 15040 15041 15042 15043 15044 15045 15046 15047 15048 15049
10 15050 15051 15052 15053 15054 15055 15056 15057 15058 15059
10 15060 15061 15062 15063 15064 15065 15066 15067 15068 15069
10 15070 15071 15072 15073 15074 15075 15076 15077 15078 15079
10 15080 15081 15082 15083 15084 15085 15086 15087 15088 15089
10 15090 15091 15092 15093 15094 15095 15096 15097 15098 15099
10 15100 15101 15102 15103 15104 15105 15106 15107 15108 15109
10 15110 15111 15112 15113 15114 15115 15116 15117 15118 15119
10 15120 15121 15122 15123 15124 15125 15126 15127 15128 15129
10 15130 15131 15132 15133 15134 15135 15136 15137 15138 15139
10 15140 15141 15142 15143 15144 15145 15146 15147 15148 15149
10 15150 15151 15152 15153 15154 15155 15156 15157 15158 15159
10 15160 15161 15162 15163 15164 15165 15166 15167 15168 15169
10 15170 15171 15172 15173 15174 15175 15176 15177 15178 15179
10 15180 15181 15182 15183 15184 15185 15186 15187 15188 15189
10 15190 15191 15192 15193 15194 15195 15196 15197 15198 15199
10 15200 15201 15202 15203 15204 15205 15206 15207 15208 15209
10 15210 15211 15212 15213 15214 15215 15216 15217 15218 15219
10 15220 15221 15222 15223 15224 15225 15226 15227 15228 15229
10 15230 15231 15232 15233 15234 15235 15236 15237 15238 15239
10 15240 15241 15242 15243 15244 15245 15246 15247 15248 15249
10 15250 15251 15252 15253 15254 15255 15256 15257 15258 15259
10 15260 15261 15262 15263 15264 15265 15266 15267 15268 15269
10 15270 15271 15272 15273 15274 15275 15276 15277 15278 15279
10 15280 15281 15282 15283 15284 15285 15286 15287 15288 15289
10 15290 15291 15292 15293 15294 15295 15296 15297 15298 15299
10 15300 15301 15302 15303 15304 15305 15306 15307 15308 15309
10 15310 15311 15312 15313 15314 15315 15316 15317 15318 15319
10 15320 15321 15322 15323 15324 15325 15326 15327 15328 15329
10 15330 15331 15332 15333 15334 15335 15336 15337 15338 15339
10 15340 15341 15342 15343 15344 15345 15346 15347 15348 15349
10 15350 15351 15352 15353 15354 15355 15356 15357 15358 15359
10 15360 15361 15362 15363 15364 15365 15366 15367 15368 15369
10 15370 15371 15372 15373 15374 15375 15376 15377 15378 15379
10 15380 15381 15382 15383 15384 15385 15386 15387 15388 15389
10 15390 15391 15392 15393 15394 15395 15396 15397 15398 15399
10 15400 15401 15402 15403 15404 15405 15406 15407 15408 15409
10 15410 15411 15412 15413 15414 15415 15416 15417 15418 15419
10 15420 15421 15422 15423 15424 15425 15426 15427 15428 15429
10 15430 15431 15432 15433 15434 15435 15436 15437 15438 15439
10 15440 15441 15442 15443 15444 15445 15446 15447 15448 15449
10 15450 15451 15452 15453 15454 15455 15456 15457 15458 15459
10 15460 15461 15462 15463 15464 15465 15466 15467 15468 15469
10 15470 15471 15472 15473 15474 15475 15476 15477 15478 15479
10 15480 15481 15482 15483 15484 15485 15486 15487 15488 15489
10 15490 15491 15492 15493 15494 15495 15496 15497 15498 15499
10 15500 15501 15502 15503 15504 15505 15506 15507 15508 15509
10 15510 15511 15512 15513 15514 15515 15516 15517 15518 15519
10 15520 15521 15522 15523 15524 15525 15526 15527 15528 15529
10 15530 15531 15532 15533 15534 15535 15536 15537 15538 15539
10 15540 15541 15542 15543 15544 15545 15546 15547 15548 15549
10 15550 15551 15552 15553 15554 15555 15556 15557 15558 15559
10 15560 15561 15562 15563 15564 15565 15566 15567 15568 15569
10 15570 15571 15572 15573 15574 15575 15576 15577 15578 15579
10 15580 15581 15582 15583 15584 15585 15586 15587 15588 15589
10 15590 15591 15592 15593 15594 15595 15596 15597 15598 15599
10 15600 15601 15602 15603 15604 15605 15606 15607 15608 15609
10 15610 15611 15612 15613 15614 15615 15616 15617 15618 15619
10 15620 15621 15622 15623 15624 15625 15626 15627 15628 15629
10 15630 15631 15632 15633 15634 15635 15636 15637 15638 15639
10 15640 15641 15642 15643 15644 15645 15646 15647 15648 15649
10 15650 15651 15652 15653 15654 15655 15656 15657 15658 15659
10 15660 15661 15662 15663 15664 15665 15666 15667 15668 15669
10 15670 15671 15672 15673 15674 15675 15676 15677 15678 15679
10 15680 15681 15682 15683 15684 15685 15686 15687 15688 15689
10 15690 15691 15692 15693 15694 15695 15696 15697 15698 15699
10 15700 15701 15702 15703 15704 15705 15706 15707 15708 15709
10 15710 15711 15712 15713 15714 15715 15716 15717 15718 15719
10 15720 15721 15722 15723 15724 15725 15726 15727 15728 15729
10 15730 15731 15732 15733 15734 15735 15736 15737 15738 15739
10 15740 15741 15742 15743 15744 15745 15746 15747 15748 15749
10 15750 15751 15752 15753 15754 15755 15756 15757 15758 15759
10 15760 15761 15762 15763 15764 15765 15766 15767 15768 15769
10 15770 15771 15772 15773 15774 15775 15776 15777 15778 15779
10 15780 15781 15782 15783 15784 15785 15786 15787 15788 15789
10 15790 15791 15792 15793 15794 15795 15796 15797 15798 15799
10 15800 15801 15802 15803 15804 15805 15806 15807 15808 15809
10 15810 15811 15812 15813 15814 15815 15816 15817 15818 15819
10 15820 15821 15822 15823 15824 15825 15826 15827 15828 15829
10 15830 15831 15832 15833 15834 15835 15836 15837 15838 15839
10 15840 15841 15842 15843 15844 15845 15846 15847 15848 15849
10 15850 15851 15852 15853 15854 15855 15856 15857 15858 15859
10 15860 15861 15862 15863 15864 15865 15866 15867 15868 15869
10 15870 15871 15872 15873 15874 15875 15876 15877 15878 15879
10 15880 15881 15882 15883 15884 15885 15886 15887 15888 15889
10 15890 15891 15892 15893 15894 15895 15896 15897 15898 15899
10 15900 15901 15902 15903 15904 15905 15906 15907 15908 15909
10 15910 15911 15912 15913 15914 15915 15916 15917 15918 15919
10 15920 15921 15922 15923 15924 15925 15926 15927 15928 15929
10 15930 15931 15932 15933 15934 15935 15936 15937 15938 15939
10 15940 15941 15942 15943 15944 15945 15946 15947 15948 15949
10 15950 15951 15952 15953 15954 15955 15956 15957 15958 15959
10 15960 15961 15962 15963 15964 15965 15966 15967 15968 15969
10 15970 15971 15972 15973 15974 15975 15976 15977 15978 15979
10 15980 15981 15982 15983 15984 15985 15986 15987 15988 15989
10 15990 15991 15992 15993 15994 15995 15996 15997 15998 15999
10 16000 16001 16002 16003 16004 16005 16006 16007 16008 16009
10 16010 16011 16012 16013 16014 16015 16016 16017 16018 16019
10 16020 16021 16022 16023 16024 16025 16026 16027 16028 16029
10 16030 16031 16032 16033 16034 16035 16036 16037 16038 16039
10 16040 16041 16042 16043 16044 16045 16046 16047 16048 16049
10 16050 16051 16052 16053 16054 16055 16056 16057 16058 16059
10 16060 16061 16062 16063 16064 16065 16066 16067 16068 16069
10 16070 16071 16072 16073 16074 16075 16076 16077 16078 16079
10 16080 16081 16082 16083 16084 16085 16086 16087 16088 16089
10 16090 16091 16092 16093 16094 16095 16096 16097 16098 16099
10 16100 16101 16102 16103 16104 16105 16106 16107 16108 16109
10 16110 16111 16112 16113 16114 16115 16116 16117 16118 16119
10 16120 16121 16122 16123 16124 16125 16126 16127 16128 16129
10 16130 16131 16132 16133 16134 16135 16136 16137 16138 16139
10 16140 16141 16142 16143 16144 16145 16146 16147 16148 16149
10 16150 16151 16152 16153 16154 16155 16156 16157 16158 16159
10 16160 16161 16162 16163 16164 16165 16166 16167 16168 16169
10 16170 16171 16172 16173 16174 16175 16176 16177 16178 16179
10 16180 16181 16182 16183 16184 16185 16186 16187 16188 16189
10 16190 16191 16192 16193 16194 16195 16196 16197 16198 16199
10 16200 16201 16202 16203 16204 16205 16206 16207 16208 16209
10 16210 16211 16212 16213 16214 16215 16216 16217 16218 16219
10 16220 16221 16222 16223 16224 16225 16226 16227 16228 16229
10 16230 16231 16232 16233 16234 16235 16236 16237 16238 16239
10 16240 16241 16242 16243 16244 16245 16246 16247 16248 16249
10 16250 16251 16252 16253 16254 16255 16256 16257 16258 16259
10 16260 16261 16262 16263 16264 16265 16266 16267 16268 16269
10 16270 16271 16272 16273 16274 16275 16276 16277 16278 16279
10 16280 16281 16282 16283 16284 16285 16286 16287 16288 16289
10 16290 16291 16292 16293 16294 16295 16296 16297 16298 16299
10 16300 16301 16302 16303 16304 16305 16306 16307 16308 16309
10 16310 16311 16312 16313 16314 16315 16316 16317 16318 16319
10 16320 16321 16322 16323 16324 16325 16326 16327 16328 16329
10 16330 16331 16332 16333 16334 16335 16336 16337 16338 16339
10 16340 16341 16342 16343 16344 16345 16346 16347 16348 16349
10 16350 16351 16352 16353 16354 16355 16356 16357 16358 16359
10 16360 16361 16362 16363 16364 16365 16366 16367 16368 16369
10 16370 16371 16372 16373 16374 16375 16376 16377 16378 16379
10 16380 16381 16382 16383 16384 16385 16386 16387 16388 16389
10 16390 16391 16392 16393 16394 16395 16396 16397 16398 16399
10 16400 16401 16402 16403 16404 16405 16406 16407 16408 16409
10 16410 16411 16412 16413 16414 16415 16416 16417 16418 16419
10 16420 16421 16422 16423 16424 16425 16426 16427 16428 16429
10 16430 16431 16432 16433 16434 16435 16436 16437 16438 16439
10 16440 16441 16442 16443 16444 16445 16446 16447 16448 16449
10 16450 16451 16452 16453 16454 16455 16456 16457 16458 16459
10 16460 16461 16462 16463 16464 16465 16466 16467 16468 16469
10 16470 16471 16472 16473 16474 16475 16476 16477 16478 16479
10 16480 16481 16482 16483 16484 16485 16486 16487 16488 16489
10 16490 16491 16492 16493 16494 16495 16496 16497 16498 16499
10 16500 16501 16502 16503 16504 16505 16506 16507 16508 16509
10 16510 16511 16512 16513 16514 16515 16516 16517 16518 16519
10 16520 16521 16522 16523 16524 16525 16526 16527 16528 16529
10 16530 16531 16532 16533 16534 16535 16536 16537 16538 16539
10 16540 16541 16542 16543 16544 16545 16546 16547 16548 16549
10 16550 16551 16552 16553 16554 16555 16556 16557 16558 16559
10 16560 16561 16562 16563 16564 16565 16566 16567 16568 16569
10 16570 16571 16572 16573 16574 16575 16576 16577 16578 16579
10 16580 16581 16582 16583 16584 16585 16586 16587 16588 16589
10 16590 16591 16592 16593 16594 16595 16596 16597 16598 16599
10 16600 16601 16602 16603 16604 16605 16606 16607 16608 16609
10 16610 16611 16612 16613 16614 16615 16616 16617 16618 16619
10 16620 16621 16622 16623 16624 16625 16626 16627 16628 16629
10 16630 16631 16632 16633 16634 16635 16636 16637 16638 16639
10 16640 16641 16642 16643 16644 16645 16646 16647 16648 16649
10 16650 16651 16652 16653 16654 16655 16656 16657 16658 16659
10 16660 16661 16662 16663 16664 16665 16666 16667 16668 16669
10 16670 16671 16672 16673 16674 16675 16676 16677 16678 16679
10 16680 16681 16682 16683 16684 16685 16686 16687 16688 16689
10 16690 16691 16692 16693 16694 16695 16696 16697 16698 16699
10 16700 16701 16702 16703 16704 16705 16706 16707 16708 16709
10 16710 16711 16712 16713 16714 16715 16716 16717 16718 16719
10 16720 16721 16722 16723 16724 16725 16726 16727 16728 16729
10 16730 16731 16732 16733 16734 16735 16736 16737 16738 16739
10 16740 16741 16742 16743 16744 16745 16746 16747 16748 16749
10 16750 16751 16752 16753 16754 16755 16756 16757 16758 16759
10 16760 16761 16762 16763 16764 16765 16766 16767 16768 16769
10 16770 16771 16772 16773 16774 16775 16776 16777 16778 16779
10 16780 16781 16782 16783 16784 16785 16786 16787 16788 16789
10 16790 16791 16792 16793 16794 16795 16796 16797 16798 16799
10 16800 16801 16802 16803 16804 16805 16806 16807 16808 16809
10 16810 16811 16812 16813 16814 16815 16816 16817 16818 16819
10 16820 16821 16822 16823 16824 16825 16826 16827 16828 16829
10 16830 16831 16832 16833 16834 16835 16836 16837 16838 16839
10 16840 16841 16842 16843 16844 16845 16846 16847 16848 16849
10 16850 16851 16852 16853 16854 16855 16856 16857 16858 16859
10 16860 16861 16862 16863 16864 16865 16866 16867 16868 16869
10 16870 16871 16872 16873 16874 16875 16876 16877 16878 16879
10 16880 16881 16882 16883 16884 16885 16886 16887 16888 16889
10 16890 16891 16892 16893 16894 16895 16896 16897 16898 16899
10 16900 16901 16902 16903 16904 16905 16906 16907 16908 16909
10 16910 16911 16912 16913 16914 16915 16916 16917 16918 16919
10 16920 16921 16922 16923 16924 16925 16926 16927 16928 16929
10 16930 16931 16932 16933 16934 16935 16936 16937 16938 16939
10 16940 16941 16942 16943 16944 16945 16946 16947 16948 16949
10 16950 16951 16952 16953 16954 16955 16956 16957 16958 16959
10 16960 16961 16962 16963 16964 16965 16966 16967 16968 16969
10 16970 16971 16972 16973 16974 16975 16976 16977 16978 16979
10 16980 16981 16982 16983 16984 16985 16986 16987 16988 16989
10 16990 16991 16992 16993 16994 16995 16996 16997 16998 16999
10 17000 17001 17002 17003 17004 17005 17006 17007 17008 17009
10 17010 17011 17012 17013 17014 17015 17016 17017 17018 17019
10 17020 17021 17022 17023 17024 17025 17026 17027 17028 17029
10 17030 17031 17032 17033 17034 17035 17036 17037 17038 17039
10 17040 17041 17042 17043 17044 17045 17046 17047 17048 17049
10 17050 17051 17052 17053 17054 17055 17056 17057 17058 17059
10 17060 17061 17062 17063 17064 17065 17066 17067 17068 17069
10 17070 17071 17072 17073 17074 17075 17076 17077 17078 17079
10 17080 17081 17082 17083 17084 17085 17086 17087 17088 17089
10 17090 17091 17092 17093 17094 17095 17096 17097 17098 17099
10 17100 17101 17102 17103 17104 17105 17106 17107 17108 17109
10 17110 17111 17112 17113 17114 17115 17116 17117 17118 17119
10 17120 17121 17122 17123 17124 17125 17126 17127 17128 17129
10 17130 17131 17132 17133 17134 17135 17136 17137 17138 17139
10 17140 17141 17142 17143 17144 17145 17146 17147 17148 17149
10 17150 17151 17152 17153 17154 17155 17156 17157 17158 17159
10 17160 17161 17162 17163 17164 17165 17166 17167 17168 17169
10 17170 17171 17172 17173 17174 17175 17176 17177 17178 17179
10 17180 17181 17182 17183 17184 17185 17186 17187 17188 17189
10 17190 17191 17192 17193 17194 17195 17196 17197 17198 17199
10 17200 17201 17202 17203 17204 17205 17206 17207 17208 17209
10 17210 17211 17212 17213 17214 17215 17216 17217 17218 17219
10 17220 17221 17222 17223 17224 17225 17226 17227 17228 17229
10 17230 17231 17232 17233 17234 17235 17236 17237 17238 17239
10 17240 17241 17242 17243 17244 17245 17246 17247 17248 17249
10 17250 17251 17252 17253 17254 17255 17256 17257 17258 17259
10 17260 17261 17262 17263 17264 17265 17266 17267 17268 17269
10 17270 17271 17272 17273 17274 17275 17276 17277 17278 17279
10 17280 17281 17282 17283 17284 17285 17286 17287 17288 17289
10 17290 17291 17292 17293 17294 17295 17296 17297 17298 17299
10 17300 17301 17302 17303 17304 17305 17306 17307 17308 17309
10 17310 17311 17312 17313 17314 17315 17316 17317 17318 17319
10 17320 17321 17322 17323 17324 17325 17326 17327 17328 17329
10 17330 17331 17332 17333 17334 17335 17336 17337 17338 17339
10 17340 17341 17342 17343 17344 17345 17346 17347 17348 17349
10 17350 17351 17352 17353 17354 17355 17356 17357 17358 17359
10 17360 17361 17362 17363 17364 17365 17366 17367 17368 17369
10 17370 17371 17372 17373 17374 17375 17376 17377 17378 17379
10 17380 17381 17382 17383 17384 17385 17386 17387 17388 17389
10 17390 17391 17392 17393 17394 17395 17396 17397 17398 17399
10 17400 17401 17402 17403 17404 17405 17406 17407 17408 17409
10 17410 17411 17412 17413 17414 17415 17416 17417 17418 17419
10 17420 17421 17422 17423 17424 17425 17426 17427 17428 17429
10 17430 17431 17432 17433 17434 17435 17436 17437 17438 17439
10 17440 17441 17442 17443 17444 17445 17446 17447 17448 17449
10 17450 17451 17452 17453 17454 17455 17456 17457 17458 17459
10 17460 17461 17462 17463 17464 17465 17466 17467 17468 17469
10 17470 17471 17472 17473 17474 17475 17476 17477 17478 17479
10 17480 17481 17482 17483 17484 17485 17486 17487 17488 17489
10 17490 17491 17492 17493 17494 17495 17496 17497 17498 17499
10 17500 17501 17502 17503 17504 17505 17506 17507 17508 17509
10 17510 17511 17512 17513 17514 17515 17516 17517 17518 17519
10 17520 17521 17522 17523 17524 17525 17526 17527 17528 17529
10 17530 17531 17532 17533 17534 17535 17536 17537 17538 17539
10 17540 17541 17542 17543 17544 17545 17546 17547 17548 17549
10 17550 17551 17552 17553 17554 17555 17556 17557 17558 17559
10 17560 17561 17562 17563 17564 17565 17566 17567 17568 17569
10 17570 17571 17572 17573 17574 17575 17576 17577 17578 17579
10 17580 17581 17582 17583 17584 17585 17586 17587 17588 17589
10 17590 17591 17592 17593 17594 17595 17596 17597 17598 17599
10 17600 17601 17602 17603 17604 17605 17606 17607 17608 17609
10 17610 17611 17612 17613 17614 17615 17616 17617 17618 17619
10 17620 17621 17622 17623 17624 17625 17626 17627 17628 17629
10 17630 17631 17632 17633 17634 17635 17636 17637 17638 17639
10 17640 17641 17642 17643 17644 17645 17646 17647 17648 17649
10 17650 17651 17652 17653 17654 17655 17656 17657 17658 17659
10 17660 17661 17662 17663 17664 17665 17666 17667 17668 17669
10 17670 17671 17672 17673 17674 17675 17676 17677 17678 17679
10 17680 17681 17682 17683 17684 17685 17686 17687 17688 17689
10 17690 17691 17692 17693 17694 17695 17696 17697 17698 17699
10 17700 17701 17702 17703 17704 17705 17706 17707 17708 17709
10 17710 17711 17712 17713 17714 17715 17716 17717 17718 17719
10 17720 17721 17722 17723 17724 17725 17726 17727 17728 17729
10 17730 17731 17732 17733 17734 17735 17736 17737 17738 17739
10 17740 17741 17742 17743 17744 17745 17746 17747 17748 17749
10 17750 17751 17752 17753 17754 17755 17756 17757 17758 17759
10 17760 17761 17762 17763 17764 17765 17766 17767 17768 17769
10 17770 17771 17772 17773 17774 17775 17776 17777 17778 17779
10 17780 17781 17782 17783 17784 17785 17786 17787 17788 17789
10 17790 17791 17792 17793 17794 17795 17796 17797 17798 17799
10 17800 17801 17802 17803 17804 17805 17806 17807 17808 17809
10 17810 17811 17812 17813 17814 17815 17816 17817 17818 17819
10 17820 17821 17822 17823 17824 17825 17826 17827 17828 17829
10 17830 17831 17832 17833 17834 17835 17836 17837 17838 17839
10 17840 17841 17842 17843 17844 17845 17846 17847 17848 17849
10 17850 17851 17852 17853 17854 17855 17856 17857 17858 17859
10 17860 17861 17862 17863 17864 17865 17866 17867 17868 17869
10 17870 17871 17872 17873 17874 17875 17876 17877 17878 17879
10 17880 17881 17882 17883 17884 17885 17886 17887 17888 17889
10 17890 17891 17892 17893 17894 17895 17896 17897 17898 17899
10 17900 17901 17902 17903 17904 17905 17906 17907 17908 17909
10 17910 17911 17912 17913 17914 17915 17916 17917 17918 17919
10 17920 17921 17922 17923 17924 17925 17926 17927 17928 17929
10 17930 17931 17932 17933 17934 17935 17936 17937 17938 17939
10 17940 17941 17942 17943 17944 17945 17946 17947 17948 17949
10 17950 17951 17952 17953 17954 17955 17956 17957 17958 17959
10 17960 17961 17962 17963 17964 17965 17966 17967 17968 17969
10 17970 17971 17972 17973 17974 17975 17976 17977 17978 17979
10 17980 17981 17982 17983 17984 17985 17986 17987 17988 17989
10 17990 17991 17992 17993 17994 17995 17996 17997 17998 17999
10 18000 18001 18002 18003 18004 18005 18006 18007 18008 18009
10 18010 18011 18012 18013 18014 18015 18016 18017 18018 18019
10 18020 18021 18022 18023 18024 18025 18026 18027 18028 18029
10 18030 18031 18032 18033 18034 18035 18036 18037 18038 18039
10 18040 18041 18042 18043 18044 18045 18046 18047 18048 18049
10 18050 18051 18052 18053 18054 18055 18056 18057 18058 18059
10 18060 18061 18062 18063 18064 18065 18066 18067 18068 18069
10 18070 18071 18072 18073 18074 18075 18076 18077 18078 18079
10 18080 18081 18082 18083 18084 18085 18086 18087 18088 18089
10 18090 18091 18092 18093 18094 18095 18096 18097 18098 18099
10 18100 18101 18102 18103 18104 18105 18106 18107 18108 18109
10 18110 18111 18112 18113 18114 18115 18116 18117 18118 18119
10 18120 18121 18122 18123 18124 18125 18126 18127 18128 18129
10 18130 18131 18132 18133 18134 18135 18136 18137 18138 18139
10 18140 18141 18142 18143 18144 18145 18146 18147 18148 18149
10 18150 18151 18152 18153 18154 18155 18156 18157 18158 18159
10 18160 18161 18162 18163 18164 18165 18166 18167 18168 18169
10 18170 18171 18172 18173 18174 18175 18176 18177 18178 18179
10 18180 18181 18182 18183 18184 18185 18186 18187 18188 18189
10 18190 18191 18192 18193 18194 18195 18196 18197 18198 18199
10 18200 18201 18202 18203 18204 18205 18206 18207 18208 18209
10 18210 18211 18212 18213 18214 18215 18216 18217 18218 18219
10 18220 18221 18222 18223 18224 18225 18226 18227 18228 18229
10 18230 18231 18232 18233 18234 18235 18236 18237 18238 18239
10 18240 18241 18242 18243 18244 18245 18246 18247 18248 18249
10 18250 18251 18252 18253 18254 18255 18256 18257 18258 18259
10 18260 18261 18262 18263 18264 18265 18266 18267 18268 18269
10 18270 18271 18272 18273 18274 18275 18276 18277 18278 18279
10 18280 18281 18282 18283 18284 18285 18286 18287 18288 18289
10 18290 18291 18292 18293 18294 18295 18296 18297 18298 18299
10 18300 18301 18302 18303 18304 18305 18306 18307 18308 18309
10 18310 18311 18312 18313 18314 18315 18316 18317 18318 18319
10 18320 18321 18322 18323 18324 18325 18326 18327 18328 18329
10 18330 18331 18332 18333 18334 18335 18336 18337 18338 18339
10 18340 18341 18342 18343 18344 18345 18346 18347 18348 18349
10 18350 18351 18352 18353 18354 18355 18356 18357 18358 18359
10 18360 18361 18362 18363 18364 18365 18366 18367 18368 18369
10 18370 18371 18372 18373 18374 18375 18376 18377 18378 18379
10 18380 18381 18382 18383 18384 18385 18386 18387 18388 18389
10 18390 18391 18392 18393 18394 18395 18396 18397 18398 18399
10 18400 18401 18402 18403 18404 18405 18406 18407 18408 18409
10 18410 18411 18412 18413 18414 18415 18416 18417 18418 18419
10 18420 18421 18422 18423 18424 18425 18426 18427 18428 18429
10 18430 18431 18432 18433 18434 18435 18436 18437 18438 18439
10 18440 18441 18442 18443 18444 18445 18446 18447 18448 18449
10 18450 18451 18452 18453 18454 18455 18456 18457 18458 18459
10 18460 18461 18462 18463 18464 18465 18466 18467 18468 18469
10 18470 18471 18472 18473 18474 18475 18476 18477 18478 18479
10 18480 18481 18482 18483 18484 18485 18486 18487 18488 18489
10 18490 18491 18492 18493 18494 18495 18496 18497 18498 18499
10 18500 18501 18502 18503 18504 18505 18506 18507 18508 18509
10 18510 18511 18512 18513 18514 18515 18516 18517 18518 18519
10 18520 18521 18522 18523 18524 18525 18526 18527 18528 18529
10 18530 18531 18532 18533 18534 18535 18536 18537 18538 18539
10 18540 18541 18542 18543 18544 18545 18546 18547 18548 18549
10 18550 18551 18552 18553 18554 18555 18556 18557 18558 18559
10 18560 18561 18562 18563 18564 18565 18566 18567 18568 18569
10 18570 18571 18572 18573 18574 18575 18576 18577 18578 18579
10 18580 18581 18582 18583 18584 18585 18586 18587 18588 18589
10 18590 18591 18592 18593 18594 18595 18596 18597 18598 18599
10 18600 18601 18602 18603 18604 18605 18606 18607 18608 18609
10 18610 18611 18612 18613 18614 18615 18616 18617 18618 18619
10 18620 18621 18622 18623 18624 18625 18626 18627 18628 18629
10 18630 18631 18632 18633 18634 18635 18636 18637 18638 18639
10 18640 18641 18642 18643 18644 18645 18646 18647 18648 18649
10 18650 18651 18652 18653 18654 18655 18656 18657 18658 18659
10 18660 18661 18662 18663 18664 18665 18666 18667 18668 18669
10 18670 18671 18672 18673 18674 18675 18676 18677 18678 18679
10 18680 18681 18682 18683 18684 18685 18686 18687 18688 18689
10 18690 18691 18692 18693 18694 18695 18696 18697 18698 18699
10 18700 18701 18702 18703 18704 18705 18706 18707 18708 18709
10 18710 18711 18712 18713 18714 18715 18716 18717 18718 18719
10 18720 18721 18722 18723 18724 18725 18726 18727 18728 18729
10 18730 18731 18732 18733 18734 18735 18736 18737 18738 18739
10 18740 18741 18742 18743 18744 18745 18746 18747 18748 18749
10 18750 18751 18752 18753 18754 18755 18756 18757 18758 18759
10 18760 18761 18762 18763 18764 18765 18766 18767 18768 18769
10 18770 18771 18772 18773 18774 18775 18776 18777 18778 18779
10 18780 18781 18782 18783 18784 18785 18786 18787 18788 18789
10 18790 18791 18792 18793 18794 18795 18796 18797 18798 18799
10 18800 18801 18802 18803 18804 18805 18806 18807 18808 18809
10 18810 18811 18812 18813 18814 18815 18816 18817 18818 18819
10 18820 18821 18822 18823 18824 18825 18826 18827 18828 18829
10 18830 18831 18832 18833 18834 18835 18836 18837 18838 18839
10 18840 18841 18842 18843 18844 18845 18846 18847 18848 18849
10 18850 18851 18852 18853 18854 18855 18856 18857 18858 18859
10 18860 18861 18862 18863 18864 18865 18866 18867 18868 18869
10 18870 18871 18872 18873 18874 18875 18876 18877 18878 18879
10 18880 18881 18882 18883 18884 18885 18886 18887 18888 18889
10 18890 18891 18892 18893 18894 18895 18896 18897 18898 18899
10 18900 18901 18902 18903 18904 18905 18906 18907 18908 18909
10 18910 18911 18912 18913 18914 18915 18916 18917 18918 18919
10 18920 18921 18922 18923 18924 18925 18926 18927 18928 18929
10 18930 18931 18932 18933 18934 18935 18936 18937 18938 18939
10 18940 18941 18942 18943 18944 18945 18946 18947 18948 18949
10 18950 18951 18952 18953 18954 18955 18956 18957 18958 18959
10 18960 18961 18962 18963 18964 18965 18966 18967 18968 18969
10 18970 18971 18972 18973 18974 18975 18976 18977 18978 18979
10 18980 18981 18982 18983 18984 18985 18986 18987 18988 18989
10 18990 18991 18992 18993 18994 18995 18996 18997 18998 18999
10 19000 19001 19002 19003 19004 19005 19006 19007 19008 19009
10 19010 19011 19012 19013 19014 19015 19016 19017 19018 19019
10 19020 19021 19022 19023 19024 19025 19026 19027 19028 19029
10 19030 19031 19032 19033 19034 19035 19036 19037 19038 19039
10 19040 19041 19042 19043 19044 19045 19046 19047 19048 19049
10 19050 19051 19052 19053 19054 19055 19056 19057 19058 19059
10 19060 19061 19062 19063 19064 19065 19066 19067 19068 19069
10 19070 19071 19072 19073 19074 19075 19076 19077 19078 19079
10 19080 19081 19082 19083 19084 19085 19086 19087 19088 19089
10 19090 19091 19092 19093 19094 19095 19096 19097 19098 19099
10 19100 19101 19102 19103 19104 19105 19106 19107 19108 19109
10 19110 19111 19112 19113 19114 19115 19116 19117 19118 19119
10 19120 19121 19122 19123 19124 19125 19126 19127 19128 19129
10 19130 19131 19132 19133 19134 19135 19136 19137 19138 19139
10 19140 19141 19142 19143 19144 19145 19146 19147 19148 19149
10 19150 19151 19152 19153 19154 19155 19156 19157 19158 19159
10 19160 19161 19162 19163 19164 19165 19166 19167 19168 19169
10 19170 19171 19172 19173 19174 19175 19176 19177 19178 19179
10 19180 19181 19182 19183 19184 19185 19186 19187 19188 19189
10 19190 19191 19192 19193 19194 19195 19196 19197 19198 19199
10 19200 19201 19202 19203 19204 19205 19206 19207 19208 19209
10 19210 19211 19212 19213 19214 19215 19216 19217 19218 19219
10 19220 19221 19222 19223 19224 19225 19226 19227 19228 19229
10 19230 19231 19232 19233 19234 19235 19236 19237 19238 19239
10 19240 19241 19242 19243 19244 19245 19246 19247 19248 19249
10 19250 19251 19252 19253 19254 19255 19256 19257 19258 19259
10 19260 19261 19262 19263 19264 19265 19266 19267 19268 19269
10 19270 19271 19272 19273 19274 19275 19276 19277 19278 19279
10 19280 19281 19282 19283 19284 19285 19286 19287 19288 19289
10 19290 19291 19292 19293 19294 19295 19296 19297 19298 19299
10 19300 19301 19302 19303 19304 19305 19306 19307 19308 19309
10 19310 19311 19312 19313 19314 19315 19316 19317 19318 19319
10 19320 19321 19322 19323 19324 19325 19326 19327 19328 19329
10 19330 19331 19332 19333 19334 19335 19336 19337 19338 19339
10 19340 19341 19342 19343 19344 19345 19346 19347 19348 19349
10 19350 19351 19352 19353 19354 19355 19356 19357 19358 19359
10 19360 19361 19362 19363 19364 19365 19366 19367 19368 19369
10 19370 19371 19372 19373 19374 19375 19376 19377 19378 19379
10 19380 19381 19382 19383 19384 19385 19386 19387 19388 19389
10 19390 19391 19392 19393 19394 19395 19396 19397 19398 19399
10 19400 19401 19402 19403 19404 19405 19406 19407 19408 19409
10 19410 19411 19412 19413 19414 19415 19416 19417 19418 19419
10 19420 19421 19422 19423 19424 19425 19426 19427 19428 19429
10 19430 19431 19432 19433 19434 19435 19436 19437 19438 19439
10 19440 19441 19442 19443 19444 19445 19446 19447 19448 19449
10 19450 19451 19452 19453 19454 19455 19456 19457 19458 19459
10 19460 19461 19462 19463 19464 19465 19466 19467 19468 19469
10 19470 19471 19472 19473 19474 19475 19476 19477 19478 19479
10 19480 19481 19482 19483 19484 19485 19486 19487 19488 19489
10 19490 19491 19492 19493 19494 19495 19496 19497 19498 19499
10 19500 19501 19502 19503 19504 19505 19506 19507 19508 19509
10 19510 19511 19512 19513 19514 19515 19516 19517 19518 19519
10 19520 19521 19522 19523 19524 19525 19526 19527 19528 19529
10 19530 19531 19532 19533 19534 19535 19536 19537 19538 19539
10 19540 19541 19542 19543 19544 19545 19546 19547 19548 19549
10 19550 19551 19552 19553 19554 19555 19556 19557 19558 19559
10 19560 19561 19562 19563 19564 19565 19566 19567 19568 19569
10 19570 19571 19572 19573 19574 19575 19576 19577 19578 19579
10 19580 19581 19582 19583 19584 19585 19586 19587 19588 19589
10 19590 19591 19592 19593 19594 19595 19596 19597 19598 19599
10 19600 19601 19602 19603 19604 19605 19606 19607 19608 19609
10 19610 19611 19612 19613 19614 19615 19616 19617 19618 19619
10 19620 19621 19622 19623 19624 19625 19626 19627 19628 19629
10 19630 19631 19632 19633 19634 19635 19636 19637 19638 19639
10 19640 19641 19642 19643 19644 19645 19646 19647 19648 19649
10 19650 19651 19652 19653 19654 19655 19656 19657 19658 19659
10 19660 19661 19662 19663 19664 19665 19666 19667 19668 19669
10 19670 19671 19672 19673 19674 19675 19676 19677 19678 19679
10 19680 19681 19682 19683 19684 19685 19686 19687 19688 19689
10 19690 19691 19692 19693 19694 19695 19696 19697 19698 19699
10 19700 19701 19702 19703 19704 19705 19706 19707 19708 19709
10 19710 19711 19712 19713 19714 19715 19716 19717 19718 19719
10 19720 19721 19722 19723 19724 19725 19726 19727 19728 19729
10 19730 19731 19732 19733 19734 19735 19736 19737 19738 19739
10 19740 19741 19742 19743 19744 19745 19746 19747 19748 19749
10 19750 19751 19752 19753 19754 19755 19756 19757 19758 19759
10 19760 19761 19762 19763 19764 19765 19766 19767 19768 19769
10 19770 19771 19772 19773 19774 19775 19776 19777 19778 19779
10 19780 19781 19782 19783 19784 19785 19786 19787 19788 19789
10 19790 19791 19792 19793 19794 19795 19796 19797 19798 19799
10 19800 19801 19802 19803 19804 19805 19806 19807 19808 19809
10 19810 19811 19812 19813 19814 19815 19816 19817 19818 19819
10 19820 19821 19822 19823 19824 19825 19826 19827 19828 19829
10 19830 19831 19832 19833 19834 19835 19836 19837 19838 19839
10 19840 19841 19842 19843 19844 19845 19846 19847 19848 19849
10 19850 19851 19852 19853 19854 19855 19856 19857 19858 19859
10 19860 19861 19862 19863 19864 19865 19866 19867 19868 19869
10 19870 19871 19872 19873 19874 19875 19876 19877 19878 19879
10 19880 19881 19882 19883 19884 19885 19886 19887 19888 19889
10 19890 19891 19892 19893 19894 19895 19896 19897 19898 19899
10 19900 19901 19902 19903 19904 19905 19906 19907 19908 19909
10 19910 19911 19912 19913 19914 19915 19916 19917 19918 19919
10 19920 19921 19922 19923 19924 19925 19926 19927 19928 19929
10 19930 19931 19932 19933 19934 19935 19936 19937 19938 19939
10 19940 19941 19942 19943 19944 19945 19946 19947 19948 19949
10 19950 19951 19952 19953 19954 19955 19956 19957 19958 19959
10 19960 19961 19962 19963 19964 19965 19966 19967 19968 19969
10 19970 19971 19972 19973 19974 19975 19976 19977 19978 19979
10 19980 19981 19982 19983 19984 19985 19986 19987 19988 19989
10 19990 19991 19992 19993 19994 19995 19996 19997 19998 19999
10 20000 20001 20002 20003 20004 20005 20006 20007 20008 20009
10 20010 20011 20012 20013 20014 20015 20016 20017 20018 20019
10 20020 20021 20022 20023 20024 20025 20026 20027 20028 20029
10 20030 20031 20032 20033 20034 20035 20036 20037 20038 20039
10 20040 20041 20042 20043 20044 20045 20046 20047 20048 20049
10 20050 20051 20052 20053 20054 20055 20056 20057 20058 20059
10 20060 20061 20062 20063 20064 20065 20066 20067 20068 20069
10 20070 20071 20072 20073 20074 20075 20076 20077 20078 20079
10 20080 20081 20082 20083 20084 20085 20086 20087 20088 20089
10 20090 20091 20092 20093 20094 20095 20096 20097 20098 20099
10 20100 20101 20102 20103 20104 20105 20106 20107 20108 20109
10 20110 20111 20112 20113 20114 20115 20116 20117 20118 20119
10 20120 20121 20122 20123 20124 20125 20126 20127 20128 20129
10 20130 20131 20132 20133 20134 20135 20136 20137 20138 20139
10 20140 20141 20142 20143 20144 20145 20146 20147 20148 20149
10 20150 20151 20152 20153 20154 20155 20156 20157 20158 20159
10 20160 20161 20162 20163 20164 20165 20166 20167 20168 20169
10 20170 20171 20172 20173 20174 20175 20176 20177 20178 20179
10 20180 20181 20182 20183 20184 20185 20186 20187 20188 20189
10 20190 20191 20192 20193 20194 20195 20196 20197 20198 20199
10 20200 20201 20202 20203 20204 20205 20206 20207 20208 20209
10 20210 20211 20212 20213 20214 20215 20216 20217 20218 20219
10 20220 20221 20222 20223 20224 20225 20226 20227 20228 20229
10 20230 20231 20232 20233 20234 20235 20236 20237 20238 20239
10 20240 20241 20242 20243 20244 20245 20246 20247 20248 20249
10 20250 20251 20252 20253 20254 20255 20256 20257 20258 20259
10 20260 20261 20262 20263 20264 20265 20266 20267 20268 20269
10 20270 20271 20272 20273 20274 20275 20276 20277 20278 20279
10 20280 20281 20282 20283 20284 20285 20286 20287 20288 20289
10 20290 20291 20292 20293 20294 20295 20296 20297 20298 20299
10 20300 20301 20302 20303 20304 20305 20306 20307 20308 20309
10 20310 20311 20312 20313 20314 20315 20316 20317 20318 20319
10 20320 20321 20322 20323 20324 20325 20326 20327 20328 20329
10 20330 20331 20332 20333 20334 20335 20336 20337 20338 20339
10 20340 20341 20342 20343 20344 20345 20346 20347 20348 20349
10 20350 20351 20352 20353 20354 20355 20356 20357 20358 20359
10 20360 20361 20362 20363 20364 20365 20366 20367 20368 20369
10 20370 20371 20372 20373 20374 20375 20376 20377 20378 20379
10 20380 20381 20382 20383 20384 20385 20386 20387 20388 20389
10 20390 20391 20392 20393 20394 20395 20396 20397 20398 20399
10 20400 20401 20402 20403 20404 20405 20406 20407 20408 20409
10 20410 20411 20412 20413 20414 20415 20416 20417 20418 20419
10 20420 20421 20422 20423 20424 20425 20426 20427 20428 20429
10 20430 20431 20432 20433 20434 20435 20436 20437 20438 20439
10 20440 20441 20442 20443 20444 20445 20446 20447 20448 20449
10 20450 20451 20452 20453 20454 20455 20456 20457 20458 20459
10 20460 20461 20462 20463 20464 20465 20466 20467 20468 20469
10 20470 20471 20472 20473 20474 20475 20476 20477 20478 20479
10 20480 20481 20482 20483 20484 20485 20486 20487 20488 20489
10 20490 20491 20492 20493 20494 20495 20496 20497 20498 20499
10 20500 20501 20502 20503 20504 20505 20506 20507 20508 20509
10 20510 20511 20512 20513 20514 20515 20516 20517 20518 20519
10 20520 20521 20522 20523 20524 20525 20526 20527 20528 20529
10 20530 20531 20532 20533 20534 20535 20536 20537 20538 20539
10 20540 20541 20542 20543 20544 20545 20546 20547 20548 20549
10 20550 20551 20552 20553 20554 20555 20556 20557 20558 20559
10 20560 20561 20562 20563 20564 20565 20566 20567 20568 20569
10 20570 20571 20572 20573 20574 20575 20576 20577 20578 20579
10 20580 20581 20582 20583 20584 20585 20586 20587 20588 20589
10 20590 20591 20592 20593 20594 20595 20596 20597 20598 20599
10 20600 20601 20602 20603 20604 20605 20606 20607 20608 20609
10 20610 20611 20612 20613 20614 20615 20616 20617 20618 20619
10 20620 20621 20622 20623 20624 20625 20626 20627 20628 20629
10 20630 20631 20632 20633 20634 20635 20636 20637 20638 20639
10 20640 20641 20642 20643 20644 20645 20646 20647 20648 20649
10 20650 20651 20652 20653 20654 20655 20656 20657 20658 20659
10 20660 20661 20662 20663 20664 20665 20666 20667 20668 20669
10 20670 20671 20672 20673 20674 20675 20676 20677 20678 20679
10 20680 20681 20682 20683 20684 20685 20686 20687 20688 20689
10 20690 20691 20692 20693 20694 20695 20696 20697 20698 20699
10 20700 20701 20702 20703 20704 20705 20706 20707 20708 20709
10 20710 20711 20712 20713 20714 20715 20716 20717 20718 20719
10 20720 20721 20722 20723 20724 20725 20726 20727 20728 20729
10 20730 20731 20732 20733 20734 20735 20736 20737 20738 20739
10 20740 20741 20742 20743 20744 20745 20746 20747 20748 20749
10 20750 20751 20752 20753 20754 20755 20756 20757 20758 20759
10 20760 20761 20762 20763 20764 20765 20766 20767 20768 20769
10 20770 20771 20772 20773 20774 20775 20776 20777 20778 20779
10 20780 20781 20782 20783 20784 20785 20786 20787 20788 20789
10 20790 20791 20792 20793 20794 20795 20796 20797 20798 20799
10 20800 20801 20802 20803 20804 20805 20806 20807 20808 20809
10 20810 20811 20812 20813 20814 20815 20816 20817 20818 20819
10 20820 20821 20822 20823 20824 20825 20826 20827 20828 20829
10 20830 20831 20832 20833 20834 20835 20836 20837 20838 20839
10 20840 20841 20842 20843 20844 20845 20846 20847 20848 20849
10 20850 20851 20852 20853 20854 20855 20856 20857 20858 20859
10 20860 20861 20862 20863 20864 20865 20866 20867 20868 20869
10 20870 20871 20872 20873 20874 20875 20876 20877 20878 20879
10 20880 20881 20882 20883 20884 20885 20886 20887 20888 20889
10 20890 20891 20892 20893 20894 20895 20896 20897 20898 20899
10 20900 20901 20902 20903 20904 20905 20906 20907 20908 20909
10 20910 20911 20912 20913 20914 20915 20916 20917 20918 20919
10 20920 20921 20922 20923 20924 20925 20926 20927 20928 20929
10 20930 20931 20932 20933 20934 20935 20936 20937 20938 20939
10 20940 20941 20942 20943 20944 20945 20946 20947 20948 20949
10 20950 20951 20952 20953 20954 20955 20956 20957 20958 20959
10 20960 20961 20962 20963 20964 20965 20966 20967 20968 20969
10 20970 20971 20972 20973 20974 20975 20976 20977 20978 20979
10 20980 20981 20982 20983 20984 20985 20986 20987 20988 20989
10 20990 20991 20992 20993 20994 20995 20996 20997 20998 20999
10 21000 21001 21002 21003 21004 21005 21006 21007 21008 21009
10 21010 21011 21012 21013 21014 21015 21016 21017 21018 21019
10 21020 21021 21022 21023 21024 21025 21026 21027 21028 21029
10 21030 21031 21032 21033 21034 21035 21036 21037 21038 21039
10 21040 21041 21042 21043 21044 21045 21046 21047 21048 21049
10 21050 21051 21052 21053 21054 21055 21056 21057 21058 21059
10 21060 21061 21062 21063 21064 21065 21066 21067 21068 21069
10 21070 21071 21072 21073 21074 21075 21076 21077 21078 21079
10 21080 21081 21082 21083 21084 21085 21086 21087 21088 21089
10 21090 21091 21092 21093 21094 21095 21096 21097 21098 21099
10 21100 21101 21102 21103 21104 21105 21106 21107 21108 21109
10 21110 21111 21112 21113 21114 21115 21116 21117 21118 21119
10 21120 21121 21122 21123 21124 21125 21126 21127 21128 21129
10 21130 21131 21132 21133 21134 21135 21136 21137 21138 21139
10 21140 21141 21142 21143 21144 21145 21146 21147 21148 21149
10 21150 21151 21152 21153 21154 21155 21156 21157 21158 21159
10 21160 21161 21162 21163 21164 21165 21166 21167 21168 21169
10 21170 21171 21172 21173 21174 21175 21176 21177 21178 21179
10 21180 21181 21182 21183 21184 21185 21186 21187 21188 21189
10 21190 21191 21192 21193 21194 21195 21196 21197 21198 21199
10 21200 21201 21202 21203 21204 21205 21206 21207 21208 21209
10 21210 21211 21212 21213 21214 21215 21216 21217 21218 21219
10 21220 21221 21222 21223 21224 21225 21226 21227 21228 21229
10 21230 21231 21232 21233 21234 21235 21236 21237 21238 21239
10 21240 21241 21242 21243 21244 21245 21246 21247 21248 21249
10 21250 21251 21252 21253 21254 21255 21256 21257 21258 21259
10 21260 21261 21262 21263 21264 21265 21266 21267 21268 21269
10 21270 21271 21272 21273 21274 21275 21276 21277 21278 21279
10 21280 21281 21282 21283 21284 21285 21286 21287 21288 21289
10 21290 21291 21292 21293 21294 21295 21296 21297 21298 21299
10 21300 21301 21302 21303 21304 21305 21306 21307 21308 21309
10 21310 21311 21312 21313 21314 21315 21316 21317 21318 21319
10 21320 21321 21322 21323 21324 21325 21326 21327 21328 21329
10 21330 21331 21332 21333 21334 21335 21336 21337 21338 21339
10 21340 21341 21342 21343 21344 21345 21346 21347 21348 21349
10 21350 21351 21352 21353 21354 21355 21356 21357 21358 21359
10 21360 21361 21362 21363 21364 21365 21366 21367 21368 21369
10 21370 21371 21372 21373 21374 21375 21376 21377 21378 21379
10 21380 21381 21382 21383 21384 21385 21386 21387 21388 21389
10 21390 21391 21392 21393 21394 21395 21396 21397 21398 21399
10 21400 21401 21402 21403 21404 21405 21406 21407 21408 21409
10 21410 21411 21412 21413 21414 21415 21416 21417 21418 21419
10 21420 21421 21422 21423 21424 21425 21426 21427 21428 21429
10 21430 21431 21432 21433 21434 21435 21436 21437 21438 21439
10 21440 21441 21442 21443 21444 21445 21446 21447 21448 21449
10 21450 21451 21452 21453 21454 21455 21456 21457 21458 21459
10 21460 21461 21462 21463 21464 21465 21466 21467 21468 21469
10 21470 21471 21472 21473 21474 21475 21476 21477 21478 21479
10 21480 21481 21482 21483 21484 21485 21486 21487 21488 21489
10 21490 21491 21492 21493 21494 21495 21496 21497 21498 21499
10 21500 21501 21502 21503 21504 21505 21506 21507 21508 21509
10 21510 21511 21512 21513 21514 21515 21516 21517 21518 21519
10 21520 21521 21522 21523 21524 21525 21526 21527 21528 21529
10 21530 21531 21532 21533 21534 21535 21536 21537 21538 21539
10 21540 21541 21542 21543 21544 21545 21546 21547 21548 21549
10 21550 21551 21552 21553 21554 21555 21556 21557 21558 21559
10 21560 21561 21562 21563 21564 21565 21566 21567 21568 21569
10 21570 21571 21572 21573 21574 21575 21576 21577 21578 21579
10 21580 21581 21582 21583 21584 21585 21586 21587 21588 21589
10 21590 21591 21592 21593 21594 21595 21596 21597 21598 21599
10 21600 21601 21602 21603 21604 21605 21606 21607 21608 21609
10 21610 21611 21612 21613 21614 21615 21616 21617 21618 21619
10 21620 21621 21622 21623 21624 21625 21626 21627 21628 21629
10 21630 21631 21632 21633 21634 21635 21636 21637 21638 21639
10 21640 21641 21642 21643 21644 21645 21646 21647 21648 21649
10 21650 21651 21652 21653 21654 21655 21656 21657 21658 21659
10 21660 21661 21662 21663 21664 21665 21666 21667 21668 21669
10 21670 21671 21672 21673 21674 21675 21676 21677 21678 21679
10 21680 21681 21682 21683 21684 21685 21686 21687 21688 21689
10 21690 21691 21692 21693 21694 21695 21696 21697 21698 21699
10 21700 21701 21702 21703 21704 21705 21706 21707 21708 21709
10 21710 21711 21712 21713 21714 21715 21716 21717 21718 21719
10 21720 21721 21722 21723 21724 21725 21726 21727 21728 21729
10 21730 21731 21732 21733 21734 21735 21736 21737 21738 21739
10 21740 21741 21742 21743 21744 21745 21746 21747 21748 21749
10 21750 21751 21752 21753 21754 21755 21756 21757 21758 21759
10 21760 21761 21762 21763 21764 21765 21766 21767 21768 21769
10 21770 21771 21772 21773 21774 21775 21776 21777 21778 21779
10 21780 21781 21782 21783 21784 21785 21786 21787 21788 21789
10 21790 21791 21792 21793 21794 21795 21796 21797 21798 21799
10 21800 21801 21802 21803 21804 21805 21806 21807 21808 21809
10 21810 21811 21812 21813 21814 21815 21816 21817 21818 21819
10 21820 21821 21822 21823 21824 21825 21826 21827 21828 21829
10 21830 21831 21832 21833 21834 21835 21836 21837 21838 21839
10 21840 21841 21842 21843 21844 21845 21846 21847 21848 21849
10 21850 21851 21852 21853 21854 21855 21856 21857 21858 21859
10 21860 21861 21862 21863 21864 21865 21866 21867 21868 21869
10 21870 21871 21872 21873 21874 21875 21876 21877 21878 21879
10 21880 21881 21882 21883 21884 21885 21886 21887 21888 21889
10 21890 21891 21892 21893 21894 21895 21896 21897 21898 21899
10 21900 21901 21902 21903 21904 21905 21906 21907 21908 21909
10 21910 21911 21912 21913 21914 21915 21916 21917 21918 21919
10 21920 21921 21922 21923 21924 21925 21926 21927 21928 21929
10 21930 21931 21932 21933 21934 21935 21936 21937 21938 21939
10 21940 21941 21942 21943 21944 21945 21946 21947 21948 21949
10 21950 21951 21952 21953 21954 21955 21956 21957 21958 21959
10 21960 21961 21962 21963 21964 21965 21966 21967 21968 21969
10 21970 21971 21972 21973 21974 21975 21976 21977 21978 21979
10 21980 21981 21982 21983 21984 21985 21986 21987 21988 21989
10 21990 21991 21992 21993 21994 21995 21996 21997 21998 21999
10 22000 22001 22002 22003 22004 22005 22006 22007 22008 22009
10 22010 22011 22012 22013 22014 22015 22016 22017 22018 22019
10 22020 22021 22022 22023 22024 22025 22026 22027 22028 22029
10 22030 22031 22032 22033 22034 22035 22036 22037 22038 22039
10 22040 22041 22042 22043 22044 22045 22046 22047 22048 22049
10 22050 22051 22052 22053 22054 22055 22056 22057 22058 22059
10 22060 22061 22062 22063 22064 22065 22066 22067 22068 22069
10 22070 22071 22072 22073 22074 22075 22076 22077 22078 22079
10 22080 22081 22082 22083 22084 22085 22086 22087 22088 22089
10 22090 22091 22092 22093 22094 22095 22096 22097 22098 22099
10 22100 22101 22102 22103 22104 22105 22106 22107 22108 22109
10 22110 22111 22112 22113 22114 22115 22116 22117 22118 22119
10 22120 22121 22122 22123 22124 22125 22126 22127 22128 22129
10 22130 22131 22132 22133 22134 22135 22136 22137 22138 22139
10 22140 22141 22142 22143 22144 22145 22146 22147 22148 22149
10 22150 22151 22152 22153 22154 22155 22156 22157 22158 22159
10 22160 22161 22162 22163 22164 22165 22166 22167 22168 22169
10 22170 22171 22172 22173 22174 22175 22176 22177 22178 22179
10 22180 22181 22182 22183 22184 22185 22186 22187 22188 22189
10 22190 22191 22192 22193 22194 22195 22196 22197 22198 22199
10 22200 22201 22202 22203 22204 22205 22206 22207 22208 22209
10 22210 22211 22212 22213 22214 22215 22216 22217 22218 22219
10 22220 22221 22222 22223 22224 22225 22226 22227 22228 22229
10 22230 22231 22232 22233 22234 22235 22236 22237 22238 22239
10 22240 22241 22242 22243 22244 22245 22246 22247 22248 22249
10 22250 22251 22252 22253 22254 22255 22256 22257 22258 22259
10 22260 22261 22262 22263 22264 22265 22266 22267 22268 22269
10 22270 22271 22272 22273 22274 22275 22276 22277 22278 22279
10 22280 22281 22282 22283 22284 22285 22286 22287 22288 22289
10 22290 22291 22292 22293 22294 22295 22296 22297 22298 22299
10 22300 22301 22302 22303 22304 22305 22306 22307 22308 22309
10 22310 22311 22312 22313 22314 22315 22316 22317 22318 22319
10 22320 22321 22322 22323 22324 22325 22326 22327 22328 22329
10 22330 22331 22332 22333 22334 22335 22336 22337 22338 22339
10 22340 22341 22342 22343 22344 22345 22346 22347 22348 22349
10 22350 22351 22352 22353 22354 22355 22356 22357 22358 22359
10 22360 22361 22362 22363 22364 22365 22366 22367 22368 22369
10 22370 22371 22372 22373 22374 22375 22376 22377 22378 22379
10 22380 22381 22382 22383 22384 22385 22386 22387 22388 22389
10 22390 22391 22392 22393 22394 22395 22396 22397 22398 22399
10 22400 22401 22402 22403 22404 22405 22406 22407 22408 22409
10 22410 22411 22412 22413 22414 22415 22416 22417 22418 22419
10 22420 22421 22422 22423 22424 22425 22426 22427 22428 22429
10 22430 22431 22432 22433 22434 22435 22436 22437 22438 22439
10 22440 22441 22442 22443 22444 22445 22446 22447 22448 22449
10 22450 22451 22452 22453 22454 22455 22456 22457 22458 22459
10 22460 22461 22462 22463 22464 22465 22466 22467 22468 22469
10 22470 22471 22472 22473 22474 22475 22476 22477 22478 22479
10 22480 22481 22482 22483 22484 22485 22486 22487 22488 22489
10 22490 22491 22492 22493 22494 22495 22496 22497 22498 22499
10 22500 22501 22502 22503 22504 22505 22506 22507 22508 22509
10 22510 22511 22512 22513 22514 22515 22516 22517 22518 22519
10 22520 22521 22522 22523 22524 22525 22526 22527 22528 22529
10 22530 22531 22532 22533 22534 22535 22536 22537 22538 22539
10 22540 22541 22542 22543 22544 22545 22546 22547 22548 22549
10 22550 22551 22552 22553 22554 22555 22556 22557 22558 22559
10 22560 22561 22562 22563 22564 22565 22566 22567 22568 22569
10 22570 22571 22572 22573 22574 22575 22576 22577 22578 22579
10 22580 22581 22582 22583 22584 22585 22586 22587 22588 22589
10 22590 22591 22592 22593 22594 22595 22596 22597 22598 22599
10 22600 22601 22602 22603 22604 22605 22606 22607 22608 22609
10 22610 22611 22612 22613 22614 22615 22616 22617 22618 22619
10 22620 22621 22622 22623 22624 22625 22626 22627 22628 22629
10 22630 22631 22632 22633 22634 22635 22636 22637 22638 22639
10 22640 22641 22642 22643 22644 22645 22646 22647 22648 22649
10 22650 22651 22652 22653 22654 22655 22656 22657 22658 22659
10 22660 22661 22662 22663 22664 22665 22666 22667 22668 22669
10 22670 22671 22672 22673 22674 22675 22676 22677 22678 22679
10 22680 22681 22682 22683 22684 22685 22686 22687 22688 22689
10 22690 22691 22692 22693 22694 22695 22696 22697 22698 22699
10 22700 22701 22702 22703 22704 22705 22706 22707 22708 22709
10 22710 22711 22712 22713 22714 22715 22716 22717 22718 22719
10 22720 22721 22722 22723 22724 22725 22726 22727 22728 22729
10 22730 22731 22732 22733 22734 22735 22736 22737 22738 22739
10 22740 22741 22742 22743 22744 22745 22746 22747 22748 22749
10 22750 22751 22752 22753 22754 22755 22756 22757 22758 22759
10 22760 22761 22762 22763 22764 22765 22766 22767 22768 22769
10 22770 22771 22772 22773 22774 22775 22776 22777 22778 22779
10 22780 22781 22782 22783 22784 22785 22786 22787 22788 22789
10 22790 22791 22792 22793 22794 22795 22796 22797 22798 22799
10 22800 22801 22802 22803 22804 22805 22806 22807 22808 22809
10 22810 22811 22812 22813 22814 22815 22816 22817 22818 22819
10 22820 22821 22822 22823 22824 22825 22826 22827 22828 22829
10 22830 22831 22832 22833 22834 22835 22836 22837 22838 22839
10 22840 22841 22842 22843 22844 22845 22846 22847 22848 22849
10 22850 22851 22852 22853 22854 22855 22856 22857 22858 22859
10 22860 22861 22862 22863 22864 22865 22866 22867 22868 22869
10 22870 22871 22872 22873 22874 22875 22876 22877 22878 22879
10 22880 22881 22882 22883 22884 22885 22886 22887 22888 22889
10 22890 22891 22892 22893 22894 22895 22896 22897 22898 22899
10 22900 22901 22902 22903 22904 22905 22906 22907 22908 22909
10 22910 22911 22912 22913 22914 22915 22916 22917 22918 22919
10 22920 22921 22922 22923 22924 22925 22926 22927 22928 22929
10 22930 22931 22932 22933 22934 22935 22936 22937 22938 22939
10 22940 22941 22942 22943 22944 22945 22946 22947 22948 22949
10 22950 22951 22952 22953 22954 22955 22956 22957 22958 22959
10 22960 22961 22962 22963 22964 22965 22966 22967 22968 22969
10 22970 22971 22972 22973 22974 22975 22976 22977 22978 22979
10 22980 22981 22982 22983 22984 22985 22986 22987 22988 22989
10 22990 22991 22992 22993 22994 22995 22996 22997 22998 22999
10 23000 23001 23002 23003 23004 23005 23006 23007 23008 23009
10 23010 23011 23012 23013 23014 23015 23016 23017 23018 23019
10 23020 23021 23022 23023 23024 23025 23026 23027 23028 23029
10 23030 23031 23032 23033 23034 23035 23036 23037 23038 23039
10 23040 23041 23042 23043 23044 23045 23046 23047 23048 23049
10 23050 23051 23052 23053 23054 23055 23056 23057 23058 23059
10 23060 23061 23062 23063 23064 23065 23066 23067 23068 23069
10 23070 23071 23072 23073 23074 23075 23076 23077 23078 23079
10 23080 23081 23082 23083 23084 23085 23086 23087 23088 23089
10 23090 23091 23092 23093 23094 23095 23096 23097 23098 23099
10 23100 23101 23102 23103 23104 23105 23106 23107 23108 23109
10 23110 23111 23112 23113 23114 23115 23116 23117 23118 23119
10 23120 23121 23122 23123 23124 23125 23126 23127 23128 23129
10 23130 23131 23132 23133 23134 23135 23136 23137 23138 23139
10 23140 23141 23142 23143 23144 23145 23146 23147 23148 23149
10 23150 23151 23152 23153 23154 23155 23156 23157 23158 23159
10 23160 23161 23162 23163 23164 23165 23166 23167 23168 23169
10 23170 23171 23172 23173 23174 23175 23176 23177 23178 23179
10 23180 23181 23182 23183 23184 23185 23186 23187 23188 23189
10 23190 23191 23192 23193 23194 23195 23196 23197 23198 23199
10 23200 23201 23202 23203 23204 23205 23206 23207 23208 23209
10 23210 23211 23212 23213 23214 23215 23216 23217 23218 23219
10 23220 23221 23222 23223 23224 23225 23226 23227 23228 23229
10 23230 23231 23232 23233 23234 23235 23236 23237 23238 23239
10 23240 23241 23242 23243 23244 23245 23246 23247 23248 23249
10 23250 23251 23252 23253 23254 23255 23256 23257 23258 23259
10 23260 23261 23262 23263 23264 23265 23266 23267 23268 23269
10 23270 23271 23272 23273 23274 23275 23276 23277 23278 23279
10 23280 23281 23282 23283 23284 23285 23286 23287 23288 23289
10 23290 23291 23292 23293 23294 23295 23296 23297 23298 23299
10 23300 23301 23302 23303 23304 23305 23306 23307 23308 23309
10 23310 23311 23312 23313 23314 23315 23316 23317 23318 23319
10 23320 23321 23322 23323 23324 23325 23326 23327 23328 23329
10 23330 23331 23332 23333 23334 23335 23336 23337 23338 23339
10 23340 23341 23342 23343 23344 23345 23346 23347 23348 23349
10 23350 23351 23352 23353 23354 23355 23356 23357 23358 23359
10 23360 23361 23362 23363 23364 23365 23366 23367 23368 23369
10 23370 23371 23372 23373 23374 23375 23376 23377 23378 23379
10 23380 23381 23382 23383 23384 23385 23386 23387 23388 23389
10 23390 23391 23392 23393 23394 23395 23396 23397 23398 23399
10 23400 23401 23402 23403 23404 23405 23406 23407 23408 23409
10 23410 23411 23412 23413 23414 23415 23416 23417 23418 23419
10 23420 23421 23422 23423 23424 23425 23426 23427 23428 23429
10 23430 23431 23432 23433 23434 23435 23436 23437 23438 23439
10 23440 23441 23442 23443 23444 23445 23446 23447 23448 23449
10 23450 23451 23452 23453 23454 23455 23456 23457 23458 23459
10 23460 23461 23462 23463 23464 23465 23466 23467 23468 23469
10 23470 23471 23472 23473 23474 23475 23476 23477 23478 23479
10 23480 23481 23482 23483 23484 23485 23486 23487 23488 23489
10 23490 23491 23492 23493 23494 23495 23496 23497 23498 23499
10 23500 23501 23502 23503 23504 23505 23506 23507 23508 23509
10 23510 23511 23512 23513 23514 23515 23516 23517 23518 23519
10 23520 23521 23522 23523 23524 23525 23526 23527 23528 23529
10 23530 23531 23532 23533 23534 23535 23536 23537 23538 23539
10 23540 23541 23542 23543 23544 23545 23546 23547 23548 23549
10 23550 23551 23552 23553 23554 23555 23556 23557 23558 23559
10 23560 23561 23562 23563 23564 23565 23566 23567 23568 23569
10 23570 23571 23572 23573 23574 23575 23576 23577 23578 23579
10 23580 23581 23582 23583 23584 23585 23586 23587 23588 23589
10 23590 23591 23592 23593 23594 23595 23596 23597 23598 23599
10 23600 23601 23602 23603 23604 23605 23606 23607 23608 23609
10 23610 23611 23612 23613 23614 23615 23616 23617 23618 23619
10 23620 23621 23622 23623 23624 23625 23626 23627 23628 23629
10 23630 23631 23632 23633 23634 23635 23636 23637 23638 23639
10 23640 23641 23642 23643 23644 23645 23646 23647 23648 23649
10 23650 23651 23652 23653 23654 23655 23656 23657 23658 23659
10 23660 23661 23662 23663 23664 23665 23666 23667 23668 23669
10 23670 23671 23672 23673 23674 23675 23676 23677 23678 23679
10 23680 23681 23682 23683 23684 23685 23686 23687 23688 23689
10 23690 23691 23692 23693 23694 23695 23696 23697 23698 23699
10 23700 23701 23702 23703 23704 23705 23706 23707 23708 23709
10 23710 23711 23712 23713 23714 23715 23716 23717 23718 23719
10 23720 23721 23722 23723 23724 23725 23726 23727 23728 23729
10 23730 23731 23732 23733 23734 23735 23736 23737 23738 23739
10 23740 23741 23742 23743 23744 23745 23746 23747 23748 23749
10 23750 23751 23752 23753 23754 23755 23756 23757 23758 23759
10 23760 23761 23762 23763 23764 23765 23766 23767 23768 23769
10 23770 23771 23772 23773 23774 23775 23776 23777 23778 23779
10 23780 23781 23782 23783 23784 23785 23786 23787 23788 23789
10 23790 23791 23792 23793 23794 23795 23796 23797 23798 23799
10 23800 23801 23802 23803 23804 23805 23806 23807 23808 23809
10 23810 23811 23812 23813 23814 23815 23816 23817 23818 23819
10 23820 23821 23822 23823 23824 23825 23826 23827 23828 23829
10 23830 23831 23832 23833 23834 23835 23836 23837 23838 23839
10 23840 23841 23842 23843 23844 23845 23846 23847 23848 23849
10 23850 23851 23852 23853 23854 23855 23856 23857 23858 23859
10 23860 23861 23862 23863 23864 23865 23866 23867 23868 23869
10 23870 23871 23872 23873 23874 23875 23876 23877 23878 23879
10 23880 23881 23882 23883 23884 23885 23886 23887 23888 23889
10 23890 23891 23892 23893 23894 23895 23896 23897 23898 23899
10 23900 23901 23902 23903 23904 23905 23906 23907 23908 23909
10 23910 23911 23912 23913 23914 23915 23916 23917 23918 23919
10 23920 23921 23922 23923 23924 23925 23926 23927 23928 23929
10 23930 23931 23932 23933 23934 23935 23936 23937 23938 23939
10 23940 23941 23942 23943 23944 23945 23946 23947 23948 23949
10 23950 23951 23952 23953 23954 23955 23956 23957 23958 23959
10 23960 23961 23962 23963 23964 23965 23966 23967 23968 23969
10 23970 23971 23972 23973 23974 23975 23976 23977 23978 23979
10 23980 23981 23982 23983 23984 23985 23986 23987 23988 23989
10 23990 23991 23992 23993 23994 23995 23996 23997 23998 23999
10 24000 24001 24002 24003 24004 24005 24006 24007 24008 24009
10 24010 24011 24012 24013 24014 24015 24016 24017 24018 24019
10 24020 24021 24022 24023 24024 24025 24026 24027 24028 24029
10 24030 24031 24032 24033 24034 24035 24036 24037 24038 24039
10 24040 24041 24042 24043 24044 24045 24046 24047 24048 24049
10 24050 24051 24052 24053 24054 24055 24056 24057 24058 24059
10 24060 24061 24062 24063 24064 24065 24066 24067 24068 24069
10 24070 24071 24072 24073 24074 24075 24076 24077 24078 24079
10 24080 24081 24082 24083 24084 24085 24086 24087 24088 24089
10 24090 24091 24092 24093 24094 24095 24096 24097 24098 24099
10 24100 24101 24102 24103 24104 24105 24106 24107 24108 24109
10 24110 24111 24112 24113 24114 24115 24116 24117 24118 24119
10 24120 24121 24122 24123 24124 24125 24126 24127 24128 24129
10 24130 24131 24132 24133 24134 24135 24136 24137 24138 24139
10 24140 24141 24142 24143 24144 24145 24146 24147 24148 24149
10 24150 24151 24152 24153 24154 24155 24156 24157 24158 24159
10 24160 24161 24162 24163 24164 24165 24166 24167 24168 24169
10 24170 24171 24172 24173 24174 24175 24176 24177 24178 24179
10 24180 24181 24182 24183 24184 24185 24186 24187 24188 24189
10 24190 24191 24192 24193 24194 24195 24196 24197 24198 24199
10 24200 24201 24202 24203 24204 24205 24206 24207 24208 24209
10 24210 24211 24212 24213 24214 24215 24216 24217 24218 24219
10 24220 24221 24222 24223 24224 24225 24226 24227 24228 24229
10 24230 24231 24232 24233 24234 24235 24236 24237 24238 24239
10 24240 24241 24242 24243 24244 24245 24246 24247 24248 24249
10 24250 24251 24252 24253 24254 24255 24256 24257 24258 24259
10 24260 24261 24262 24263 24264 24265 24266 24267 24268 24269
10 24270 24271 24272 24273 24274 24275 24276 24277 24278 24279
10 24280 24281 24282 24283 24284 24285 24286 24287 24288 24289
10 24290 24291 24292 24293 24294 24295 24296 24297 24298 24299
10 24300 24301 24302 24303 24304 24305 24306 24307 24308 24309
10 24310 24311 24312 24313 24314 24315 24316 24317 24318 24319
10 24320 24321 24322 24323 24324 24325 24326 24327 24328 24329
10 24330 24331 24332 24333 24334 24335 24336 24337 24338 24339
10 24340 24341 24342 24343 24344 24345 24346 24347 24348 24349
10 24350 24351 24352 24353 24354 24355 24356 24357 24358 24359
10 24360 24361 24362 24363 24364 24365 24366 24367 24368 24369
10 24370 24371 24372 24373 24374 24375 24376 24377 24378 24379
10 24380 24381 24382 24383 24384 24385 24386 24387 24388 24389
10 24390 24391 24392 24393 24394 24395 24396 24397 24398 24399
10 24400 24401 24402 24403 24404 24405 24406 24407 24408 24409
10 24410 24411 24412 24413 24414 24415 24416 24417 24418 24419
10 24420 24421 24422 24423 24424 24425 24426 24427 24428 24429
10 24430 24431 24432 24433 24434 24435 24436 24437 24438 24439
10 24440 24441 24442 24443 24444 24445 24446 24447 24448 24449
10 24450 24451 24452 24453 24454 24455 24456 24457 24458 24459
10 24460 24461 24462 24463 24464 24465 24466 24467 24468 24469
10 24470 24471 24472 24473 24474 24475 24476 24477 24478 24479
10 24480 24481 24482 24483 24484 24485 24486 24487 24488 24489
10 24490 24491 24492 24493 24494 24495 24496 24497 24498 24499
10 24500 24501 24502 24503 24504 24505 24506 24507 24508 24509
10 24510 24511 24512 24513 24514 24515 24516 24517 24518 24519
10 24520 24521 24522 24523 24524 24525 24526 24527 24528 24529
10 24530 24531 24532 24533 24534 24535 24536 24537 24538 24539
10 24540 24541 24542 24543 24544 24545 24546 24547 24548 24549
10 24550 24551 24552 24553 24554 24555 24556 24557 24558 24559
10 24560 24561 24562 24563 24564 24565 24566 24567 24568 24569
10 24570 24571 24572 24573 24574 24575 24576 24577 24578 24579
10 24580 24581 24582 24583 24584 24585 24586 24587 24588 24589
10 24590 24591 24592 24593 24594 24595 24596 24597 24598 24599
10 24600 24601 24602 24603 24604 24605 24606 24607 24608 24609
10 24610 24611 24612 24613 24614 24615 24616 24617 24618 24619
10 24620 24621 24622 24623 24624 24625 24626 24627 24628 24629
10 24630 24631 24632 24633 24634 24635 24636 24637 24638 24639
10 24640 24641 24642 24643 24644 24645 24646 24647 24648 24649
10 24650 24651 24652 24653 24654 24655 24656 24657 24658 24659
10 24660 24661 24662 24663 24664 24665 24666 24667 24668 24669
10 24670 24671 24672 24673 24674 24675 24676 24677 24678 24679
10 24680 24681 24682 24683 24684 24685 24686 24687 24688 24689
10 24690 24691 24692 24693 24694 24695 24696 24697 24698 24699
10 24700 24701 24702 24703 24704 24705 24706 24707 24708 24709
10 24710 24711 24712 24713 24714 24715 24716 24717 24718 24719
10 24720 24721 24722 24723 24724 24725 24726 24727 24728 24729
10 24730 24731 24732 24733 24734 24735 24736 24737 24738 24739
10 24740 24741 24742 24743 24744 24745 24746 24747 24748 24749
10 24750 24751 24752 24753 24754 24755 24756 24757 24758 24759
10 24760 24761 24762 24763 24764 24765 24766 24767 24768 24769
10 24770 24771 24772 24773 24774 24775 24776 24777 24778 24779
10 24780 24781 24782 24783 24784 24785 24786 24787 24788 24789
10 24790 24791 24792 24793 24794 24795 24796 24797 24798 24799
10 24800 24801 24802 24803 24804 24805 24806 24807 24808 24809
10 24810 24811 24812 24813 24814 24815 24816 24817 24818 24819
10 24820 24821 24822 24823 24824 24825 24826 24827 24828 24829
10 24830 24831 24832 24833 24834 24835 24836 24837 24838 24839
10 24840 24841 24842 24843 24844 24845 24846 24847 24848 24849
10 24850 24851 24852 24853 24854 24855 24856 24857 24858 24859
10 24860 24861 24862 24863 24864 24865 24866 24867 24868 24869
10 24870 24871 24872 24873 24874 24875 24876 24877 24878 24879
10 24880 24881 24882 24883 24884 24885 24886 24887 24888 24889
10 24890 24891 24892 24893 24894 24895 24896 24897 24898 24899
10 24900 24901 24902 24903 24904 24905 24906 24907 24908 24909
10 24910 24911 24912 24913 24914 24915 24916 24917 24918 24919
10 24920 24921 24922 24923 24924 24925 24926 24927 24928 24929
10 24930 24931 24932 24933 24934 24935 24936 24937 24938 24939
10 24940 24941 24942 24943 24944 24945 24946 24947 24948 24949
10 24950 24951 24952 24953 24954 24955 24956 24957 24958 24959
10 24960 24961 24962 24963 24964 24965 24966 24967 24968 24969
10 24970 24971 24972 24973 24974 24975 24976 24977 24978 24979
10 24980 24981 24982 24983 24984 24985 24986 24987 24988 24989
10 24990 24991 24992 24993 24994 24995 24996 24997 24998 24999
10 25000 25001 25002 25003 25004 25005 25006 25007 25008 25009
10 25010 25011 25012 25013 25014 25015 25016 25017 25018 25019
10 25020 25021 25022 25023 25024 25025 25026 25027 25028 25029
10 25030 25031 25032 25033 25034 25035 25036 25037 25038 25039
10 25040 25041 25042 25043 25044 25045 25046 25047 25048 25049
10 25050 25051 25052 25053 25054 25055 25056 25057 25058 25059
10 25060 25061 25062 25063 25064 25065 25066 25067 25068 25069
10 25070 25071 25072 25073 25074 25075 25076 25077 25078 25079
10 25080 25081 25082 25083 25084 25085 25086 25087 25088 25089
10 25090 25091 25092 25093 25094 25095 25096 25097 25098 25099
10 25100 25101 25102 25103 25104 25105 25106 25107 25108 25109
10 25110 25111 25112 25113 25114 25115 25116 25117 25118 25119
10 25120 25121 25122 25123 25124 25125 25126 25127 25128 25129
10 25130 25131 25132 25133 25134 25135 25136 25137 25138 25139
10 25140 25141 25142 25143 25144 25145 25146 25147 25148 25149
10 25150 25151 25152 25153 25154 25155 25156 25157 25158 25159
10 25160 25161 25162 25163 25164 25165 25166 25167 25168 25169
10 25170 25171 25172 25173 25174 25175 25176 25177 25178 25179
10 25180 25181 25182 25183 25184 25185 25186 25187 25188 25189
10 25190 25191 25192 25193 25194 25195 25196 25197 25198 25199
10 25200 25201 25202 25203 25204 25205 25206 25207 25208 25209
10 25210 25211 25212 25213 25214 25215 25216 25217 25218 25219
10 25220 25221 25222 25223 25224 25225 25226 25227 25228 25229
10 25230 25231 25232 25233 25234 25235 25236 25237 25238 25239
10 25240 25241 25242 25243 25244 25245 25246 25247 25248 25249
10 25250 25251 25252 25253 25254 25255 25256 25257 25258 25259
10 25260 25261 25262 25263 25264 25265 25266 25267 25268 25269
10 25270 25271 25272 25273 25274 25275 25276 25277 25278 25279
10 25280 25281 25282 25283 25284 25285 25286 25287 25288 25289
10 25290 25291 25292 25293 25294 25295 25296 25297 25298 25299
10 25300 25301 25302 25303 25304 25305 25306 25307 25308 25309
10 25310 25311 25312 25313 25314 25315 25316 25317 25318 25319
10 25320 25321 25322 25323 25324 25325 25326 25327 25328 25329
10 25330 25331 25332 25333 25334 25335 25336 25337 25338 25339
10 25340 25341 25342 25343 25344 25345 25346 25347 25348 25349
10 25350 25351 25352 25353 25354 25355 25356 25357 25358 25359
10 25360 25361 25362 25363 25364 25365 25366 25367 25368 25369
10 25370 25371 25372 25373 25374 25375 25376 25377 25378 25379
10 25380 25381 25382 25383 25384 25385 25386 25387 25388 25389
10 25390 25391 25392 25393 25394 25395 25396 25397 25398 25399
10 25400 25401 25402 25403 25404 25405 25406 25407 25408 25409
10 25410 25411 25412 25413 25414 25415 25416 25417 25418 25419
10 25420 25421 25422 25423 25424 25425 25426 25427 25428 25429
10 25430 25431 25432 25433 25434 25435 25436 25437 25438 25439
10 25440 25441 25442 25443 25444 25445 25446 25447 25448 25449
10 25450 25451 25452 25453 25454 25455 25456 25457 25458 25459
10 25460 25461 25462 25463 25464 25465 25466 25467 25468 25469
10 25470 25471 25472 25473 25474 25475 25476 25477 25478 25479
10 25480 25481 25482 25483 25484 25485 25486 25487 25488 25489
10 25490 25491 25492 25493 25494 25495 25496 25497 25498 25499
10 25500 25501 25502 25503 25504 25505 25506 25507 25508 25509
10 25510 25511 25512 25513 25514 25515 25516 25517 25518 25519
10 25520 25521 25522 25523 25524 25525 25526 25527 25528 25529
10 25530 25531 25532 25533 25534 25535 25536 25537 25538 25539
10 25540 25541 25542 25543 25544 25545 25546 25547 25548 25549
10 25550 25551 25552 25553 25554 25555 25556 25557 25558 25559
10 25560 25561 25562 25563 25564 25565 25566 25567 25568 25569
10 25570 25571 25572 25573 25574 25575 25576 25577 25578 25579
10 25580 25581 25582 25583 25584 25585 25586 25587 25588 25589
10 25590 25591 25592 25593 25594 25595 25596 25597 25598 25599
10 25600 25601 25602 25603 25604 25605 25606 25607 25608 25609
10 25610 25611 25612 25613 25614 25615 25616 25617 25618 25619
10 25620 25621 25622 25623 25624 25625 25626 25627 25628 25629
10 25630 25631 25632 25633 25634 25635 25636 25637 25638 25639
10 25640 25641 25642 25643 25644 25645 25646 25647 25648 25649
10 25650 25651 25652 25653 25654 25655 25656 25657 25658 25659
10 25660 25661 25662 25663 25664 25665 25666 25667 25668 25669
10 25670 25671 25672 25673 25674 25675 25676 25677 25678 25679
10 25680 25681 25682 25683 25684 25685 25686 25687 25688 25689
10 25690 25691 25692 25693 25694 25695 25696 25697 25698 25699
10 25700 25701 25702 25703 25704 25705 25706 25707 25708 25709
10 25710 25711 25712 25713 25714 25715 25716 25717 25718 25719
10 25720 25721 25722 25723 25724 25725 25726 25727 25728 25729
10 25730 25731 25732 25733 25734 25735 25736 25737 25738 25739
10 25740 25741 25742 25743 25744 25745 25746 25747 25748 25749
10 25750 25751 25752 25753 25754 25755 25756 25757 25758 25759
10 25760 25761 25762 25763 25764 25765 25766 25767 25768 25769
10 25770 25771 25772 25773 25774 25775 25776 25777 25778 25779
10 25780 25781 25782 25783 25784 25785 25786 25787 25788 25789
10 25790 25791 25792 25793 25794 25795 25796 25797 25798 25799
10 25800 25801 25802 25803 25804 25805 25806 25807 25808 25809
10 25810 25811 25812 25813 25814 25815 25816 25817 25818 25819
10 25820 25821 25822 25823 25824 25825 25826 25827 25828 25829
10 25830 25831 25832 25833 25834 25835 25836 25837 25838 25839
10 25840 25841 25842 25843 25844 25845 25846 25847 25848 25849
10 25850 25851 25852 25853 25854 25855 25856 25857 25858 25859
10 25860 25861 25862 25863 25864 25865 25866 25867 25868 25869
10 25870 25871 25872 25873 25874 25875 25876 25877 25878 25879
10 25880 25881 25882 25883 25884 25885 25886 25887 25888 25889
10 25890 25891 25892 25893 25894 25895 25896 25897 25898 25899
10 25900 25901 25902 25903 25904 25905 25906 25907 25908 25909
10 25910 25911 25912 25913 25914 25915 25916 25917 25918 25919
10 25920 25921 25922 25923 25924 25925 25926 25927 25928 25929
10 25930 25931 25932 25933 25934 25935 25936 25937 25938 25939
10 25940 25941 25942 25943 25944 25945 25946 25947 25948 25949
10 25950 25951 25952 25953 25954 25955 25956 25957 25958 25959
10 25960 25961 25962 25963 25964 25965 25966 25967 25968 25969
10 25970 25971 25972 25973 25974 25975 25976 25977 25978 25979
10 25980 25981 25982 25983 25984 25985 25986 25987 25988 25989
10 25990 25991 25992 25993 25994 25995 25996 25997 25998 25999
10 26000 26001 26002 26003 26004 26005 26006 26007 26008 26009
10 26010 26011 26012 26013 26014 26015 26016 26017 26018 26019
10 26020 26021 26022 26023 26024 26025 26026 26027 26028 26029
10 26030 26031 26032 26033 26034 26035 26036 26037 26038 26039
10 26040 26041 26042 26043 26044 26045 26046 26047 26048 26049
10 26050 26051 26052 26053 26054 26055 26056 26057 26058 26059
10 26060 26061 26062 26063 26064 26065 26066 26067 26068 26069
10 26070 26071 26072 26073 26074 26075 26076 26077 26078 26079
10 26080 26081 26082 26083 26084 26085 26086 26087 26088 26089
10 26090 26091 26092 26093 26094 26095 26096 26097 26098 26099
10 26100 26101 26102 26103 26104 26105 26106 26107 26108 26109
10 26110 26111 26112 26113 26114 26115 26116 26117 26118 26119
10 26120 26121 26122 26123 26124 26125 26126 26127 26128 26129
10 26130 26131 26132 26133 26134 26135 26136 26137 26138 26139
10 26140 26141 26142 26143 26144 26145 26146 26147 26148 26149
10 26150 26151 26152 26153 26154 26155 26156 26157 26158 26159
10 26160 26161 26162 26163 26164 26165 26166 26167 26168 26169
10 26170 26171 26172 26173 26174 26175 26176 26177 26178 26179
10 26180 26181 26182 26183 26184 26185 26186 26187 26188 26189
10 26190 26191 26192 26193 26194 26195 26196 26197 26198 26199
10 26200 26201 26202 26203 26204 26205 26206 26207 26208 26209
10 26210 26211 26212 26213 26214 26215 26216 26217 26218 26219
10 26220 26221 26222 26223 26224 26225 26226 26227 26228 26229
10 26230 26231 26232 26233 26234 26235 26236 26237 26238 26239
10 26240 26241 26242 26243 26244 26245 26246 26247 26248 26249
10 26250 26251 26252 26253 26254 26255 26256 26257 26258 26259
10 26260 26261 26262 26263 26264 26265 26266 26267 26268 26269
10 26270 26271 26272 26273 26274 26275 26276 26277 26278 26279
10 26280 26281 26282 26283 26284 26285 26286 26287 26288 26289
10 26290 26291 26292 26293 26294 26295 26296 26297 26298 26299
10 26300 26301 26302 26303 26304 26305 26306 26307 26308 26309
10 26310 26311 26312 26313 26314 26315 26316 26317 26318 26319
10 26320 26321 26322 26323 26324 26325 26326 26327 26328 26329
10 26330 26331 26332 26333 26334 26335 26336 26337 26338 26339
10 26340 26341 26342 26343 26344 26345 26346 26347 26348 26349
10 26350 26351 26352 26353 26354 26355 26356 26357 26358 26359
10 26360 26361 26362 26363 26364 26365 26366 26367 26368 26369
10 26370 26371 26372 26373 26374 26375 26376 26377 26378 26379
10 26380 26381 26382 26383 26384 26385 26386 26387 26388 26389
10 26390 26391 26392 26393 26394 26395 26396 26397 26398 26399
10 26400 26401 26402 26403 26404 26405 26406 26407 26408 26409
10 26410 26411 26412 26413 26414 26415 26416 26417 26418 26419
10 26420 26421 26422 26423 26424 26425 26426 26427 26428 26429
10 26430 26431 26432 26433 26434 26435 26436 26437 26438 26439
10 26440 26441 26442 26443 26444 26445 26446 26447 26448 26449
10 26450 26451 26452 26453 26454 26455 26456 26457 26458 26459
10 26460 26461 26462 26463 26464 26465 26466 26467 26468 26469
10 26470 26471 26472 26473 26474 26475 26476 26477 26478 26479
10 26480 26481 26482 26483 26484 26485 26486 26487 26488 26489
10 26490 26491 26492 26493 26494 26495 26496 26497 26498 26499
10 26500 26501 26502 26503 26504 26505 26506 26507 26508 26509
10 26510 26511 26512 26513 26514 26515 26516 26517 26518 26519
10 26520 26521 26522 26523 26524 26525 26526 26527 26528 26529
10 26530 26531 26532 26533 26534 26535 26536 26537 26538 26539
10 26540 26541 26542 26543 26544 26545 26546 26547 26548 26549
10 26550 26551 26552 26553 26554 26555 26556 26557 26558 26559
10 26560 26561 26562 26563 26564 26565 26566 26567 26568 26569
10 26570 26571 26572 26573 26574 26575 26576 26577 26578 26579
10 26580 26581 26582 26583 26584 26585 26586 26587 26588 26589
10 26590 26591 26592 26593 26594 26595 26596 26597 26598 26599
10 26600 26601 26602 26603 26604 26605 26606 26607 26608 26609
10 26610 26611 26612 26613 26614 26615 26616 26617 26618 26619
10 26620 26621 26622 26623 26624 26625 26626 26627 26628 26629
10 26630 26631 26632 26633 26634 26635 26636 26637 26638 26639
10 26640 26641 26642 26643 26644 26645 26646 26647 26648 26649
10 26650 26651 26652 26653 26654 26655 26656 26657 26658 26659
10 26660 26661 26662 26663 26664 26665 26666 26667 26668 26669
10 26670 26671 26672 26673 26674 26675 26676 26677 26678 26679
10 26680 26681 26682 26683 26684 26685 26686 26687 26688 26689
10 26690 26691 26692 26693 26694 26695 26696 26697 26698 26699
10 26700 26701 26702 26703 26704 26705 26706 26707 26708 26709
10 26710 26711 26712 26713 26714 26715 26716 26717 26718 26719
10 26720 26721 26722 26723 26724 26725 26726 26727 26728 26729
10 26730 26731 26732 26733 26734 26735 26736 26737 26738 26739
10 26740 26741 26742 26743 26744 26745 26746 26747 26748 26749
10 26750 26751 26752 26753 26754 26755 26756 26757 26758 26759
10 26760 26761 26762 26763 26764 26765 26766 26767 26768 26769
10 26770 26771 26772 26773 26774 26775 26776 26777 26778 26779
10 26780 26781 26782 26783 26784 26785 26786 26787 26788 26789
10 26790 26791 26792 26793 26794 26795 26796 26797 26798 26799
10 26800 26801 26802 26803 26804 26805 26806 26807 26808 26809
10 26810 26811 26812 26813 26814 26815 26816 26817 26818 26819
10 26820 26821 26822 26823 26824 26825 26826 26827 26828 26829
10 26830 26831 26832 26833 26834 26835 26836 26837 26838 26839
10 26840 26841 26842 26843 26844 26845 26846 26847 26848 26849
10 26850 26851 26852 26853 26854 26855 26856 26857 26858 26859
10 26860 26861 26862 26863 26864 26865 26866 26867 26868 26869
10 26870 26871 26872 26873 26874 26875 26876 26877 26878 26879
10 26880 26881 26882 26883 26884 26885 26886 26887 26888 26889
10 26890 26891 26892 26893 26894 26895 26896 26897 26898 26899
10 26900 26901 26902 26903 26904 26905 26906 26907 26908 26909
10 26910 26911 26912 26913 26914 26915 26916 26917 26918 26919
10 26920 26921 26922 26923 26924 26925 26926 26927 26928 26929
10 26930 26931 26932 26933 26934 26935 26936 26937 26938 26939
10 26940 26941 26942 26943 26944 26945 26946 26947 26948 26949
10 26950 26951 26952 26953 26954 26955 26956 26957 26958 26959
10 26960 26961 26962 26963 26964 26965 26966 26967 26968 26969
10 26970 26971 26972 26973 26974 26975 26976 26977 26978 26979
10 26980 26981 26982 26983 26984 26985 26986 26987 26988 26989
10 26990 26991 26992 26993 26994 26995 26996 26997 26998 26999
10 27000 27001 27002 27003 27004 27005 27006 27007 27008 27009
10 27010 27011 27012 27013 27014 27015 27016 27017 27018 27019
10 27020 27021 27022 27023 27024 27025 27026 27027 27028 27029
10 27030 27031 27032 27033 27034 27035 27036 27037 27038 27039
10 27040 27041 27042 27043 27044 27045 27046 27047 27048 27049
10 27050 27051 27052 27053 27054 27055 27056 27057 27058 27059
10 27060 27061 27062 27063 27064 27065 27066 27067 27068 27069
10 27070 27071 27072 27073 27074 27075 27076 27077 27078 27079
10 27080 27081 27082 27083 27084 27085 27086 27087 27088 27089
10 27090 27091 27092 27093 27094 27095 27096 27097 27098 27099
10 27100 27101 27102 27103 27104 27105 27106 27107 27108 27109
10 27110 27111 27112 27113 27114 27115 27116 27117 27118 27119
10 27120 27121 27122 27123 27124 27125 27126 27127 27128 27129
10 27130 27131 27132 27133 27134 27135 27136 27137 27138 27139
10 27140 27141 27142 27143 27144 27145 27146 27147 27148 27149
10 27150 27151 27152 27153 27154 27155 27156 27157 27158 27159
10 27160 27161 27162 27163 27164 27165 27166 27167 27168 27169
10 27170 27171 27172 27173 27174 27175 27176 27177 27178 27179
10 27180 27181 27182 27183 27184 27185 27186 27187 27188 27189
10 27190 27191 27192 27193 27194 27195 27196 27197 27198 27199
10 27200 27201 27202 27203 27204 27205 27206 27207 27208 27209
10 27210 27211 27212 27213 27214 27215 27216 27217 27218 27219
10 27220 27221 27222 27223 27224 27225 27226 27227 27228 27229
10 27230 27231 27232 27233 27234 27235 27236 27237 27238 27239
10 27240 27241 27242 27243 27244 27245 27246 27247 27248 27249
10 27250 27251 27252 27253 27254 27255 27256 27257 27258 27259
10 27260 27261 27262 27263 27264 27265 27266 27267 27268 27269
10 27270 27271 27272 27273 27274 27275 27276 27277 27278 27279
10 27280 27281 27282 27283 27284 27285 27286 27287 27288 27289
10 27290 27291 27292 27293 27294 27295 27296 27297 27298 27299
10 27300 27301 27302 27303 27304 27305 27306 27307 27308 27309
10 27310 27311 27312 27313 27314 27315 27316 27317 27318 27319
10 27320 27321 27322 27323 27324 27325 27326 27327 27328 27329
10 27330 27331 27332 27333 27334 27335 27336 27337 27338 27339
10 27340 27341 27342 27343 27344 27345 27346 27347 27348 27349
10 27350 27351 27352 27353 27354 27355 27356 27357 27358 27359
10 27360 27361 27362 27363 27364 27365 27366 27367 27368 27369
10 27370 27371 27372 27373 27374 27375 27376 27377 27378 27379
10 27380 27381 27382 27383 27384 27385 27386 27387 27388 27389
10 27390 27391 27392 27393 27394 27395 27396 27397 27398 27399
10 27400 27401 27402 27403 27404 27405 27406 27407 27408 27409
10 27410 27411 27412 27413 27414 27415 27416 27417 27418 27419
10 27420 27421 27422 27423 27424 27425 27426 27427 27428 27429
10 27430 27431 27432 27433 27434 27435 27436 27437 27438 27439
10 27440 27441 27442 27443 27444 27445 27446 27447 27448 27449
10 27450 27451 27452 27453 27454 27455 27456 27457 27458 27459
10 27460 27461 27462 27463 27464 27465 27466 27467 27468 27469
10 27470 27471 27472 27473 27474 27475 27476 27477 27478 27479
10 27480 27481 27482 27483 27484 27485 27486 27487 27488 27489
10 27490 27491 27492 27493 27494 27495 27496 27497 27498 27499
10 27500 27501 27502 27503 27504 27505 27506 27507 27508 27509
10 27510 27511 27512 27513 27514 27515 27516 27517 27518 27519
10 27520 27521 27522 27523 27524 27525 27526 27527 27528 27529
10 27530 27531 27532 27533 27534 27535 27536 27537 27538 27539
10 27540 27541 27542 27543 27544 27545 27546 27547 27548 27549
10 27550 27551 27552 27553 27554 27555 27556 27557 27558 27559
10 27560 27561 27562 27563 27564 27565 27566 27567 27568 27569
10 27570 27571 27572 27573 27574 27575 27576 27577 27578 27579
10 27580 27581 27582 27583 27584 27585 27586 27587 27588 27589
10 27590 27591 27592 27593 27594 27595 27596 27597 27598 27599
10 27600 27601 27602 27603 27604 27605 27606 27607 27608 27609
10 27610 27611 27612 27613 27614 27615 27616 27617 27618 27619
10 27620 27621 27622 27623 27624 27625 27626 27627 27628 27629
10 27630 27631 27632 27633 27634 27635 27636 27637 27638 27639
10 27640 27641 27642 27643 27644 27645 27646 27647 27648 27649
10 27650 27651 27652 27653 27654 27655 27656 27657 27658 27659
10 27660 27661 27662 27663 27664 27665 27666 27667 27668 27669
10 27670 27671 27672 27673 27674 27675 27676 27677 27678 27679
10 27680 27681 27682 27683 27684 27685 27686 27687 27688 27689
10 27690 27691 27692 27693 27694 27695 27696 27697 27698 27699
10 27700 27701 27702 27703 27704 27705 27706 27707 27708 27709
10 27710 27711 27712 27713 27714 27715 27716 27717 27718 27719
10 27720 27721 27722 27723 27724 27725 27726 27727 27728 27729
10 27730 27731 27732 27733 27734 27735 27736 27737 27738 27739
10 27740 27741 27742 27743 27744 27745 27746 27747 27748 27749
10 27750 27751 27752 27753 27754 27755 27756 27757 27758 27759
10 27760 27761 27762 27763 27764 27765 27766 27767 27768 27769
10 27770 27771 27772 27773 27774 27775 27776 27777 27778 27779
10 27780 27781 27782 27783 27784 27785 27786 27787 27788 27789
10 27790 27791 27792 27793 27794 27795 27796 27797 27798 27799
10 27800 27801 27802 27803 27804 27805 27806 27807 27808 27809
10 27810 27811 27812 27813 27814 27815 27816 27817 27818 27819
10 27820 27821 27822 27823 27824 27825 27826 27827 27828 27829
10 27830 27831 27832 27833 27834 27835 27836 27837 27838 27839
10 27840 27841 27842 27843 27844 27845 27846 27847 27848 27849
10 27850 27851 27852 27853 27854 27855 27856 27857 27858 27859
10 27860 27861 27862 27863 27864 27865 27866 27867 27868 27869
10 27870 27871 27872 27873 27874 27875 27876 27877 27878 27879
10 27880 27881 27882 27883 27884 27885 27886 27887 27888 27889
10 27890 27891 27892 27893 27894 27895 27896 27897 27898 27899
10 27900 27901 27902 27903 27904 27905 27906 27907 27908 27909
10 27910 27911 27912 27913 27914 27915 27916 27917 27918 27919
10 27920 27921 27922 27923 27924 27925 27926 27927 27928 27929
10 27930 27931 27932 27933 27934 27935 27936 27937 27938 27939
10 27940 27941 27942 27943 27944 27945 27946 27947 27948 27949
10 27950 27951 27952 27953 27954 27955 27956 27957 27958 27959
10 27960 27961 27962 27963 27964 27965 27966 27967 27968 27969
10 27970 27971 27972 27973 27974 27975 27976 27977 27978 27979
10 27980 27981 27982 27983 27984 27985 27986 27987 27988 27989
10 27990 27991 27992 27993 27994 27995 27996 27997 27998 27999
10 28000 28001 28002 28003 28004 28005 28006 28007 28008 28009
10 28010 28011 28012 28013 28014 28015 28016 28017 28018 28019
10 28020 28021 28022 28023 28024 28025 28026 28027 28028 28029
10 28030 28031 28032 28033 28034 28035 28036 28037 28038 28039
10 28040 28041 28042 28043 28044 28045 28046 28047 28048 28049
10 28050 28051 28052 28053 28054 28055 28056 28057 28058 28059
10 28060 28061 28062 28063 28064 28065 28066 28067 28068 28069
10 28070 28071 28072 28073 28074 28075 28076 28077 28078 28079
10 28080 28081 28082 28083 28084 28085 28086 28087 28088 28089
10 28090 28091 28092 28093 28094 28095 28096 28097 28098 28099
10 28100 28101 28102 28103 28104 28105 28106 28107 28108 28109
10 28110 28111 28112 28113 28114 28115 28116 28117 28118 28119
10 28120 28121 28122 28123 28124 28125 28126 28127 28128 28129
10 28130 28131 28132 28133 28134 28135 28136 28137 28138 28139
10 28140 28141 28142 28143 28144 28145 28146 28147 28148 28149
10 28150 28151 28152 28153 28154 28155 28156 28157 28158 28159
10 28160 28161 28162 28163 28164 28165 28166 28167 28168 28169
10 28170 28171 28172 28173 28174 28175 28176 28177 28178 28179
10 28180 28181 28182 28183 28184 28185 28186 28187 28188 28189
10 28190 28191 28192 28193 28194 28195 28196 28197 28198 28199
10 28200 28201 28202 28203 28204 28205 28206 28207 28208 28209
10 28210 28211 28212 28213 28214 28215 28216 28217 28218 28219
10 28220 28221 28222 28223 28224 28225 28226 28227 28228 28229
10 28230 28231 28232 28233 28234 28235 28236 28237 28238 28239
10 28240 28241 28242 28243 28244 28245 28246 28247 28248 28249
10 28250 28251 28252 28253 28254 28255 28256 28257 28258 28259
10 28260 28261 28262 28263 28264 28265 28266 28267 28268 28269
10 28270 28271 28272 28273 28274 28275 28276 28277 28278 28279
10 28280 28281 28282 28283 28284 28285 28286 28287 28288 28289
10 28290 28291 28292 28293 28294 28295 28296 28297 28298 28299
10 28300 28301 28302 28303 28304 28305 28306 28307 28308 28309
10 28310 28311 28312 28313 28314 28315 28316 28317 28318 28319
10 28320 28321 28322 28323 28324 28325 28326 28327 28328 28329
10 28330 28331 28332 28333 28334 28335 28336 28337 28338 28339
10 28340 28341 28342 28343 28344 28345 28346 28347 28348 28349
10 28350 28351 28352 28353 28354 28355 28356 28357 28358 28359
10 28360 28361 28362 28363 28364 28365 28366 28367 28368 28369
10 28370 28371 28372 28373 28374 28375 28376 28377 28378 28379
10 28380 28381 28382 28383 28384 28385 28386 28387 28388 28389
10 28390 28391 28392 28393 28394 28395 28396 28397 28398 28399
10 28400 28401 28402 28403 28404 28405 28406 28407 28408 28409
10 28410 28411 28412 28413 28414 28415 28416 28417 28418 28419
10 28420 28421 28422 28423 28424 28425 28426 28427 28428 28429
10 28430 28431 28432 28433 28434 28435 28436 28437 28438 28439
10 28440 28441 28442 28443 28444 28445 28446 28447 28448 28449
10 28450 28451 28452 28453 28454 28455 28456 28457 28458 28459
10 28460 28461 28462 28463 28464 28465 28466 28467 28468 28469
10 28470 28471 28472 28473 28474 28475 28476 28477 28478 28479
10 28480 28481 28482 28483 28484 28485 28486 28487 28488 28489
10 28490 28491 28492 28493 28494 28495 28496 28497 28498 28499
10 28500 28501 28502 28503 28504 28505 28506 28507 28508 28509
10 28510 28511 28512 28513 28514 28515 28516 28517 28518 28519
10 28520 28521 28522 28523 28524 28525 28526 28527 28528 28529
10 28530 28531 28532 28533 28534 28535 28536 28537 28538 28539
10 28540 28541 28542 28543 28544 28545 28546 28547 28548 28549
10 28550 28551 28552 28553 28554 28555 28556 28557 28558 28559
10 28560 28561 28562 28563 28564 28565 28566 28567 28568 28569
10 28570 28571 28572 28573 28574 28575 28576 28577 28578 28579
10 28580 28581 28582 28583 28584 28585 28586 28587 28588 28589
10 28590 28591 28592 28593 28594 28595 28596 28597 28598 28599
10 28600 28601 28602 28603 28604 28605 28606 28607 28608 28609
10 28610 28611 28612 28613 28614 28615 28616 28617 28618 28619
10 28620 28621 28622 28623 28624 28625 28626 28627 28628 28629
10 28630 28631 28632 28633 28634 28635 28636 28637 28638 28639
10 28640 28641 28642 28643 28644 28645 28646 28647 28648 28649
10 28650 28651 28652 28653 28654 28655 28656 28657 28658 28659
10 28660 28661 28662 28663 28664 28665 28666 28667 28668 28669
10 28670 28671 28672 28673 28674 28675 28676 28677 28678 28679
10 28680 28681 28682 28683 28684 28685 28686 28687 28688 28689
10 28690 28691 28692 28693 28694 28695 28696 28697 28698 28699
10 28700 28701 28702 28703 28704 28705 28706 28707 28708 28709
10 28710 28711 28712 28713 28714 28715 28716 28717 28718 28719
10 28720 28721 28722 28723 28724 28725 28726 28727 28728 28729
10 28730 28731 28732 28733 28734 28735 28736 28737 28738 28739
10 28740 28741 28742 28743 28744 28745 28746 28747 28748 28749
10 28750 28751 28752 28753 28754 28755 28756 28757 28758 28759
10 28760 28761 28762 28763 28764 28765 28766 28767 28768 28769
10 28770 28771 28772 28773 28774 28775 28776 28777 28778 28779
10 28780 28781 28782 28783 28784 28785 28786 28787 28788 28789
10 28790 28791 28792 28793 28794 28795 28796 28797 28798 28799
10 28800 28801 28802 28803 28804 28805 28806 28807 28808 28809
10 28810 28811 28812 28813 28814 28815 28816 28817 28818 28819
10 28820 28821 28822 28823 28824 28825 28826 28827 28828 28829
10 28830 28831 28832 28833 28834 28835 28836 28837 28838 28839
10 28840 28841 28842 28843 28844 28845 28846 28847 28848 28849
10 28850 28851 28852 28853 28854 28855 28856 28857 28858 28859
10 28860 28861 28862 28863 28864 28865 28866 28867 28868 28869
10 28870 28871 28872 28873 28874 28875 28876 28877 28878 28879
10 28880 28881 28882 28883 28884 28885 28886 28887 28888 28889
10 28890 28891 28892 28893 28894 28895 28896 28897 28898 28899
10 28900 28901 28902 28903 28904 28905 28906 28907 28908 28909
10 28910 28911 28912 28913 28914 28915 28916 28917 28918 28919
10 28920 28921 28922 28923 28924 28925 28926 28927 28928 28929
10 28930 28931 28932 28933 28934 28935 28936 28937 28938 28939
10 28940 28941 28942 28943 28944 28945 28946 28947 28948 28949
10 28950 28951 28952 28953 28954 28955 28956 28957 28958 28959
10 28960 28961 28962 28963 28964 28965 28966 28967 28968 28969
10 28970 28971 28972 28973 28974 28975 28976 28977 28978 28979
10 28980 28981 28982 28983 28984 28985 28986 28987 28988 28989
10 28990 28991 28992 28993 28994 28995 28996 28997 28998 28999
10 29000 29001 29002 29003 29004 29005 29006 29007 29008 29009
10 29010 29011 29012 29013 29014 29015 29016 29017 29018 29019
10 29020 29021 29022 29023 29024 29025 29026 29027 29028 29029
10 29030 29031 29032 29033 29034 29035 29036 29037 29038 29039
10 29040 29041 29042 29043 29044 29045 29046 29047 29048 29049
10 29050 29051 29052 29053 29054 29055 29056 29057 29058 29059
10 29060 29061 29062 29063 29064 29065 29066 29067 29068 29069
10 29070 29071 29072 29073 29074 29075 29076 29077 29078 29079
10 29080 29081 29082 29083 29084 29085 29086 29087 29088 29089
10 29090 29091 29092 29093 29094 29095 29096 29097 29098 29099
10 29100 29101 29102 29103 29104 29105 29106 29107 29108 29109
10 29110 29111 29112 29113 29114 29115 29116 29117 29118 29119
10 29120 29121 29122 29123 29124 29125 29126 29127 29128 29129
10 29130 29131 29132 29133 29134 29135 29136 29137 29138 29139
10 29140 29141 29142 29143 29144 29145 29146 29147 29148 29149
10 29150 29151 29152 29153 29154 29155 29156 29157 29158 29159
10 29160 29161 29162 29163 29164 29165 29166 29167 29168 29169
10 29170 29171 29172 29173 29174 29175 29176 29177 29178 29179
10 29180 29181 29182 29183 29184 29185 29186 29187 29188 29189
10 29190 29191 29192 29193 29194 29195 29196 29197 29198 29199
10 29200 29201 29202 29203 29204 29205 29206 29207 29208 29209
10 29210 29211 29212 29213 29214 29215 29216 29217 29218 29219
10 29220 29221 29222 29223 29224 29225 29226 29227 29228 29229
10 29230 29231 29232 29233 29234 29235 29236 29237 29238 29239
10 29240 29241 29242 29243 29244 29245 29246 29247 29248 29249
10 29250 29251 29252 29253 29254 29255 29256 29257 29258 29259
10 29260 29261 29262 29263 29264 29265 29266 29267 29268 29269
10 29270 29271 29272 29273 29274 29275 29276 29277 29278 29279
10 29280 29281 29282 29283 29284 29285 29286 29287 29288 29289
10 29290 29291 29292 29293 29294 29295 29296 29297 29298 29299
10 29300 29301 29302 29303 29304 29305 29306 29307 29308 29309
10 29310 29311 29312 29313 29314 29315 29316 29317 29318 29319
10 29320 29321 29322 29323 29324 29325 29326 29327 29328 29329
10 29330 29331 29332 29333 29334 29335 29336 29337 29338 29339
10 29340 29341 29342 29343 29344 29345 29346 29347 29348 29349
10 29350 29351 29352 29353 29354 29355 29356 29357 29358 29359
10 29360 29361 29362 29363 29364 29365 29366 29367 29368 29369
10 29370 29371 29372 29373 29374 29375 29376 29377 29378 29379
10 29380 29381 29382 29383 29384 29385 29386 29387 29388 29389
10 29390 29391 29392 29393 29394 29395 29396 29397 29398 29399
10 29400 29401 29402 29403 29404 29405 29406 29407 29408 29409
10 29410 29411 29412 29413 29414 29415 29416 29417 29418 29419
10 29420 29421 29422 29423 29424 29425 29426 29427 29428 29429
10 29430 29431 29432 29433 29434 29435 29436 29437 29438 29439
10 29440 29441 29442 29443 29444 29445 29446 29447 29448 29449
10 29450 29451 29452 29453 29454 29455 29456 29457 29458 29459
10 29460 29461 29462 29463 29464 29465 29466 29467 29468 29469
10 29470 29471 29472 29473 29474 29475 29476 29477 29478 29479
10 29480 29481 29482 29483 29484 29485 29486 29487 29488 29489
10 29490 29491 29492 29493 29494 29495 29496 29497 29498 29499
10 29500 29501 29502 29503 29504 29505 29506 29507 29508 29509
10 29510 29511 29512 29513 29514 29515 29516 29517 29518 29519
10 29520 29521 29522 29523 29524 29525 29526 29527 29528 29529
10 29530 29531 29532 29533 29534 29535 29536 29537 29538 29539
10 29540 29541 29542 29543 29544 29545 29546 29547 29548 29549
10 29550 29551 29552 29553 29554 29555 29556 29557 29558 29559
10 29560 29561 29562 29563 29564 29565 29566 29567 29568 29569
10 29570 29571 29572 29573 29574 29575 29576 29577 29578 29579
10 29580 29581 29582 29583 29584 29585 29586 29587 29588 29589
10 29590 29591 29592 29593 29594 29595 29596 29597 29598 29599
10 29600 29601 29602 29603 29604 29605 29606 29607 29608 29609
10 29610 29611 29612 29613 29614 29615 29616 29617 29618 29619
10 29620 29621 29622 29623 29624 29625 29626 29627 29628 29629
10 29630 29631 29632 29633 29634 29635 29636 29637 29638 29639
10 29640 29641 29642 29643 29644 29645 29646 29647 29648 29649
10 29650 29651 29652 29653 29654 29655 29656 29657 29658 29659
10 29660 29661 29662 29663 29664 29665 29666 29667 29668 29669
10 29670 29671 29672 29673 29674 29675 29676 29677 29678 29679
10 29680 29681 29682 29683 29684 29685 29686 29687 29688 29689
10 29690 29691 29692 29693 29694 29695 29696 29697 29698 29699
10 29700 29701 29702 29703 29704 29705 29706 29707 29708 29709
10 29710 29711 29712 29713 29714 29715 29716 29717 29718 29719
10 29720 29721 29722 29723 29724 29725 29726 29727 29728 29729
10 29730 29731 29732 29733 29734 29735 29736 29737 29738 29739
10 29740 29741 29742 29743 29744 29745 29746 29747 29748 29749
10 29750 29751 29752 29753 29754 29755 29756 29757 29758 29759
10 29760 29761 29762 29763 29764 29765 29766 29767 29768 29769
10 29770 29771 29772 29773 29774 29775 29776 29777 29778 29779
10 29780 29781 29782 29783 29784 29785 29786 29787 29788 29789
10 29790 29791 29792 29793 29794 29795 29796 29797 29798 29799
10 29800 29801 29802 29803 29804 29805 29806 29807 29808 29809
10 29810 29811 29812 29813 29814 29815 29816 29817 29818 29819
10 29820 29821 29822 29823 29824 29825 29826 29827 29828 29829
10 29830 29831 29832 29833 29834 29835 29836 29837 29838 29839
10 29840 29841 29842 29843 29844 29845 29846 29847 29848 29849
10 29850 29851 29852 29853 29854 29855 29856 29857 29858 29859
10 29860 29861 29862 29863 29864 29865 29866 29867 29868 29869
10 29870 29871 29872 29873 29874 29875 29876 29877 29878 29879
10 29880 29881 29882 29883 29884 29885 29886 29887 29888 29889
10 29890 29891 29892 29893 29894 29895 29896 29897 29898 29899
10 29900 29901 29902 29903 29904 29905 29906 29907 29908 29909
10 29910 29911 29912 29913 29914 29915 29916 29917 29918 29919
10 29920 29921 29922 29923 29924 29925 29926 29927 29928 29929
10 29930 29931 29932 29933 29934 29935 29936 29937 29938 29939
10 29940 29941 29942 29943 29944 29945 29946 29947 29948 29949
10 29950 29951 29952 29953 29954 29955 29956 29957 29958 29959
10 29960 29961 29962 29963 29964 29965 29966 29967 29968 29969
10 29970 29971 29972 29973 29974 29975 29976 29977 29978 29979
10 29980 29981 29982 29983 29984 29985 29986 29987 29988 29989
10 29990 29991 29992 29993 29994 29995 29996 29997 29998 29999
10 30000 30001 30002 30003 30004 30005 30006 30007 30008 30009
10 30010 30011 30012 30013 30014 30015 30016 30017 30018 30019
10 30020 30021 30022 30023 30024 30025 30026 30027 30028 30029
10 30030 30031 30032 30033 30034 30035 30036 30037 30038 30039
10 30040 30041 30042 30043 30044 30045 30046 30047 30048 30049
10 30050 30051 30052 30053 30054 30055 30056 30057 30058 30059
10 30060 30061 30062 30063 30064 30065 30066 30067 30068 30069
10 30070 30071 30072 30073 30074 30075 30076 30077 30078 30079
10 30080 30081 30082 30083 30084 30085 30086 30087 30088 30089
10 30090 30091 30092 30093 30094 30095 30096 30097 30098 30099
10 30100 30101 30102 30103 30104 30105 30106 30107 30108 30109
10 30110 30111 30112 30113 30114 30115 30116 30117 30118 30119
10 30120 30121 30122 30123 30124 30125 30126 30127 30128 30129
10 30130 30131 30132 30133 30134 30135 30136 30137 30138 30139
10 30140 30141 30142 30143 30144 30145 30146 30147 30148 30149
10 30150 30151 30152 30153 30154 30155 30156 30157 30158 30159
10 30160 30161 30162 30163 30164 30165 30166 30167 30168 30169
10 30170 30171 30172 30173 30174 30175 30176 30177 30178 30179
10 30180 30181 30182 30183 30184 30185 30186 30187 30188 30189
10 30190 30191 30192 30193 30194 30195 30196 30197 30198 30199
10 30200 30201 30202 30203 30204 30205 30206 30207 30208 30209
10 30210 30211 30212 30213 30214 30215 30216 30217 30218 30219
10 30220 30221 30222 30223 30224 30225 30226 30227 30228 30229
10 30230 30231 30232 30233 30234 30235 30236 30237 30238 30239
10 30240 30241 30242 30243 30244 30245 30246 30247 30248 30249
10 30250 30251 30252 30253 30254 30255 30256 30257 30258 30259
10 30260 30261 30262 30263 30264 30265 30266 30267 30268 30269
10 30270 30271 30272 30273 30274 30275 30276 30277 30278 30279
10 30280 30281 30282 30283 30284 30285 30286 30287 30288 30289
10 30290 30291 30292 30293 30294 30295 30296 30297 30298 30299
10 30300 30301 30302 30303 30304 30305 30306 30307 30308 30309
10 30310 30311 30312 30313 30314 30315 30316 30317 30318 30319
10 30320 30321 30322 30323 30324 30325 30326 30327 30328 30329
10 30330 30331 30332 30333 30334 30335 30336 30337 30338 30339
10 30340 30341 30342 30343 30344 30345 30346 30347 30348 30349
10 30350 30351 30352 30353 30354 30355 30356 30357 30358 30359
10 30360 30361 30362 30363 30364 30365 30366 30367 30368 30369
10 30370 30371 30372 30373 30374 30375 30376 30377 30378 30379
10 30380 30381 30382 30383 30384 30385 30386 30387 30388 30389
10 30390 30391 30392 30393 30394 30395 30396 30397 30398 30399
10 30400 30401 30402 30403 30404 30405 30406 30407 30408 30409
10 30410 30411 30412 30413 30414 30415 30416 30417 30418 30419
10 30420 30421 30422 30423 30424 30425 30426 30427 30428 30429
10 30430 30431 30432 30433 30434 30435 30436 30437 30438 30439
10 30440 30441 30442 30443 30444 30445 30446 30447 30448 30449
10 30450 30451 30452 30453 30454 30455 30456 30457 30458 30459
10 30460 30461 30462 30463 30464 30465 30466 30467 30468 30469
10 30470 30471 30472 30473 30474 30475 30476 30477 30478 30479
10 30480 30481 30482 30483 30484 30485 30486 30487 30488 30489
10 30490 30491 30492 30493 30494 30495 30496 30497 30498 30499
10 30500 30501 30502 30503 30504 30505 30506 30507 30508 30509
10 30510 30511 30512 30513 30514 30515 30516 30517 30518 30519
10 30520 30521 30522 30523 30524 30525 30526 30527 30528 30529
10 30530 30531 30532 30533 30534 30535 30536 30537 30538 30539
10 30540 30541 30542 30543 30544 30545 30546 30547 30548 30549
10 30550 30551 30552 30553 30554 30555 30556 30557 30558 30559
10 30560 30561 30562 30563 30564 30565 30566 30567 30568 30569
10 30570 30571 30572 30573 30574 30575 30576 30577 30578 30579
10 30580 30581 30582 30583 30584 30585 30586 30587 30588 30589
10 30590 30591 30592 30593 30594 30595 30596 30597 30598 30599
10 30600 30601 30602 30603 30604 30605 30606 30607 30608 30609
10 30610 30611 30612 30613 30614 30615 30616 30617 30618 30619
10 30620 30621 30622 30623 30624 30625 30626 30627 30628 30629
10 30630 30631 30632 30633 30634 30635 30636 30637 30638 30639
10 30640 30641 30642 30643 30644 30645 30646 30647 30648 30649
10 30650 30651 30652 30653 30654 30655 30656 30657 30658 30659
10 30660 30661 30662 30663 30664 30665 30666 30667 30668 30669
10 30670 30671 30672 30673 30674 30675 30676 30677 30678 30679
10 30680 30681 30682 30683 30684 30685 30686 30687 30688 30689
10 30690 30691 30692 30693 30694 30695 30696 30697 30698 30699
10 30700 30701 30702 30703 30704 30705 30706 30707 30708 30709
10 30710 30711 30712 30713 30714 30715 30716 30717 30718 30719
10 30720 30721 30722 30723 30724 30725 30726 30727 30728 30729
10 30730 30731 30732 30733 30734 30735 30736 30737 30738 30739
10 30740 30741 30742 30743 30744 30745 30746 30747 30748 30749
10 30750 30751 30752 30753 30754 30755 30756 30757 30758 30759
10 30760 30761 30762 30763 30764 30765 30766 30767 30768 30769
10 30770 30771 30772 30773 30774 30775 30776 30777 30778 30779
10 30780 30781 30782 30783 30784 30785 30786 30787 30788 30789
10 30790 30791 30792 30793 30794 30795 30796 30797 30798 30799
10 30800 30801 30802 30803 30804 30805 30806 30807 30808 30809
10 30810 30811 30812 30813 30814 30815 30816 30817 30818 30819
10 30820 30821 30822 30823 30824 30825 30826 30827 30828 30829
10 30830 30831 30832 30833 30834 30835 30836 30837 30838 30839
10 30840 30841 30842 30843 30844 30845 30846 30847 30848 30849
10 30850 30851 30852 30853 30854 30855 30856 30857 30858 30859
10 30860 30861 30862 30863 30864 30865 30866 30867 30868 30869
10 30870 30871 30872 30873 30874 30875 30876 30877 30878 30879
10 30880 30881 30882 30883 30884 30885 30886 30887 30888 30889
10 30890 30891 30892 30893 30894 30895 30896 30897 30898 30899
10 30900 30901 30902 30903 30904 30905 30906 30907 30908 30909
10 30910 30911 30912 30913 30914 30915 30916 30917 30918 30919
10 30920 30921 30922 30923 30924 30925 30926 30927 30928 30929
10 30930 30931 30932 30933 30934 30935 30936 30937 30938 30939
10 30940 30941 30942 30943 30944 30945 30946 30947 30948 30949
10 30950 30951 30952 30953 30954 30955 30956 30957 30958 30959
10 30960 30961 30962 30963 30964 30965 30966 30967 30968 30969
10 30970 30971 30972 30973 30974 30975 30976 30977 30978 30979
10 30980 30981 30982 30983 30984 30985 30986 30987 30988 30989
10 30990 30991 30992 30993 30994 30995 30996 30997 30998 30999
10 31000 31001 31002 31003 31004 31005 31006 31007 31008 31009
10 31010 31011 31012 31013 31014 31015 31016 31017 31018 31019
10 31020 31021 31022 31023 31024 31025 31026 31027 31028 31029
10 31030 31031 31032 31033 31034 31035 31036 31037 31038 31039
10 31040 31041 31042 31043 31044 31045 31046 31047 31048 31049
10 31050 31051 31052 31053 31054 31055 31056 31057 31058 31059
10 31060 31061 31062 31063 31064 31065 31066 31067 31068 31069
10 31070 31071 31072 31073 31074 31075 31076 31077 31078 31079
10 31080 31081 31082 31083 31084 31085 31086 31087 31088 31089
10 31090 31091 31092 31093 31094 31095 31096 31097 31098 31099
10 31100 31101 31102 31103 31104 31105 31106 31107 31108 31109
10 31110 31111 31112 31113 31114 31115 31116 31117 31118 31119
10 31120 31121 31122 31123 31124 31125 31126 31127 31128 31129
10 31130 31131 31132 31133 31134 31135 31136 31137 31138 31139
10 31140 31141 31142 31143 31144 31145 31146 31147 31148 31149
10 31150 31151 31152 31153 31154 31155 31156 31157 31158 31159
10 31160 31161 31162 31163 31164 31165 31166 31167 31168 31169
10 31170 31171 31172 31173 31174 31175 31176 31177 31178 31179
10 31180 31181 31182 31183 31184 31185 31186 31187 31188 31189
10 31190 31191 31192 31193 31194 31195 31196 31197 31198 31199
10 31200 31201 31202 31203 31204 31205 31206 31207 31208 31209
10 31210 31211 31212 31213 31214 31215 31216 31217 31218 31219
10 31220 31221 31222 31223 31224 31225 31226 31227 31228 31229
10 31230 31231 31232 31233 31234 31235 31236 31237 31238 31239
10 31240 31241 31242 31243 31244 31245 31246 31247 31248 31249
10 31250 31251 31252 31253 31254 31255 31256 31257 31258 31259
10 31260 31261 31262 31263 31264 31265 31266 31267 31268 31269
10 31270 31271 31272 31273 31274 31275 31276 31277 31278 31279
10 31280 31281 31282 31283 31284 31285 31286 31287 31288 31289
10 31290 31291 31292 31293 31294 31295 31296 31297 31298 31299
10 31300 31301 31302 31303 31304 31305 31306 31307 31308 31309
10 31310 31311 31312 31313 31314 31315 31316 31317 31318 31319
10 31320 31321 31322 31323 31324 31325 31326 31327 31328 31329
10 31330 31331 31332 31333 31334 31335 31336 31337 31338 31339
10 31340 31341 31342 31343 31344 31345 31346 31347 31348 31349
10 31350 31351 31352 31353 31354 31355 31356 31357 31358 31359
10 31360 31361 31362 31363 31364 31365 31366 31367 31368 31369
10 31370 31371 31372 31373 31374 31375 31376 31377 31378 31379
10 31380 31381 31382 31383 31384 31385 31386 31387 31388 31389
10 31390 31391 31392 31393 31394 31395 31396 31397 31398 31399
10 31400 31401 31402 31403 31404 31405 31406 31407 31408 31409
10 31410 31411 31412 31413 31414 31415 31416 31417 31418 31419
10 31420 31421 31422 31423 31424 31425 31426 31427 31428 31429
10 31430 31431 31432 31433 31434 31435 31436 31437 31438 31439
10 31440 31441 31442 31443 31444 31445 31446 31447 31448 31449
10 31450 31451 31452 31453 31454 31455 31456 31457 31458 31459
10 31460 31461 31462 31463 31464 31465 31466 31467 31468 31469
10 31470 31471 31472 31473 31474 31475 31476 31477 31478 31479
10 31480 31481 31482 31483 31484 31485 31486 31487 31488 31489
10 31490 31491 31492 31493 31494 31495 31496 31497 31498 31499
10 31500 31501 31502 31503 31504 31505 31506 31507 31508 31509
10 31510 31511 31512 31513 31514 31515 31516 31517 31518 31519
10 31520 31521 31522 31523 31524 31525 31526 31527 31528 31529
10 31530 31531 31532 31533 31534 31535 31536 31537 31538 31539
10 31540 31541 31542 31543 31544 31545 31546 31547 31548 31549
10 31550 31551 31552 31553 31554 31555 31556 31557 31558 31559
10 31560 31561 31562 31563 31564 31565 31566 31567 31568 31569
10 31570 31571 31572 31573 31574 31575 31576 31577 31578 31579
10 31580 31581 31582 31583 31584 31585 31586 31587 31588 31589
10 31590 31591 31592 31593 31594 31595 31596 31597 31598 31599
10 31600 31601 31602 31603 31604 31605 31606 31607 31608 31609
10 31610 31611 31612 31613 31614 31615 31616 31617 31618 31619
10 31620 31621 31622 31623 31624 31625 31626 31627 31628 31629
10 31630 31631 31632 31633 31634 31635 31636 31637 31638 31639
10 31640 31641 31642 31643 31644 31645 31646 31647 31648 31649
10 31650 31651 31652 31653 31654 31655 31656 31657 31658 31659
10 31660 31661 31662 31663 31664 31665 31666 31667 31668 31669
10 31670 31671 31672 31673 31674 31675 31676 31677 31678 31679
10 31680 31681 31682 31683 31684 31685 31686 31687 31688 31689
10 31690 31691 31692 31693 31694 31695 31696 31697 31698 31699
10 31700 31701 31702 31703 31704 31705 31706 31707 31708 31709
10 31710 31711 31712 31713 31714 31715 31716 31717 31718 31719
10 31720 31721 31722 31723 31724 31725 31726 31727 31728 31729
10 31730 31731 31732 31733 31734 31735 31736 31737 31738 31739
10 31740 31741 31742 31743 31744 31745 31746 31747 31748 31749
10 31750 31751 31752 31753 31754 31755 31756 31757 31758 31759
10 31760 31761 31762 31763 31764 31765 31766 31767 31768 31769
10 31770 31771 31772 31773 31774 31775 31776 31777 31778 31779
10 31780 31781 31782 31783 31784 31785 31786 31787 31788 31789
10 31790 31791 31792 31793 31794 31795 31796 31797 31798 31799
10 31800 31801 31802 31803 31804 31805 31806 31807 31808 31809
10 31810 31811 31812 31813 31814 31815 31816 31817 31818 31819
10 31820 31821 31822 31823 31824 31825 31826 31827 31828 31829
10 31830 31831 31832 31833 31834 31835 31836 31837 31838 31839
10 31840 31841 31842 31843 31844 31845 31846 31847 31848 31849
10 31850 31851 31852 31853 31854 31855 31856 31857 31858 31859
10 31860 31861 31862 31863 31864 31865 31866 31867 31868 31869
10 31870 31871 31872 31873 31874 31875 31876 31877 31878 31879
10 31880 31881 31882 31883 31884 31885 31886 31887 31888 31889
10 31890 31891 31892 31893 31894 31895 31896 31897 31898 31899
10 31900 31901 31902 31903 31904 31905 31906 31907 31908 31909
10 31910 31911 31912 31913 31914 31915 31916 31917 31918 31919
10 31920 31921 31922 31923 31924 31925 31926 31927 31928 31929
10 31930 31931 31932 31933 31934 31935 31936 31937 31938 31939
10 31940 31941 31942 31943 31944 31945 31946 31947 31948 31949
10 31950 31951 31952 31953 31954 31955 31956 31957 31958 31959
10 31960 31961 31962 31963 31964 31965 31966 31967 31968 31969
10 31970 31971 31972 31973 31974 31975 31976 31977 31978 31979
10 31980 31981 31982 31983 31984 31985 31986 31987 31988 31989
10 31990 31991 31992 31993 31994 31995 31996 31997 31998 31999
10 32000 32001 32002 32003 32004 32005 32006 32007 32008 32009
10 32010 32011 32012 32013 32014 32015 32016 32017 32018 32019
10 32020 32021 32022 32023 32024 32025 32026 32027 32028 32029
10 32030 32031 32032 32033 32034 32035 32036 32037 32038 32039
10 32040 32041 32042 32043 32044 32045 32046 32047 32048 32049
10 32050 32051 32052 32053 32054 32055 32056 32057 32058 32059
10 32060 32061 32062 32063 32064 32065 32066 32067 32068 32069
10 32070 32071 32072 32073 32074 32075 32076 32077 32078 32079
10 32080 32081 32082 32083 32084 32085 32086 32087 32088 32089
10 32090 32091 32092 32093 32094 32095 32096 32097 32098 32099
10 32100 32101 32102 32103 32104 32105 32106 32107 32108 32109
10 32110 32111 32112 32113 32114 32115 32116 32117 32118 32119
10 32120 32121 32122 32123 32124 32125 32126 32127 32128 32129
10 32130 32131 32132 32133 32134 32135 32136 32137 32138 32139
10 32140 32141 32142 32143 32144 32145 32146 32147 32148 32149
10 32150 32151 32152 32153 32154 32155 32156 32157 32158 32159
10 32160 32161 32162 32163 32164 32165 32166 32167 32168 32169
10 32170 32171 32172 32173 32174 32175 32176 32177 32178 32179
10 32180 32181 32182 32183 32184 32185 32186 32187 32188 32189
10 32190 32191 32192 32193 32194 32195 32196 32197 32198 32199
10 32200 32201 32202 32203 32204 32205 32206 32207 32208 32209
10 32210 32211 32212 32213 32214 32215 32216 32217 32218 32219
10 32220 32221 32222 32223 32224 32225 32226 32227 32228 32229
10 32230 32231 32232 32233 32234 32235 32236 32237 32238 32239
10 32240 32241 32242 32243 32244 32245 32246 32247 32248 32249
10 32250 32251 32252 32253 32254 32255 32256 32257 32258 32259
10 32260 32261 32262 32263 32264 32265 32266 32267 32268 32269
10 32270 32271 32272 32273 32274 32275 32276 32277 32278 32279
10 32280 32281 32282 32283 32284 32285 32286 32287 32288 32289
10 32290 32291 32292 32293 32294 32295 32296 32297 32298 32299
10 32300 32301 32302 32303 32304 32305 32306 32307 32308 32309
10 32310 32311 32312 32313 32314 32315 32316 32317 32318 32319
10 32320 32321 32322 32323 32324 32325 32326 32327 32328 32329
10 32330 32331 32332 32333 32334 32335 32336 32337 32338 32339
10 32340 32341 32342 32343 32344 32345 32346 32347 32348 32349
10 32350 32351 32352 32353 32354 32355 32356 32357 32358 32359
10 32360 32361 32362 32363 32364 32365 32366 32367 32368 32369
10 32370 32371 32372 32373 32374 32375 32376 32377 32378 32379
10 32380 32381 32382 32383 32384 32385 32386 32387 32388 32389
10 32390 32391 32392 32393 32394 32395 32396 32397 32398 32399
10 32400 32401 32402 32403 32404 32405 32406 32407 32408 32409
10 32410 32411 32412 32413 32414 32415 32416 32417 32418 32419
10 32420 32421 32422 32423 32424 32425 32426 32427 32428 32429
10 32430 32431 32432 32433 32434 32435 32436 32437 32438 32439
10 32440 32441 32442 32443 32444 32445 32446 32447 32448 32449
10 32450 32451 32452 32453 32454 32455 32456 32457 32458 32459
10 32460 32461 32462 32463 32464 32465 32466 32467 32468 32469
10 32470 32471 32472 32473 32474 32475 32476 32477 32478 32479
10 32480 32481 32482 32483 32484 32485 32486 32487 32488 32489
10 32490 32491 32492 32493 32494 32495 32496 32497 32498 32499
10 32500 32501 32502 32503 32504 32505 32506 32507 32508 32509
10 32510 32511 32512 32513 32514 32515 32516 32517 32518 32519
10 32520 32521 32522 32523 32524 32525 32526 32527 32528 32529
10 32530 32531 32532 32533 32534 32535 32536 32537 32538 32539
10 32540 32541 32542 32543 32544 32545 32546 32547 32548 32549
10 32550 32551 32552 32553 32554 32555 32556 32557 32558 32559
10 32560 32561 32562 32563 32564 32565 32566 32567 32568 32569
10 32570 32571 32572 32573 32574 32575 32576 32577 32578 32579
10 32580 32581 32582 32583 32584 32585 32586 32587 32588 32589
10 32590 32591 32592 32593 32594 32595 32596 32597 32598 32599
10 32600 32601 32602 32603 32604 32605 32606 32607 32608 32609
10 32610 32611 32612 32613 32614 32615 32616 32617 32618 32619
10 32620 32621 32622 32623 32624 32625 32626 32627 32628 32629
10 32630 32631 32632 32633 32634 32635 32636 32637 32638 32639
10 32640 32641 32642 32643 32644 32645 32646 32647 32648 32649
10 32650 32651 32652 32653 32654 32655 32656 32657 32658 32659
10 32660 32661 32662 32663 32664 32665 32666 32667 32668 32669
10 32670 32671 32672 32673 32674 32675 32676 32677 32678 32679
10 32680 32681 32682 32683 32684 32685 32686 32687 32688 32689
10 32690 32691 32692 32693 32694 32695 32696 32697 32698 32699
10 32700 32701 32702 32703 32704 32705 32706 32707 32708 32709
10 32710 32711 32712 32713 32714 32715 32716 32717 32718 32719
10 32720 32721 32722 32723 32724 32725 32726 32727 32728 32729
10 32730 32731 32732 32733 32734 32735 32736 32737 32738 32739
10 32740 32741 32742 32743 32744 32745 32746 32747 32748 32749
10 32750 32751 32752 32753 32754 32755 32756 32757 32758 32759
10 32760 32761 32762 32763 32764 32765 32766 32767 32768 32769
10 32770 32771 32772 32773 32774 32775 32776 32777 32778 32779
10 32780 32781 32782 32783 32784 32785 32786 32787 32788 32789
10 32790 32791 32792 32793 32794 32795 32796 32797 32798 32799
10 32800 32801 32802 32803 32804 32805 32806 32807 32808 32809
10 32810 32811 32812 32813 32814 32815 32816 32817 32818 32819
10 32820 32821 32822 32823 32824 32825 32826 32827 32828 32829
10 32830 32831 32832 32833 32834 32835 32836 32837 32838 32839
10 32840 32841 32842 32843 32844 32845 32846 32847 32848 32849
10 32850 32851 32852 32853 32854 32855 32856 32857 32858 32859
10 32860 32861 32862 32863 32864 32865 32866 32867 32868 32869
10 32870 32871 32872 32873 32874 32875 32876 32877 32878 32879
10 32880 32881 32882 32883 32884 32885 32886 32887 32888 32889
10 32890 32891 32892 32893 32894 32895 32896 32897 32898 32899
10 32900 32901 32902 32903 32904 32905 32906 32907 32908 32909
10 32910 32911 32912 32913 32914 32915 32916 32917 32918 32919
CELL_TYPES 3292
24
24
24
24
24
24
24
24
24
24
24
24
24
24
24
24
24
24
24
24
24
24
24
24
24
24
24
24
24
24
24
24
24
24
24
24
24
24
24
24
24
24
24
24
24
24
24
24
24
24
24
24
24
24
24
24
24
24
24
24
24
24
24
24
24
24
24
24
24
24
24
24
24
24
24
24
24
24
24
24
24
24
24
24
24
24
24
24
24
24
24
24
24
24
24
24
24
24
24
24
24
24
24
24
24
24
24
24
24
24
24
24
24
24
24
24
24
24
24
24
24
24
24
24
24
24
24
24
24
24
24
24
24
24
24
24
24
24
24
24
24
24
24
24
24
24
24
24
24
24
24
24
24
24
24
24
24
24
24
24
24
24
24
24
24
24
24
24
24
24
24
24
24
24
24
24
24
24
24
24
24
24
24
24
24
24
24
24
24
24
24
24
24
24
24
24
24
24
24
24
24
24
24
24
24
24
24
24
24
24
24
24
24
24
24
24
24
24
24
24
24
24
24
24
24
24
24
24
24
24
24
24
24
24
24
24
24
24
24
24
24
24
24
24
24
24
24
24
24
24
24
24
24
24
24
24
24
24
24
24
24
24
24
24
24
24
24
24
24
24
24
24
24
24
24
24
24
24
24
24
24
24
24
24
24
24
24
24
24
24
24
24
24
24
24
24
24
24
24
24
24
24
24
24
24
24
24
24
24
24
24
24
24
24
24
24
24
24
24
24
24
24
24
24
24
24
24
24
24
24
24
24
24
24
24
24
24
24
24
24
24
24
24
24
24
24
24
24
24
24
24
24
24
24
24
24
24
24
24
24
24
24
24
24
24
24
24
24
24
24
24
24
24
24
24
24
24
24
24
24
24
24
24
24
24
24
24
24
24
24
24
24
24
24
24
24
24
24
24
24
24
24
24
24
24
24
24
24
24
24
24
24
24
24
24
24
24
24
24
24
24
24
24
24
24
24
24
24
24
24
24
24
24
24
24
24
24
24
24
24
24
24
24
24
24
24
24
24
24
24
24
24
24
24
24
24
24
24
24
24
24
24
24
24
24
24
24
24
24
24
24
24
24
24
24
24
24
24
24
24
24
24
24
24
24
24
24
24
24
24
24
24
24
24
24
24
24
24
24
24
24
24
24
24
24
24
24
24
24
24
24
24
24
24
24
24
24
24
24
24
24
24
24
24
24
24
24
24
24
24
24
24
24
24
24
24
24
24
24
24
24
24
24
24
24
24
24
24
24
24
24
24
24
24
24
24
24
24
24
24
24
24
24
24
24
24
24
24
24
24
24
24
24
24
24
24
24
24
24
24
24
24
24
24
24
24
24
24
24
24
24
24
24
24
24
24
24
24
24
24
24
24
24
24
24
24
24
24
24
24
24
24
24
24
24
24
24
24
24
24
24
24
24
24
24
24
24
24
24
24
24
24
24
24
24
24
24
24
24
24
24
24
24
24
24
24
24
24
24
24
24
24
24
24
24
24
24
24
24
24
24
24
24
24
24
24
24
24
24
24
24
24
24
24
24
24
24
24
24
24
24
24
24
24
24
24
24
24
24
24
24
24
24
24
24
24
24
24
24
24
24
24
24
24
24
24
24
24
24
24
24
24
24
24
24
24
24
24
24
24
24
24
24
24
24
24
24
24
24
24
24
24
24
24
24
24
24
24
24
24
24
24
24
24
24
24
24
24
24
24
24
24
24
24
24
24
24
24
24
24
24
24
24
24
24
24
24
24
24
24
24
24
24
24
24
24
24
24
24
24
24
24
24
24
24
24
24
24
24
24
24
24
24
24
24
24
24
24
24
24
24
24
24
24
24
24
24
24
24
24
24
24
24
24
24
24
24
24
24
24
24
24
24
24
24
24
24
24
24
24
24
24
24
24
24
24
24
24
24
24
24
24
24
24
24
24
24
24
24
24
24
24
24
24
24
24
24
24
24
24
24
24
24
24
24
24
24
24
24
24
24
24
24
24
24
24
24
24
24
24
24
24
24
24
24
24
24
24
24
24
24
24
24
24
24
24
24
24
24
24
24
24
24
24
24
24
24
24
24
24
24
24
24
24
24
24
24
24
24
24
24
24
24
24
24
24
24
24
24
24
24
24
24
24
24
24
24
24
24
24
24
24
24
24
24
24
24
24
24
24
24
24
24
24
24
24
24
24
24
24
24
24
24
24
24
24
24
24
24
24
24
24
24
24
24
24
24
24
24
24
24
24
24
24
24
24
24
24
24
24
24
24
24
24
24
24
24
24
24
24
24
24
24
24
24
24
24
24
24
24
24
24
24
24
24
24
24
24
24
24
24
24
24
24
24
24
24
24
24
24
24
24
24
24
24
24
24
24
24
24
24
24
24
24
24
24
24
24
24
24
24
24
24
24
24
24
24
24
24
24
24
24
24
24
24
24
24
24
24
24
24
24
24
24
24
24
24
24
24
24
24
24
24
24
24
24
24
24
24
24
24
24
24
24
24
24
24
24
24
24
24
24
24
24
24
24
24
24
24
24
24
24
24
24
24
24
24
24
24
24
24
24
24
24
24
24
24
24
24
24
24
24
24
24
24
24
24
24
24
24
24
24
24
24
24
24
24
24
24
24
24
24
24
24
24
24
24
24
24
24
24
24
24
24
24
24
24
24
24
24
24
24
24
24
24
24
24
24
24
24
24
24
24
24
24
24
24
24
24
24
24
24
24
24
24
24
24
24
24
24
24
24
24
24
24
24
24
24
24
24
24
24
24
24
24
24
24
24
24
24
24
24
24
24
24
24
24
24
24
24
24
24
24
24
24
24
24
24
24
24
24
24
24
24
24
24
24
24
24
24
24
24
24
24
24
24
24
24
24
24
24
24
24
24
24
24
24
24
24
24
24
24
24
24
24
24
24
24
24
24
24
24
24
24
24
24
24
24
24
24
24
24
24
24
24
24
24
24
24
24
24
24
24
24
24
24
24
24
24
24
24
24
24
24
24
24
24
24
24
24
24
24
24
24
24
24
24
24
24
24
24
24
24
24
24
24
24
24
24
24
24
24
24
24
24
24
24
24
24
24
24
24
24
24
24
24
24
24
24
24
24
24
24
24
24
24
24
24
24
24
24
24
24
24
24
24
24
24
24
24
24
24
24
24
24
24
24
24
24
24
24
24
24
24
24
24
24
24
24
24
24
24
24
24
24
24
24
24
24
24
24
24
24
24
24
24
24
24
24
24
24
24
24
24
24
24
24
24
24
24
24
24
24
24
24
24
24
24
24
24
24
24
24
24
24
24
24
24
24
24
24
24
24
24
24
24
24
24
24
24
24
24
24
24
24
24
24
24
24
24
24
24
24
24
24
24
24
24
24
24
24
24
24
24
24
24
24
24
24
24
24
24
24
24
24
24
24
24
24
24
24
24
24
24
24
24
24
24
24
24
24
24
24
24
24
24
24
24
24
24
24
24
24
24
24
24
24
24
24
24
24
24
24
24
24
24
24
24
24
24
24
24
24
24
24
24
24
24
24
24
24
24
24
24
24
24
24
24
24
24
24
24
24
24
24
24
24
24
24
24
24
24
24
24
24
24
24
24
24
24
24
24
24
24
24
24
24
24
24
24
24
24
24
24
24
24
24
24
24
24
24
24
24
24
24
24
24
24
24
24
24
24
24
24
24
24
24
24
24
24
24
24
24
24
24
24
24
24
24
24
24
24
24
24
24
24
24
24
24
24
24
24
24
24
24
24
24
24
24
24
24
24
24
24
24
24
24
24
24
24
24
24
24
24
24
24
24
24
24
24
24
24
24
24
24
24
24
24
24
24
24
24
24
24
24
24
24
24
24
24
24
24
24
24
24
24
24
24
24
24
24
24
24
24
24
24
24
24
24
24
24
24
24
24
24
24
24
24
24
24
24
24
24
24
24
24
24
24
24
24
24
24
24
24
24
24
24
24
24
24
24
24
24
24
24
24
24
24
24
24
24
24
24
24
24
24
24
24
24
24
24
24
24
24
24
24
24
24
24
24
24
24
24
24
24
24
24
24
24
24
24
24
24
24
24
24
24
24
24
24
24
24
24
24
24
24
24
24
24
24
24
24
24
24
24
24
24
24
24
24
24
24
24
24
24
24
24
24
24
24
24
24
24
24
24
24
24
24
24
24
24
24
24
24
24
24
24
24
24
24
24
24
24
24
24
24
24
24
24
24
24
24
24
24
24
24
24
24
24
24
24
24
24
24
24
24
24
24
24
24
24
24
24
24
24
24
24
24
24
24
24
24
24
24
24
24
24
24
24
24
24
24
24
24
24
24
24
24
24
24
24
24
24
24
24
24
24
24
24
24
24
24
24
24
24
24
24
24
24
24
24
24
24
24
24
24
24
24
24
24
24
24
24
24
24
24
24
24
24
24
24
24
24
24
24
24
24
24
24
24
24
24
24
24
24
24
24
24
24
24
24
24
24
24
24
24
24
24
24
24
24
24
24
24
24
24
24
24
24
24
24
24
24
24
24
24
24
24
24
24
24
24
24
24
24
24
24
24
24
24
24
24
24
24
24
24
24
24
24
24
24
24
24
24
24
24
24
24
24
24
24
24
24
24
24
24
24
24
24
24
24
24
24
24
24
24
24
24
24
24
24
24
24
24
24
24
24
24
24
24
24
24
24
24
24
24
24
24
24
24
24
24
24
24
24
24
24
24
24
24
24
24
24
24
24
24
24
24
24
24
24
24
24
24
24
24
24
24
24
24
24
24
24
24
24
24
24
24
24
24
24
24
24
24
24
24
24
24
24
24
24
24
24
24
24
24
24
24
24
24
24
24
24
24
24
24
24
24
24
24
24
24
24
24
24
24
24
24
24
24
24
24
24
24
24
24
24
24
24
24
24
24
24
24
24
24
24
24
24
24
24
24
24
24
24
24
24
24
24
24
24
24
24
24
24
24
24
24
24
24
24
24
24
24
24
24
24
24
24
24
24
24
24
24
24
24
24
24
24
24
24
24
24
24
24
24
24
24
24
24
24
24
24
24
24
24
24
24
24
24
24
24
24
24
24
24
24
24
24
24
24
24
24
24
24
24
24
24
24
24
24
24
24
24
24
24
24
24
24
24
24
24
24
24
24
24
24
24
24
24
24
24
24
24
24
24
24
24
24
24
24
24
24
24
24
24
24
24
24
24
24
24
24
24
24
24
24
24
24
24
24
24
24
24
24
24
24
24
24
24
24
24
24
24
24
24
24
24
24
24
24
24
24
24
24
24
24
24
24
24
24
24
24
24
24
24
24
24
24
24
24
24
24
24
24
24
24
24
24
24
24
24
24
24
24
24
24
24
24
24
24
24
24
24
24
24
24
24
24
24
24
24
24
24
24
24
24
24
24
24
24
24
24
24
24
24
24
24
24
24
24
24
24
24
24
24
24
24
24
24
24
24
24
24
24
24
24
24
24
24
24
24
24
24
24
24
24
24
24
24
24
24
24
24
24
24
24
24
24
24
24
24
24
24
24
24
24
24
24
24
24
24
24
24
24
24
24
24
24
24
24
24
24
24
24
24
24
24
24
24
24
24
24
24
24
24
24
24
24
24
24
24
24
24
24
24
24
24
24
24
24
24
24
24
24
24
24
24
24
24
24
24
24
24
24
24
24
24
24
24
24
24
24
24
24
24
24
24
24
24
24
24
24
24
24
24
24
24
24
24
24
24
24
24
24
24
24
24
24
24
24
24
24
24
24
24
24
24
24
24
24
24
24
24
24
24
24
24
24
24
24
24
24
24
24
24
24
24
24
24
24
24
24
24
24
24
24
24
24
24
24
24
24
24
24
24
24
24
24
24
24
24
24
24
24
24
24
24
24
24
24
24
24
24
24
24
24
24
24
24
24
24
24
24
24
24
24
24
24
24
24
24
24
24
24
24
24
24
24
24
24
24
24
24
24
24
24
24
24
24
24
24
24
24
24
24
24
24
24
24
24
24
24
24
24
24
24
24
24
24
24
24
24
24
24
24
24
24
24
24
24
24
24
24
24
24
24
24
24
24
24
24
24
24
24
24
24
24
24
24
24
24
24
24
24
24
24
24
24
24
24
24
24
24
24
24
24
24
24
24
24
24
24
24
24
24
24
24
24
24
24
24
24
24
24
24
24
24
24
24
24
24
24
24
24
24
24
24
24
24
24
24
24
24
24
24
24
24
24
24
24
24
24
24
24
24
24
24
24
24
24
24
24
24
24
24
24
24
24
24
24
24
24
24
24
24
24
24
24
24
24
24
24
24
24
24
24
24
24
24
24
24
24
24
24
24
24
24
24
24
24
24
24
24
24
24
24
24
24
24
24
24
24
24
24
24
24
24
24
24
24
24
24
24
24
24
24
24
24
24
24
24
24
24
24
24
24
24
24
24
24
24
24
24
24
24
24
24
24
24
24
24
24
24
24
24
24
24
24
24
24
24
24
24
24
24
24
24
24
24
24
24
24
24
24
24
24
24
24
24
24
24
24
24
24
24
24
24
24
24
24
24
24
24
24
24
24
24
24
24
24
24
24
24
24
24
24
24
24
24
24
24
24
24
24
24
24
24
24
24
24
24
24
24
24
24
24
24
24
24
24
24
24
24
24
24
24
24
24
24
24
24
24
24
24
24
24
24
24
24
24
24
24
24
24
24
24
24
24
24
24
24
24
24
24
24
24
24
24
24
24
24
24
24
24
24
24
24
24
24
24
24
24
24
24
24
24
24
24
24
24
24
24
24
24
24
24
24
24
24
24
24
24
24
24
24
24
24
24
24
24
24
24
24
24
24
24
24
24
24
24
24
24
24
24
24
24
24
24
24
24
24
24
24
24
24
24
24
24
24
24
24
24
24
24
24
24
24
24
24
24
24
24
24
24
24
24
24
24
24
24
24
24
24
24
24
24
24
24
24
24
24
24
24
24
24
24
24
24
24
24
24
24
24
24
24
24
24
24
24
24
24
24
24
24
24
24
24
24
24
24
24
24
24
24
24
24
24
24
24
24
24
24
24
24
24
24
24
24
24
24
24
24
24
24
24
24
24
24
24
24
24
24
24
24
24
24
24
24
24
24
24
24
24
24
24
24
24
24
24
24
24
24
24
24
24
24
24
24
24
24
24
24
24
24
24
24
24
24
24
24
24
24
24
24
24
24
24
24
24
24
24
24
24
24
24
24
24
24
24
24
24
24
24
24
24
24
24
24
24
24
24
24
24
24
24
24
24
24
24
24
24
24
24
24
24
24
24
24
24
24
24
24
24
24
24
24
24
24
24
24
24
24
24
24
24
24
24
24
24
24
24
24
24
24
24
24
24
24
24
24
24
24
24
24
24
24
24
24
24
24
24
24
24
24
24
24
24
24
24
24
24
24
24
24
24
24
24
24
24
24
24
24
24
24
24
24
24
24
24
24
24
24
24
24
24
24
24
24
24
24
24
24
24
24
24
24
24
24
24
24
24
POINT_DATA 32920
SCALARS GLOBAL_ID int 1
LOOKUP_TABLE default
-1 
-1 
-1 
-1 
-1 
-1 
-1 
-1 
-1 
-1 
-1 
-1 
-1 
-1 
-1 
-1 
-1 
-1 
-1 
-1 
-1 
-1 
-1 
-1 
-1 
-1 
-1 
-1 
-1 
-1 
-1 
-1 
-1 
-1 
-1 
-1 
-1 
-1 
-1 
-1 
-1 
-1 
-1 
-1 
-1 
-1 
-1 
-1 
-1 
-1 
-1 
-1 
-1 
-1 
-1 
-1 
-1 
-1 
-1 
-1 
-1 
-1 
-1 
-1 
-1 
-1 
-1 
-1 
-1 
-1 
-1 
-1 
-1 
-1 
-1 
-1 
-1 
-1 
-1 
-1 
-1 
-1 
-1 
-1 
-1 
-1 
-1 
-1 
-1 
-1 
-1 
-1 
-1 
-1 
-1 
-1 
-1 
-1 
-1 
-1 
-1 
-1 
-1 
-1 
-1 
-1 
-1 
-1 
-1 
-1 
-1 
-1 
-1 
-1 
-1 
-1 
-1 
-1 
-1 
-1 
-1 
-1 
-1 
-1 
-1 
-1 
-1 
-1 
-1 
-1 
-1 
-1 
-1 
-1 
-1 
-1 
-1 
-1 
-1 
-1 
-1 
-1 
-1 
-1 
-1 
-1 
-1 
-1 
-1 
-1 
-1 
-1 
-1 
-1 
-1 
-1 
-1 
-1 
-1 
-1 
-1 
-1 
-1 
-1 
-1 
-1 
-1 
-1 
-1 
-1 
-1 
-1 
-1 
-1 
-1 
-1 
-1 
-1 
-1 
-1 
-1 
-1 
-1 
-1 
-1 
-1 
-1 
-1 
-1 
-1 
-1 
-1 
-1 
-1 
-1 
-1 
-1 
-1 
-1 
-1 
-1 
-1 
-1 
-1 
-1 
-1 
-1 
-1 
-1 
-1 
-1 
-1 
-1 
-1 
-1 
-1 
-1 
-1 
-1 
-1 
-1 
-1 
-1 
-1 
-1 
-1 
-1 
-1 
-1 
-1 
-1 
-1 
-1 
-1 
-1 
-1 
-1 
-1 
-1 
-1 
-1 
-1 
-1 
-1 
-1 
-1 
-1 
-1 
-1 
-1 
-1 
-1 
-1 
-1 
-1 
-1 
-1 
-1 
-1 
-1 
-1 
-1 
-1 
-1 
-1 
-1 
-1 
-1 
-1 
-1 
-1 
-1 
-1 
-1 
-1 
-1 
-1 
-1 
-1 
-1 
-1 
-1 
-1 
-1 
-1 
-1 
-1 
-1 
-1 
-1 
-1 
-1 
-1 
-1 
-1 
-1 
-1 
-1 
-1 
-1 
-1 
-1 
-1 
-1 
-1 
-1 
-1 
-1 
-1 
-1 
-1 
-1 
-1 
-1 
-1 
-1 
-1 
-1 
-1 
-1 
-1 
-1 
-1 
-1 
-1 
-1 
-1 
-1 
-1 
-1 
-1 
-1 
-1 
-1 
-1 
-1 
-1 
-1 
-1 
-1 
-1 
-1 
-1 
-1 
-1 
-1 
-1 
-1 
-1 
-1 
-1 
-1 
-1 
-1 
-1 
-1 
-1 
-1 
-1 
-1 
-1 
-1 
-1 
-1 
-1 
-1 
-1 
-1 
-1 
-1 
-1 
-1 
-1 
-1 
-1 
-1 
-1 
-1 
-1 
-1 
-1 
-1 
-1 
-1 
-1 
-1 
-1 
-1 
-1 
-1 
-1 
-1 
-1 
-1 
-1 
-1 
-1 
-1 
-1 
-1 
-1 
-1 
-1 
-1 
-1 
-1 
-1 
-1 
-1 
-1 
-1 
-1 
-1 
-1 
-1 
-1 
-1 
-1 
-1 
-1 
-1 
-1 
-1 
-1 
-1 
-1 
-1 
-1 
-1 
-1 
-1 
-1 
-1 
-1 
-1 
-1 
-1 
-1 
-1 
-1 
-1 
-1 
-1 
-1 
-1 
-1 
-1 
-1 
-1 
-1 
-1 
-1 
-1 
-1 
-1 
-1 
-1 
-1 
-1 
-1 
-1 
-1 
-1 
-1 
-1 
-1 
-1 
-1 
-1 
-1 
-1 
-1 
-1 
-1 
-1 
-1 
-1 
-1 
-1 
-1 
-1 
-1 
-1 
-1 
-1 
-1 
-1 
-1 
-1 
-1 
-1 
-1 
-1 
-1 
-1 
-1 
-1 
-1 
-1 
-1 
-1 
-1 
-1 
-1 
-1 
-1 
-1 
-1 
-1 
-1 
-1 
-1 
-1 
-1 
-1 
-1 
-1 
-1 
-1 
-1 
-1 
-1 
-1 
-1 
-1 
-1 
-1 
-1 
-1 
-1 
-1 
-1 
-1 
-1 
-1 
-1 
-1 
-1 
-1 
-1 
-1 
-1 
-1 
-1 
-1 
-1 
-1 
-1 
-1 
-1 
-1 
-1 
-1 
-1 
-1 
-1 
-1 
-1 
-1 
-1 
-1 
-1 
-1 
-1 
-1 
-1 
-1 
-1 
-1 
-1 
-1 
-1 
-1 
-1 
-1 
-1 
-1 
-1 
-1 
-1 
-1 
-1 
-1 
-1 
-1 
-1 
-1 
-1 
-1 
-1 
-1 
-1 
-1 
-1 
-1 
-1 
-1 
-1 
-1 
-1 
-1 
-1 
-1 
-1 
-1 
-1 
-1 
-1 
-1 
-1 
-1 
-1 
-1 
-1 
-1 
-1 
-1 
-1 
-1 
-1 
-1 
-1 
-1 
-1 
-1 
-1 
-1 
-1 
-1 
-1 
-1 
-1 
-1 
-1 
-1 
-1 
-1 
-1 
-1 
-1 
-1 
-1 
-1 
-1 
-1 
-1 
-1 
-1 
-1 
-1 
-1 
-1 
-1 
-1 
-1 
-1 
-1 
-1 
-1 
-1 
-1 
-1 
-1 
-1 
-1 
-1 
-1 
-1 
-1 
-1 
-1 
-1 
-1 
-1 
-1 
-1 
-1 
-1 
-1 
-1 
-1 
-1 
-1 
-1 
-1 
-1 
-1 
-1 
-1 
-1 
-1 
-1 
-1 
-1 
-1 
-1 
-1 
-1 
-1 
-1 
-1 
-1 
-1 
-1 
-1 
-1 
-1 
-1 
-1 
-1 
-1 
-1 
-1 
-1 
-1 
-1 
-1 
-1 
-1 
-1 
-1 
-1 
-1 
-1 
-1 
-1 
-1 
-1 
-1 
-1 
-1 
-1 
-1 
-1 
-1 
-1 
-1 
-1 
-1 
-1 
-1 
-1 
-1 
-1 
-1 
-1 
-1 
-1 
-1 
-1 
-1 
-1 
-1 
-1 
-1 
-1 
-1 
-1 
-1 
-1 
-1 
-1 
-1 
-1 
-1 
-1 
-1 
-1 
-1 
-1 
-1 
-1 
-1 
-1 
-1 
-1 
-1 
-1 
-1 
-1 
-1 
-1 
-1 
-1 
-1 
-1 
-1 
-1 
-1 
-1 
-1 
-1 
-1 
-1 
-1 
-1 
-1 
-1 
-1 
-1 
-1 
-1 
-1 
-1 
-1 
-1 
-1 
-1 
-1 
-1 
-1 
-1 
-1 
-1 
-1 
-1 
-1 
-1 
-1 
-1 
-1 
-1 
-1 
-1 
-1 
-1 
-1 
-1 
-1 
-1 
-1 
-1 
-1 
-1 
-1 
-1 
-1 
-1 
-1 
-1 
-1 
-1 
-1 
-1 
-1 
-1 
-1 
-1 
-1 
-1 
-1 
-1 
-1 
-1 
-1 
-1 
-1 
-1 
-1 
-1 
-1 
-1 
-1 
-1 
-1 
-1 
-1 
-1 
-1 
-1 
-1 
-1 
-1 
-1 
-1 
-1 
-1 
-1 
-1 
-1 
-1 
-1 
-1 
-1 
-1 
-1 
-1 
-1 
-1 
-1 
-1 
-1 
-1 
-1 
-1 
-1 
-1 
-1 
-1 
-1 
-1 
-1 
-1 
-1 
-1 
-1 
-1 
-1 
-1 
-1 
-1 
-1 
-1 
-1 
-1 
-1 
-1 
-1 
-1 
-1 
-1 
-1 
-1 
-1 
-1 
-1 
-1 
-1 
-1 
-1 
-1 
-1 
-1 
-1 
-1 
-1 
-1 
-1 
-1 
-1 
-1 
-1 
-1 
-1 
-1 
-1 
-1 
-1 
-1 
-1 
-1 
-1 
-1 
-1 
-1 
-1 
-1 
-1 
-1 
-1 
-1 
-1 
-1 
-1 
-1 
-1 
-1 
-1 
-1 
-1 
-1 
-1 
-1 
-1 
-1 
-1 
-1 
-1 
-1 
-1 
-1 
-1 
-1 
-1 
-1 
-1 
-1 
-1 
-1 
-1 
-1 
-1 
-1 
-1 
-1 
-1 
-1 
-1 
-1 
-1 
-1 
-1 
-1 
-1 
-1 
-1 
-1 
-1 
-1 
-1 
-1 
-1 
-1 
-1 
-1 
-1 
-1 
-1 
-1 
-1 
-1 
-1 
-1 
-1 
-1 
-1 
-1 
-1 
-1 
-1 
-1 
-1 
-1 
-1 
-1 
-1 
-1 
-1 
-1 
-1 
-1 
-1 
-1 
-1 
-1 
-1 
-1 
-1 
-1 
-1 
-1 
-1 
-1 
-1 
-1 
-1 
-1 
-1 
-1 
-1 
-1 
-1 
-1 
-1 
-1 
-1 
-1 
-1 
-1 
-1 
-1 
-1 
-1 
-1 
-1 
-1 
-1 
-1 
-1 
-1 
-1 
-1 
-1 
-1 
-1 
-1 
-1 
-1 
-1 
-1 
-1 
-1 
-1 
-1 
-1 
-1 
-1 
-1 
-1 
-1 
-1 
-1 
-1 
-1 
-1 
-1 
-1 
-1 
-1 
-1 
-1 
-1 
-1 
-1 
-1 
-1 
-1 
-1 
-1 
-1 
-1 
-1 
-1 
-1 
-1 
-1 
-1 
-1 
-1 
-1 
-1 
-1 
-1 
-1 
-1 
-1 
-1 
-1 
-1 
-1 
-1 
-1 
-1 
-1 
-1 
-1 
-1 
-1 
-1 
-1 
-1 
-1 
-1 
-1 
-1 
-1 
-1 
-1 
-1 
-1 
-1 
-1 
-1 
-1 
-1 
-1 
-1 
-1 
-1 
-1 
-1 
-1 
-1 
-1 
-1 
-1 
-1 
-1 
-1 
-1 
-1 
-1 
-1 
-1 
-1 
-1 
-1 
-1 
-1 
-1 
-1 
-1 
-1 
-1 
-1 
-1 
-1 
-1 
-1 
-1 
-1 
-1 
-1 
-1 
-1 
-1 
-1 
-1 
-1 
-1 
-1 
-1 
-1 
-1 
-1 
-1 
-1 
-1 
-1 
-1 
-1 
-1 
-1 
-1 
-1 
-1 
-1 
-1 
-1 
-1 
-1 
-1 
-1 
-1 
-1 
-1 
-1 
-1 
-1 
-1 
-1 
-1 
-1 
-1 
-1 
-1 
-1 
-1 
-1 
-1 
-1 
-1 
-1 
-1 
-1 
-1 
-1 
-1 
-1 
-1 
-1 
-1 
-1 
-1 
-1 
-1 
-1 
-1 
-1 
-1 
-1 
-1 
-1 
-1 
-1 
-1 
-1 
-1 
-1 
-1 
-1 
-1 
-1 
-1 
-1 
-1 
-1 
-1 
-1 
-1 
-1 
-1 
-1 
-1 
-1 
-1 
-1 
-1 
-1 
-1 
-1 
-1 
-1 
-1 
-1 
-1 
-1 
-1 
-1 
-1 
-1 
-1 
-1 
-1 
-1 
-1 
-1 
-1 
-1 
-1 
-1 
-1 
-1 
-1 
-1 
-1 
-1 
-1 
-1 
-1 
-1 
-1 
-1 
-1 
-1 
-1 
-1 
-1 
-1 
-1 
-1 
-1 
-1 
-1 
-1 
-1 
-1 
-1 
-1 
-1 
-1 
-1 
-1 
-1 
-1 
-1 
-1 
-1 
-1 
-1 
-1 
-1 
-1 
-1 
-1 
-1 
-1 
-1 
-1 
-1 
-1 
-1 
-1 
-1 
-1 
-1 
-1 
-1 
-1 
-1 
-1 
-1 
-1 
-1 
-1 
-1 
-1 
-1 
-1 
-1 
-1 
-1 
-1 
-1 
-1 
-1 
-1 
-1 
-1 
-1 
-1 
-1 
-1 
-1 
-1 
-1 
-1 
-1 
-1 
-1 
-1 
-1 
-1 
-1 
-1 
-1 
-1 
-1 
-1 
-1 
-1 
-1 
-1 
-1 
-1 
-1 
-1 
-1 
-1 
-1 
-1 
-1 
-1 
-1 
-1 
-1 
-1 
-1 
-1 
-1 
-1 
-1 
-1 
-1 
-1 
-1 
-1 
-1 
-1 
-1 
-1 
-1 
-1 
-1 
-1 
-1 
-1 
-1 
-1 
-1 
-1 
-1 
-1 
-1 
-1 
-1 
-1 
-1 
-1 
-1 
-1 
-1 
-1 
-1 
-1 
-1 
-1 
-1 
-1 
-1 
-1 
-1 
-1 
-1 
-1 
-1 
-1 
-1 
-1 
-1 
-1 
-1 
-1 
-1 
-1 
-1 
-1 
-1 
-1 
-1 
-1 
-1 
-1 
-1 
-1 
-1 
-1 
-1 
-1 
-1 
-1 
-1 
-1 
-1 
-1 
-1 
-1 
-1 
-1 
-1 
-1 
-1 
-1 
-1 
-1 
-1 
-1 
-1 
-1 
-1 
-1 
-1 
-1 
-1 
-1 
-1 
-1 
-1 
-1 
-1 
-1 
-1 
-1 
-1 
-1 
-1 
-1 
-1 
-1 
-1 
-1 
-1 
-1 
-1 
-1 
-1 
-1 
-1 
-1 
-1 
-1 
-1 
-1 
-1 
-1 
-1 
-1 
-1 
-1 
-1 
-1 
-1 
-1 
-1 
-1 
-1 
-1 
-1 
-1 
-1 
-1 
-1 
-1 
-1 
-1 
-1 
-1 
-1 
-1 
-1 
-1 
-1 
-1 
-1 
-1 
-1 
-1 
-1 
-1 
-1 
-1 
-1 
-1 
-1 
-1 
-1 
-1 
-1 
-1 
-1 
-1 
-1 
-1 
-1 
-1 
-1 
-1 
-1 
-1 
-1 
-1 
-1 
-1 
-1 
-1 
-1 
-1 
-1 
-1 
-1 
-1 
-1 
-1 
-1 
-1 
-1 
-1 
-1 
-1 
-1 
-1 
-1 
-1 
-1 
-1 
-1 
-1 
-1 
-1 
-1 
-1 
-1 
-1 
-1 
-1 
-1 
-1 
-1 
-1 
-1 
-1 
-1 
-1 
-1 
-1 
-1 
-1 
-1 
-1 
-1 
-1 
-1 
-1 
-1 
-1 
-1 
-1 
-1 
-1 
-1 
-1 
-1 
-1 
-1 
-1 
-1 
-1 
-1 
-1 
-1 
-1 
-1 
-1 
-1 
-1 
-1 
-1 
-1 
-1 
-1 
-1 
-1 
-1 
-1 
-1 
-1 
-1 
-1 
-1 
-1 
-1 
-1 
-1 
-1 
-1 
-1 
-1 
-1 
-1 
-1 
-1 
-1 
-1 
-1 
-1 
-1 
-1 
-1 
-1 
-1 
-1 
-1 
-1 
-1 
-1 
-1 
-1 
-1 
-1 
-1 
-1 
-1 
-1 
-1 
-1 
-1 
-1 
-1 
-1 
-1 
-1 
-1 
-1 
-1 
-1 
-1 
-1 
-1 
-1 
-1 
-1 
-1 
-1 
-1 
-1 
-1 
-1 
-1 
-1 
-1 
-1 
-1 
-1 
-1 
-1 
-1 
-1 
-1 
-1 
-1 
-1 
-1 
-1 
-1 
-1 
-1 
-1 
-1 
-1 
-1 
-1 
-1 
-1 
-1 
-1 
-1 
-1 
-1 
-1 
-1 
-1 
-1 
-1 
-1 
-1 
-1 
-1 
-1 
-1 
-1 
-1 
-1 
-1 
-1 
-1 
-1 
-1 
-1 
-1 
-1 
-1 
-1 
-1 
-1 
-1 
-1 
-1 
-1 
-1 
-1 
-1 
-1 
-1 
-1 
-1 
-1 
-1 
-1 
-1 
-1 
-1 
-1 
-1 
-1 
-1 
-1 
-1 
-1 
-1 
-1 
-1 
-1 
-1 
-1 
-1 
-1 
-1 
-1 
-1 
-1 
-1 
-1 
-1 
-1 
-1 
-1 
-1 
-1 
-1 
-1 
-1 
-1 
-1 
-1 
-1 
-1 
-1 
-1 
-1 
-1 
-1 
-1 
-1 
-1 
-1 
-1 
-1 
-1 
-1 
-1 
-1 
-1 
-1 
-1 
-1 
-1 
-1 
-1 
-1 
-1 
-1 
-1 
-1 
-1 
-1 
-1 
-1 
-1 
-1 
-1 
-1 
-1 
-1 
-1 
-1 
-1 
-1 
-1 
-1 
-1 
-1 
-1 
-1 
-1 
-1 
-1 
-1 
-1 
-1 
-1 
-1 
-1 
-1 
-1 
-1 
-1 
-1 
-1 
-1 
-1 
-1 
-1 
-1 
-1 
-1 
-1 
-1 
-1 
-1 
-1 
-1 
-1 
-1 
-1 
-1 
-1 
-1 
-1 
-1 
-1 
-1 
-1 
-1 
-1 
-1 
-1 
-1 
-1 
-1 
-1 
-1 
-1 
-1 
-1 
-1 
-1 
-1 
-1 
-1 
-1 
-1 
-1 
-1 
-1 
-1 
-1 
-1 
-1 
-1 
-1 
-1 
-1 
-1 
-1 
-1 
-1 
-1 
-1 
-1 
-1 
-1 
-1 
-1 
-1 
-1 
-1 
-1 
-1 
-1 
-1 
-1 
-1 
-1 
-1 
-1 
-1 
-1 
-1 
-1 
-1 
-1 
-1 
-1 
-1 
-1 
-1 
-1 
-1 
-1 
-1 
-1 
-1 
-1 
-1 
-1 
-1 
-1 
-1 
-1 
-1 
-1 
-1 
-1 
-1 
-1 
-1 
-1 
-1 
-1 
-1 
-1 
-1 
-1 
-1 
-1 
-1 
-1 
-1 
-1 
-1 
-1 
-1 
-1 
-1 
-1 
-1 
-1 
-1 
-1 
-1 
-1 
-1 
-1 
-1 
-1 
-1 
-1 
-1 
-1 
-1 
-1 
-1 
-1 
-1 
-1 
-1 
-1 
-1 
-1 
-1 
-1 
-1 
-1 
-1 
-1 
-1 
-1 
-1 
-1 
-1 
-1 
-1 
-1 
-1 
-1 
-1 
-1 
-1 
-1 
-1 
-1 
-1 
-1 
-1 
-1 
-1 
-1 
-1 
-1 
-1 
-1 
-1 
-1 
-1 
-1 
-1 
-1 
-1 
-1 
-1 
-1 
-1 
-1 
-1 
-1 
-1 
-1 
-1 
-1 
-1 
-1 
-1 
-1 
-1 
-1 
-1 
-1 
-1 
-1 
-1 
-1 
-1 
-1 
-1 
-1 
-1 
-1 
-1 
-1 
-1 
-1 
-1 
-1 
-1 
-1 
-1 
-1 
-1 
-1 
-1 
-1 
-1 
-1 
-1 
-1 
-1 
-1 
-1 
-1 
-1 
-1 
-1 
-1 
-1 
-1 
-1 
-1 
-1 
-1 
-1 
-1 
-1 
-1 
-1 
-1 
-1 
-1 
-1 
-1 
-1 
-1 
-1 
-1 
-1 
-1 
-1 
-1 
-1 
-1 
-1 
-1 
-1 
-1 
-1 
-1 
-1 
-1 
-1 
-1 
-1 
-1 
-1 
-1 
-1 
-1 
-1 
-1 
-1 
-1 
-1 
-1 
-1 
-1 
-1 
-1 
-1 
-1 
-1 
-1 
-1 
-1 
-1 
-1 
-1 
-1 
-1 
-1 
-1 
-1 
-1 
-1 
-1 
-1 
-1 
-1 
-1 
-1 
-1 
-1 
-1 
-1 
-1 
-1 
-1 
-1 
-1 
-1 
-1 
-1 
-1 
-1 
-1 
-1 
-1 
-1 
-1 
-1 
-1 
-1 
-1 
-1 
-1 
-1 
-1 
-1 
-1 
-1 
-1 
-1 
-1 
-1 
-1 
-1 
-1 
-1 
-1 
-1 
-1 
-1 
-1 
-1 
-1 
-1 
-1 
-1 
-1 
-1 
-1 
-1 
-1 
-1 
-1 
-1 
-1 
-1 
-1 
-1 
-1 
-1 
-1 
-1 
-1 
-1 
-1 
-1 
-1 
-1 
-1 
-1 
-1 
-1 
-1 
-1 
-1 
-1 
-1 
-1 
-1 
-1 
-1 
-1 
-1 
-1 
-1 
-1 
-1 
-1 
-1 
-1 
-1 
-1 
-1 
-1 
-1 
-1 
-1 
-1 
-1 
-1 
-1 
-1 
-1 
-1 
-1 
-1 
-1 
-1 
-1 
-1 
-1 
-1 
-1 
-1 
-1 
-1 
-1 
-1 
-1 
-1 
-1 
-1 
-1 
-1 
-1 
-1 
-1 
-1 
-1 
-1 
-1 
-1 
-1 
-1 
-1 
-1 
-1 
-1 
-1 
-1 
-1 
-1 
-1 
-1 
-1 
-1 
-1 
-1 
-1 
-1 
-1 
-1 
-1 
-1 
-1 
-1 
-1 
-1 
-1 
-1 
-1 
-1 
-1 
-1 
-1 
-1 
-1 
-1 
-1 
-1 
-1 
-1 
-1 
-1 
-1 
-1 
-1 
-1 
-1 
-1 
-1 
-1 
-1 
-1 
-1 
-1 
-1 
-1 
-1 
-1 
-1 
-1 
-1 
-1 
-1 
-1 
-1 
-1 
-1 
-1 
-1 
-1 
-1 
-1 
-1 
-1 
-1 
-1 
-1 
-1 
-1 
-1 
-1 
-1 
-1 
-1 
-1 
-1 
-1 
-1 
-1 
-1 
-1 
-1 
-1 
-1 
-1 
-1 
-1 
-1 
-1 
-1 
-1 
-1 
-1 
-1 
-1 
-1 
-1 
-1 
-1 
-1 
-1 
-1 
-1 
-1 
-1 
-1 
-1 
-1 
-1 
-1 
-1 
-1 
-1 
-1 
-1 
-1 
-1 
-1 
-1 
-1 
-1 
-1 
-1 
-1 
-1 
-1 
-1 
-1 
-1 
-1 
-1 
-1 
-1 
-1 
-1 
-1 
-1 
-1 
-1 
-1 
-1 
-1 
-1 
-1 
-1 
-1 
-1 
-1 
-1 
-1 
-1 
-1 
-1 
-1 
-1 
-1 
-1 
-1 
-1 
-1 
-1 
-1 
-1 
-1 
-1 
-1 
-1 
-1 
-1 
-1 
-1 
-1 
-1 
-1 
-1 
-1 
-1 
-1 
-1 
-1 
-1 
-1 
-1 
-1 
-1 
-1 
-1 
-1 
-1 
-1 
-1 
-1 
-1 
-1 
-1 
-1 
-1 
-1 
-1 
-1 
-1 
-1 
-1 
-1 
-1 
-1 
-1 
-1 
-1 
-1 
-1 
-1 
-1 
-1 
-1 
-1 
-1 
-1 
-1 
-1 
-1 
-1 
-1 
-1 
-1 
-1 
-1 
-1 
-1 
-1 
-1 
-1 
-1 
-1 
-1 
-1 
-1 
-1 
-1 
-1 
-1 
-1 
-1 
-1 
-1 
-1 
-1 
-1 
-1 
-1 
-1 
-1 
-1 
-1 
-1 
-1 
-1 
-1 
-1 
-1 
-1 
-1 
-1 
-1 
-1 
-1 
-1 
-1 
-1 
-1 
-1 
-1 
-1 
-1 
-1 
-1 
-1 
-1 
-1 
-1 
-1 
-1 
-1 
-1 
-1 
-1 
-1 
-1 
-1 
-1 
-1 
-1 
-1 
-1 
-1 
-1 
-1 
-1 
-1 
-1 
-1 
-1 
-1 
-1 
-1 
-1 
-1 
-1 
-1 
-1 
-1 
-1 
-1 
-1 
-1 
-1 
-1 
-1 
-1 
-1 
-1 
-1 
-1 
-1 
-1 
-1 
-1 
-1 
-1 
-1 
-1 
-1 
-1 
-1 
-1 
-1 
-1 
-1 
-1 
-1 
-1 
-1 
-1 
-1 
-1 
-1 
-1 
-1 
-1 
-1 
-1 
-1 
-1 
-1 
-1 
-1 
-1 
-1 
-1 
-1 
-1 
-1 
-1 
-1 
-1 
-1 
-1 
-1 
-1 
-1 
-1 
-1 
-1 
-1 
-1 
-1 
-1 
-1 
-1 
-1 
-1 
-1 
-1 
-1 
-1 
-1 
-1 
-1 
-1 
-1 
-1 
-1 
-1 
-1 
-1 
-1 
-1 
-1 
-1 
-1 
-1 
-1 
-1 
-1 
-1 
-1 
-1 
-1 
-1 
-1 
-1 
-1 
-1 
-1 
-1 
-1 
-1 
-1 
-1 
-1 
-1 
-1 
-1 
-1 
-1 
-1 
-1 
-1 
-1 
-1 
-1 
-1 
-1 
-1 
-1 
-1 
-1 
-1 
-1 
-1 
-1 
-1 
-1 
-1 
-1 
-1 
-1 
-1 
-1 
-1 
-1 
-1 
-1 
-1 
-1 
-1 
-1 
-1 
-1 
-1 
-1 
-1 
-1 
-1 
-1 
-1 
-1 
-1 
-1 
-1 
-1 
-1 
-1 
-1 
-1 
-1 
-1 
-1 
-1 
-1 
-1 
-1 
-1 
-1 
-1 
-1 
-1 
-1 
-1 
-1 
-1 
-1 
-1 
-1 
-1 
-1 
-1 
-1 
-1 
-1 
-1 
-1 
-1 
-1 
-1 
-1 
-1 
-1 
-1 
-1 
-1 
-1 
-1 
-1 
-1 
-1 
-1 
-1 
-1 
-1 
-1 
-1 
-1 
-1 
-1 
-1 
-1 
-1 
-1 
-1 
-1 
-1 
-1 
-1 
-1 
-1 
-1 
-1 
-1 
-1 
-1 
-1 
-1 
-1 
-1 
-1 
-1 
-1 
-1 
-1 
-1 
-1 
-1 
-1 
-1 
-1 
-1 
-1 
-1 
-1 
-1 
-1 
-1 
-1 
-1 
-1 
-1 
-1 
-1 
-1 
-1 
-1 
-1 
-1 
-1 
-1 
-1 
-1 
-1 
-1 
-1 
-1 
-1 
-1 
-1 
-1 
-1 
-1 
-1 
-1 
-1 
-1 
-1 
-1 
-1 
-1 
-1 
-1 
-1 
-1 
-1 
-1 
-1 
-1 
-1 
-1 
-1 
-1 
-1 
-1 
-1 
-1 
-1 
-1 
-1 
-1 
-1 
-1 
-1 
-1 
-1 
-1 
-1 
-1 
-1 
-1 
-1 
-1 
-1 
-1 
-1 
-1 
-1 
-1 
-1 
-1 
-1 
-1 
-1 
-1 
-1 
-1 
-1 
-1 
-1 
-1 
-1 
-1 
-1 
-1 
-1 
-1 
-1 
-1 
-1 
-1 
-1 
-1 
-1 
-1 
-1 
-1 
-1 
-1 
-1 
-1 
-1 
-1 
-1 
-1 
-1 
-1 
-1 
-1 
-1 
-1 
-1 
-1 
-1 
-1 
-1 
-1 
-1 
-1 
-1 
-1 
-1 
-1 
-1 
-1 
-1 
-1 
-1 
-1 
-1 
-1 
-1 
-1 
-1 
-1 
-1 
-1 
-1 
-1 
-1 
-1 
-1 
-1 
-1 
-1 
-1 
-1 
-1 
-1 
-1 
-1 
-1 
-1 
-1 
-1 
-1 
-1 
-1 
-1 
-1 
-1 
-1 
-1 
-1 
-1 
-1 
-1 
-1 
-1 
-1 
-1 
-1 
-1 
-1 
-1 
-1 
-1 
-1 
-1 
-1 
-1 
-1 
-1 
-1 
-1 
-1 
-1 
-1 
-1 
-1 
-1 
-1 
-1 
-1 
-1 
-1 
-1 
-1 
-1 
-1 
-1 
-1 
-1 
-1 
-1 
-1 
-1 
-1 
-1 
-1 
-1 
-1 
-1 
-1 
-1 
-1 
-1 
-1 
-1 
-1 
-1 
-1 
-1 
-1 
-1 
-1 
-1 
-1 
-1 
-1 
-1 
-1 
-1 
-1 
-1 
-1 
-1 
-1 
-1 
-1 
-1 
-1 
-1 
-1 
-1 
-1 
-1 
-1 
-1 
-1 
-1 
-1 
-1 
-1 
-1 
-1 
-1 
-1 
-1 
-1 
-1 
-1 
-1 
-1 
-1 
-1 
-1 
-1 
-1 
-1 
-1 
-1 
-1 
-1 
-1 
-1 
-1 
-1 
-1 
-1 
-1 
-1 
-1 
-1 
-1 
-1 
-1 
-1 
-1 
-1 
-1 
-1 
-1 
-1 
-1 
-1 
-1 
-1 
-1 
-1 
-1 
-1 
-1 
-1 
-1 
-1 
-1 
-1 
-1 
-1 
-1 
-1 
-1 
-1 
-1 
-1 
-1 
-1 
-1 
-1 
-1 
-1 
-1 
-1 
-1 
-1 
-1 
-1 
-1 
-1 
-1 
-1 
-1 
-1 
-1 
-1 
-1 
-1 
-1 
-1 
-1 
-1 
-1 
-1 
-1 
-1 
-1 
-1 
-1 
-1 
-1 
-1 
-1 
-1 
-1 
-1 
-1 
-1 
-1 
-1 
-1 
-1 
-1 
-1 
-1 
-1 
-1 
-1 
-1 
-1 
-1 
-1 
-1 
-1 
-1 
-1 
-1 
-1 
-1 
-1 
-1 
-1 
-1 
-1 
-1 
-1 
-1 
-1 
-1 
-1 
-1 
-1 
-1 
-1 
-1 
-1 
-1 
-1 
-1 
-1 
-1 
-1 
-1 
-1 
-1 
-1 
-1 
-1 
-1 
-1 
-1 
-1 
-1 
-1 
-1 
-1 
-1 
-1 
-1 
-1 
-1 
-1 
-1 
-1 
-1 
-1 
-1 
-1 
-1 
-1 
-1 
-1 
-1 
-1 
-1 
-1 
-1 
-1 
-1 
-1 
-1 
-1 
-1 
-1 
-1 
-1 
-1 
-1 
-1 
-1 
-1 
-1 
-1 
-1 
-1 
-1 
-1 
-1 
-1 
-1 
-1 
-1 
-1 
-1 
-1 
-1 
-1 
-1 
-1 
-1 
-1 
-1 
-1 
-1 
-1 
-1 
-1 
-1 
-1 
-1 
-1 
-1 
-1 
-1 
-1 
-1 
-1 
-1 
-1 
-1 
-1 
-1 
-1 
-1 
-1 
-1 
-1 
-1 
-1 
-1 
-1 
-1 
-1 
-1 
-1 
-1 
-1 
-1 
-1 
-1 
-1 
-1 
-1 
-1 
-1 
-1 
-1 
-1 
-1 
-1 
-1 
-1 
-1 
-1 
-1 
-1 
-1 
-1 
-1 
-1 
-1 
-1 
-1 
-1 
-1 
-1 
-1 
-1 
-1 
-1 
-1 
-1 
-1 
-1 
-1 
-1 
-1 
-1 
-1 
-1 
-1 
-1 
-1 
-1 
-1 
-1 
-1 
-1 
-1 
-1 
-1 
-1 
-1 
-1 
-1 
-1 
-1 
-1 
-1 
-1 
-1 
-1 
-1 
-1 
-1 
-1 
-1 
-1 
-1 
-1 
-1 
-1 
-1 
-1 
-1 
-1 
-1 
-1 
-1 
-1 
-1 
-1 
-1 
-1 
-1 
-1 
-1 
-1 
-1 
-1 
-1 
-1 
-1 
-1 
-1 
-1 
-1 
-1 
-1 
-1 
-1 
-1 
-1 
-1 
-1 
-1 
-1 
-1 
-1 
-1 
-1 
-1 
-1 
-1 
-1 
-1 
-1 
-1 
-1 
-1 
-1 
-1 
-1 
-1 
-1 
-1 
-1 
-1 
-1 
-1 
-1 
-1 
-1 
-1 
-1 
-1 
-1 
-1 
-1 
-1 
-1 
-1 
-1 
-1 
-1 
-1 
-1 
-1 
-1 
-1 
-1 
-1 
-1 
-1 
-1 
-1 
-1 
-1 
-1 
-1 
-1 
-1 
-1 
-1 
-1 
-1 
-1 
-1 
-1 
-1 
-1 
-1 
-1 
-1 
-1 
-1 
-1 
-1 
-1 
-1 
-1 
-1 
-1 
-1 
-1 
-1 
-1 
-1 
-1 
-1 
-1 
-1 
-1 
-1 
-1 
-1 
-1 
-1 
-1 
-1 
-1 
-1 
-1 
-1 
-1 
-1 
-1 
-1 
-1 
-1 
-1 
-1 
-1 
-1 
-1 
-1 
-1 
-1 
-1 
-1 
-1 
-1 
-1 
-1 
-1 
-1 
-1 
-1 
-1 
-1 
-1 
-1 
-1 
-1 
-1 
-1 
-1 
-1 
-1 
-1 
-1 
-1 
-1 
-1 
-1 
-1 
-1 
-1 
-1 
-1 
-1 
-1 
-1 
-1 
-1 
-1 
-1 
-1 
-1 
-1 
-1 
-1 
-1 
-1 
-1 
-1 
-1 
-1 
-1 
-1 
-1 
-1 
-1 
-1 
-1 
-1 
-1 
-1 
-1 
-1 
-1 
-1 
-1 
-1 
-1 
-1 
-1 
-1 
-1 
-1 
-1 
-1 
-1 
-1 
-1 
-1 
-1 
-1 
-1 
-1 
-1 
-1 
-1 
-1 
-1 
-1 
-1 
-1 
-1 
-1 
-1 
-1 
-1 
-1 
-1 
-1 
-1 
-1 
-1 
-1 
-1 
-1 
-1 
-1 
-1 
-1 
-1 
-1 
-1 
-1 
-1 
-1 
-1 
-1 
-1 
-1 
-1 
-1 
-1 
-1 
-1 
-1 
-1 
-1 
-1 
-1 
-1 
-1 
-1 
-1 
-1 
-1 
-1 
-1 
-1 
-1 
-1 
-1 
-1 
-1 
-1 
-1 
-1 
-1 
-1 
-1 
-1 
-1 
-1 
-1 
-1 
-1 
-1 
-1 
-1 
-1 
-1 
-1 
-1 
-1 
-1 
-1 
-1 
-1 
-1 
-1 
-1 
-1 
-1 
-1 
-1 
-1 
-1 
-1 
-1 
-1 
-1 
-1 
-1 
-1 
-1 
-1 
-1 
-1 
-1 
-1 
-1 
-1 
-1 
-1 
-1 
-1 
-1 
-1 
-1 
-1 
-1 
-1 
-1 
-1 
-1 
-1 
-1 
-1 
-1 
-1 
-1 
-1 
-1 
-1 
-1 
-1 
-1 
-1 
-1 
-1 
-1 
-1 
-1 
-1 
-1 
-1 
-1 
-1 
-1 
-1 
-1 
-1 
-1 
-1 
-1 
-1 
-1 
-1 
-1 
-1 
-1 
-1 
-1 
-1 
-1 
-1 
-1 
-1 
-1 
-1 
-1 
-1 
-1 
-1 
-1 
-1 
-1 
-1 
-1 
-1 
-1 
-1 
-1 
-1 
-1 
-1 
-1 
-1 
-1 
-1 
-1 
-1 
-1 
-1 
-1 
-1 
-1 
-1 
-1 
-1 
-1 
-1 
-1 
-1 
-1 
-1 
-1 
-1 
-1 
-1 
-1 
-1 
-1 
-1 
-1 
-1 
-1 
-1 
-1 
-1 
-1 
-1 
-1 
-1 
-1 
-1 
-1 
-1 
-1 
-1 
-1 
-1 
-1 
-1 
-1 
-1 
-1 
-1 
-1 
-1 
-1 
-1 
-1 
-1 
-1 
-1 
-1 
-1 
-1 
-1 
-1 
-1 
-1 
-1 
-1 
-1 
-1 
-1 
-1 
-1 
-1 
-1 
-1 
-1 
-1 
-1 
-1 
-1 
-1 
-1 
-1 
-1 
-1 
-1 
-1 
-1 
-1 
-1 
-1 
-1 
-1 
-1 
-1 
-1 
-1 
-1 
-1 
-1 
-1 
-1 
-1 
-1 
-1 
-1 
-1 
-1 
-1 
-1 
-1 
-1 
-1 
-1 
-1 
-1 
-1 
-1 
-1 
-1 
-1 
-1 
-1 
-1 
-1 
-1 
-1 
-1 
-1 
-1 
-1 
-1 
-1 
-1 
-1 
-1 
-1 
-1 
-1 
-1 
-1 
-1 
-1 
-1 
-1 
-1 
-1 
-1 
-1 
-1 
-1 
-1 
-1 
-1 
-1 
-1 
-1 
-1 
-1 
-1 
-1 
-1 
-1 
-1 
-1 
-1 
-1 
-1 
-1 
-1 
-1 
-1 
-1 
-1 
-1 
-1 
-1 
-1 
-1 
-1 
-1 
-1 
-1 
-1 
-1 
-1 
-1 
-1 
-1 
-1 
-1 
-1 
-1 
-1 
-1 
-1 
-1 
-1 
-1 
-1 
-1 
-1 
-1 
-1 
-1 
-1 
-1 
-1 
-1 
-1 
-1 
-1 
-1 
-1 
-1 
-1 
-1 
-1 
-1 
-1 
-1 
-1 
-1 
-1 
-1 
-1 
-1 
-1 
-1 
-1 
-1 
-1 
-1 
-1 
-1 
-1 
-1 
-1 
-1 
-1 
-1 
-1 
-1 
-1 
-1 
-1 
-1 
-1 
-1 
-1 
-1 
-1 
-1 
-1 
-1 
-1 
-1 
-1 
-1 
-1 
-1 
-1 
-1 
-1 
-1 
-1 
-1 
-1 
-1 
-1 
-1 
-1 
-1 
-1 
-1 
-1 
-1 
-1 
-1 
-1 
-1 
-1 
-1 
-1 
-1 
-1 
-1 
-1 
-1 
-1 
-1 
-1 
-1 
-1 
-1 
-1 
-1 
-1 
-1 
-1 
-1 
-1 
-1 
-1 
-1 
-1 
-1 
-1 
-1 
-1 
-1 
-1 
-1 
-1 
-1 
-1 
-1 
-1 
-1 
-1 
-1 
-1 
-1 
-1 
-1 
-1 
-1 
-1 
-1 
-1 
-1 
-1 
-1 
-1 
-1 
-1 
-1 
-1 
-1 
-1 
-1 
-1 
-1 
-1 
-1 
-1 
-1 
-1 
-1 
-1 
-1 
-1 
-1 
-1 
-1 
-1 
-1 
-1 
-1 
-1 
-1 
-1 
-1 
-1 
-1 
-1 
-1 
-1 
-1 
-1 
-1 
-1 
-1 
-1 
-1 
-1 
-1 
-1 
-1 
-1 
-1 
-1 
-1 
-1 
-1 
-1 
-1 
-1 
-1 
-1 
-1 
-1 
-1 
-1 
-1 
-1 
-1 
-1 
-1 
-1 
-1 
-1 
-1 
-1 
-1 
-1 
-1 
-1 
-1 
-1 
-1 
-1 
-1 
-1 
-1 
-1 
-1 
-1 
-1 
-1 
-1 
-1 
-1 
-1 
-1 
-1 
-1 
-1 
-1 
-1 
-1 
-1 
-1 
-1 
-1 
-1 
-1 
-1 
-1 
-1 
-1 
-1 
-1 
-1 
-1 
-1 
-1 
-1 
-1 
-1 
-1 
-1 
-1 
-1 
-1 
-1 
-1 
-1 
-1 
-1 
-1 
-1 
-1 
-1 
-1 
-1 
-1 
-1 
-1 
-1 
-1 
-1 
-1 
-1 
-1 
-1 
-1 
-1 
-1 
-1 
-1 
-1 
-1 
-1 
-1 
-1 
-1 
-1 
-1 
-1 
-1 
-1 
-1 
-1 
-1 
-1 
-1 
-1 
-1 
-1 
-1 
-1 
-1 
-1 
-1 
-1 
-1 
-1 
-1 
-1 
-1 
-1 
-1 
-1 
-1 
-1 
-1 
-1 
-1 
-1 
-1 
-1 
-1 
-1 
-1 
-1 
-1 
-1 
-1 
-1 
-1 
-1 
-1 
-1 
-1 
-1 
-1 
-1 
-1 
-1 
-1 
-1 
-1 
-1 
-1 
-1 
-1 
-1 
-1 
-1 
-1 
-1 
-1 
-1 
-1 
-1 
-1 
-1 
-1 
-1 
-1 
-1 
-1 
-1 
-1 
-1 
-1 
-1 
-1 
-1 
-1 
-1 
-1 
-1 
-1 
-1 
-1 
-1 
-1 
-1 
-1 
-1 
-1 
-1 
-1 
-1 
-1 
-1 
-1 
-1 
-1 
-1 
-1 
-1 
-1 
-1 
-1 
-1 
-1 
-1 
-1 
-1 
-1 
-1 
-1 
-1 
-1 
-1 
-1 
-1 
-1 
-1 
-1 
-1 
-1 
-1 
-1 
-1 
-1 
-1 
-1 
-1 
-1 
-1 
-1 
-1 
-1 
-1 
-1 
-1 
-1 
-1 
-1 
-1 
-1 
-1 
-1 
-1 
-1 
-1 
-1 
-1 
-1 
-1 
-1 
-1 
-1 
-1 
-1 
-1 
-1 
-1 
-1 
-1 
-1 
-1 
-1 
-1 
-1 
-1 
-1 
-1 
-1 
-1 
-1 
-1 
-1 
-1 
-1 
-1 
-1 
-1 
-1 
-1 
-1 
-1 
-1 
-1 
-1 
-1 
-1 
-1 
-1 
-1 
-1 
-1 
-1 
-1 
-1 
-1 
-1 
-1 
-1 
-1 
-1 
-1 
-1 
-1 
-1 
-1 
-1 
-1 
-1 
-1 
-1 
-1 
-1 
-1 
-1 
-1 
-1 
-1 
-1 
-1 
-1 
-1 
-1 
-1 
-1 
-1 
-1 
-1 
-1 
-1 
-1 
-1 
-1 
-1 
-1 
-1 
-1 
-1 
-1 
-1 
-1 
-1 
-1 
-1 
-1 
-1 
-1 
-1 
-1 
-1 
-1 
-1 
-1 
-1 
-1 
-1 
-1 
-1 
-1 
-1 
-1 
-1 
-1 
-1 
-1 
-1 
-1 
-1 
-1 
-1 
-1 
-1 
-1 
-1 
-1 
-1 
-1 
-1 
-1 
-1 
-1 
-1 
-1 
-1 
-1 
-1 
-1 
-1 
-1 
-1 
-1 
-1 
-1 
-1 
-1 
-1 
-1 
-1 
-1 
-1 
-1 
-1 
-1 
-1 
-1 
-1 
-1 
-1 
-1 
-1 
-1 
-1 
-1 
-1 
-1 
-1 
-1 
-1 
-1 
-1 
-1 
-1 
-1 
-1 
-1 
-1 
-1 
-1 
-1 
-1 
-1 
-1 
-1 
-1 
-1 
-1 
-1 
-1 
-1 
-1 
-1 
-1 
-1 
-1 
-1 
-1 
-1 
-1 
-1 
-1 
-1 
-1 
-1 
-1 
-1 
-1 
-1 
-1 
-1 
-1 
-1 
-1 
-1 
-1 
-1 
-1 
-1 
-1 
-1 
-1 
-1 
-1 
-1 
-1 
-1 
-1 
-1 
-1 
-1 
-1 
-1 
-1 
-1 
-1 
-1 
-1 
-1 
-1 
-1 
-1 
-1 
-1 
-1 
-1 
-1 
-1 
-1 
-1 
-1 
-1 
-1 
-1 
-1 
-1 
-1 
-1 
-1 
-1 
-1 
-1 
-1 
-1 
-1 
-1 
-1 
-1 
-1 
-1 
-1 
-1 
-1 
-1 
-1 
-1 
-1 
-1 
-1 
-1 
-1 
-1 
-1 
-1 
-1 
-1 
-1 
-1 
-1 
-1 
-1 
-1 
-1 
-1 
-1 
-1 
-1 
-1 
-1 
-1 
-1 
-1 
-1 
-1 
-1 
-1 
-1 
-1 
-1 
-1 
-1 
-1 
-1 
-1 
-1 
-1 
-1 
-1 
-1 
-1 
-1 
-1 
-1 
-1 
-1 
-1 
-1 
-1 
-1 
-1 
-1 
-1 
-1 
-1 
-1 
-1 
-1 
-1 
-1 
-1 
-1 
-1 
-1 
-1 
-1 
-1 
-1 
-1 
-1 
-1 
-1 
-1 
-1 
-1 
-1 
-1 
-1 
-1 
-1 
-1 
-1 
-1 
-1 
-1 
-1 
-1 
-1 
-1 
-1 
-1 
-1 
-1 
-1 
-1 
-1 
-1 
-1 
-1 
-1 
-1 
-1 
-1 
-1 
-1 
-1 
-1 
-1 
-1 
-1 
-1 
-1 
-1 
-1 
-1 
-1 
-1 
-1 
-1 
-1 
-1 
-1 
-1 
-1 
-1 
-1 
-1 
-1 
-1 
-1 
-1 
-1 
-1 
-1 
-1 
-1 
-1 
-1 
-1 
-1 
-1 
-1 
-1 
-1 
-1 
-1 
-1 
-1 
-1 
-1 
-1 
-1 
-1 
-1 
-1 
-1 
-1 
-1 
-1 
-1 
-1 
-1 
-1 
-1 
-1 
-1 
-1 
-1 
-1 
-1 
-1 
-1 
-1 
-1 
-1 
-1 
-1 
-1 
-1 
-1 
-1 
-1 
-1 
-1 
-1 
-1 
-1 
-1 
-1 
-1 
-1 
-1 
-1 
-1 
-1 
-1 
-1 
-1 
-1 
-1 
-1 
-1 
-1 
-1 
-1 
-1 
-1 
-1 
-1 
-1 
-1 
-1 
-1 
-1 
-1 
-1 
-1 
-1 
-1 
-1 
-1 
-1 
-1 
-1 
-1 
-1 
-1 
-1 
-1 
-1 
-1 
-1 
-1 
-1 
-1 
-1 
-1 
-1 
-1 
-1 
-1 
-1 
-1 
-1 
-1 
-1 
-1 
-1 
-1 
-1 
-1 
-1 
-1 
-1 
-1 
-1 
-1 
-1 
-1 
-1 
-1 
-1 
-1 
-1 
-1 
-1 
-1 
-1 
-1 
-1 
-1 
-1 
-1 
-1 
-1 
-1 
-1 
-1 
-1 
-1 
-1 
-1 
-1 
-1 
-1 
-1 
-1 
-1 
-1 
-1 
-1 
-1 
-1 
-1 
-1 
-1 
-1 
-1 
-1 
-1 
-1 
-1 
-1 
-1 
-1 
-1 
-1 
-1 
-1 
-1 
-1 
-1 
-1 
-1 
-1 
-1 
-1 
-1 
-1 
-1 
-1 
-1 
-1 
-1 
-1 
-1 
-1 
-1 
-1 
-1 
-1 
-1 
-1 
-1 
-1 
-1 
-1 
-1 
-1 
-1 
-1 
-1 
-1 
-1 
-1 
-1 
-1 
-1 
-1 
-1 
-1 
-1 
-1 
-1 
-1 
-1 
-1 
-1 
-1 
-1 
-1 
-1 
-1 
-1 
-1 
-1 
-1 
-1 
-1 
-1 
-1 
-1 
-1 
-1 
-1 
-1 
-1 
-1 
-1 
-1 
-1 
-1 
-1 
-1 
-1 
-1 
-1 
-1 
-1 
-1 
-1 
-1 
-1 
-1 
-1 
-1 
-1 
-1 
-1 
-1 
-1 
-1 
-1 
-1 
-1 
-1 
-1 
-1 
-1 
-1 
-1 
-1 
-1 
-1 
-1 
-1 
-1 
-1 
-1 
-1 
-1 
-1 
-1 
-1 
-1 
-1 
-1 
-1 
-1 
-1 
-1 
-1 
-1 
-1 
-1 
-1 
-1 
-1 
-1 
-1 
-1 
-1 
-1 
-1 
-1 
-1 
-1 
-1 
-1 
-1 
-1 
-1 
-1 
-1 
-1 
-1 
-1 
-1 
-1 
-1 
-1 
-1 
-1 
-1 
-1 
-1 
-1 
-1 
-1 
-1 
-1 
-1 
-1 
-1 
-1 
-1 
-1 
-1 
-1 
-1 
-1 
-1 
-1 
-1 
-1 
-1 
-1 
-1 
-1 
-1 
-1 
-1 
-1 
-1 
-1 
-1 
-1 
-1 
-1 
-1 
-1 
-1 
-1 
-1 
-1 
-1 
-1 
-1 
-1 
-1 
-1 
-1 
-1 
-1 
-1 
-1 
-1 
-1 
-1 
-1 
-1 
-1 
-1 
-1 
-1 
-1 
-1 
-1 
-1 
-1 
-1 
-1 
-1 
-1 
-1 
-1 
-1 
-1 
-1 
-1 
-1 
-1 
-1 
-1 
-1 
-1 
-1 
-1 
-1 
-1 
-1 
-1 
-1 
-1 
-1 
-1 
-1 
-1 
-1 
-1 
-1 
-1 
-1 
-1 
-1 
-1 
-1 
-1 
-1 
-1 
-1 
-1 
-1 
-1 
-1 
-1 
-1 
-1 
-1 
-1 
-1 
-1 
-1 
-1 
-1 
-1 
-1 
-1 
-1 
-1 
-1 
-1 
-1 
-1 
-1 
-1 
-1 
-1 
-1 
-1 
-1 
-1 
-1 
-1 
-1 
-1 
-1 
-1 
-1 
-1 
-1 
-1 
-1 
-1 
-1 
-1 
-1 
-1 
-1 
-1 
-1 
-1 
-1 
-1 
-1 
-1 
-1 
-1 
-1 
-1 
-1 
-1 
-1 
-1 
-1 
-1 
-1 
-1 
-1 
-1 
-1 
-1 
-1 
-1 
-1 
-1 
-1 
-1 
-1 
-1 
-1 
-1 
-1 
-1 
-1 
-1 
-1 
-1 
-1 
-1 
-1 
-1 
-1 
-1 
-1 
-1 
-1 
-1 
-1 
-1 
-1 
-1 
-1 
-1 
-1 
-1 
-1 
-1 
-1 
-1 
-1 
-1 
-1 
-1 
-1 
-1 
-1 
-1 
-1 
-1 
-1 
-1 
-1 
-1 
-1 
-1 
-1 
-1 
-1 
-1 
-1 
-1 
-1 
-1 
-1 
-1 
-1 
-1 
-1 
-1 
-1 
-1 
-1 
-1 
-1 
-1 
-1 
-1 
-1 
-1 
-1 
-1 
-1 
-1 
-1 
-1 
-1 
-1 
-1 
-1 
-1 
-1 
-1 
-1 
-1 
-1 
-1 
-1 
-1 
-1 
-1 
-1 
-1 
-1 
-1 
-1 
-1 
-1 
-1 
-1 
-1 
-1 
-1 
-1 
-1 
-1 
-1 
-1 
-1 
-1 
-1 
-1 
-1 
-1 
-1 
-1 
-1 
-1 
-1 
-1 
-1 
-1 
-1 
-1 
-1 
-1 
-1 
-1 
-1 
-1 
-1 
-1 
-1 
-1 
-1 
-1 
-1 
-1 
-1 
-1 
-1 
-1 
-1 
-1 
-1 
-1 
-1 
-1 
-1 
-1 
-1 
-1 
-1 
-1 
-1 
-1 
-1 
-1 
-1 
-1 
-1 
-1 
-1 
-1 
-1 
-1 
-1 
-1 
-1 
-1 
-1 
-1 
-1 
-1 
-1 
-1 
-1 
-1 
-1 
-1 
-1 
-1 
-1 
-1 
-1 
-1 
-1 
-1 
-1 
-1 
-1 
-1 
-1 
-1 
-1 
-1 
-1 
-1 
-1 
-1 
-1 
-1 
-1 
-1 
-1 
-1 
-1 
-1 
-1 
-1 
-1 
-1 
-1 
-1 
-1 
-1 
-1 
-1 
-1 
-1 
-1 
-1 
-1 
-1 
-1 
-1 
-1 
-1 
-1 
-1 
-1 
-1 
-1 
-1 
-1 
-1 
-1 
-1 
-1 
-1 
-1 
-1 
-1 
-1 
-1 
-1 
-1 
-1 
-1 
-1 
-1 
-1 
-1 
-1 
-1 
-1 
-1 
-1 
-1 
-1 
-1 
-1 
-1 
-1 
-1 
-1 
-1 
-1 
-1 
-1 
-1 
-1 
-1 
-1 
-1 
-1 
-1 
-1 
-1 
-1 
-1 
-1 
-1 
-1 
-1 
-1 
-1 
-1 
-1 
-1 
-1 
-1 
-1 
-1 
-1 
-1 
-1 
-1 
-1 
-1 
-1 
-1 
-1 
-1 
-1 
-1 
-1 
-1 
-1 
-1 
-1 
-1 
-1 
-1 
-1 
-1 
-1 
-1 
-1 
-1 
-1 
-1 
-1 
-1 
-1 
-1 
-1 
-1 
-1 
-1 
-1 
-1 
-1 
-1 
-1 
-1 
-1 
-1 
-1 
-1 
-1 
-1 
-1 
-1 
-1 
-1 
-1 
-1 
-1 
-1 
-1 
-1 
-1 
-1 
-1 
-1 
-1 
-1 
-1 
-1 
-1 
-1 
-1 
-1 
-1 
-1 
-1 
-1 
-1 
-1 
-1 
-1 
-1 
-1 
-1 
-1 
-1 
-1 
-1 
-1 
-1 
-1 
-1 
-1 
-1 
-1 
-1 
-1 
-1 
-1 
-1 
-1 
-1 
-1 
-1 
-1 
-1 
-1 
-1 
-1 
-1 
-1 
-1 
-1 
-1 
-1 
-1 
-1 
-1 
-1 
-1 
-1 
-1 
-1 
-1 
-1 
-1 
-1 
-1 
-1 
-1 
-1 
-1 
-1 
-1 
-1 
-1 
-1 
-1 
-1 
-1 
-1 
-1 
-1 
-1 
-1 
-1 
-1 
-1 
-1 
-1 
-1 
-1 
-1 
-1 
-1 
-1 
-1 
-1 
-1 
-1 
-1 
-1 
-1 
-1 
-1 
-1 
-1 
-1 
-1 
-1 
-1 
-1 
-1 
-1 
-1 
-1 
-1 
-1 
-1 
-1 
-1 
-1 
-1 
-1 
-1 
-1 
-1 
-1 
-1 
-1 
-1 
-1 
-1 
-1 
-1 
-1 
-1 
-1 
-1 
-1 
-1 
-1 
-1 
-1 
-1 
-1 
-1 
-1 
-1 
-1 
-1 
-1 
-1 
-1 
-1 
-1 
-1 
-1 
-1 
-1 
-1 
-1 
-1 
-1 
-1 
-1 
-1 
-1 
-1 
-1 
-1 
-1 
-1 
-1 
-1 
-1 
-1 
-1 
-1 
-1 
-1 
-1 
-1 
-1 
-1 
-1 
-1 
-1 
-1 
-1 
-1 
-1 
-1 
-1 
-1 
-1 
-1 
-1 
-1 
-1 
-1 
-1 
-1 
-1 
-1 
-1 
-1 
-1 
-1 
-1 
-1 
-1 
-1 
-1 
-1 
-1 
-1 
-1 
-1 
-1 
-1 
-1 
-1 
-1 
-1 
-1 
-1 
-1 
-1 
-1 
-1 
-1 
-1 
-1 
-1 
-1 
-1 
-1 
-1 
-1 
-1 
-1 
-1 
-1 
-1 
-1 
-1 
-1 
-1 
-1 
-1 
-1 
-1 
-1 
-1 
-1 
-1 
-1 
-1 
-1 
-1 
-1 
-1 
-1 
-1 
-1 
-1 
-1 
-1 
-1 
-1 
-1 
-1 
-1 
-1 
-1 
-1 
-1 
-1 
-1 
-1 
-1 
-1 
-1 
-1 
-1 
-1 
-1 
-1 
-1 
-1 
-1 
-1 
-1 
-1 
-1 
-1 
-1 
-1 
-1 
-1 
-1 
-1 
-1 
-1 
-1 
-1 
-1 
-1 
-1 
-1 
-1 
-1 
-1 
-1 
-1 
-1 
-1 
-1 
-1 
-1 
-1 
-1 
-1 
-1 
-1 
-1 
-1 
-1 
-1 
-1 
-1 
-1 
-1 
-1 
-1 
-1 
-1 
-1 
-1 
-1 
-1 
-1 
-1 
-1 
-1 
-1 
-1 
-1 
-1 
-1 
-1 
-1 
-1 
-1 
-1 
-1 
-1 
-1 
-1 
-1 
-1 
-1 
-1 
-1 
-1 
-1 
-1 
-1 
-1 
-1 
-1 
-1 
-1 
-1 
-1 
-1 
-1 
-1 
-1 
-1 
-1 
-1 
-1 
-1 
-1 
-1 
-1 
-1 
-1 
-1 
-1 
-1 
-1 
-1 
-1 
-1 
-1 
-1 
-1 
-1 
-1 
-1 
-1 
-1 
-1 
-1 
-1 
-1 
-1 
-1 
-1 
-1 
-1 
-1 
-1 
-1 
-1 
-1 
-1 
-1 
-1 
-1 
-1 
-1 
-1 
-1 
-1 
-1 
-1 
-1 
-1 
-1 
-1 
-1 
-1 
-1 
-1 
-1 
-1 
-1 
-1 
-1 
-1 
-1 
-1 
-1 
-1 
-1 
-1 
-1 
-1 
-1 
-1 
-1 
-1 
-1 
-1 
-1 
-1 
-1 
-1 
-1 
-1 
-1 
-1 
-1 
-1 
-1 
-1 
-1 
-1 
-1 
-1 
-1 
-1 
-1 
-1 
-1 
-1 
-1 
-1 
-1 
-1 
-1 
-1 
-1 
-1 
-1 
-1 
-1 
-1 
-1 
-1 
-1 
-1 
-1 
-1 
-1 
-1 
-1 
-1 
-1 
-1 
-1 
-1 
-1 
-1 
-1 
-1 
-1 
-1 
-1 
-1 
-1 
-1 
-1 
-1 
-1 
-1 
-1 
-1 
-1 
-1 
-1 
-1 
-1 
-1 
-1 
-1 
-1 
-1 
-1 
-1 
-1 
-1 
-1 
-1 
-1 
-1 
-1 
-1 
-1 
-1 
-1 
-1 
-1 
-1 
-1 
-1 
-1 
-1 
-1 
-1 
-1 
-1 
-1 
-1 
-1 
-1 
-1 
-1 
-1 
-1 
-1 
-1 
-1 
-1 
-1 
-1 
-1 
-1 
-1 
-1 
-1 
-1 
-1 
-1 
-1 
-1 
-1 
-1 
-1 
-1 
-1 
-1 
-1 
-1 
-1 
-1 
-1 
-1 
-1 
-1 
-1 
-1 
-1 
-1 
-1 
-1 
-1 
-1 
-1 
-1 
-1 
-1 
-1 
-1 
-1 
-1 
-1 
-1 
-1 
-1 
-1 
-1 
-1 
-1 
-1 
-1 
-1 
-1 
-1 
-1 
-1 
-1 
-1 
-1 
-1 
-1 
-1 
-1 
-1 
-1 
-1 
-1 
-1 
-1 
-1 
-1 
-1 
-1 
-1 
-1 
-1 
-1 
-1 
-1 
-1 
-1 
-1 
-1 
-1 
-1 
-1 
-1 
-1 
-1 
-1 
-1 
-1 
-1 
-1 
-1 
-1 
-1 
-1 
-1 
-1 
-1 
-1 
-1 
-1 
-1 
-1 
-1 
-1 
-1 
-1 
-1 
-1 
-1 
-1 
-1 
-1 
-1 
-1 
-1 
-1 
-1 
-1 
-1 
-1 
-1 
-1 
-1 
-1 
-1 
-1 
-1 
-1 
-1 
-1 
-1 
-1 
-1 
-1 
-1 
-1 
-1 
-1 
-1 
-1 
-1 
-1 
-1 
-1 
-1 
-1 
-1 
-1 
-1 
-1 
-1 
-1 
-1 
-1 
-1 
-1 
-1 
-1 
-1 
-1 
-1 
-1 
-1 
-1 
-1 
-1 
-1 
-1 
-1 
-1 
-1 
-1 
-1 
-1 
-1 
-1 
-1 
-1 
-1 
-1 
-1 
-1 
-1 
-1 
-1 
-1 
-1 
-1 
-1 
-1 
-1 
-1 
-1 
-1 
-1 
-1 
-1 
-1 
-1 
-1 
-1 
-1 
-1 
-1 
-1 
-1 
-1 
-1 
-1 
-1 
-1 
-1 
-1 
-1 
-1 
-1 
-1 
-1 
-1 
-1 
-1 
-1 
-1 
-1 
-1 
-1 
-1 
-1 
-1 
-1 
-1 
-1 
-1 
-1 
-1 
-1 
-1 
-1 
-1 
-1 
-1 
-1 
-1 
-1 
-1 
-1 
-1 
-1 
-1 
-1 
-1 
-1 
-1 
-1 
-1 
-1 
-1 
-1 
-1 
-1 
-1 
-1 
-1 
-1 
-1 
-1 
-1 
-1 
-1 
-1 
-1 
-1 
-1 
-1 
-1 
-1 
-1 
-1 
-1 
-1 
-1 
-1 
-1 
-1 
-1 
-1 
-1 
-1 
-1 
-1 
-1 
-1 
-1 
-1 
-1 
-1 
-1 
-1 
-1 
-1 
-1 
-1 
-1 
-1 
-1 
-1 
-1 
-1 
-1 
-1 
-1 
-1 
-1 
-1 
-1 
-1 
-1 
-1 
-1 
-1 
-1 
-1 
-1 
-1 
-1 
-1 
-1 
-1 
-1 
-1 
-1 
-1 
-1 
-1 
-1 
-1 
-1 
-1 
-1 
-1 
-1 
-1 
-1 
-1 
-1 
-1 
-1 
-1 
-1 
-1 
-1 
-1 
-1 
-1 
-1 
-1 
-1 
-1 
-1 
-1 
-1 
-1 
-1 
-1 
-1 
-1 
-1 
-1 
-1 
-1 
-1 
-1 
-1 
-1 
-1 
-1 
-1 
-1 
-1 
-1 
-1 
-1 
-1 
-1 
-1 
-1 
-1 
-1 
-1 
-1 
-1 
-1 
-1 
-1 
-1 
-1 
-1 
-1 
-1 
-1 
-1 
-1 
-1 
-1 
-1 
-1 
-1 
-1 
-1 
-1 
-1 
-1 
-1 
-1 
-1 
-1 
-1 
-1 
-1 
-1 
-1 
-1 
-1 
-1 
-1 
-1 
-1 
-1 
-1 
-1 
-1 
-1 
-1 
-1 
-1 
-1 
-1 
-1 
-1 
-1 
-1 
-1 
-1 
-1 
-1 
-1 
-1 
-1 
-1 
-1 
-1 
-1 
-1 
-1 
-1 
-1 
-1 
-1 
-1 
-1 
-1 
-1 
-1 
-1 
-1 
-1 
-1 
-1 
-1 
-1 
-1 
-1 
-1 
-1 
-1 
-1 
-1 
-1 
-1 
-1 
-1 
-1 
-1 
-1 
-1 
-1 
-1 
-1 
-1 
-1 
-1 
-1 
-1 
-1 
-1 
-1 
-1 
-1 
-1 
-1 
-1 
-1 
-1 
-1 
-1 
-1 
-1 
-1 
-1 
-1 
-1 
-1 
-1 
-1 
-1 
-1 
-1 
-1 
-1 
-1 
-1 
-1 
-1 
-1 
-1 
-1 
-1 
-1 
-1 
-1 
-1 
-1 
-1 
-1 
-1 
-1 
-1 
-1 
-1 
-1 
-1 
-1 
-1 
-1 
-1 
-1 
-1 
-1 
-1 
-1 
-1 
-1 
-1 
-1 
-1 
-1 
-1 
-1 
-1 
-1 
-1 
-1 
-1 
-1 
-1 
-1 
-1 
-1 
-1 
-1 
-1 
-1 
-1 
-1 
-1 
-1 
-1 
-1 
-1 
-1 
-1 
-1 
-1 
-1 
-1 
-1 
-1 
-1 
-1 
-1 
-1 
-1 
-1 
-1 
-1 
-1 
-1 
-1 
-1 
-1 
-1 
-1 
-1 
-1 
-1 
-1 
-1 
-1 
-1 
-1 
-1 
-1 
-1 
-1 
-1 
-1 
-1 
-1 
-1 
-1 
-1 
-1 
-1 
-1 
-1 
-1 
-1 
-1 
-1 
-1 
-1 
-1 
-1 
-1 
-1 
-1 
-1 
-1 
-1 
-1 
-1 
-1 
-1 
-1 
-1 
-1 
-1 
-1 
-1 
-1 
-1 
-1 
-1 
-1 
-1 
-1 
-1 
-1 
-1 
-1 
-1 
-1 
-1 
-1 
-1 
-1 
-1 
-1 
-1 
-1 
-1 
-1 
-1 
-1 
-1 
-1 
-1 
-1 
-1 
-1 
-1 
-1 
-1 
-1 
-1 
-1 
-1 
-1 
-1 
-1 
-1 
-1 
-1 
-1 
-1 
-1 
-1 
-1 
-1 
-1 
-1 
-1 
-1 
-1 
-1 
-1 
-1 
-1 
-1 
-1 
-1 
-1 
-1 
-1 
-1 
-1 
-1 
-1 
-1 
-1 
-1 
-1 
-1 
-1 
-1 
-1 
-1 
-1 
-1 
-1 
-1 
-1 
-1 
-1 
-1 
-1 
-1 
-1 
-1 
-1 
-1 
-1 
-1 
-1 
-1 
-1 
-1 
-1 
-1 
-1 
-1 
-1 
-1 
-1 
-1 
-1 
-1 
-1 
-1 
-1 
-1 
-1 
-1 
-1 
-1 
-1 
-1 
-1 
-1 
-1 
-1 
-1 
-1 
-1 
-1 
-1 
-1 
-1 
-1 
-1 
-1 
-1 
-1 
-1 
-1 
-1 
-1 
-1 
-1 
-1 
-1 
-1 
-1 
-1 
-1 
-1 
-1 
-1 
-1 
-1 
-1 
-1 
-1 
-1 
-1 
-1 
-1 
-1 
-1 
-1 
-1 
-1 
-1 
-1 
-1 
-1 
-1 
-1 
-1 
-1 
-1 
-1 
-1 
-1 
-1 
-1 
-1 
-1 
-1 
-1 
-1 
-1 
-1 
-1 
-1 
-1 
-1 
-1 
-1 
-1 
-1 
-1 
-1 
-1 
-1 
-1 
-1 
-1 
-1 
-1 
-1 
-1 
-1 
-1 
-1 
-1 
-1 
-1 
-1 
-1 
-1 
-1 
-1 
-1 
-1 
-1 
-1 
-1 
-1 
-1 
-1 
-1 
-1 
-1 
-1 
-1 
-1 
-1 
-1 
-1 
-1 
-1 
-1 
-1 
-1 
-1 
-1 
-1 
-1 
-1 
-1 
-1 
-1 
-1 
-1 
-1 
-1 
-1 
-1 
-1 
-1 
-1 
-1 
-1 
-1 
-1 
-1 
-1 
-1 
-1 
-1 
-1 
-1 
-1 
-1 
-1 
-1 
-1 
-1 
-1 
-1 
-1 
-1 
-1 
-1 
-1 
-1 
-1 
-1 
-1 
-1 
-1 
-1 
-1 
-1 
-1 
-1 
-1 
-1 
-1 
-1 
-1 
-1 
-1 
-1 
-1 
-1 
-1 
-1 
-1 
-1 
-1 
-1 
-1 
-1 
-1 
-1 
-1 
-1 
-1 
-1 
-1 
-1 
-1 
-1 
-1 
-1 
-1 
-1 
-1 
-1 
-1 
-1 
-1 
-1 
-1 
-1 
-1 
-1 
-1 
-1 
-1 
-1 
-1 
-1 
-1 
-1 
-1 
-1 
-1 
-1 
-1 
-1 
-1 
-1 
-1 
-1 
-1 
-1 
-1 
-1 
-1 
-1 
-1 
-1 
-1 
-1 
-1 
-1 
-1 
-1 
-1 
-1 
-1 
-1 
-1 
-1 
-1 
-1 
-1 
-1 
-1 
-1 
-1 
-1 
-1 
-1 
-1 
-1 
-1 
-1 
-1 
-1 
-1 
-1 
-1 
-1 
-1 
-1 
-1 
-1 
-1 
-1 
-1 
-1 
-1 
-1 
-1 
-1 
-1 
-1 
-1 
-1 
-1 
-1 
-1 
-1 
-1 
-1 
-1 
-1 
-1 
-1 
-1 
-1 
-1 
-1 
-1 
-1 
-1 
-1 
-1 
-1 
-1 
-1 
-1 
-1 
-1 
-1 
-1 
-1 
-1 
-1 
-1 
-1 
-1 
-1 
-1 
-1 
-1 
-1 
-1 
-1 
-1 
-1 
-1 
-1 
-1 
-1 
-1 
-1 
-1 
-1 
-1 
-1 
-1 
-1 
-1 
-1 
-1 
-1 
-1 
-1 
-1 
-1 
-1 
-1 
-1 
-1 
-1 
-1 
-1 
-1 
-1 
-1 
-1 
-1 
-1 
-1 
-1 
-1 
-1 
-1 
-1 
-1 
-1 
-1 
-1 
-1 
-1 
-1 
-1 
-1 
-1 
-1 
-1 
-1 
-1 
-1 
-1 
-1 
-1 
-1 
-1 
-1 
-1 
-1 
-1 
-1 
-1 
-1 
-1 
-1 
-1 
-1 
-1 
-1 
-1 
-1 
-1 
-1 
-1 
-1 
-1 
-1 
-1 
-1 
-1 
-1 
-1 
-1 
-1 
-1 
-1 
-1 
-1 
-1 
-1 
-1 
-1 
-1 
-1 
-1 
-1 
-1 
-1 
-1 
-1 
-1 
-1 
-1 
-1 
-1 
-1 
-1 
-1 
-1 
-1 
-1 
-1 
-1 
-1 
-1 
-1 
-1 
-1 
-1 
-1 
-1 
-1 
-1 
-1 
-1 
-1 
-1 
-1 
-1 
-1 
-1 
-1 
-1 
-1 
-1 
-1 
-1 
-1 
-1 
-1 
-1 
-1 
-1 
-1 
-1 
-1 
-1 
-1 
-1 
-1 
-1 
-1 
-1 
-1 
-1 
-1 
-1 
-1 
-1 
-1 
-1 
-1 
-1 
-1 
-1 
-1 
-1 
-1 
-1 
-1 
-1 
-1 
-1 
-1 
-1 
-1 
-1 
-1 
-1 
-1 
-1 
-1 
-1 
-1 
-1 
-1 
-1 
-1 
-1 
-1 
-1 
-1 
-1 
-1 
-1 
-1 
-1 
-1 
-1 
-1 
-1 
-1 
-1 
-1 
-1 
-1 
-1 
-1 
-1 
-1 
-1 
-1 
-1 
-1 
-1 
-1 
-1 
-1 
-1 
-1 
-1 
-1 
-1 
-1 
-1 
-1 
-1 
-1 
-1 
-1 
-1 
-1 
-1 
-1 
-1 
-1 
-1 
-1 
-1 
-1 
-1 
-1 
-1 
-1 
-1 
-1 
-1 
-1 
-1 
-1 
-1 
-1 
-1 
-1 
-1 
-1 
-1 
-1 
-1 
-1 
-1 
-1 
-1 
-1 
-1 
-1 
-1 
-1 
-1 
-1 
-1 
-1 
-1 
-1 
-1 
-1 
-1 
-1 
-1 
-1 
-1 
-1 
-1 
-1 
-1 
-1 
-1 
-1 
-1 
-1 
-1 
-1 
-1 
-1 
-1 
-1 
-1 
-1 
-1 
-1 
-1 
-1 
-1 
-1 
-1 
-1 
-1 
-1 
-1 
-1 
-1 
-1 
-1 
-1 
-1 
-1 
-1 
-1 
-1 
-1 
-1 
-1 
-1 
-1 
-1 
-1 
-1 
-1 
-1 
-1 
-1 
-1 
-1 
-1 
-1 
-1 
-1 
-1 
-1 
-1 
-1 
-1 
-1 
-1 
-1 
-1 
-1 
-1 
-1 
-1 
-1 
-1 
-1 
-1 
-1 
-1 
-1 
-1 
-1 
-1 
-1 
-1 
-1 
-1 
-1 
-1 
-1 
-1 
-1 
-1 
-1 
-1 
-1 
-1 
-1 
-1 
-1 
-1 
-1 
-1 
-1 
-1 
-1 
-1 
-1 
-1 
-1 
-1 
-1 
-1 
-1 
-1 
-1 
-1 
-1 
-1 
-1 
-1 
-1 
-1 
-1 
-1 
-1 
-1 
-1 
-1 
-1 
-1 
-1 
-1 
-1 
-1 
-1 
-1 
-1 
-1 
-1 
-1 
-1 
-1 
-1 
-1 
-1 
-1 
-1 
-1 
-1 
-1 
-1 
-1 
-1 
-1 
-1 
-1 
-1 
-1 
-1 
-1 
-1 
-1 
-1 
-1 
-1 
-1 
-1 
-1 
-1 
-1 
-1 
-1 
-1 
-1 
-1 
-1 
-1 
-1 
-1 
-1 
-1 
-1 
-1 
-1 
-1 
-1 
-1 
-1 
-1 
-1 
-1 
-1 
-1 
-1 
-1 
-1 
-1 
-1 
-1 
-1 
-1 
-1 
-1 
-1 
-1 
-1 
-1 
-1 
-1 
-1 
-1 
-1 
-1 
-1 
-1 
-1 
-1 
-1 
-1 
-1 
-1 
-1 
-1 
-1 
-1 
-1 
-1 
-1 
-1 
-1 
-1 
-1 
-1 
-1 
-1 
-1 
-1 
-1 
-1 
-1 
-1 
-1 
-1 
-1 
-1 
-1 
-1 
-1 
-1 
-1 
-1 
-1 
-1 
-1 
-1 
-1 
-1 
-1 
-1 
-1 
-1 
-1 
-1 
-1 
-1 
-1 
-1 
-1 
-1 
-1 
-1 
-1 
-1 
-1 
-1 
-1 
-1 
-1 
-1 
-1 
-1 
-1 
-1 
-1 
-1 
-1 
-1 
-1 
-1 
-1 
-1 
-1 
-1 
-1 
-1 
-1 
-1 
-1 
-1 
-1 
-1 
-1 
-1 
-1 
-1 
-1 
-1 
-1 
-1 
-1 
-1 
-1 
-1 
-1 
-1 
-1 
-1 
-1 
-1 
-1 
-1 
-1 
-1 
-1 
-1 
-1 
-1 
-1 
-1 
-1 
-1 
-1 
-1 
-1 
-1 
-1 
-1 
-1 
-1 
-1 
-1 
-1 
-1 
-1 
-1 
-1 
-1 
-1 
-1 
-1 
-1 
-1 
-1 
-1 
-1 
-1 
-1 
-1 
-1 
-1 
-1 
-1 
-1 
-1 
-1 
-1 
-1 
-1 
-1 
-1 
-1 
-1 
-1 
-1 
-1 
-1 
-1 
-1 
-1 
-1 
-1 
-1 
-1 
-1 
-1 
-1 
-1 
-1 
-1 
-1 
-1 
-1 
-1 
-1 
-1 
-1 
-1 
-1 
-1 
-1 
-1 
-1 
-1 
-1 
-1 
-1 
-1 
-1 
-1 
-1 
-1 
-1 
-1 
-1 
-1 
-1 
-1 
-1 
-1 
-1 
-1 
-1 
-1 
-1 
-1 
-1 
-1 
-1 
-1 
-1 
-1 
-1 
-1 
-1 
-1 
-1 
-1 
-1 
-1 
-1 
-1 
-1 
-1 
-1 
-1 
-1 
-1 
-1 
-1 
-1 
-1 
-1 
-1 
-1 
-1 
-1 
-1 
-1 
-1 
-1 
-1 
-1 
-1 
-1 
-1 
-1 
-1 
-1 
-1 
-1 
-1 
-1 
-1 
-1 
-1 
-1 
-1 
-1 
-1 
-1 
-1 
-1 
-1 
-1 
-1 
-1 
-1 
-1 
-1 
-1 
-1 
-1 
-1 
-1 
-1 
-1 
-1 
-1 
-1 
-1 
-1 
-1 
-1 
-1 
-1 
-1 
-1 
-1 
-1 
-1 
-1 
-1 
-1 
-1 
-1 
-1 
-1 
-1 
-1 
-1 
-1 
-1 
-1 
-1 
-1 
-1 
-1 
-1 
-1 
-1 
-1 
-1 
-1 
-1 
-1 
-1 
-1 
-1 
-1 
-1 
-1 
-1 
-1 
-1 
-1 
-1 
-1 
-1 
-1 
-1 
-1 
-1 
-1 
-1 
-1 
-1 
-1 
-1 
-1 
-1 
-1 
-1 
-1 
-1 
-1 
-1 
-1 
-1 
-1 
-1 
-1 
-1 
-1 
-1 
-1 
-1 
-1 
-1 
-1 
-1 
-1 
-1 
-1 
-1 
-1 
-1 
-1 
-1 
-1 
-1 
-1 
-1 
-1 
-1 
-1 
-1 
-1 
-1 
-1 
-1 
-1 
-1 
-1 
-1 
-1 
-1 
-1 
-1 
-1 
-1 
-1 
-1 
-1 
-1 
-1 
-1 
-1 
-1 
-1 
-1 
-1 
-1 
-1 
-1 
-1 
-1 
-1 
-1 
-1 
-1 
-1 
-1 
-1 
-1 
-1 
-1 
-1 
-1 
-1 
-1 
-1 
-1 
-1 
-1 
-1 
-1 
-1 
-1 
-1 
-1 
-1 
-1 
-1 
-1 
-1 
-1 
-1 
-1 
-1 
-1 
-1 
-1 
-1 
-1 
-1 
-1 
-1 
-1 
-1 
-1 
-1 
-1 
-1 
-1 
-1 
-1 
-1 
-1 
-1 
-1 
-1 
-1 
-1 
-1 
-1 
-1 
-1 
-1 
-1 
-1 
-1 
-1 
-1 
-1 
-1 
-1 
-1 
-1 
-1 
-1 
-1 
-1 
-1 
-1 
-1 
-1 
-1 
-1 
-1 
-1 
-1 
-1 
-1 
-1 
-1 
-1 
-1 
-1 
-1 
-1 
-1 
-1 
-1 
-1 
-1 
-1 
-1 
-1 
-1 
-1 
-1 
-1 
-1 
-1 
-1 
-1 
-1 
-1 
-1 
-1 
-1 
-1 
-1 
-1 
-1 
-1 
-1 
-1 
-1 
-1 
-1 
-1 
-1 
-1 
-1 
-1 
-1 
-1 
-1 
-1 
-1 
-1 
-1 
-1 
-1 
-1 
-1 
-1 
-1 
-1 
-1 
-1 
-1 
-1 
-1 
-1 
-1 
-1 
-1 
-1 
-1 
-1 
-1 
-1 
-1 
-1 
-1 
-1 
-1 
-1 
-1 
-1 
-1 
-1 
-1 
-1 
-1 
-1 
-1 
-1 
-1 
-1 
-1 
-1 
-1 
-1 
-1 
-1 
-1 
-1 
-1 
-1 
-1 
-1 
-1 
-1 
-1 
-1 
-1 
-1 
-1 
-1 
-1 
-1 
-1 
-1 
-1 
-1 
-1 
-1 
-1 
-1 
-1 
-1 
-1 
-1 
-1 
-1 
-1 
-1 
-1 
-1 
-1 
-1 
-1 
-1 
-1 
-1 
-1 
-1 
-1 
-1 
-1 
-1 
-1 
-1 
-1 
-1 
-1 
-1 
-1 
-1 
-1 
-1 
-1 
-1 
-1 
-1 
-1 
-1 
-1 
-1 
-1 
-1 
-1 
-1 
-1 
-1 
-1 
-1 
-1 
-1 
-1 
-1 
-1 
-1 
-1 
-1 
-1 
-1 
-1 
-1 
-1 
-1 
-1 
-1 
-1 
-1 
-1 
-1 
-1 
-1 
-1 
-1 
-1 
-1 
-1 
-1 
-1 
-1 
-1 
-1 
-1 
-1 
-1 
-1 
-1 
-1 
-1 
-1 
-1 
-1 
-1 
-1 
-1 
-1 
-1 
-1 
-1 
-1 
-1 
-1 
-1 
-1 
-1 
-1 
-1 
-1 
-1 
-1 
-1 
-1 
-1 
-1 
-1 
-1 
-1 
-1 
-1 
-1 
-1 
-1 
-1 
-1 
-1 
-1 
-1 
-1 
-1 
-1 
-1 
-1 
-1 
-1 
-1 
-1 
-1 
-1 
-1 
-1 
-1 
-1 
-1 
-1 
-1 
-1 
-1 
-1 
-1 
-1 
-1 
-1 
-1 
-1 
-1 
-1 
-1 
-1 
-1 
-1 
-1 
-1 
-1 
-1 
-1 
-1 
-1 
-1 
-1 
-1 
-1 
-1 
-1 
-1 
-1 
-1 
-1 
-1 
-1 
-1 
-1 
-1 
-1 
-1 
-1 
-1 
-1 
-1 
-1 
-1 
-1 
-1 
-1 
-1 
-1 
-1 
-1 
-1 
-1 
-1 
-1 
-1 
-1 
-1 
-1 
-1 
-1 
-1 
-1 
-1 
-1 
-1 
-1 
-1 
-1 
-1 
-1 
-1 
-1 
-1 
-1 
-1 
-1 
-1 
-1 
-1 
-1 
-1 
-1 
-1 
-1 
-1 
-1 
-1 
-1 
-1 
-1 
-1 
-1 
-1 
-1 
-1 
-1 
-1 
-1 
-1 
-1 
-1 
-1 
-1 
-1 
-1 
-1 
-1 
-1 
-1 
-1 
-1 
-1 
-1 
-1 
-1 
-1 
-1 
-1 
-1 
-1 
-1 
-1 
-1 
-1 
-1 
-1 
-1 
-1 
-1 
-1 
-1 
-1 
-1 
-1 
-1 
-1 
-1 
-1 
-1 
-1 
-1 
-1 
-1 
-1 
-1 
-1 
-1 
-1 
-1 
-1 
-1 
-1 
-1 
-1 
-1 
-1 
-1 
-1 
-1 
-1 
-1 
-1 
-1 
-1 
-1 
-1 
-1 
-1 
-1 
-1 
-1 
-1 
-1 
-1 
-1 
-1 
-1 
-1 
-1 
-1 
-1 
-1 
-1 
-1 
-1 
-1 
-1 
-1 
-1 
-1 
-1 
-1 
-1 
-1 
-1 
-1 
-1 
-1 
-1 
-1 
-1 
-1 
-1 
-1 
-1 
-1 
-1 
-1 
-1 
-1 
-1 
-1 
-1 
-1 
-1 
-1 
-1 
-1 
-1 
-1 
-1 
-1 
-1 
-1 
-1 
-1 
-1 
-1 
-1 
-1 
-1 
-1 
-1 
-1 
-1 
-1 
-1 
-1 
-1 
-1 
-1 
-1 
-1 
-1 
-1 
-1 
-1 
-1 
-1 
-1 
-1 
-1 
-1 
-1 
-1 
-1 
-1 
-1 
-1 
-1 
-1 
-1 
-1 
-1 
-1 
-1 
-1 
-1 
-1 
-1 
-1 
-1 
-1 
-1 
-1 
-1 
-1 
-1 
-1 
-1 
-1 
-1 
-1 
-1 
-1 
-1 
-1 
-1 
-1 
-1 
-1 
-1 
-1 
-1 
-1 
-1 
-1 
-1 
-1 
-1 
-1 
-1 
-1 
-1 
-1 
-1 
-1 
-1 
-1 
-1 
-1 
-1 
-1 
-1 
-1 
-1 
-1 
-1 
-1 
-1 
-1 
-1 
-1 
-1 
-1 
-1 
-1 
-1 
-1 
-1 
-1 
-1 
-1 
-1 
-1 
-1 
-1 
-1 
-1 
-1 
-1 
-1 
-1 
-1 
-1 
-1 
-1 
-1 
-1 
-1 
-1 
-1 
-1 
-1 
-1 
-1 
-1 
-1 
-1 
-1 
-1 
-1 
-1 
-1 
-1 
-1 
-1 
-1 
-1 
-1 
-1 
-1 
-1 
-1 
-1 
-1 
-1 
-1 
-1 
-1 
-1 
-1 
-1 
-1 
-1 
-1 
-1 
-1 
-1 
-1 
-1 
-1 
-1 
-1 
-1 
-1 
-1 
-1 
-1 
-1 
-1 
-1 
-1 
-1 
-1 
-1 
-1 
-1 
-1 
-1 
-1 
-1 
-1 
-1 
-1 
-1 
-1 
-1 
-1 
-1 
-1 
-1 
-1 
-1 
-1 
-1 
-1 
-1 
-1 
-1 
-1 
-1 
-1 
-1 
-1 
-1 
-1 
-1 
-1 
-1 
-1 
-1 
-1 
-1 
-1 
-1 
-1 
-1 
-1 
-1 
-1 
-1 
-1 
-1 
-1 
-1 
-1 
-1 
-1 
-1 
-1 
-1 
-1 
-1 
-1 
-1 
-1 
-1 
-1 
-1 
-1 
-1 
-1 
-1 
-1 
-1 
-1 
-1 
-1 
-1 
-1 
-1 
-1 
-1 
-1 
-1 
-1 
-1 
-1 
-1 
-1 
-1 
-1 
-1 
-1 
-1 
-1 
-1 
-1 
-1 
-1 
-1 
-1 
-1 
-1 
-1 
-1 
-1 
-1 
-1 
-1 
-1 
-1 
-1 
-1 
-1 
-1 
-1 
-1 
-1 
-1 
-1 
-1 
-1 
-1 
-1 
-1 
-1 
-1 
-1 
-1 
-1 
-1 
-1 
-1 
-1 
-1 
-1 
-1 
-1 
-1 
-1 
-1 
-1 
-1 
-1 
-1 
-1 
-1 
-1 
-1 
-1 
-1 
-1 
-1 
-1 
-1 
-1 
-1 
-1 
-1 
-1 
-1 
-1 
-1 
-1 
-1 
-1 
-1 
-1 
-1 
-1 
-1 
-1 
-1 
-1 
-1 
-1 
-1 
-1 
-1 
-1 
-1 
-1 
-1 
-1 
-1 
-1 
-1 
-1 
-1 
-1 
-1 
-1 
-1 
-1 
-1 
-1 
-1 
-1 
-1 
-1 
-1 
-1 
-1 
-1 
-1 
-1 
-1 
-1 
-1 
-1 
-1 
-1 
-1 
-1 
-1 
-1 
-1 
-1 
-1 
-1 
-1 
-1 
-1 
-1 
-1 
-1 
-1 
-1 
-1 
-1 
-1 
-1 
-1 
-1 
-1 
-1 
-1 
-1 
-1 
-1 
-1 
-1 
-1 
-1 
-1 
-1 
-1 
-1 
-1 
-1 
-1 
-1 
-1 
-1 
-1 
-1 
-1 
-1 
-1 
-1 
-1 
-1 
-1 
-1 
-1 
-1 
-1 
-1 
-1 
-1 
-1 
-1 
-1 
-1 
-1 
-1 
-1 
-1 
-1 
-1 
-1 
-1 
-1 
-1 
-1 
-1 
-1 
-1 
-1 
-1 
-1 
-1 
-1 
-1 
-1 
-1 
-1 
-1 
-1 
-1 
-1 
-1 
-1 
-1 
-1 
-1 
-1 
-1 
-1 
-1 
-1 
-1 
-1 
-1 
-1 
-1 
-1 
-1 
-1 
-1 
-1 
-1 
-1 
-1 
-1 
-1 
-1 
-1 
-1 
-1 
-1 
-1 
-1 
-1 
-1 
-1 
-1 
-1 
-1 
-1 
-1 
-1 
-1 
-1 
-1 
-1 
-1 
-1 
-1 
-1 
-1 
-1 
-1 
-1 
-1 
-1 
-1 
-1 
-1 
-1 
-1 
-1 
-1 
-1 
-1 
-1 
-1 
-1 
-1 
-1 
-1 
-1 
-1 
-1 
-1 
-1 
-1 
-1 
-1 
-1 
-1 
-1 
-1 
-1 
-1 
-1 
-1 
-1 
-1 
-1 
-1 
-1 
-1 
-1 
-1 
-1 
-1 
-1 
-1 
-1 
-1 
-1 
-1 
-1 
-1 
-1 
-1 
-1 
-1 
-1 
-1 
-1 
-1 
-1 
-1 
-1 
-1 
-1 
-1 
-1 
-1 
-1 
-1 
-1 
-1 
-1 
-1 
-1 
-1 
-1 
-1 
-1 
-1 
-1 
-1 
-1 
-1 
-1 
-1 
-1 
-1 
-1 
-1 
-1 
-1 
-1 
-1 
-1 
-1 
-1 
-1 
-1 
-1 
-1 
-1 
-1 
-1 
-1 
-1 
-1 
-1 
-1 
-1 
-1 
-1 
-1 
-1 
-1 
-1 
-1 
-1 
-1 
-1 
-1 
-1 
-1 
-1 
-1 
-1 
-1 
-1 
-1 
-1 
-1 
-1 
-1 
-1 
-1 
-1 
-1 
-1 
-1 
-1 
-1 
-1 
-1 
-1 
-1 
-1 
-1 
-1 
-1 
-1 
-1 
-1 
-1 
-1 
-1 
-1 
-1 
-1 
-1 
-1 
-1 
-1 
-1 
-1 
-1 
-1 
-1 
-1 
-1 
-1 
-1 
-1 
-1 
-1 
-1 
-1 
-1 
-1 
-1 
-1 
-1 
-1 
-1 
-1 
-1 
-1 
-1 
-1 
-1 
-1 
-1 
-1 
-1 
-1 
-1 
-1 
-1 
-1 
-1 
-1 
-1 
-1 
-1 
-1 
-1 
-1 
-1 
-1 
-1 
-1 
-1 
-1 
-1 
-1 
-1 
-1 
-1 
-1 
-1 
-1 
-1 
-1 
-1 
-1 
-1 
-1 
-1 
-1 
-1 
-1 
-1 
-1 
-1 
-1 
-1 
-1 
-1 
-1 
-1 
-1 
-1 
-1 
-1 
-1 
-1 
-1 
-1 
-1 
-1 
-1 
-1 
-1 
-1 
-1 
-1 
-1 
-1 
-1 
-1 
-1 
-1 
-1 
-1 
-1 
-1 
-1 
-1 
-1 
-1 
-1 
-1 
-1 
-1 
-1 
-1 
-1 
-1 
-1 
-1 
-1 
-1 
-1 
-1 
-1 
-1 
-1 
-1 
-1 
-1 
-1 
-1 
-1 
-1 
-1 
-1 
-1 
-1 
-1 
-1 
-1 
-1 
-1 
-1 
-1 
-1 
-1 
-1 
-1 
-1 
-1 
-1 
-1 
-1 
-1 
-1 
-1 
-1 
-1 
-1 
-1 
-1 
-1 
-1 
-1 
-1 
-1 
-1 
-1 
-1 
-1 
-1 
-1 
-1 
-1 
-1 
-1 
-1 
-1 
-1 
-1 
-1 
-1 
-1 
-1 
-1 
-1 
-1 
-1 
-1 
-1 
-1 
-1 
-1 
-1 
-1 
-1 
-1 
-1 
-1 
-1 
-1 
-1 
-1 
-1 
-1 
-1 
-1 
-1 
-1 
-1 
-1 
-1 
-1 
-1 
-1 
-1 
-1 
-1 
-1 
-1 
-1 
-1 
-1 
-1 
-1 
-1 
-1 
-1 
-1 
-1 
-1 
-1 
-1 
-1 
-1 
-1 
-1 
-1 
-1 
-1 
-1 
-1 
-1 
-1 
-1 
-1 
-1 
-1 
-1 
-1 
-1 
-1 
-1 
-1 
-1 
-1 
-1 
-1 
-1 
-1 
-1 
-1 
-1 
-1 
-1 
-1 
-1 
-1 
-1 
-1 
-1 
-1 
-1 
-1 
-1 
-1 
-1 
-1 
-1 
-1 
-1 
-1 
-1 
-1 
-1 
-1 
-1 
-1 
-1 
-1 
-1 
-1 
-1 
-1 
-1 
-1 
-1 
-1 
-1 
-1 
-1 
-1 
-1 
-1 
-1 
-1 
-1 
-1 
-1 
-1 
-1 
-1 
-1 
-1 
-1 
-1 
-1 
-1 
-1 
-1 
-1 
-1 
-1 
-1 
-1 
-1 
-1 
-1 
-1 
-1 
-1 
-1 
-1 
-1 
-1 
-1 
-1 
-1 
-1 
-1 
-1 
-1 
-1 
-1 
-1 
-1 
-1 
-1 
-1 
-1 
-1 
-1 
-1 
-1 
-1 
-1 
-1 
-1 
-1 
-1 
-1 
-1 
-1 
-1 
-1 
-1 
-1 
-1 
-1 
-1 
-1 
-1 
-1 
-1 
-1 
-1 
-1 
-1 
-1 
-1 
-1 
-1 
-1 
-1 
-1 
-1 
-1 
-1 
-1 
-1 
-1 
-1 
-1 
-1 
-1 
-1 
-1 
-1 
-1 
-1 
-1 
-1 
-1 
-1 
-1 
-1 
-1 
-1 
-1 
-1 
-1 
-1 
-1 
-1 
-1 
-1 
-1 
-1 
-1 
-1 
-1 
-1 
-1 
-1 
-1 
-1 
-1 
-1 
-1 
-1 
-1 
-1 
-1 
-1 
-1 
-1 
-1 
-1 
-1 
-1 
-1 
-1 
-1 
-1 
-1 
-1 
-1 
-1 
-1 
-1 
-1 
-1 
-1 
-1 
-1 
-1 
-1 
-1 
-1 
-1 
-1 
-1 
-1 
-1 
-1 
-1 
-1 
-1 
-1 
-1 
-1 
-1 
-1 
-1 
-1 
-1 
-1 
-1 
-1 
-1 
-1 
-1 
-1 
-1 
-1 
-1 
-1 
-1 
-1 
-1 
-1 
-1 
-1 
-1 
-1 
-1 
-1 
-1 
-1 
-1 
-1 
-1 
-1 
-1 
-1 
-1 
-1 
-1 
-1 
-1 
-1 
-1 
-1 
-1 
-1 
-1 
-1 
-1 
-1 
-1 
-1 
-1 
-1 
-1 
-1 
-1 
-1 
-1 
-1 
-1 
-1 
-1 
-1 
-1 
-1 
-1 
-1 
-1 
-1 
-1 
-1 
-1 
-1 
-1 
-1 
-1 
-1 
-1 
-1 
-1 
-1 
-1 
-1 
-1 
-1 
-1 
-1 
-1 
-1 
-1 
-1 
-1 
-1 
-1 
-1 
-1 
-1 
-1 
-1 
-1 
-1 
-1 
-1 
-1 
-1 
-1 
-1 
-1 
-1 
-1 
-1 
-1 
-1 
-1 
-1 
-1 
-1 
-1 
-1 
-1 
-1 
-1 
-1 
-1 
-1 
-1 
-1 
-1 
-1 
-1 
-1 
-1 
-1 
-1 
-1 
-1 
-1 
-1 
-1 
-1 
-1 
-1 
-1 
-1 
-1 
-1 
-1 
-1 
-1 
-1 
-1 
-1 
-1 
-1 
-1 
-1 
-1 
-1 
-1 
-1 
-1 
-1 
-1 
-1 
-1 
-1 
-1 
-1 
-1 
-1 
-1 
-1 
-1 
-1 
-1 
-1 
-1 
-1 
-1 
-1 
-1 
-1 
-1 
-1 
-1 
-1 
-1 
-1 
-1 
-1 
-1 
-1 
-1 
-1 
-1 
-1 
-1 
-1 
-1 
-1 
-1 
-1 
-1 
-1 
-1 
-1 
-1 
-1 
-1 
-1 
-1 
-1 
-1 
-1 
-1 
-1 
-1 
-1 
-1 
-1 
-1 
-1 
-1 
-1 
-1 
-1 
-1 
-1 
-1 
-1 
-1 
-1 
-1 
-1 
-1 
-1 
-1 
-1 
-1 
-1 
-1 
-1 
-1 
-1 
-1 
-1 
-1 
-1 
-1 
-1 
-1 
-1 
-1 
-1 
-1 
-1 
-1 
-1 
-1 
-1 
-1 
-1 
-1 
-1 
-1 
-1 
-1 
-1 
-1 
-1 
-1 
-1 
-1 
-1 
-1 
-1 
-1 
-1 
-1 
-1 
-1 
-1 
-1 
-1 
-1 
-1 
-1 
-1 
-1 
-1 
-1 
-1 
-1 
-1 
-1 
-1 
-1 
-1 
-1 
-1 
-1 
-1 
-1 
-1 
-1 
-1 
-1 
-1 
-1 
-1 
-1 
-1 
-1 
-1 
-1 
-1 
-1 
-1 
-1 
-1 
-1 
-1 
-1 
-1 
-1 
-1 
-1 
-1 
-1 
-1 
-1 
-1 
-1 
-1 
-1 
-1 
-1 
-1 
-1 
-1 
-1 
-1 
-1 
-1 
-1 
-1 
-1 
-1 
-1 
-1 
-1 
-1 
-1 
-1 
-1 
-1 
-1 
-1 
-1 
-1 
-1 
-1 
-1 
-1 
-1 
-1 
-1 
-1 
-1 
-1 
-1 
-1 
-1 
-1 
-1 
-1 
-1 
-1 
-1 
-1 
-1 
-1 
-1 
-1 
-1 
-1 
-1 
-1 
-1 
-1 
-1 
-1 
-1 
-1 
-1 
-1 
-1 
-1 
-1 
-1 
-1 
-1 
-1 
-1 
-1 
-1 
-1 
-1 
-1 
-1 
-1 
-1 
-1 
-1 
-1 
-1 
-1 
-1 
-1 
-1 
-1 
-1 
-1 
-1 
-1 
-1 
-1 
-1 
-1 
-1 
-1 
-1 
-1 
-1 
-1 
-1 
-1 
-1 
-1 
-1 
-1 
-1 
-1 
-1 
-1 
-1 
-1 
-1 
-1 
-1 
-1 
-1 
-1 
-1 
-1 
-1 
-1 
-1 
-1 
-1 
-1 
-1 
-1 
-1 
-1 
-1 
-1 
-1 
-1 
-1 
-1 
-1 
-1 
-1 
-1 
-1 
-1 
-1 
-1 
-1 
-1 
-1 
-1 
-1 
-1 
-1 
-1 
-1 
-1 
-1 
-1 
-1 
-1 
-1 
-1 
-1 
-1 
-1 
-1 
-1 
-1 
-1 
-1 
-1 
-1 
-1 
-1 
-1 
-1 
-1 
-1 
-1 
-1 
-1 
-1 
-1 
-1 
-1 
-1 
-1 
-1 
-1 
-1 
-1 
-1 
-1 
-1 
-1 
-1 
-1 
-1 
-1 
-1 
-1 
-1 
-1 
-1 
-1 
-1 
-1 
-1 
-1 
-1 
-1 
-1 
-1 
-1 
-1 
-1 
-1 
-1 
-1 
-1 
-1 
-1 
-1 
-1 
-1 
-1 
-1 
-1 
-1 
-1 
-1 
-1 
-1 
-1 
-1 
-1 
-1 
-1 
-1 
-1 
-1 
-1 
-1 
-1 
-1 
-1 
-1 
-1 
-1 
-1 
-1 
-1 
-1 
-1 
-1 
-1 
-1 
-1 
-1 
-1 
-1 
-1 
-1 
-1 
-1 
-1 
-1 
-1 
-1 
-1 
-1 
-1 
-1 
-1 
-1 
-1 
-1 
-1 
-1 
-1 
-1 
-1 
-1 
-1 
-1 
-1 
-1 
-1 
-1 
-1 
-1 
-1 
-1 
-1 
-1 
-1 
-1 
-1 
-1 
-1 
-1 
-1 
-1 
-1 
-1 
-1 
-1 
-1 
-1 
-1 
-1 
-1 
-1 
-1 
-1 
-1 
-1 
-1 
-1 
-1 
-1 
-1 
-1 
-1 
-1 
-1 
-1 
-1 
-1 
-1 
-1 
-1 
-1 
-1 
-1 
-1 
-1 
-1 
-1 
-1 
-1 
-1 
-1 
-1 
-1 
-1 
-1 
-1 
-1 
-1 
-1 
-1 
-1 
-1 
-1 
-1 
-1 
-1 
-1 
-1 
-1 
-1 
-1 
-1 
-1 
-1 
-1 
-1 
-1 
-1 
-1 
-1 
-1 
-1 
-1 
-1 
-1 
-1 
-1 
-1 
-1 
-1 
-1 
-1 
-1 
-1 
-1 
-1 
-1 
-1 
-1 
-1 
-1 
-1 
-1 
-1 
-1 
-1 
-1 
-1 
-1 
-1 
-1 
-1 
-1 
-1 
-1 
-1 
-1 
-1 
-1 
-1 
-1 
-1 
-1 
-1 
-1 
-1 
-1 
-1 
-1 
-1 
-1 
-1 
-1 
-1 
-1 
-1 
-1 
-1 
-1 
-1 
-1 
-1 
-1 
-1 
-1 
-1 
-1 
-1 
-1 
-1 
-1 
-1 
-1 
-1 
-1 
-1 
-1 
-1 
-1 
-1 
-1 
-1 
-1 
-1 
-1 
-1 
-1 
-1 
-1 
-1 
-1 
-1 
-1 
-1 
-1 
-1 
-1 
-1 
-1 
-1 
-1 
-1 
-1 
-1 
-1 
-1 
-1 
-1 
-1 
-1 
-1 
-1 
-1 
-1 
-1 
-1 
-1 
-1 
-1 
-1 
-1 
-1 
-1 
-1 
-1 
-1 
-1 
-1 
-1 
-1 
-1 
-1 
-1 
-1 
-1 
-1 
-1 
-1 
-1 
-1 
-1 
-1 
-1 
-1 
-1 
-1 
-1 
-1 
-1 
-1 
-1 
-1 
-1 
-1 
-1 
-1 
-1 
-1 
-1 
-1 
-1 
-1 
-1 
-1 
-1 
-1 
-1 
-1 
-1 
-1 
-1 
-1 
-1 
-1 
-1 
-1 
-1 
-1 
-1 
-1 
-1 
-1 
-1 
-1 
-1 
-1 
-1 
-1 
-1 
-1 
-1 
-1 
-1 
-1 
-1 
-1 
-1 
-1 
-1 
-1 
-1 
-1 
-1 
-1 
-1 
-1 
-1 
-1 
-1 
-1 
-1 
-1 
-1 
-1 
-1 
-1 
-1 
-1 
-1 
-1 
-1 
-1 
-1 
-1 
-1 
-1 
-1 
-1 
-1 
-1 
-1 
-1 
-1 
-1 
-1 
-1 
-1 
-1 
-1 
-1 
-1 
-1 
-1 
-1 
-1 
-1 
-1 
-1 
-1 
-1 
-1 
-1 
-1 
-1 
-1 
-1 
-1 
-1 
-1 
-1 
-1 
-1 
-1 
-1 
-1 
-1 
-1 
-1 
-1 
-1 
-1 
-1 
-1 
-1 
-1 
-1 
-1 
-1 
-1 
-1 
-1 
-1 
-1 
-1 
-1 
-1 
-1 
-1 
-1 
-1 
-1 
-1 
-1 
-1 
-1 
-1 
-1 
-1 
-1 
-1 
-1 
-1 
-1 
-1 
-1 
-1 
-1 
-1 
-1 
-1 
-1 
-1 
-1 
-1 
-1 
-1 
-1 
-1 
-1 
-1 
-1 
-1 
-1 
-1 
-1 
-1 
-1 
-1 
-1 
-1 
-1 
-1 
-1 
-1 
-1 
-1 
-1 
-1 
-1 
-1 
-1 
-1 
-1 
-1 
-1 
-1 
-1 
-1 
-1 
-1 
-1 
-1 
-1 
-1 
-1 
-1 
-1 
-1 
-1 
-1 
-1 
-1 
-1 
-1 
-1 
-1 
-1 
-1 
-1 
-1 
-1 
-1 
-1 
-1 
-1 
-1 
-1 
-1 
-1 
-1 
-1 
-1 
-1 
-1 
-1 
-1 
-1 
-1 
-1 
-1 
-1 
-1 
-1 
-1 
-1 
-1 
-1 
-1 
-1 
-1 
-1 
-1 
-1 
-1 
-1 
-1 
-1 
-1 
-1 
-1 
-1 
-1 
-1 
-1 
-1 
-1 
-1 
-1 
-1 
-1 
-1 
-1 
-1 
-1 
-1 
-1 
-1 
-1 
-1 
-1 
-1 
-1 
-1 
-1 
-1 
-1 
-1 
-1 
-1 
-1 
-1 
-1 
-1 
-1 
-1 
-1 
-1 
-1 
-1 
-1 
-1 
-1 
-1 
-1 
-1 
-1 
-1 
-1 
-1 
-1 
-1 
-1 
-1 
-1 
-1 
-1 
-1 
-1 
-1 
-1 
-1 
-1 
-1 
-1 
-1 
-1 
-1 
-1 
-1 
-1 
-1 
-1 
-1 
-1 
-1 
-1 
-1 
-1 
-1 
-1 
-1 
-1 
-1 
-1 
-1 
-1 
-1 
-1 
-1 
-1 
-1 
-1 
-1 
-1 
-1 
-1 
-1 
-1 
-1 
-1 
-1 
-1 
-1 
-1 
-1 
-1 
-1 
-1 
-1 
-1 
-1 
-1 
-1 
-1 
-1 
-1 
-1 
-1 
-1 
-1 
-1 
-1 
-1 
-1 
-1 
-1 
-1 
-1 
-1 
-1 
-1 
-1 
-1 
-1 
-1 
-1 
-1 
-1 
-1 
-1 
-1 
-1 
-1 
-1 
-1 
-1 
-1 
-1 
-1 
-1 
-1 
-1 
-1 
-1 
-1 
-1 
-1 
-1 
-1 
-1 
-1 
-1 
-1 
-1 
-1 
-1 
-1 
-1 
-1 
-1 
-1 
-1 
-1 
-1 
-1 
-1 
-1 
-1 
-1 
-1 
-1 
-1 
-1 
-1 
-1 
-1 
-1 
-1 
-1 
-1 
-1 
-1 
-1 
-1 
-1 
-1 
-1 
-1 
-1 
-1 
-1 
-1 
-1 
-1 
-1 
-1 
-1 
-1 
-1 
-1 
-1 
-1 
-1 
-1 
-1 
-1 
-1 
-1 
-1 
-1 
-1 
-1 
-1 
-1 
-1 
-1 
-1 
-1 
-1 
-1 
-1 
-1 
-1 
-1 
-1 
-1 
-1 
-1 
-1 
-1 
-1 
-1 
-1 
-1 
-1 
-1 
-1 
-1 
-1 
-1 
-1 
-1 
-1 
-1 
-1 
-1 
-1 
-1 
-1 
-1 
-1 
-1 
-1 
-1 
-1 
-1 
-1 
-1 
-1 
-1 
-1 
-1 
-1 
-1 
-1 
-1 
-1 
-1 
-1 
-1 
-1 
-1 
-1 
-1 
-1 
-1 
-1 
-1 
-1 
-1 
-1 
-1 
-1 
-1 
-1 
-1 
-1 
-1 
-1 
-1 
-1 
-1 
-1 
-1 
-1 
-1 
-1 
-1 
-1 
-1 
-1 
-1 
-1 
-1 
-1 
-1 
-1 
-1 
-1 
-1 
-1 
-1 
-1 
-1 
-1 
-1 
-1 
-1 
-1 
-1 
-1 
-1 
-1 
-1 
-1 
-1 
-1 
-1 
-1 
-1 
-1 
-1 
-1 
-1 
-1 
-1 
-1 
-1 
-1 
-1 
-1 
-1 
-1 
-1 
-1 
-1 
-1 
-1 
-1 
-1 
-1 
-1 
-1 
-1 
-1 
-1 
-1 
-1 
-1 
-1 
-1 
-1 
-1 
-1 
-1 
-1 
-1 
-1 
-1 
-1 
-1 
-1 
-1 
-1 
-1 
-1 
-1 
-1 
-1 
-1 
-1 
-1 
-1 
-1 
-1 
-1 
-1 
-1 
-1 
-1 
-1 
-1 
-1 
-1 
-1 
-1 
-1 
-1 
-1 
-1 
-1 
-1 
-1 
-1 
-1 
-1 
-1 
-1 
-1 
-1 
-1 
-1 
-1 
-1 
-1 
-1 
-1 
-1 
-1 
-1 
-1 
-1 
-1 
-1 
-1 
-1 
-1 
-1 
-1 
-1 
-1 
-1 
-1 
-1 
-1 
-1 
-1 
-1 
-1 
-1 
-1 
-1 
-1 
-1 
-1 
-1 
-1 
-1 
-1 
-1 
-1 
-1 
-1 
-1 
-1 
-1 
-1 
-1 
-1 
-1 
-1 
-1 
-1 
-1 
-1 
-1 
-1 
-1 
-1 
-1 
-1 
-1 
-1 
-1 
-1 
-1 
-1 
-1 
-1 
-1 
-1 
-1 
-1 
-1 
-1 
-1 
-1 
-1 
-1 
-1 
-1 
-1 
-1 
-1 
-1 
-1 
-1 
-1 
-1 
-1 
-1 
-1 
-1 
-1 
-1 
-1 
-1 
-1 
-1 
-1 
-1 
-1 
-1 
-1 
-1 
-1 
-1 
-1 
-1 
-1 
-1 
-1 
-1 
-1 
-1 
-1 
-1 
-1 
-1 
-1 
-1 
-1 
-1 
-1 
-1 
-1 
-1 
-1 
-1 
-1 
-1 
-1 
-1 
-1 
-1 
-1 
-1 
-1 
-1 
-1 
-1 
-1 
-1 
-1 
-1 
-1 
-1 
-1 
-1 
-1 
-1 
-1 
-1 
-1 
-1 
-1 
-1 
-1 
-1 
-1 
-1 
-1 
-1 
-1 
-1 
-1 
-1 
-1 
-1 
-1 
-1 
-1 
-1 
-1 
-1 
-1 
-1 
-1 
-1 
-1 
-1 
-1 
-1 
-1 
-1 
-1 
-1 
-1 
-1 
-1 
-1 
-1 
-1 
-1 
-1 
-1 
-1 
-1 
-1 
-1 
-1 
-1 
-1 
-1 
-1 
-1 
-1 
-1 
-1 
-1 
-1 
-1 
-1 
-1 
-1 
-1 
-1 
-1 
-1 
-1 
-1 
-1 
-1 
-1 
-1 
-1 
-1 
-1 
-1 
-1 
-1 
-1 
-1 
-1 
-1 
-1 
-1 
-1 
-1 
-1 
-1 
-1 
-1 
-1 
-1 
-1 
-1 
-1 
-1 
-1 
-1 
-1 
-1 
-1 
-1 
-1 
-1 
-1 
-1 
-1 
-1 
-1 
-1 
-1 
-1 
-1 
-1 
-1 
-1 
-1 
-1 
-1 
-1 
-1 
-1 
-1 
-1 
-1 
-1 
-1 
-1 
-1 
-1 
-1 
-1 
-1 
-1 
-1 
-1 
-1 
-1 
-1 
-1 
-1 
-1 
-1 
-1 
-1 
-1 
-1 
-1 
-1 
-1 
-1 
-1 
-1 
-1 
-1 
-1 
-1 
-1 
-1 
-1 
-1 
-1 
-1 
-1 
-1 
-1 
-1 
-1 
-1 
-1 
-1 
-1 
-1 
-1 
-1 
-1 
-1 
-1 
-1 
-1 
-1 
-1 
-1 
-1 
-1 
-1 
-1 
-1 
-1 
-1 
-1 
-1 
-1 
-1 
-1 
-1 
-1 
-1 
-1 
-1 
-1 
-1 
-1 
-1 
-1 
-1 
-1 
-1 
-1 
-1 
-1 
-1 
-1 
-1 
-1 
-1 
-1 
-1 
-1 
-1 
-1 
-1 
-1 
-1 
-1 
-1 
-1 
-1 
-1 
-1 
-1 
-1 
-1 
-1 
-1 
-1 
-1 
-1 
-1 
-1 
-1 
-1 
-1 
-1 
-1 
-1 
-1 
-1 
-1 
-1 
-1 
-1 
-1 
-1 
-1 
-1 
-1 
-1 
-1 
-1 
-1 
-1 
-1 
-1 
-1 
-1 
-1 
-1 
-1 
-1 
-1 
-1 
-1 
-1 
-1 
-1 
-1 
-1 
-1 
-1 
-1 
-1 
-1 
-1 
-1 
-1 
-1 
-1 
-1 
-1 
-1 
-1 
-1 
-1 
-1 
-1 
-1 
-1 
-1 
-1 
-1 
-1 
-1 
-1 
-1 
-1 
-1 
-1 
-1 
-1 
-1 
-1 
-1 
-1 
-1 
-1 
-1 
-1 
-1 
-1 
-1 
-1 
-1 
-1 
-1 
-1 
-1 
-1 
-1 
-1 
-1 
-1 
-1 
-1 
-1 
-1 
-1 
-1 
-1 
-1 
-1 
-1 
-1 
-1 
-1 
-1 
-1 
-1 
-1 
-1 
-1 
-1 
-1 
-1 
-1 
-1 
-1 
-1 
-1 
-1 
-1 
-1 
-1 
-1 
-1 
-1 
-1 
-1 
-1 
-1 
-1 
-1 
-1 
-1 
-1 
-1 
-1 
-1 
-1 
-1 
-1 
-1 
-1 
-1 
-1 
-1 
-1 
-1 
-1 
-1 
-1 
-1 
-1 
-1 
-1 
-1 
-1 
-1 
-1 
-1 
-1 
-1 
-1 
-1 
-1 
-1 
-1 
-1 
-1 
-1 
-1 
-1 
-1 
-1 
-1 
-1 
-1 
-1 
-1 
-1 
-1 
-1 
-1 
-1 
-1 
-1 
-1 
-1 
-1 
-1 
-1 
-1 
-1 
-1 
-1 
-1 
-1 
-1 
-1 
-1 
-1 
-1 
-1 
-1 
-1 
-1 
-1 
-1 
-1 
-1 
-1 
-1 
-1 
-1 
-1 
-1 
-1 
-1 
-1 
-1 
-1 
-1 
-1 
-1 
-1 
-1 
-1 
-1 
-1 
-1 
-1 
-1 
-1 
-1 
-1 
-1 
-1 
-1 
-1 
-1 
-1 
-1 
-1 
-1 
-1 
-1 
-1 
-1 
-1 
-1 
-1 
-1 
-1 
-1 
-1 
-1 
-1 
-1 
-1 
-1 
-1 
-1 
-1 
-1 
-1 
-1 
-1 
-1 
-1 
-1 
-1 
-1 
-1 
-1 
-1 
-1 
-1 
-1 
-1 
-1 
-1 
-1 
-1 
-1 
-1 
-1 
-1 
-1 
-1 
-1 
-1 
-1 
-1 
-1 
-1 
-1 
-1 
-1 
-1 
-1 
-1 
-1 
-1 
-1 
-1 
-1 
-1 
-1 
-1 
-1 
-1 
-1 
-1 
-1 
-1 
-1 
-1 
-1 
-1 
-1 
-1 
-1 
-1 
-1 
-1 
-1 
-1 
-1 
-1 
-1 
-1 
-1 
-1 
-1 
-1 
-1 
-1 
-1 
-1 
-1 
-1 
-1 
-1 
-1 
-1 
-1 
-1 
-1 
-1 
-1 
-1 
-1 
-1 
-1 
-1 
-1 
-1 
-1 
-1 
-1 
-1 
-1 
-1 
-1 
-1 
-1 
-1 
-1 
-1 
-1 
-1 
-1 
-1 
-1 
-1 
-1 
-1 
-1 
-1 
-1 
-1 
-1 
-1 
-1 
-1 
-1 
-1 
-1 
-1 
-1 
-1 
-1 
-1 
-1 
-1 
-1 
-1 
-1 
-1 
-1 
-1 
-1 
-1 
-1 
-1 
-1 
-1 
-1 
-1 
-1 
-1 
-1 
-1 
-1 
-1 
-1 
-1 
-1 
-1 
-1 
-1 
-1 
-1 
-1 
-1 
-1 
-1 
-1 
-1 
-1 
-1 
-1 
-1 
-1 
-1 
-1 
-1 
-1 
-1 
-1 
-1 
-1 
-1 
-1 
-1 
-1 
-1 
-1 
-1 
-1 
-1 
-1 
-1 
-1 
-1 
-1 
-1 
-1 
-1 
-1 
-1 
-1 
-1 
-1 
-1 
-1 
-1 
-1 
-1 
-1 
-1 
-1 
-1 
-1 
-1 
-1 
-1 
-1 
-1 
-1 
-1 
-1 
-1 
-1 
-1 
-1 
-1 
-1 
-1 
-1 
-1 
-1 
-1 
-1 
-1 
-1 
-1 
-1 
-1 
-1 
-1 
-1 
-1 
-1 
-1 
-1 
-1 
-1 
-1 
-1 
-1 
-1 
-1 
-1 
-1 
-1 
-1 
-1 
-1 
-1 
-1 
-1 
-1 
-1 
-1 
-1 
-1 
-1 
-1 
-1 
-1 
-1 
-1 
-1 
-1 
-1 
-1 
-1 
-1 
-1 
-1 
-1 
-1 
-1 
-1 
-1 
-1 
-1 
-1 
-1 
-1 
-1 
-1 
-1 
-1 
-1 
-1 
-1 
-1 
-1 
-1 
-1 
-1 
-1 
-1 
-1 
-1 
-1 
-1 
-1 
-1 
-1 
-1 
-1 
-1 
-1 
-1 
-1 
-1 
-1 
-1 
-1 
-1 
-1 
-1 
-1 
-1 
-1 
-1 
-1 
-1 
-1 
-1 
-1 
-1 
-1 
-1 
-1 
-1 
-1 
-1 
-1 
-1 
-1 
-1 
-1 
-1 
-1 
-1 
-1 
-1 
-1 
-1 
-1 
-1 
-1 
-1 
-1 
-1 
-1 
-1 
-1 
-1 
-1 
-1 
-1 
-1 
-1 
-1 
-1 
-1 
-1 
-1 
-1 
-1 
-1 
-1 
-1 
-1 
-1 
-1 
-1 
-1 
-1 
-1 
-1 
-1 
-1 
-1 
-1 
-1 
-1 
-1 
-1 
-1 
-1 
-1 
-1 
-1 
-1 
-1 
-1 
-1 
-1 
-1 
-1 
-1 
-1 
-1 
-1 
-1 
-1 
-1 
-1 
-1 
-1 
-1 
-1 
-1 
-1 
-1 
-1 
-1 
-1 
-1 
-1 
-1 
-1 
-1 
-1 
-1 
-1 
-1 
-1 
-1 
-1 
-1 
-1 
-1 
-1 
-1 
-1 
-1 
-1 
-1 
-1 
-1 
-1 
-1 
-1 
-1 
-1 
-1 
-1 
-1 
-1 
-1 
-1 
-1 
-1 
-1 
-1 
-1 
-1 
-1 
-1 
-1 
-1 
-1 
-1 
-1 
-1 
-1 
-1 
-1 
-1 
-1 
-1 
-1 
-1 
-1 
-1 
-1 
-1 
-1 
-1 
-1 
-1 
-1 
-1 
-1 
-1 
-1 
-1 
-1 
-1 
-1 
-1 
-1 
-1 
-1 
-1 
-1 
-1 
-1 
-1 
-1 
-1 
-1 
-1 
-1 
-1 
-1 
-1 
-1 
-1 
-1 
-1 
-1 
-1 
-1 
-1 
-1 
-1 
-1 
-1 
-1 
-1 
-1 
-1 
-1 
-1 
-1 
-1 
-1 
-1 
-1 
-1 
-1 
-1 
-1 
-1 
-1 
-1 
-1 
-1 
-1 
-1 
-1 
-1 
-1 
-1 
-1 
-1 
-1 
-1 
-1 
-1 
-1 
-1 
-1 
-1 
-1 
-1 
-1 
-1 
-1 
-1 
-1 
-1 
-1 
-1 
-1 
-1 
-1 
-1 
-1 
-1 
-1 
-1 
-1 
-1 
-1 
-1 
-1 
-1 
-1 
-1 
-1 
-1 
-1 
-1 
-1 
-1 
-1 
-1 
-1 
-1 
-1 
-1 
-1 
-1 
-1 
-1 
-1 
-1 
-1 
-1 
-1 
-1 
-1 
-1 
-1 
-1 
-1 
-1 
-1 
-1 
-1 
-1 
-1 
-1 
-1 
-1 
-1 
-1 
-1 
-1 
-1 
-1 
-1 
-1 
-1 
-1 
-1 
-1 
-1 
-1 
-1 
-1 
-1 
-1 
-1 
-1 
-1 
-1 
-1 
-1 
-1 
-1 
-1 
-1 
-1 
-1 
-1 
-1 
-1 
-1 
-1 
-1 
-1 
-1 
-1 
-1 
-1 
-1 
-1 
-1 
-1 
-1 
-1 
-1 
-1 
-1 
-1 
-1 
-1 
-1 
-1 
-1 
-1 
-1 
-1 
-1 
-1 
-1 
-1 
-1 
-1 
-1 
-1 
-1 
-1 
-1 
-1 
-1 
-1 
-1 
-1 
-1 
-1 
-1 
-1 
-1 
-1 
-1 
-1 
-1 
-1 
-1 
-1 
-1 
-1 
-1 
-1 
-1 
-1 
-1 
-1 
-1 
-1 
-1 
-1 
-1 
-1 
-1 
-1 
-1 
-1 
-1 
-1 
-1 
-1 
-1 
-1 
-1 
-1 
-1 
-1 
-1 
-1 
-1 
-1 
-1 
-1 
-1 
-1 
-1 
-1 
-1 
-1 
-1 
-1 
-1 
-1 
-1 
-1 
-1 
-1 
-1 
-1 
-1 
-1 
-1 
-1 
-1 
-1 
-1 
-1 
-1 
-1 
-1 
-1 
-1 
-1 
-1 
-1 
-1 
-1 
-1 
-1 
-1 
-1 
-1 
-1 
-1 
-1 
-1 
-1 
-1 
-1 
-1 
-1 
-1 
-1 
-1 
-1 
-1 
-1 
-1 
-1 
-1 
-1 
-1 
-1 
-1 
-1 
-1 
-1 
-1 
-1 
-1 
-1 
-1 
-1 
-1 
-1 
-1 
-1 
-1 
-1 
-1 
-1 
-1 
-1 
-1 
-1 
-1 
-1 
-1 
-1 
-1 
-1 
-1 
-1 
-1 
-1 
-1 
-1 
-1 
-1 
-1 
-1 
-1 
-1 
-1 
-1 
-1 
-1 
-1 
-1 
-1 
-1 
-1 
-1 
-1 
-1 
-1 
-1 
-1 
-1 
-1 
-1 
-1 
-1 
-1 
-1 
-1 
-1 
-1 
-1 
-1 
-1 
-1 
-1 
-1 
-1 
-1 
-1 
-1 
-1 
-1 
-1 
-1 
-1 
-1 
-1 
-1 
-1 
-1 
-1 
-1 
-1 
-1 
-1 
-1 
-1 
-1 
-1 
-1 
-1 
-1 
-1 
-1 
-1 
-1 
-1 
-1 
-1 
-1 
-1 
-1 
-1 
-1 
-1 
-1 
-1 
-1 
-1 
-1 
-1 
-1 
-1 
-1 
-1 
-1 
-1 
-1 
-1 
-1 
-1 
-1 
-1 
-1 
-1 
-1 
-1 
-1 
-1 
-1 
-1 
-1 
-1 
-1 
-1 
-1 
-1 
-1 
-1 
-1 
-1 
-1 
-1 
-1 
-1 
-1 
-1 
-1 
-1 
-1 
-1 
-1 
-1 
-1 
-1 
-1 
-1 
-1 
-1 
-1 
-1 
-1 
-1 
-1 
-1 
-1 
-1 
-1 
-1 
-1 
-1 
-1 
-1 
-1 
-1 
-1 
-1 
-1 
-1 
-1 
-1 
-1 
-1 
-1 
-1 
-1 
-1 
-1 
-1 
-1 
-1 
-1 
-1 
-1 
-1 
-1 
-1 
-1 
-1 
-1 
-1 
-1 
-1 
-1 
-1 
-1 
-1 
-1 
-1 
-1 
-1 
-1 
-1 
-1 
-1 
-1 
-1 
-1 
-1 
-1 
-1 
-1 
-1 
-1 
-1 
-1 
-1 
-1 
-1 
-1 
-1 
-1 
-1 
-1 
-1 
-1 
-1 
-1 
-1 
-1 
-1 
-1 
-1 
-1 
-1 
-1 
-1 
-1 
-1 
-1 
-1 
-1 
-1 
-1 
-1 
-1 
-1 
-1 
-1 
-1 
-1 
-1 
-1 
-1 
-1 
-1 
-1 
-1 
-1 
-1 
-1 
-1 
-1 
-1 
-1 
-1 
-1 
-1 
-1 
-1 
-1 
-1 
-1 
-1 
-1 
-1 
-1 
-1 
-1 
-1 
-1 
-1 
-1 
-1 
-1 
-1 
-1 
-1 
-1 
-1 
-1 
-1 
-1 
-1 
-1 
-1 
-1 
-1 
-1 
-1 
-1 
-1 
-1 
-1 
-1 
-1 
-1 
-1 
-1 
-1 
-1 
-1 
-1 
-1 
-1 
-1 
-1 
-1 
-1 
-1 
-1 
-1 
-1 
-1 
-1 
-1 
-1 
-1 
-1 
-1 
-1 
-1 
-1 
-1 
-1 
-1 
-1 
-1 
-1 
-1 
-1 
-1 
-1 
-1 
-1 
-1 
-1 
-1 
-1 
-1 
-1 
-1 
-1 
-1 
-1 
-1 
-1 
-1 
-1 
-1 
-1 
-1 
-1 
-1 
-1 
-1 
-1 
-1 
-1 
-1 
-1 
-1 
-1 
-1 
-1 
-1 
-1 
-1 
-1 
-1 
-1 
-1 
-1 
-1 
-1 
-1 
-1 
-1 
-1 
-1 
-1 
-1 
-1 
-1 
-1 
-1 
-1 
-1 
-1 
-1 
-1 
-1 
-1 
-1 
-1 
-1 
-1 
-1 
-1 
-1 
-1 
-1 
-1 
-1 
-1 
-1 
-1 
-1 
-1 
-1 
-1 
-1 
-1 
-1 
-1 
-1 
-1 
-1 
-1 
-1 
-1 
-1 
-1 
-1 
-1 
-1 
-1 
-1 
-1 
-1 
-1 
-1 
-1 
-1 
-1 
-1 
-1 
-1 
-1 
-1 
-1 
-1 
-1 
-1 
-1 
-1 
-1 
-1 
-1 
-1 
-1 
-1 
-1 
-1 
-1 
-1 
-1 
-1 
-1 
-1 
-1 
-1 
-1 
-1 
-1 
-1 
-1 
-1 
-1 
-1 
-1 
-1 
-1 
-1 
-1 
-1 
-1 
-1 
-1 
-1 
-1 
-1 
-1 
-1 
-1 
-1 
-1 
-1 
-1 
-1 
-1 
-1 
-1 
-1 
-1 
-1 
-1 
-1 
-1 
-1 
-1 
-1 
-1 
-1 
-1 
-1 
-1 
-1 
-1 
-1 
-1 
-1 
-1 
-1 
-1 
-1 
-1 
-1 
-1 
-1 
-1 
-1 
-1 
-1 
-1 
-1 
-1 
-1 
-1 
-1 
-1 
-1 
-1 
-1 
-1 
-1 
-1 
-1 
-1 
-1 
-1 
-1 
-1 
-1 
-1 
-1 
-1 
-1 
-1 
-1 
-1 
-1 
-1 
-1 
-1 
-1 
-1 
-1 
-1 
-1 
-1 
-1 
-1 
-1 
-1 
-1 
-1 
-1 
-1 
-1 
-1 
-1 
-1 
-1 
-1 
-1 
-1 
-1 
-1 
-1 
-1 
-1 
-1 
-1 
-1 
-1 
-1 
-1 
-1 
-1 
-1 
-1 
-1 
-1 
-1 
-1 
-1 
-1 
-1 
-1 
-1 
-1 
-1 
-1 
-1 
-1 
-1 
-1 
-1 
-1 
-1 
-1 
-1 
-1 
-1 
-1 
-1 
-1 
-1 
-1 
-1 
-1 
-1 
-1 
-1 
-1 
-1 
-1 
-1 
-1 
-1 
-1 
-1 
-1 
-1 
-1 
-1 
-1 
-1 
-1 
-1 
-1 
-1 
-1 
-1 
-1 
-1 
-1 
-1 
-1 
-1 
-1 
-1 
-1 
-1 
-1 
-1 
-1 
-1 
-1 
-1 
-1 
-1 
-1 
-1 
-1 
-1 
-1 
-1 
-1 
-1 
-1 
-1 
-1 
-1 
-1 
-1 
-1 
-1 
-1 
-1 
-1 
-1 
-1 
-1 
-1 
-1 
-1 
-1 
-1 
-1 
-1 
-1 
-1 
-1 
-1 
-1 
-1 
-1 
-1 
-1 
-1 
-1 
-1 
-1 
-1 
-1 
-1 
-1 
-1 
-1 
-1 
-1 
-1 
-1 
-1 
-1 
-1 
-1 
-1 
-1 
-1 
-1 
-1 
-1 
-1 
-1 
-1 
-1 
-1 
-1 
-1 
-1 
-1 
-1 
-1 
-1 
-1 
-1 
-1 
-1 
-1 
-1 
-1 
-1 
-1 
-1 
-1 
-1 
-1 
-1 
-1 
-1 
-1 
-1 
-1 
-1 
-1 
-1 
-1 
-1 
-1 
-1 
-1 
-1 
-1 
-1 
-1 
-1 
-1 
-1 
-1 
-1 
-1 
-1 
-1 
-1 
-1 
-1 
-1 
-1 
-1 
-1 
-1 
-1 
-1 
-1 
-1 
-1 
-1 
-1 
-1 
-1 
-1 
-1 
-1 
-1 
-1 
-1 
-1 
-1 
-1 
-1 
-1 
-1 
-1 
-1 
-1 
-1 
-1 
-1 
-1 
-1 
-1 
-1 
-1 
-1 
-1 
-1 
-1 
-1 
-1 
-1 
-1 
-1 
-1 
-1 
-1 
-1 
-1 
-1 
-1 
-1 
-1 
-1 
-1 
-1 
-1 
-1 
-1 
-1 
-1 
-1 
-1 
-1 
-1 
-1 
-1 
-1 
-1 
-1 
-1 
-1 
-1 
-1 
-1 
-1 
-1 
-1 
-1 
-1 
-1 
-1 
-1 
-1 
-1 
-1 
-1 
-1 
-1 
-1 
-1 
-1 
-1 
-1 
-1 
-1 
-1 
-1 
-1 
-1 
-1 
-1 
-1 
-1 
-1 
-1 
-1 
-1 
-1 
-1 
-1 
-1 
-1 
-1 
-1 
-1 
-1 
-1 
-1 
-1 
-1 
-1 
-1 
-1 
-1 
-1 
-1 
-1 
-1 
-1 
-1 
-1 
-1 
-1 
-1 
-1 
-1 
-1 
-1 
-1 
-1 
-1 
-1 
-1 
-1 
-1 
-1 
-1 
-1 
-1 
-1 
-1 
-1 
-1 
-1 
-1 
-1 
-1 
-1 
-1 
-1 
-1 
-1 
-1 
-1 
-1 
-1 
-1 
-1 
-1 
-1 
-1 
-1 
-1 
-1 
-1 
-1 
-1 
-1 
-1 
-1 
-1 
-1 
-1 
-1 
-1 
-1 
-1 
-1 
-1 
-1 
-1 
-1 
-1 
-1 
-1 
-1 
-1 
-1 
-1 
-1 
-1 
-1 
-1 
-1 
-1 
-1 
-1 
-1 
-1 
-1 
-1 
-1 
-1 
-1 
-1 
-1 
-1 
-1 
-1 
-1 
-1 
-1 
-1 
-1 
-1 
-1 
-1 
-1 
-1 
-1 
-1 
-1 
-1 
-1 
-1 
-1 
-1 
-1 
-1 
-1 
-1 
-1 
-1 
-1 
-1 
-1 
-1 
-1 
-1 
-1 
-1 
-1 
-1 
-1 
-1 
-1 
-1 
-1 
-1 
-1 
-1 
-1 
-1 
-1 
-1 
-1 
-1 
-1 
-1 
-1 
-1 
-1 
-1 
-1 
-1 
-1 
-1 
-1 
-1 
-1 
-1 
-1 
-1 
-1 
-1 
-1 
-1 
-1 
-1 
-1 
-1 
-1 
-1 
-1 
-1 
-1 
-1 
-1 
-1 
-1 
-1 
-1 
-1 
-1 
-1 
-1 
-1 
-1 
-1 
-1 
-1 
-1 
-1 
-1 
-1 
-1 
-1 
-1 
-1 
-1 
-1 
-1 
-1 
-1 
-1 
-1 
-1 
-1 
-1 
-1 
-1 
-1 
-1 
-1 
-1 
-1 
-1 
-1 
-1 
-1 
-1 
-1 
-1 
-1 
-1 
-1 
-1 
-1 
-1 
-1 
-1 
-1 
-1 
-1 
-1 
-1 
-1 
-1 
-1 
-1 
-1 
-1 
-1 
-1 
-1 
-1 
-1 
-1 
-1 
-1 
-1 
-1 
-1 
-1 
-1 
-1 
-1 
-1 
-1 
-1 
-1 
-1 
-1 
-1 
-1 
-1 
-1 
-1 
-1 
-1 
-1 
-1 
-1 
-1 
-1 
-1 
-1 
-1 
-1 
-1 
-1 
-1 
-1 
-1 
-1 
-1 
-1 
-1 
-1 
-1 
-1 
-1 
-1 
-1 
-1 
-1 
-1 
-1 
-1 
-1 
-1 
-1 
-1 
-1 
-1 
-1 
-1 
-1 
-1 
-1 
-1 
-1 
-1 
-1 
-1 
-1 
-1 
-1 
-1 
-1 
-1 
-1 
-1 
-1 
-1 
-1 
-1 
-1 
-1 
-1 
-1 
-1 
-1 
-1 
-1 
-1 
-1 
-1 
-1 
-1 
-1 
-1 
-1 
-1 
-1 
-1 
-1 
-1 
-1 
-1 
-1 
-1 
-1 
-1 
-1 
-1 
-1 
-1 
-1 
-1 
-1 
-1 
-1 
-1 
-1 
-1 
-1 
-1 
-1 
-1 
-1 
-1 
-1 
-1 
-1 
-1 
-1 
-1 
-1 
-1 
-1 
-1 
-1 
-1 
-1 
-1 
-1 
-1 
-1 
-1 
-1 
-1 
-1 
-1 
-1 
-1 
-1 
-1 
-1 
-1 
-1 
-1 
-1 
-1 
-1 
-1 
-1 
-1 
-1 
-1 
-1 
-1 
-1 
-1 
-1 
-1 
-1 
-1 
-1 
-1 
-1 
-1 
-1 
-1 
-1 
-1 
-1 
-1 
-1 
-1 
-1 
-1 
-1 
-1 
-1 
-1 
-1 
-1 
-1 
-1 
-1 
-1 
-1 
-1 
-1 
-1 
-1 
-1 
-1 
-1 
-1 
-1 
-1 
-1 
-1 
-1 
-1 
-1 
-1 
-1 
-1 
-1 
-1 
-1 
-1 
-1 
-1 
-1 
-1 
-1 
-1 
-1 
-1 
-1 
-1 
-1 
-1 
-1 
-1 
-1 
-1 
-1 
-1 
-1 
-1 
-1 
-1 
-1 
-1 
-1 
-1 
-1 
-1 
-1 
-1 
-1 
-1 
-1 
-1 
-1 
-1 
-1 
-1 
-1 
-1 
-1 
-1 
-1 
-1 
-1 
-1 
-1 
-1 
-1 
-1 
-1 
-1 
-1 
-1 
-1 
-1 
-1 
-1 
-1 
-1 
-1 
-1 
-1 
-1 
-1 
-1 
-1 
-1 
-1 
-1 
-1 
-1 
-1 
-1 
-1 
-1 
-1 
-1 
-1 
-1 
-1 
-1 
-1 
-1 
-1 
-1 
-1 
-1 
-1 
-1 
-1 
-1 
-1 
-1 
-1 
-1 
-1 
-1 
-1 
-1 
-1 
-1 
-1 
-1 
-1 
-1 
-1 
-1 
-1 
-1 
-1 
-1 
-1 
-1 
-1 
-1 
-1 
-1 
-1 
-1 
-1 
-1 
-1 
-1 
-1 
-1 
-1 
-1 
-1 
-1 
-1 
-1 
-1 
-1 
-1 
-1 
-1 
-1 
-1 
-1 
-1 
-1 
-1 
-1 
-1 
-1 
-1 
-1 
-1 
-1 
-1 
-1 
-1 
-1 
-1 
-1 
-1 
-1 
-1 
-1 
-1 
-1 
-1 
-1 
-1 
-1 
-1 
-1 
-1 
-1 
-1 
-1 
-1 
-1 
-1 
-1 
-1 
-1 
-1 
-1 
-1 
-1 
-1 
-1 
-1 
-1 
-1 
-1 
-1 
-1 
-1 
-1 
-1 
-1 
-1 
-1 
-1 
-1 
-1 
-1 
-1 
-1 
-1 
-1 
-1 
-1 
-1 
-1 
-1 
-1 
-1 
-1 
-1 
-1 
-1 
-1 
-1 
-1 
-1 
-1 
-1 
-1 
-1 
-1 
-1 
-1 
-1 
-1 
-1 
-1 
-1 
-1 
-1 
-1 
-1 
-1 
-1 
-1 
-1 
-1 
-1 
-1 
-1 
-1 
-1 
-1 
-1 
-1 
-1 
-1 
-1 
-1 
-1 
-1 
-1 
-1 
-1 
-1 
-1 
-1 
-1 
-1 
-1 
-1 
-1 
-1 
-1 
-1 
-1 
-1 
-1 
-1 
-1 
-1 
-1 
-1 
-1 
-1 
-1 
-1 
-1 
-1 
-1 
-1 
-1 
-1 
-1 
-1 
-1 
-1 
-1 
-1 
-1 
-1 
-1 
-1 
-1 
-1 
-1 
-1 
-1 
-1 
-1 
-1 
-1 
-1 
-1 
-1 
-1 
-1 
-1 
-1 
-1 
-1 
-1 
-1 
-1 
-1 
-1 
-1 
-1 
-1 
-1 
-1 
-1 
-1 
-1 
-1 
-1 
-1 
-1 
-1 
-1 
-1 
-1 
-1 
-1 
-1 
-1 
-1 
-1 
-1 
-1 
-1 
-1 
-1 
-1 
-1 
-1 
-1 
-1 
-1 
-1 
-1 
-1 
-1 
-1 
-1 
-1 
-1 
-1 
-1 
-1 
-1 
-1 
-1 
-1 
-1 
-1 
-1 
-1 
-1 
-1 
-1 
-1 
-1 
-1 
-1 
-1 
-1 
-1 
-1 
-1 
-1 
-1 
-1 
-1 
-1 
-1 
-1 
-1 
-1 
-1 
-1 
-1 
-1 
-1 
-1 
-1 
-1 
-1 
-1 
-1 
-1 
-1 
-1 
-1 
-1 
-1 
-1 
-1 
-1 
-1 
-1 
-1 
-1 
-1 
-1 
-1 
-1 
-1 
-1 
-1 
-1 
-1 
-1 
-1 
-1 
-1 
-1 
-1 
-1 
-1 
-1 
-1 
-1 
-1 
-1 
-1 
-1 
-1 
-1 
-1 
-1 
-1 
-1 
-1 
-1 
-1 
-1 
-1 
-1 
-1 
-1 
-1 
-1 
-1 
-1 
-1 
-1 
-1 
-1 
-1 
-1 
-1 
-1 
-1 
-1 
-1 
-1 
-1 
-1 
-1 
-1 
-1 
-1 
-1 
-1 
-1 
-1 
-1 
-1 
-1 
-1 
-1 
-1 
-1 
-1 
-1 
-1 
-1 
-1 
-1 
-1 
-1 
-1 
-1 
-1 
-1 
-1 
-1 
-1 
-1 
-1 
-1 
-1 
-1 
-1 
-1 
-1 
-1 
-1 
-1 
-1 
-1 
-1 
-1 
-1 
-1 
-1 
-1 
-1 
-1 
-1 
-1 
-1 
-1 
-1 
-1 
-1 
-1 
-1 
-1 
-1 
-1 
-1 
-1 
-1 
-1 
-1 
-1 
-1 
-1 
-1 
-1 
-1 
-1 
-1 
-1 
-1 
-1 
-1 
-1 
-1 
-1 
-1 
-1 
-1 
-1 
-1 
-1 
-1 
-1 
-1 
-1 
-1 
-1 
-1 
-1 
-1 
-1 
-1 
-1 
-1 
-1 
-1 
-1 
-1 
-1 
-1 
-1 
-1 
-1 
-1 
-1 
-1 
-1 
-1 
-1 
-1 
-1 
-1 
-1 
-1 
-1 
-1 
-1 
-1 
-1 
-1 
-1 
-1 
-1 
-1 
-1 
-1 
-1 
-1 
-1 
-1 
-1 
-1 
-1 
-1 
-1 
-1 
-1 
-1 
-1 
-1 
-1 
-1 
-1 
-1 
-1 
-1 
-1 
-1 
-1 
-1 
-1 
-1 
-1 
-1 
-1 
-1 
-1 
-1 
-1 
-1 
-1 
-1 
-1 
-1 
-1 
-1 
-1 
-1 
-1 
-1 
-1 
-1 
-1 
-1 
-1 
-1 
-1 
-1 
-1 
-1 
-1 
-1 
-1 
-1 
-1 
-1 
-1 
-1 
-1 
-1 
-1 
-1 
-1 
-1 
-1 
-1 
-1 
-1 
-1 
-1 
-1 
-1 
-1 
-1 
-1 
-1 
-1 
-1 
-1 
-1 
-1 
-1 
-1 
-1 
-1 
-1 
-1 
-1 
-1 
-1 
-1 
-1 
-1 
-1 
-1 
-1 
-1 
-1 
-1 
-1 
-1 
-1 
-1 
-1 
-1 
-1 
-1 
-1 
-1 
-1 
-1 
-1 
-1 
-1 
-1 
-1 
-1 
-1 
-1 
-1 
-1 
-1 
-1 
-1 
-1 
-1 
-1 
-1 
-1 
-1 
-1 
-1 
-1 
-1 
-1 
-1 
-1 
-1 
-1 
-1 
-1 
-1 
-1 
-1 
-1 
-1 
-1 
-1 
-1 
-1 
-1 
-1 
-1 
-1 
-1 
-1 
-1 
-1 
-1 
-1 
-1 
-1 
-1 
-1 
-1 
-1 
-1 
-1 
-1 
-1 
-1 
-1 
-1 
-1 
-1 
-1 
-1 
-1 
-1 
-1 
-1 
-1 
-1 
-1 
-1 
-1 
-1 
-1 
-1 
-1 
-1 
-1 
-1 
-1 
-1 
-1 
-1 
-1 
-1 
-1 
-1 
-1 
-1 
-1 
-1 
-1 
-1 
-1 
-1 
-1 
-1 
-1 
-1 
-1 
-1 
-1 
-1 
-1 
-1 
-1 
-1 
-1 
-1 
-1 
-1 
-1 
-1 
-1 
-1 
-1 
-1 
-1 
-1 
-1 
-1 
-1 
-1 
-1 
-1 
-1 
-1 
-1 
-1 
-1 
-1 
-1 
-1 
-1 
-1 
-1 
-1 
-1 
-1 
-1 
-1 
-1 
-1 
-1 
-1 
-1 
-1 
-1 
-1 
-1 
-1 
-1 
-1 
-1 
-1 
-1 
-1 
-1 
-1 
-1 
-1 
-1 
-1 
-1 
-1 
-1 
-1 
-1 
-1 
-1 
-1 
-1 
-1 
-1 
-1 
-1 
-1 
-1 
-1 
-1 
-1 
-1 
-1 
-1 
-1 
-1 
-1 
-1 
-1 
-1 
-1 
-1 
-1 
-1 
-1 
-1 
-1 
-1 
-1 
-1 
-1 
-1 
-1 
-1 
-1 
-1 
-1 
-1 
-1 
-1 
-1 
-1 
-1 
-1 
-1 
-1 
-1 
-1 
-1 
-1 
-1 
-1 
-1 
-1 
-1 
-1 
-1 
-1 
-1 
-1 
-1 
-1 
-1 
-1 
-1 
-1 
-1 
-1 
-1 
-1 
-1 
-1 
-1 
-1 
-1 
-1 
-1 
-1 
-1 
-1 
-1 
-1 
-1 
-1 
-1 
-1 
-1 
-1 
-1 
-1 
-1 
-1 
-1 
-1 
-1 
-1 
-1 
-1 
-1 
-1 
-1 
-1 
-1 
-1 
-1 
-1 
-1 
-1 
-1 
-1 
-1 
-1 
-1 
-1 
-1 
-1 
-1 
-1 
-1 
-1 
-1 
-1 
-1 
-1 
-1 
-1 
-1 
-1 
-1 
-1 
-1 
-1 
-1 
-1 
-1 
-1 
-1 
-1 
-1 
-1 
-1 
-1 
-1 
-1 
-1 
-1 
-1 
-1 
-1 
-1 
-1 
-1 
-1 
-1 
-1 
-1 
-1 
-1 
-1 
-1 
-1 
-1 
-1 
-1 
-1 
-1 
-1 
-1 
-1 
-1 
-1 
-1 
-1 
-1 
-1 
-1 
-1 
-1 
-1 
-1 
-1 
-1 
-1 
-1 
-1 
-1 
-1 
-1 
-1 
-1 
-1 
-1 
-1 
-1 
-1 
-1 
-1 
-1 
-1 
-1 
-1 
-1 
-1 
-1 
-1 
-1 
-1 
-1 
-1 
-1 
-1 
-1 
-1 
-1 
-1 
-1 
-1 
-1 
-1 
-1 
-1 
-1 
-1 
-1 
-1 
-1 
-1 
-1 
-1 
-1 
-1 
-1 
-1 
-1 
-1 
-1 
-1 
-1 
-1 
-1 
-1 
-1 
-1 
-1 
-1 
-1 
-1 
-1 
-1 
-1 
-1 
-1 
-1 
-1 
-1 
-1 
-1 
-1 
-1 
-1 
-1 
-1 
-1 
-1 
-1 
-1 
-1 
-1 
-1 
-1 
-1 
-1 
-1 
-1 
-1 
-1 
-1 
-1 
-1 
-1 
-1 
-1 
-1 
-1 
-1 
-1 
-1 
-1 
-1 
-1 
-1 
-1 
-1 
-1 
-1 
-1 
-1 
-1 
-1 
-1 
-1 
-1 
-1 
-1 
-1 
-1 
-1 
-1 
-1 
-1 
-1 
-1 
-1 
-1 
-1 
-1 
-1 
-1 
-1 
-1 
-1 
-1 
-1 
-1 
-1 
-1 
-1 
-1 
-1 
-1 
-1 
-1 
-1 
-1 
-1 
-1 
-1 
-1 
-1 
-1 
-1 
-1 
-1 
-1 
-1 
-1 
-1 
-1 
-1 
-1 
-1 
-1 
-1 
-1 
-1 
-1 
-1 
-1 
-1 
-1 
-1 
-1 
-1 
-1 
-1 
-1 
-1 
-1 
-1 
-1 
-1 
-1 
-1 
-1 
-1 
-1 
-1 
-1 
-1 
-1 
-1 
-1 
-1 
-1 
-1 
-1 
-1 
-1 
-1 
-1 
-1 
-1 
-1 
-1 
-1 
-1 
-1 
-1 
-1 
-1 
-1 
-1 
-1 
-1 
-1 
-1 
-1 
-1 
-1 
-1 
-1 
-1 
-1 
-1 
-1 
-1 
-1 
-1 
-1 
-1 
-1 
-1 
-1 
-1 
-1 
-1 
-1 
-1 
-1 
-1 
-1 
-1 
-1 
-1 
-1 
-1 
-1 
-1 
-1 
-1 
-1 
-1 
-1 
-1 
-1 
-1 
-1 
-1 
-1 
-1 
-1 
-1 
-1 
-1 
-1 
-1 
-1 
-1 
-1 
-1 
-1 
-1 
-1 
-1 
-1 
-1 
-1 
-1 
-1 
-1 
-1 
-1 
-1 
-1 
-1 
-1 
-1 
-1 
-1 
-1 
-1 
-1 
-1 
-1 
-1 
-1 
-1 
-1 
-1 
-1 
-1 
-1 
-1 
-1 
-1 
-1 
-1 
-1 
-1 
-1 
-1 
-1 
-1 
-1 
-1 
-1 
-1 
-1 
-1 
-1 
-1 
-1 
-1 
-1 
-1 
-1 
-1 
-1 
-1 
-1 
-1 
-1 
-1 
-1 
-1 
-1 
-1 
-1 
-1 
-1 
-1 
-1 
-1 
-1 
-1 
-1 
-1 
-1 
-1 
-1 
-1 
-1 
-1 
-1 
-1 
-1 
-1 
-1 
-1 
-1 
-1 
-1 
-1 
-1 
-1 
-1 
-1 
-1 
-1 
-1 
-1 
-1 
-1 
-1 
-1 
-1 
-1 
-1 
-1 
-1 
-1 
-1 
-1 
-1 
-1 
-1 
-1 
-1 
-1 
-1 
-1 
-1 
-1 
-1 
-1 
-1 
-1 
-1 
-1 
-1 
-1 
-1 
-1 
-1 
-1 
-1 
-1 
-1 
-1 
-1 
-1 
-1 
-1 
-1 
-1 
-1 
-1 
-1 
-1 
-1 
-1 
-1 
-1 
-1 
-1 
-1 
-1 
-1 
-1 
-1 
-1 
-1 
-1 
-1 
-1 
-1 
-1 
-1 
-1 
-1 
-1 
-1 
-1 
-1 
-1 
-1 
-1 
-1 
-1 
-1 
-1 
-1 
-1 
-1 
-1 
-1 
-1 
-1 
-1 
-1 
-1 
-1 
-1 
-1 
-1 
-1 
-1 
-1 
-1 
-1 
-1 
-1 
-1 
-1 
-1 
-1 
-1 
-1 
-1 
-1 
-1 
-1 
-1 
-1 
-1 
-1 
-1 
-1 
-1 
-1 
-1 
-1 
-1 
-1 
-1 
-1 
-1 
-1 
-1 
-1 
-1 
-1 
-1 
-1 
-1 
-1 
-1 
-1 
-1 
-1 
-1 
-1 
-1 
-1 
-1 
-1 
-1 
-1 
-1 
-1 
-1 
-1 
-1 
-1 
-1 
-1 
-1 
-1 
-1 
-1 
-1 
-1 
-1 
-1 
-1 
-1 
-1 
-1 
-1 
-1 
-1 
-1 
-1 
-1 
-1 
-1 
-1 
-1 
-1 
-1 
-1 
-1 
-1 
-1 
-1 
-1 
-1 
-1 
-1 
-1 
-1 
-1 
-1 
-1 
-1 
-1 
-1 
-1 
-1 
-1 
-1 
-1 
-1 
-1 
-1 
-1 
-1 
-1 
-1 
-1 
-1 
-1 
-1 
-1 
-1 
-1 
-1 
-1 
-1 
-1 
-1 
-1 
-1 
-1 
-1 
-1 
-1 
-1 
-1 
-1 
-1 
-1 
-1 
-1 
-1 
-1 
-1 
-1 
-1 
-1 
-1 
-1 
-1 
-1 
-1 
-1 
-1 
-1 
-1 
-1 
-1 
-1 
-1 
-1 
-1 
-1 
-1 
-1 
-1 
-1 
-1 
-1 
-1 
-1 
-1 
-1 
-1 
-1 
-1 
-1 
-1 
-1 
-1 
-1 
-1 
-1 
-1 
-1 
-1 
-1 
-1 
-1 
-1 
-1 
-1 
-1 
-1 
-1 
-1 
-1 
-1 
-1 
-1 
-1 
-1 
-1 
-1 
-1 
-1 
-1 
-1 
-1 
-1 
-1 
-1 
-1 
-1 
-1 
-1 
-1 
-1 
-1 
-1 
-1 
-1 
-1 
-1 
-1 
-1 
-1 
-1 
-1 
-1 
-1 
-1 
-1 
-1 
-1 
-1 
-1 
-1 
-1 
-1 
-1 
-1 
-1 
-1 
-1 
-1 
-1 
-1 
-1 
-1 
-1 
-1 
-1 
-1 
-1 
-1 
-1 
-1 
-1 
-1 
-1 
-1 
-1 
-1 
-1 
-1 
-1 
-1 
-1 
-1 
-1 
-1 
-1 
-1 
-1 
-1 
-1 
-1 
-1 
-1 
-1 
-1 
-1 
-1 
-1 
-1 
-1 
-1 
-1 
-1 
-1 
-1 
-1 
-1 
-1 
-1 
-1 
-1 
-1 
-1 
-1 
-1 
-1 
-1 
-1 
-1 
-1 
-1 
-1 
-1 
-1 
-1 
-1 
-1 
-1 
-1 
-1 
-1 
-1 
-1 
-1 
-1 
-1 
-1 
-1 
-1 
-1 
-1 
-1 
-1 
-1 
-1 
-1 
-1 
-1 
-1 
-1 
-1 
-1 
-1 
-1 
-1 
-1 
-1 
-1 
-1 
-1 
-1 
-1 
-1 
-1 
-1 
-1 
-1 
-1 
-1 
-1 
-1 
-1 
-1 
-1 
-1 
-1 
-1 
-1 
-1 
-1 
-1 
-1 
-1 
-1 
-1 
-1 
-1 
-1 
-1 
-1 
-1 
-1 
-1 
-1 
-1 
-1 
-1 
-1 
-1 
-1 
-1 
-1 
-1 
-1 
-1 
-1 
-1 
-1 
-1 
-1 
-1 
-1 
-1 
-1 
-1 
-1 
-1 
-1 
-1 
-1 
-1 
-1 
-1 
-1 
-1 
-1 
-1 
-1 
-1 
-1 
-1 
-1 
-1 
-1 
-1 
-1 
-1 
-1 
-1 
-1 
-1 
-1 
-1 
-1 
-1 
-1 
-1 
-1 
-1 
-1 
-1 
-1 
-1 
-1 
-1 
-1 
-1 
-1 
-1 
-1 
-1 
-1 
-1 
-1 
-1 
-1 
-1 
-1 
-1 
-1 
-1 
-1 
-1 
-1 
-1 
-1 
-1 
-1 
-1 
-1 
-1 
-1 
-1 
-1 
-1 
-1 
-1 
-1 
-1 
-1 
-1 
-1 
-1 
-1 
-1 
-1 
-1 
-1 
-1 
-1 
-1 
-1 
-1 
-1 
-1 
-1 
-1 
-1 
-1 
-1 
-1 
-1 
-1 
-1 
-1 
-1 
-1 
-1 
-1 
-1 
-1 
-1 
-1 
-1 
-1 
-1 
-1 
-1 
-1 
-1 
-1 
-1 
-1 
-1 
-1 
-1 
-1 
-1 
-1 
-1 
-1 
-1 
-1 
-1 
-1 
-1 
-1 
-1 
-1 
-1 
-1 
-1 
-1 
-1 
-1 
-1 
-1 
-1 
-1 
-1 
-1 
-1 
-1 
-1 
-1 
-1 
-1 
-1 
-1 
-1 
-1 
-1 
-1 
-1 
-1 
-1 
-1 
-1 
-1 
-1 
-1 
-1 
-1 
-1 
-1 
-1 
-1 
-1 
-1 
-1 
-1 
-1 
-1 
-1 
-1 
-1 
-1 
-1 
-1 
-1 
-1 
-1 
-1 
-1 
-1 
-1 
-1 
-1 
-1 
-1 
-1 
-1 
-1 
-1 
-1 
-1 
-1 
-1 
-1 
-1 
-1 
-1 
-1 
-1 
-1 
-1 
-1 
-1 
-1 
-1 
-1 
-1 
-1 
-1 
-1 
-1 
-1 
-1 
-1 
-1 
-1 
-1 
-1 
-1 
-1 
-1 
-1 
-1 
-1 
-1 
-1 
-1 
-1 
-1 
-1 
-1 
-1 
-1 
-1 
-1 
-1 
-1 
-1 
-1 
-1 
-1 
-1 
-1 
-1 
-1 
-1 
-1 
-1 
-1 
-1 
-1 
-1 
-1 
-1 
-1 
-1 
-1 
-1 
-1 
-1 
-1 
-1 
-1 
-1 
-1 
-1 
-1 
-1 
-1 
-1 
-1 
-1 
-1 
-1 
-1 
-1 
-1 
-1 
-1 
-1 
-1 
-1 
-1 
-1 
-1 
-1 
-1 
-1 
-1 
-1 
-1 
-1 
-1 
-1 
-1 
-1 
-1 
-1 
-1 
-1 
-1 
-1 
-1 
-1 
-1 
-1 
-1 
-1 
-1 
-1 
-1 
-1 
-1 
-1 
-1 
-1 
-1 
-1 
-1 
-1 
-1 
-1 
-1 
-1 
-1 
-1 
-1 
-1 
-1 
-1 
-1 
-1 
-1 
-1 
-1 
-1 
-1 
-1 
-1 
-1 
-1 
-1 
-1 
-1 
-1 
-1 
-1 
-1 
-1 
-1 
-1 
-1 
-1 
-1 
-1 
-1 
-1 
-1 
-1 
-1 
-1 
-1 
-1 
-1 
-1 
-1 
-1 
-1 
-1 
-1 
-1 
-1 
-1 
-1 
-1 
-1 
-1 
-1 
-1 
-1 
-1 
-1 
-1 
-1 
-1 
-1 
-1 
-1 
-1 
-1 
-1 
-1 
-1 
-1 
-1 
-1 
-1 
-1 
-1 
-1 
-1 
-1 
-1 
-1 
-1 
-1 
-1 
-1 
-1 
-1 
-1 
-1 
-1 
-1 
-1 
-1 
-1 
-1 
-1 
-1 
-1 
-1 
-1 
-1 
-1 
-1 
-1 
-1 
-1 
-1 
-1 
-1 
-1 
-1 
-1 
-1 
-1 
-1 
-1 
-1 
-1 
-1 
-1 
-1 
-1 
-1 
-1 
-1 
-1 
-1 
-1 
-1 
-1 
-1 
-1 
-1 
-1 
-1 
-1 
-1 
-1 
-1 
-1 
-1 
-1 
-1 
-1 
-1 
-1 
-1 
-1 
-1 
-1 
-1 
-1 
-1 
-1 
-1 
-1 
-1 
-1 
-1 
-1 
-1 
-1 
-1 
-1 
-1 
-1 
-1 
-1 
-1 
-1 
-1 
-1 
-1 
-1 
-1 
-1 
-1 
-1 
-1 
-1 
-1 
-1 
-1 
-1 
-1 
-1 
-1 
-1 
-1 
-1 
-1 
-1 
-1 
-1 
-1 
-1 
-1 
-1 
-1 
-1 
-1 
-1 
-1 
-1 
-1 
-1 
-1 
-1 
-1 
-1 
-1 
-1 
-1 
-1 
-1 
-1 
-1 
-1 
-1 
-1 
-1 
-1 
-1 
-1 
-1 
-1 
-1 
-1 
-1 
-1 
-1 
-1 
-1 
-1 
-1 
-1 
-1 
-1 
-1 
-1 
-1 
-1 
-1 
-1 
-1 
-1 
-1 
-1 
-1 
-1 
-1 
-1 
-1 
-1 
-1 
-1 
-1 
-1 
-1 
-1 
-1 
-1 
-1 
-1 
-1 
-1 
-1 
-1 
-1 
-1 
-1 
-1 
-1 
-1 
-1 
-1 
-1 
-1 
-1 
-1 
-1 
-1 
-1 
-1 
-1 
-1 
-1 
-1 
-1 
-1 
-1 
-1 
-1 
-1 
-1 
-1 
-1 
-1 
-1 
-1 
-1 
-1 
-1 
-1 
-1 
-1 
-1 
-1 
-1 
-1 
-1 
-1 
-1 
-1 
-1 
-1 
-1 
-1 
-1 
-1 
-1 
-1 
-1 
-1 
-1 
-1 
-1 
-1 
-1 
-1 
-1 
-1 
-1 
-1 
-1 
-1 
-1 
-1 
-1 
-1 
-1 
-1 
-1 
-1 
-1 
-1 
-1 
-1 
-1 
-1 
-1 
-1 
-1 
-1 
-1 
-1 
-1 
-1 
-1 
-1 
-1 
-1 
-1 
-1 
-1 
-1 
-1 
-1 
-1 
-1 
-1 
-1 
-1 
-1 
-1 
-1 
-1 
-1 
-1 
-1 
-1 
-1 
-1 
-1 
-1 
-1 
-1 
-1 
-1 
-1 
-1 
-1 
-1 
-1 
-1 
-1 
-1 
-1 
-1 
-1 
-1 
-1 
-1 
-1 
-1 
-1 
-1 
-1 
-1 
-1 
-1 
-1 
-1 
-1 
-1 
-1 
-1 
-1 
-1 
-1 
-1 
-1 
-1 
-1 
-1 
-1 
-1 
-1 
-1 
-1 
-1 
-1 
-1 
-1 
-1 
-1 
-1 
-1 
-1 
-1 
-1 
-1 
-1 
-1 
-1 
-1 
-1 
-1 
-1 
-1 
-1 
-1 
-1 
-1 
-1 
-1 
-1 
-1 
-1 
-1 
-1 
-1 
-1 
-1 
-1 
-1 
-1 
-1 
-1 
-1 
-1 
-1 
-1 
-1 
-1 
-1 
-1 
-1 
-1 
-1 
-1 
-1 
-1 
-1 
-1 
-1 
-1 
-1 
-1 
-1 
-1 
-1 
-1 
-1 
-1 
-1 
-1 
-1 
-1 
-1 
-1 
-1 
-1 
-1 
-1 
-1 
-1 
-1 
-1 
-1 
-1 
-1 
-1 
-1 
-1 
-1 
-1 
-1 
-1 
-1 
-1 
-1 
-1 
-1 
-1 
-1 
-1 
-1 
-1 
-1 
-1 
-1 
-1 
-1 
-1 
-1 
-1 
-1 
-1 
-1 
-1 
-1 
-1 
-1 
-1 
-1 
-1 
-1 
-1 
-1 
-1 
-1 
-1 
-1 
-1 
-1 
-1 
-1 
-1 
-1 
-1 
-1 
-1 
-1 
-1 
-1 
-1 
-1 
-1 
-1 
-1 
-1 
-1 
-1 
-1 
-1 
-1 
-1 
-1 
-1 
-1 
-1 
-1 
-1 
-1 
-1 
-1 
-1 
-1 
-1 
-1 
-1 
-1 
-1 
-1 
-1 
-1 
-1 
-1 
-1 
-1 
-1 
-1 
-1 
-1 
-1 
-1 
-1 
-1 
-1 
-1 
-1 
-1 
-1 
-1 
-1 
-1 
-1 
-1 
-1 
-1 
-1 
-1 
-1 
-1 
-1 
-1 
-1 
-1 
-1 
-1 
-1 
-1 
-1 
-1 
-1 
-1 
-1 
-1 
-1 
-1 
-1 
-1 
-1 
-1 
-1 
-1 
-1 
-1 
-1 
-1 
-1 
-1 
-1 
-1 
-1 
-1 
-1 
-1 
-1 
-1 
-1 
-1 
-1 
-1 
-1 
-1 
-1 
-1 
-1 
-1 
-1 
-1 
-1 
-1 
-1 
-1 
-1 
-1 
-1 
-1 
-1 
-1 
-1 
-1 
-1 
-1 
-1 
-1 
-1 
-1 
-1 
-1 
-1 
-1 
-1 
-1 
-1 
-1 
-1 
-1 
-1 
-1 
-1 
-1 
-1 
-1 
-1 
-1 
-1 
-1 
-1 
-1 
-1 
-1 
-1 
-1 
-1 
-1 
-1 
-1 
-1 
-1 
-1 
-1 
-1 
-1 
-1 
-1 
-1 
-1 
-1 
-1 
-1 
-1 
-1 
-1 
-1 
-1 
-1 
-1 
-1 
-1 
-1 
-1 
-1 
-1 
-1 
-1 
-1 
-1 
-1 
-1 
-1 
-1 
-1 
-1 
-1 
-1 
-1 
-1 
-1 
-1 
-1 
-1 
-1 
-1 
-1 
-1 
-1 
-1 
-1 
-1 
-1 
-1 
-1 
-1 
-1 
-1 
-1 
-1 
-1 
-1 
-1 
-1 
-1 
-1 
-1 
-1 
-1 
-1 
-1 
-1 
-1 
-1 
-1 
-1 
-1 
-1 
-1 
-1 
-1 
-1 
-1 
-1 
-1 
-1 
-1 
-1 
-1 
-1 
-1 
-1 
-1 
-1 
-1 
-1 
-1 
-1 
-1 
-1 
-1 
-1 
-1 
-1 
-1 
-1 
-1 
-1 
-1 
-1 
-1 
-1 
-1 
-1 
-1 
-1 
-1 
-1 
-1 
-1 
-1 
-1 
-1 
-1 
-1 
-1 
-1 
-1 
-1 
-1 
-1 
-1 
-1 
-1 
-1 
-1 
-1 
-1 
-1 
-1 
-1 
-1 
-1 
-1 
-1 
-1 
-1 
-1 
-1 
-1 
-1 
-1 
-1 
-1 
-1 
-1 
-1 
-1 
-1 
-1 
-1 
-1 
-1 
-1 
-1 
-1 
-1 
-1 
-1 
-1 
-1 
-1 
-1 
-1 
-1 
-1 
-1 
-1 
-1 
-1 
-1 
-1 
-1 
-1 
-1 
-1 
-1 
-1 
-1 
-1 
-1 
-1 
-1 
-1 
-1 
-1 
-1 
-1 
-1 
-1 
-1 
-1 
-1 
-1 
-1 
-1 
-1 
-1 
-1 
-1 
-1 
-1 
-1 
-1 
-1 
-1 
-1 
-1 
-1 
-1 
-1 
-1 
-1 
-1 
-1 
-1 
-1 
-1 
-1 
-1 
-1 
-1 
-1 
-1 
-1 
-1 
-1 
-1 
-1 
-1 
-1 
-1 
-1 
-1 
-1 
-1 
-1 
-1 
-1 
-1 
-1 
-1 
-1 
-1 
-1 
-1 
-1 
-1 
-1 
-1 
-1 
-1 
-1 
-1 
-1 
-1 
-1 
-1 
-1 
-1 
-1 
-1 
-1 
-1 
-1 
-1 
-1 
-1 
-1 
-1 
-1 
-1 
-1 
-1 
-1 
-1 
-1 
-1 
-1 
-1 
-1 
-1 
-1 
-1 
-1 
-1 
-1 
-1 
-1 
-1 
-1 
-1 
-1 
-1 
-1 
-1 
-1 
-1 
-1 
-1 
-1 
-1 
-1 
-1 
-1 
-1 
-1 
-1 
-1 
-1 
-1 
-1 
-1 
-1 
-1 
-1 
-1 
-1 
-1 
-1 
-1 
-1 
-1 
-1 
-1 
-1 
-1 
-1 
-1 
-1 
-1 
-1 
-1 
-1 
-1 
-1 
-1 
-1 
-1 
-1 
-1 
-1 
-1 
-1 
-1 
-1 
-1 
-1 
-1 
-1 
-1 
-1 
-1 
-1 
-1 
-1 
-1 
-1 
-1 
-1 
-1 
-1 
-1 
-1 
-1 
-1 
-1 
-1 
-1 
-1 
-1 
-1 
-1 
-1 
-1 
-1 
-1 
-1 
-1 
-1 
-1 
-1 
-1 
-1 
-1 
-1 
-1 
-1 
-1 
-1 
-1 
-1 
-1 
-1 
-1 
-1 
-1 
-1 
-1 
-1 
-1 
-1 
-1 
-1 
-1 
-1 
-1 
-1 
-1 
-1 
-1 
-1 
-1 
-1 
-1 
-1 
-1 
-1 
-1 
-1 
-1 
-1 
-1 
-1 
-1 
-1 
-1 
-1 
-1 
-1 
-1 
-1 
-1 
-1 
-1 
-1 
-1 
-1 
-1 
-1 
-1 
-1 
-1 
-1 
-1 
-1 
-1 
-1 
-1 
-1 
-1 
-1 
-1 
-1 
-1 
-1 
-1 
-1 
-1 
-1 
-1 
-1 
-1 
-1 
-1 
-1 
-1 
-1 
-1 
-1 
-1 
-1 
-1 
-1 
-1 
-1 
-1 
-1 
-1 
-1 
-1 
-1 
-1 
-1 
-1 
-1 
-1 
-1 
-1 
-1 
-1 
-1 
-1 
-1 
-1 
-1 
-1 
-1 
-1 
-1 
-1 
-1 
-1 
-1 
-1 
-1 
-1 
-1 
-1 
-1 
-1 
-1 
-1 
-1 
-1 
-1 
-1 
-1 
-1 
-1 
-1 
-1 
-1 
-1 
-1 
-1 
-1 
-1 
-1 
-1 
-1 
-1 
-1 
-1 
-1 
-1 
-1 
-1 
-1 
-1 
-1 
-1 
-1 
-1 
-1 
-1 
-1 
-1 
-1 
-1 
-1 
-1 
-1 
-1 
-1 
-1 
-1 
-1 
-1 
-1 
-1 
-1 
-1 
-1 
-1 
-1 
-1 
-1 
-1 
-1 
-1 
-1 
-1 
-1 
-1 
-1 
-1 
-1 
-1 
-1 
-1 
-1 
-1 
-1 
-1 
-1 
-1 
-1 
-1 
-1 
-1 
-1 
-1 
-1 
-1 
-1 
-1 
-1 
-1 
-1 
-1 
-1 
-1 
-1 
-1 
-1 
-1 
-1 
-1 
-1 
-1 
-1 
-1 
-1 
-1 
-1 
-1 
-1 
-1 
-1 
-1 
-1 
-1 
-1 
-1 
-1 
-1 
-1 
-1 
-1 
-1 
-1 
-1 
-1 
-1 
-1 
-1 
-1 
-1 
-1 
-1 
-1 
-1 
-1 
-1 
-1 
-1 
-1 
-1 
-1 
-1 
-1 
-1 
-1 
-1 
-1 
-1 
-1 
-1 
-1 
-1 
-1 
-1 
-1 
-1 
-1 
-1 
-1 
-1 
-1 
-1 
-1 
-1 
-1 
-1 
-1 
-1 
-1 
-1 
-1 
-1 
-1 
-1 
-1 
-1 
-1 
-1 
-1 
-1 
-1 
-1 
-1 
-1 
-1 
-1 
-1 
-1 
-1 
-1 
-1 
-1 
-1 
-1 
-1 
-1 
-1 
-1 
-1 
-1 
-1 
-1 
-1 
-1 
-1 
-1 
-1 
-1 
-1 
-1 
-1 
-1 
-1 
-1 
-1 
-1 
-1 
-1 
-1 
-1 
-1 
-1 
-1 
-1 
-1 
-1 
-1 
-1 
-1 
-1 
-1 
-1 
-1 
-1 
-1 
-1 
-1 
-1 
-1 
-1 
-1 
-1 
-1 
-1 
-1 
-1 
-1 
-1 
-1 
-1 
-1 
-1 
-1 
-1 
-1 
-1 
-1 
-1 
-1 
-1 
-1 
-1 
-1 
-1 
-1 
-1 
-1 
-1 
-1 
-1 
-1 
-1 
-1 
-1 
-1 
-1 
-1 
-1 
-1 
-1 
-1 
-1 
-1 
-1 
-1 
-1 
-1 
-1 
-1 
-1 
-1 
-1 
-1 
-1 
-1 
-1 
-1 
-1 
-1 
-1 
-1 
-1 
-1 
-1 
-1 
-1 
-1 
-1 
-1 
-1 
-1 
-1 
-1 
-1 
-1 
-1 
-1 
-1 
-1 
-1 
-1 
-1 
-1 
-1 
-1 
-1 
-1 
-1 
-1 
-1 
-1 
-1 
-1 
-1 
-1 
-1 
-1 
-1 
-1 
-1 
-1 
-1 
-1 
-1 
-1 
-1 
-1 
-1 
-1 
-1 
-1 
-1 
-1 
-1 
-1 
-1 
-1 
-1 
-1 
-1 
-1 
-1 
-1 
-1 
-1 
-1 
-1 
-1 
-1 
-1 
-1 
-1 
-1 
-1 
-1 
-1 
-1 
-1 
-1 
-1 
-1 
-1 
-1 
-1 
-1 
-1 
-1 
-1 
-1 
-1 
-1 
-1 
-1 
-1 
-1 
-1 
-1 
-1 
-1 
-1 
-1 
-1 
-1 
-1 
-1 
-1 
-1 
-1 
-1 
-1 
-1 
-1 
-1 
-1 
-1 
-1 
-1 
-1 
-1 
-1 
-1 
-1 
-1 
-1 
-1 
-1 
-1 
-1 
-1 
-1 
-1 
-1 
-1 
-1 
-1 
-1 
-1 
-1 
-1 
-1 
-1 
-1 
-1 
-1 
-1 
-1 
-1 
-1 
-1 
-1 
-1 
-1 
-1 
-1 
-1 
-1 
-1 
-1 
-1 
-1 
-1 
-1 
-1 
-1 
-1 
-1 
-1 
-1 
-1 
-1 
-1 
-1 
-1 
-1 
-1 
-1 
-1 
-1 
-1 
-1 
-1 
-1 
-1 
-1 
-1 
-1 
-1 
-1 
-1 
-1 
-1 
-1 
-1 
-1 
-1 
-1 
-1 
-1 
-1 
-1 
-1 
-1 
-1 
-1 
-1 
-1 
-1 
-1 
-1 
-1 
-1 
-1 
-1 
-1 
-1 
-1 
-1 
-1 
-1 
-1 
-1 
-1 
-1 
-1 
-1 
-1 
-1 
-1 
-1 
-1 
-1 
-1 
-1 
-1 
-1 
-1 
-1 
-1 
-1 
-1 
-1 
-1 
-1 
-1 
-1 
-1 
-1 
-1 
-1 
-1 
-1 
-1 
-1 
-1 
-1 
-1 
-1 
-1 
-1 
-1 
-1 
-1 
-1 
-1 
-1 
-1 
-1 
-1 
-1 
-1 
-1 
-1 
-1 
-1 
-1 
-1 
-1 
-1 
-1 
-1 
-1 
-1 
-1 
-1 
-1 
-1 
-1 
-1 
-1 
-1 
-1 
-1 
-1 
-1 
-1 
-1 
-1 
-1 
-1 
-1 
-1 
-1 
-1 
-1 
-1 
-1 
-1 
-1 
-1 
-1 
-1 
-1 
-1 
-1 
-1 
-1 
-1 
-1 
-1 
-1 
-1 
-1 
-1 
-1 
-1 
-1 
-1 
-1 
-1 
-1 
-1 
-1 
-1 
-1 
-1 
-1 
-1 
-1 
-1 
-1 
-1 
-1 
-1 
-1 
-1 
-1 
-1 
-1 
-1 
-1 
-1 
-1 
-1 
-1 
-1 
-1 
-1 
-1 
-1 
-1 
-1 
-1 
-1 
-1 
-1 
-1 
-1 
-1 
-1 
-1 
-1 
-1 
-1 
-1 
-1 
-1 
-1 
-1 
-1 
-1 
-1 
-1 
-1 
-1 
-1 
-1 
-1 
-1 
-1 
-1 
-1 
-1 
-1 
-1 
-1 
-1 
-1 
-1 
-1 
-1 
-1 
-1 
-1 
-1 
-1 
-1 
-1 
-1 
-1 
-1 
-1 
-1 
-1 
-1 
-1 
-1 
-1 
-1 
-1 
-1 
-1 
-1 
-1 
-1 
-1 
-1 
-1 
-1 
-1 
-1 
-1 
-1 
-1 
-1 
-1 
-1 
-1 
-1 
-1 
-1 
-1 
-1 
-1 
-1 
-1 
-1 
-1 
-1 
-1 
-1 
-1 
-1 
-1 
-1 
-1 
-1 
-1 
-1 
-1 
-1 
-1 
-1 
-1 
-1 
-1 
-1 
-1 
-1 
-1 
-1 
-1 
-1 
-1 
-1 
-1 
-1 
-1 
-1 
-1 
-1 
-1 
-1 
-1 
-1 
-1 
-1 
-1 
-1 
-1 
-1 
-1 
-1 
-1 
-1 
-1 
-1 
-1 
-1 
-1 
-1 
-1 
-1 
-1 
-1 
-1 
-1 
-1 
-1 
-1 
-1 
-1 
-1 
-1 
-1 
-1 
-1 
-1 
-1 
-1 
-1 
-1 
-1 
-1 
-1 
-1 
-1 
-1 
-1 
-1 
-1 
-1 
-1 
-1 
-1 
-1 
-1 
-1 
-1 
-1 
-1 
-1 
-1 
-1 
-1 
-1 
-1 
-1 
-1 
-1 
-1 
-1 
-1 
-1 
-1 
-1 
-1 
-1 
-1 
-1 
-1 
-1 
-1 
-1 
-1 
-1 
-1 
-1 
-1 
-1 
-1 
-1 
-1 
-1 
-1 
-1 
-1 
-1 
-1 
-1 
-1 
-1 
-1 
-1 
-1 
-1 
-1 
-1 
-1 
-1 
-1 
-1 
-1 
-1 
-1 
-1 
-1 
-1 
-1 
-1 
-1 
-1 
-1 
-1 
-1 
-1 
-1 
-1 
-1 
-1 
-1 
-1 
-1 
-1 
-1 
-1 
-1 
-1 
-1 
-1 
-1 
-1 
-1 
-1 
-1 
-1 
-1 
-1 
-1 
-1 
-1 
-1 
-1 
-1 
-1 
-1 
-1 
-1 
-1 
-1 
-1 
-1 
-1 
-1 
-1 
-1 
-1 
-1 
-1 
-1 
-1 
-1 
-1 
-1 
-1 
-1 
-1 
-1 
-1 
-1 
-1 
-1 
-1 
-1 
-1 
-1 
-1 
-1 
-1 
-1 
-1 
-1 
-1 
-1 
-1 
-1 
-1 
-1 
-1 
-1 
-1 
-1 
-1 
-1 
-1 
-1 
-1 
-1 
-1 
-1 
-1 
-1 
-1 
-1 
-1 
-1 
-1 
-1 
-1 
-1 
-1 
-1 
-1 
-1 
-1 
-1 
-1 
-1 
-1 
-1 
-1 
-1 
-1 
-1 
-1 
-1 
-1 
-1 
-1 
-1 
-1 
-1 
-1 
-1 
-1 
-1 
-1 
-1 
-1 
-1 
-1 
-1 
-1 
-1 
-1 
-1 
-1 
-1 
-1 
-1 
-1 
-1 
-1 
-1 
-1 
-1 
-1 
-1 
-1 
-1 
-1 
-1 
-1 
-1 
-1 
-1 
-1 
-1 
-1 
-1 
-1 
-1 
-1 
-1 
-1 
-1 
-1 
-1 
-1 
-1 
-1 
-1 
-1 
-1 
-1 
-1 
-1 
-1 
-1 
-1 
-1 
-1 
-1 
-1 
-1 
-1 
-1 
-1 
-1 
-1 
-1 
-1 
-1 
-1 
-1 
-1 
-1 
-1 
-1 
-1 
-1 
-1 
-1 
-1 
-1 
-1 
-1 
-1 
-1 
-1 
-1 
-1 
-1 
-1 
-1 
-1 
-1 
-1 
-1 
-1 
-1 
-1 
-1 
-1 
-1 
-1 
-1 
-1 
-1 
-1 
-1 
-1 
-1 
-1 
-1 
-1 
-1 
-1 
-1 
-1 
-1 
-1 
-1 
-1 
-1 
-1 
-1 
-1 
-1 
-1 
-1 
-1 
-1 
-1 
-1 
-1 
-1 
-1 
-1 
-1 
-1 
-1 
-1 
-1 
-1 
-1 
-1 
-1 
-1 
-1 
-1 
-1 
-1 
-1 
-1 
-1 
-1 
-1 
-1 
-1 
-1 
-1 
-1 
-1 
-1 
-1 
-1 
-1 
-1 
-1 
-1 
-1 
-1 
-1 
-1 
-1 
-1 
-1 
-1 
-1 
-1 
-1 
-1 
-1 
-1 
-1 
-1 
-1 
-1 
-1 
-1 
-1 
-1 
-1 
-1 
-1 
-1 
-1 
-1 
-1 
-1 
-1 
-1 
-1 
-1 
-1 
-1 
-1 
-1 
-1 
-1 
-1 
-1 
-1 
-1 
-1 
-1 
-1 
-1 
-1 
-1 
-1 
-1 
-1 
-1 
-1 
-1 
-1 
-1 
-1 
-1 
-1 
-1 
-1 
-1 
-1 
-1 
-1 
-1 
-1 
-1 
-1 
-1 
-1 
-1 
-1 
-1 
-1 
-1 
-1 
-1 
-1 
-1 
-1 
-1 
-1 
-1 
-1 
-1 
-1 
-1 
-1 
-1 
-1 
-1 
-1 
-1 
-1 
-1 
-1 
-1 
-1 
-1 
-1 
-1 
-1 
-1 
-1 
-1 
-1 
-1 
-1 
-1 
-1 
-1 
-1 
-1 
-1 
-1 
-1 
-1 
-1 
-1 
-1 
-1 
-1 
-1 
-1 
-1 
-1 
-1 
-1 
-1 
-1 
-1 
-1 
-1 
-1 
-1 
-1 
-1 
-1 
-1 
-1 
-1 
-1 
-1 
-1 
-1 
-1 
-1 
-1 
-1 
-1 
-1 
-1 
-1 
-1 
-1 
-1 
-1 
-1 
-1 
-1 
-1 
-1 
-1 
-1 
-1 
-1 
-1 
-1 
-1 
-1 
-1 
-1 
-1 
-1 
-1 
-1 
-1 
-1 
-1 
-1 
-1 
-1 
-1 
-1 
-1 
-1 
-1 
-1 
-1 
-1 
-1 
-1 
-1 
-1 
-1 
-1 
-1 
-1 
-1 
-1 
-1 
-1 
-1 
-1 
-1 
-1 
-1 
-1 
-1 
-1 
-1 
-1 
-1 
-1 
-1 
-1 
-1 
-1 
-1 
-1 
-1 
-1 
-1 
-1 
-1 
-1 
-1 
-1 
-1 
-1 
-1 
-1 
-1 
-1 
-1 
-1 
-1 
-1 
-1 
-1 
-1 
-1 
-1 
-1 
-1 
-1 
-1 
-1 
-1 
-1 
-1 
-1 
-1 
-1 
-1 
-1 
-1 
-1 
-1 
-1 
-1 
-1 
-1 
-1 
-1 
-1 
-1 
-1 
-1 
-1 
-1 
-1 
-1 
-1 
-1 
-1 
-1 
-1 
-1 
-1 
-1 
-1 
-1 
-1 
-1 
-1 
-1 
-1 
-1 
-1 
-1 
-1 
-1 
-1 
-1 
-1 
-1 
-1 
-1 
-1 
-1 
-1 
-1 
-1 
-1 
-1 
-1 
-1 
-1 
-1 
-1 
-1 
-1 
-1 
-1 
-1 
-1 
-1 
-1 
-1 
-1 
-1 
-1 
-1 
-1 
-1 
-1 
-1 
-1 
-1 
-1 
-1 
-1 
-1 
-1 
-1 
-1 
-1 
-1 
-1 
-1 
-1 
-1 
-1 
-1 
-1 
-1 
-1 
-1 
-1 
-1 
-1 
-1 
-1 
-1 
-1 
-1 
-1 
-1 
-1 
-1 
-1 
-1 
-1 
-1 
-1 
-1 
-1 
-1 
-1 
-1 
-1 
-1 
-1 
-1 
-1 
-1 
-1 
-1 
-1 
-1 
-1 
-1 
-1 
-1 
-1 
-1 
-1 
-1 
-1 
-1 
-1 
-1 
-1 
-1 
-1 
-1 
-1 
-1 
-1 
-1 
-1 
-1 
-1 
-1 
-1 
-1 
-1 
-1 
-1 
-1 
-1 
-1 
-1 
-1 
-1 
-1 
-1 
-1 
-1 
-1 
-1 
-1 
-1 
-1 
-1 
-1 
-1 
-1 
-1 
-1 
-1 
-1 
-1 
-1 
-1 
-1 
-1 
-1 
-1 
-1 
-1 
-1 
-1 
-1 
-1 
-1 
-1 
-1 
-1 
-1 
-1 
-1 
-1 
-1 
-1 
-1 
-1 
-1 
-1 
-1 
-1 
-1 
-1 
-1 
-1 
-1 
-1 
-1 
-1 
-1 
-1 
-1 
-1 
-1 
-1 
-1 
-1 
-1 
-1 
-1 
-1 
-1 
-1 
-1 
-1 
-1 
-1 
-1 
-1 
-1 
-1 
-1 
-1 
-1 
-1 
-1 
-1 
-1 
-1 
-1 
-1 
-1 
-1 
-1 
-1 
-1 
-1 
-1 
-1 
-1 
-1 
-1 
-1 
-1 
-1 
-1 
-1 
-1 
-1 
-1 
-1 
-1 
-1 
-1 
-1 
-1 
-1 
-1 
-1 
-1 
-1 
-1 
-1 
-1 
-1 
-1 
-1 
-1 
-1 
-1 
-1 
-1 
-1 
-1 
-1 
-1 
-1 
-1 
-1 
-1 
-1 
-1 
-1 
-1 
-1 
-1 
-1 
-1 
-1 
-1 
-1 
-1 
-1 
-1 
-1 
-1 
-1 
-1 
-1 
-1 
-1 
-1 
-1 
-1 
-1 
-1 
-1 
-1 
-1 
-1 
-1 
-1 
-1 
-1 
-1 
-1 
-1 
-1 
-1 
-1 
-1 
-1 
-1 
-1 
-1 
-1 
-1 
-1 
-1 
-1 
-1 
-1 
-1 
-1 
-1 
-1 
-1 
-1 
-1 
-1 
-1 
-1 
-1 
-1 
-1 
-1 
-1 
-1 
-1 
-1 
-1 
-1 
-1 
-1 
-1 
-1 
-1 
-1 
-1 
-1 
-1 
-1 
-1 
-1 
-1 
-1 
-1 
-1 
-1 
-1 
-1 
-1 
-1 
-1 
-1 
-1 
-1 
-1 
-1 
-1 
-1 
-1 
-1 
-1 
-1 
-1 
-1 
-1 
-1 
-1 
-1 
-1 
-1 
-1 
-1 
-1 
-1 
-1 
-1 
-1 
-1 
-1 
-1 
-1 
-1 
-1 
-1 
-1 
-1 
-1 
-1 
-1 
-1 
-1 
-1 
-1 
-1 
-1 
-1 
-1 
-1 
-1 
-1 
-1 
-1 
-1 
-1 
-1 
-1 
-1 
-1 
-1 
-1 
-1 
-1 
-1 
-1 
-1 
-1 
-1 
-1 
-1 
-1 
-1 
-1 
-1 
-1 
-1 
-1 
-1 
-1 
-1 
-1 
-1 
-1 
-1 
-1 
-1 
-1 
-1 
-1 
-1 
-1 
-1 
-1 
-1 
-1 
-1 
-1 
-1 
-1 
-1 
-1 
-1 
-1 
-1 
-1 
-1 
-1 
-1 
-1 
-1 
-1 
-1 
-1 
-1 
-1 
-1 
-1 
-1 
-1 
-1 
-1 
-1 
-1 
-1 
-1 
-1 
-1 
-1 
-1 
-1 
-1 
-1 
-1 
-1 
-1 
-1 
-1 
-1 
-1 
-1 
-1 
-1 
-1 
-1 
-1 
-1 
-1 
-1 
-1 
-1 
-1 
-1 
-1 
-1 
-1 
-1 
-1 
-1 
-1 
-1 
-1 
-1 
-1 
-1 
-1 
-1 
-1 
-1 
-1 
-1 
-1 
-1 
-1 
-1 
-1 
-1 
-1 
-1 
-1 
-1 
-1 
-1 
-1 
-1 
-1 
-1 
-1 
-1 
-1 
-1 
-1 
-1 
-1 
-1 
-1 
-1 
-1 
-1 
-1 
-1 
-1 
-1 
-1 
-1 
-1 
-1 
-1 
-1 
-1 
-1 
-1 
-1 
-1 
-1 
-1 
-1 
-1 
-1 
-1 
-1 
-1 
-1 
-1 
-1 
-1 
-1 
-1 
-1 
-1 
-1 
-1 
-1 
-1 
-1 
-1 
-1 
-1 
-1 
-1 
-1 
-1 
-1 
-1 
-1 
-1 
-1 
-1 
-1 
-1 
-1 
-1 
-1 
-1 
-1 
-1 
-1 
-1 
-1 
-1 
-1 
-1 
-1 
-1 
-1 
-1 
-1 
-1 
-1 
-1 
-1 
-1 
-1 
-1 
-1 
-1 
-1 
-1 
-1 
-1 
-1 
-1 
-1 
-1 
-1 
-1 
-1 
-1 
-1 
-1 
-1 
-1 
-1 
-1 
-1 
-1 
-1 
-1 
-1 
-1 
-1 
-1 
-1 
-1 
-1 
-1 
-1 
-1 
-1 
-1 
-1 
-1 
-1 
-1 
-1 
-1 
-1 
-1 
-1 
-1 
-1 
-1 
-1 
-1 
-1 
-1 
-1 
-1 
-1 
-1 
-1 
-1 
-1 
-1 
-1 
-1 
-1 
-1 
-1 
-1 
-1 
-1 
-1 
-1 
-1 
-1 
-1 
-1 
-1 
-1 
-1 
-1 
-1 
-1 
-1 
-1 
-1 
-1 
-1 
-1 
-1 
-1 
-1 
-1 
-1 
-1 
-1 
-1 
-1 
-1 
-1 
-1 
-1 
-1 
-1 
-1 
-1 
-1 
-1 
-1 
-1 
-1 
-1 
-1 
-1 
-1 
-1 
-1 
-1 
-1 
-1 
-1 
-1 
-1 
-1 
-1 
-1 
-1 
-1 
-1 
-1 
-1 
-1 
-1 
-1 
-1 
-1 
-1 
-1 
-1 
-1 
-1 
-1 
-1 
-1 
-1 
-1 
-1 
-1 
-1 
-1 
-1 
-1 
-1 
-1 
-1 
-1 
-1 
-1 
-1 
-1 
-1 
-1 
-1 
-1 
-1 
-1 
-1 
-1 
-1 
-1 
-1 
-1 
-1 
-1 
-1 
-1 
-1 
-1 
-1 
-1 
-1 
-1 
-1 
-1 
-1 
-1 
-1 
-1 
-1 
-1 
-1 
-1 
-1 
-1 
-1 
-1 
-1 
-1 
-1 
-1 
-1 
-1 
-1 
-1 
-1 
-1 
-1 
-1 
-1 
-1 
-1 
-1 
-1 
-1 
-1 
-1 
-1 
-1 
-1 
-1 
-1 
-1 
-1 
-1 
-1 
-1 
-1 
-1 
-1 
-1 
-1 
-1 
-1 
-1 
-1 
-1 
-1 
-1 
-1 
-1 
-1 
-1 
-1 
-1 
-1 
-1 
-1 
-1 
-1 
-1 
-1 
-1 
-1 
-1 
-1 
-1 
-1 
-1 
-1 
-1 
-1 
-1 
-1 
-1 
-1 
-1 
-1 
-1 
-1 
-1 
-1 
-1 
-1 
-1 
-1 
-1 
-1 
-1 
-1 
-1 
-1 
-1 
-1 
-1 
-1 
-1 
-1 
-1 
-1 
-1 
-1 
-1 
-1 
-1 
-1 
-1 
-1 
-1 
-1 
-1 
-1 
-1 
-1 
-1 
-1 
-1 
-1 
-1 
-1 
-1 
-1 
-1 
-1 
-1 
-1 
-1 
-1 
-1 
-1 
-1 
-1 
-1 
-1 
-1 
-1 
-1 
-1 
-1 
-1 
-1 
-1 
-1 
-1 
-1 
-1 
-1 
-1 
-1 
-1 
-1 
-1 
-1 
-1 
-1 
-1 
-1 
-1 
-1 
-1 
-1 
-1 
-1 
-1 
-1 
-1 
-1 
-1 
-1 
-1 
-1 
-1 
-1 
-1 
-1 
-1 
-1 
-1 
-1 
-1 
-1 
-1 
-1 
-1 
-1 
-1 
-1 
-1 
-1 
-1 
-1 
-1 
-1 
-1 
-1 
-1 
-1 
-1 
-1 
-1 
-1 
-1 
-1 
-1 
-1 
-1 
-1 
-1 
-1 
-1 
-1 
-1 
-1 
-1 
-1 
-1 
-1 
-1 
-1 
-1 
-1 
-1 
-1 
-1 
-1 
-1 
-1 
-1 
-1 
-1 
-1 
-1 
-1 
-1 
-1 
-1 
-1 
-1 
-1 
-1 
-1 
-1 
-1 
-1 
-1 
-1 
-1 
-1 
-1 
-1 
-1 
-1 
-1 
-1 
-1 
-1 
-1 
-1 
-1 
-1 
-1 
-1 
-1 
-1 
-1 
-1 
-1 
-1 
-1 
-1 
-1 
-1 
-1 
-1 
-1 
-1 
-1 
-1 
-1 
-1 
-1 
-1 
-1 
-1 
-1 
-1 
-1 
-1 
-1 
-1 
-1 
-1 
-1 
-1 
-1 
-1 
-1 
-1 
-1 
-1 
-1 
-1 
-1 
-1 
-1 
-1 
-1 
-1 
-1 
-1 
-1 
-1 
-1 
-1 
-1 
-1 
-1 
-1 
-1 
-1 
-1 
-1 
-1 
-1 
-1 
-1 
-1 
-1 
-1 
-1 
-1 
-1 
-1 
-1 
-1 
-1 
-1 
-1 
-1 
-1 
-1 
-1 
-1 
-1 
-1 
-1 
-1 
-1 
-1 
-1 
-1 
-1 
-1 
-1 
-1 
-1 
-1 
-1 
-1 
-1 
-1 
-1 
-1 
-1 
-1 
-1 
-1 
-1 
-1 
-1 
-1 
-1 
-1 
-1 
-1 
-1 
-1 
-1 
-1 
-1 
-1 
-1 
-1 
-1 
-1 
-1 
-1 
-1 
-1 
-1 
-1 
-1 
-1 
-1 
-1 
-1 
-1 
-1 
-1 
-1 
-1 
-1 
-1 
-1 
-1 
-1 
-1 
-1 
-1 
-1 
-1 
-1 
-1 
-1 
-1 
-1 
-1 
-1 
-1 
-1 
-1 
-1 
-1 
-1 
-1 
-1 
-1 
-1 
-1 
-1 
-1 
-1 
-1 
-1 
-1 
-1 
-1 
-1 
-1 
-1 
-1 
-1 
-1 
-1 
-1 
-1 
-1 
-1 
-1 
-1 
-1 
-1 
-1 
-1 
-1 
-1 
-1 
-1 
-1 
-1 
-1 
-1 
-1 
-1 
-1 
-1 
-1 
-1 
-1 
-1 
-1 
-1 
-1 
-1 
-1 
-1 
-1 
-1 
-1 
-1 
-1 
-1 
-1 
-1 
-1 
-1 
-1 
-1 
-1 
-1 
-1 
-1 
-1 
-1 
-1 
-1 
-1 
-1 
-1 
-1 
-1 
-1 
-1 
-1 
-1 
-1 
-1 
-1 
-1 
-1 
-1 
-1 
-1 
-1 
-1 
-1 
-1 
-1 
-1 
-1 
-1 
-1 
-1 
-1 
-1 
-1 
-1 
-1 
-1 
-1 
-1 
-1 
-1 
-1 
-1 
-1 
-1 
-1 
-1 
-1 
-1 
-1 
-1 
-1 
-1 
-1 
-1 
-1 
-1 
-1 
-1 
-1 
-1 
-1 
-1 
-1 
-1 
-1 
-1 
-1 
-1 
-1 
-1 
-1 
-1 
-1 
-1 
-1 
-1 
-1 
-1 
-1 
-1 
-1 
-1 
-1 
-1 
-1 
-1 
-1 
-1 
-1 
-1 
-1 
-1 
-1 
-1 
-1 
-1 
-1 
-1 
-1 
-1 
-1 
-1 
-1 
-1 
-1 
-1 
-1 
-1 
-1 
-1 
-1 
-1 
-1 
-1 
-1 
-1 
-1 
-1 
-1 
-1 
-1 
-1 
-1 
-1 
-1 
-1 
-1 
-1 
-1 
-1 
-1 
-1 
-1 
-1 
-1 
-1 
-1 
-1 
-1 
-1 
-1 
-1 
-1 
-1 
-1 
-1 
-1 
-1 
-1 
-1 
-1 
-1 
-1 
-1 
-1 
-1 
-1 
-1 
-1 
-1 
-1 
-1 
-1 
-1 
-1 
-1 
-1 
-1 
-1 
-1 
-1 
-1 
-1 
-1 
-1 
-1 
-1 
-1 
-1 
-1 
-1 
-1 
-1 
-1 
-1 
-1 
-1 
-1 
-1 
-1 
-1 
-1 
-1 
-1 
-1 
-1 
-1 
-1 
-1 
-1 
-1 
-1 
-1 
-1 
-1 
-1 
-1 
-1 
-1 
-1 
-1 
-1 
-1 
-1 
-1 
-1 
-1 
-1 
-1 
-1 
-1 
-1 
-1 
-1 
-1 
-1 
-1 
-1 
-1 
-1 
-1 
-1 
-1 
-1 
-1 
-1 
-1 
-1 
-1 
-1 
-1 
-1 
-1 
-1 
-1 
-1 
-1 
-1 
-1 
-1 
-1 
-1 
-1 
-1 
-1 
-1 
-1 
-1 
-1 
-1 
-1 
-1 
-1 
-1 
-1 
-1 
-1 
-1 
-1 
-1 
-1 
-1 
-1 
-1 
-1 
-1 
-1 
-1 
-1 
-1 
-1 
-1 
-1 
-1 
-1 
-1 
-1 
-1 
-1 
-1 
-1 
-1 
-1 
-1 
-1 
-1 
-1 
-1 
-1 
-1 
-1 
-1 
-1 
-1 
-1 
-1 
-1 
-1 
-1 
-1 
-1 
-1 
-1 
-1 
-1 
-1 
-1 
-1 
-1 
-1 
-1 
-1 
-1 
-1 
-1 
-1 
-1 
-1 
-1 
-1 
-1 
-1 
-1 
-1 
-1 
-1 
-1 
-1 
-1 
-1 
-1 
-1 
-1 
-1 
-1 
-1 
-1 
-1 
-1 
-1 
-1 
-1 
-1 
-1 
-1 
-1 
-1 
-1 
-1 
-1 
-1 
-1 
-1 
-1 
-1 
-1 
-1 
-1 
-1 
-1 
-1 
-1 
-1 
-1 
-1 
-1 
-1 
-1 
-1 
-1 
-1 
-1 
-1 
-1 
-1 
-1 
-1 
-1 
-1 
-1 
-1 
-1 
-1 
-1 
-1 
-1 
-1 
-1 
-1 
-1 
-1 
-1 
-1 
-1 
-1 
-1 
-1 
-1 
-1 
-1 
-1 
-1 
-1 
-1 
-1 
-1 
-1 
-1 
-1 
-1 
-1 
-1 
-1 
-1 
-1 
-1 
-1 
-1 
-1 
-1 
-1 
-1 
-1 
-1 
-1 
-1 
-1 
-1 
-1 
-1 
-1 
-1 
-1 
-1 
-1 
-1 
-1 
-1 
-1 
-1 
-1 
-1 
-1 
-1 
-1 
-1 
-1 
-1 
-1 
-1 
-1 
-1 
-1 
-1 
-1 
-1 
-1 
-1 
-1 
-1 
-1 
-1 
-1 
-1 
-1 
-1 
-1 
-1 
-1 
-1 
-1 
-1 
-1 
-1 
-1 
-1 
-1 
-1 
-1 
-1 
-1 
-1 
-1 
-1 
-1 
-1 
-1 
-1 
-1 
-1 
-1 
-1 
-1 
-1 
-1 
-1 
-1 
-1 
-1 
-1 
-1 
-1 
-1 
-1 
-1 
-1 
-1 
-1 
-1 
-1 
-1 
-1 
-1 
-1 
-1 
-1 
-1 
-1 
-1 
-1 
-1 
-1 
-1 
-1 
-1 
-1 
-1 
-1 
-1 
-1 
-1 
-1 
-1 
-1 
-1 
-1 
-1 
-1 
-1 
-1 
-1 
-1 
-1 
-1 
-1 
-1 
-1 
-1 
-1 
-1 
-1 
-1 
-1 
-1 
-1 
-1 
-1 
-1 
-1 
-1 
-1 
-1 
-1 
-1 
-1 
-1 
-1 
-1 
-1 
-1 
-1 
-1 
-1 
-1 
-1 
-1 
-1 
-1 
-1 
-1 
-1 
-1 
-1 
-1 
-1 
-1 
-1 
-1 
-1 
-1 
-1 
-1 
-1 
-1 
-1 
-1 
-1 
-1 
-1 
-1 
-1 
-1 
-1 
-1 
-1 
-1 
-1 
-1 
-1 
-1 
-1 
-1 
-1 
-1 
-1 
-1 
-1 
-1 
-1 
-1 
-1 
-1 
-1 
-1 
-1 
-1 
-1 
-1 
-1 
-1 
-1 
-1 
-1 
-1 
-1 
-1 
-1 
-1 
-1 
-1 
-1 
-1 
-1 
-1 
-1 
-1 
-1 
-1 
-1 
-1 
-1 
-1 
-1 
-1 
-1 
-1 
-1 
-1 
-1 
-1 
-1 
-1 
-1 
-1 
-1 
-1 
-1 
-1 
-1 
-1 
-1 
-1 
-1 
-1 
-1 
-1 
-1 
-1 
-1 
-1 
-1 
-1 
-1 
-1 
-1 
-1 
-1 
-1 
-1 
-1 
-1 
-1 
-1 
-1 
-1 
-1 
-1 
-1 
-1 
-1 
-1 
-1 
-1 
-1 
-1 
-1 
-1 
-1 
-1 
-1 
-1 
-1 
-1 
-1 
-1 
-1 
-1 
-1 
-1 
-1 
-1 
-1 
-1 
-1 
-1 
-1 
-1 
-1 
-1 
-1 
-1 
-1 
-1 
-1 
-1 
-1 
-1 
-1 
-1 
-1 
-1 
-1 
-1 
-1 
-1 
-1 
-1 
-1 
-1 
-1 
-1 
-1 
-1 
-1 
-1 
-1 
-1 
-1 
-1 
-1 
-1 
-1 
-1 
-1 
-1 
-1 
-1 
-1 
-1 
-1 
-1 
-1 
-1 
-1 
-1 
-1 
-1 
-1 
-1 
-1 
-1 
-1 
-1 
-1 
-1 
-1 
-1 
-1 
-1 
-1 
-1 
-1 
-1 
-1 
-1 
-1 
-1 
-1 
-1 
-1 
-1 
-1 
-1 
-1 
-1 
-1 
-1 
-1 
-1 
-1 
-1 
-1 
-1 
-1 
-1 
-1 
-1 
-1 
-1 
-1 
-1 
-1 
-1 
-1 
-1 
-1 
-1 
-1 
-1 
-1 
-1 
-1 
-1 
-1 
-1 
-1 
-1 
-1 
-1 
-1 
-1 
-1 
-1 
-1 
-1 
-1 
-1 
-1 
-1 
-1 
-1 
-1 
-1 
-1 
-1 
-1 
-1 
-1 
-1 
-1 
-1 
-1 
-1 
-1 
-1 
-1 
-1 
-1 
-1 
-1 
-1 
-1 
-1 
-1 
-1 
-1 
-1 
-1 
-1 
-1 
-1 
-1 
-1 
-1 
-1 
-1 
-1 
-1 
-1 
-1 
-1 
-1 
-1 
-1 
-1 
-1 
-1 
-1 
-1 
-1 
-1 
-1 
-1 
-1 
-1 
-1 
-1 
-1 
-1 
-1 
-1 
-1 
-1 
-1 
-1 
-1 
-1 
-1 
-1 
-1 
-1 
-1 
-1 
-1 
-1 
-1 
-1 
-1 
-1 
-1 
-1 
-1 
-1 
-1 
-1 
-1 
-1 
-1 
-1 
-1 
-1 
-1 
-1 
-1 
-1 
-1 
-1 
-1 
-1 
-1 
-1 
-1 
-1 
-1 
-1 
-1 
-1 
-1 
-1 
-1 
-1 
-1 
-1 
-1 
-1 
-1 
-1 
-1 
-1 
-1 
-1 
-1 
-1 
-1 
-1 
-1 
-1 
-1 
-1 
-1 
-1 
-1 
-1 
-1 
-1 
-1 
-1 
-1 
-1 
-1 
-1 
-1 
-1 
-1 
-1 
-1 
-1 
-1 
-1 
-1 
-1 
-1 
-1 
-1 
-1 
-1 
-1 
-1 
-1 
-1 
-1 
-1 
-1 
-1 
-1 
-1 
-1 
-1 
-1 
-1 
-1 
-1 
-1 
-1 
-1 
-1 
-1 
-1 
-1 
-1 
-1 
-1 
-1 
-1 
-1 
-1 
-1 
-1 
-1 
-1 
-1 
-1 
-1 
-1 
-1 
-1 
-1 
-1 
-1 
-1 
-1 
-1 
-1 
-1 
-1 
-1 
-1 
-1 
-1 
-1 
-1 
-1 
-1 
-1 
-1 
-1 
-1 
-1 
-1 
-1 
-1 
-1 
-1 
-1 
-1 
-1 
-1 
-1 
-1 
-1 
-1 
-1 
-1 
-1 
-1 
-1 
-1 
-1 
-1 
-1 
-1 
-1 
-1 
-1 
-1 
-1 
-1 
-1 
-1 
-1 
-1 
-1 
-1 
-1 
-1 
-1 
-1 
-1 
-1 
-1 
-1 
-1 
-1 
-1 
-1 
-1 
-1 
-1 
-1 
-1 
-1 
-1 
-1 
-1 
-1 
-1 
-1 
-1 
-1 
-1 
-1 
-1 
-1 
-1 
-1 
-1 
-1 
-1 
-1 
-1 
-1 
-1 
-1 
-1 
-1 
-1 
-1 
-1 
-1 
-1 
-1 
-1 
-1 
-1 
-1 
-1 
-1 
-1 
-1 
-1 
-1 
-1 
-1 
-1 
-1 
-1 
-1 
-1 
-1 
-1 
-1 
-1 
-1 
-1 
-1 
-1 
-1 
-1 
-1 
-1 
-1 
-1 
-1 
-1 
-1 
-1 
-1 
-1 
-1 
-1 
-1 
-1 
-1 
-1 
-1 
-1 
-1 
-1 
-1 
-1 
-1 
-1 
-1 
-1 
-1 
-1 
-1 
-1 
-1 
-1 
-1 
-1 
-1 
-1 
-1 
-1 
-1 
-1 
-1 
-1 
-1 
-1 
-1 
-1 
-1 
-1 
-1 
-1 
-1 
-1 
-1 
-1 
-1 
-1 
-1 
-1 
-1 
-1 
-1 
-1 
-1 
-1 
-1 
-1 
-1 
-1 
-1 
-1 
-1 
-1 
-1 
-1 
-1 
-1 
-1 
-1 
-1 
-1 
-1 
-1 
-1 
-1 
-1 
-1 
-1 
-1 
-1 
-1 
-1 
-1 
-1 
-1 
-1 
-1 
-1 
-1 
-1 
-1 
-1 
-1 
-1 
-1 
-1 
-1 
-1 
-1 
-1 
-1 
-1 
-1 
-1 
-1 
-1 
-1 
-1 
-1 
-1 
-1 
-1 
-1 
-1 
-1 
-1 
-1 
-1 
-1 
-1 
-1 
-1 
-1 
-1 
-1 
-1 
-1 
-1 
-1 
-1 
-1 
-1 
-1 
-1 
-1 
-1 
-1 
-1 
-1 
-1 
-1 
-1 
-1 
-1 
-1 
-1 
-1 
-1 
-1 
-1 
-1 
-1 
-1 
-1 
-1 
-1 
-1 
-1 
-1 
-1 
-1 
-1 
-1 
-1 
-1 
-1 
-1 
-1 
-1 
-1 
-1 
-1 
-1 
-1 
-1 
-1 
-1 
-1 
-1 
-1 
-1 
-1 
-1 
-1 
-1 
-1 
-1 
-1 
-1 
-1 
-1 
-1 
-1 
-1 
-1 
-1 
-1 
-1 
-1 
-1 
-1 
-1 
-1 
-1 
-1 
-1 
-1 
-1 
-1 
-1 
-1 
-1 
-1 
-1 
-1 
-1 
-1 
-1 
-1 
-1 
-1 
-1 
-1 
-1 
-1 
-1 
-1 
-1 
-1 
-1 
-1 
-1 
-1 
-1 
-1 
-1 
-1 
-1 
-1 
-1 
-1 
-1 
-1 
-1 
-1 
-1 
-1 
-1 
-1 
-1 
-1 
-1 
-1 
-1 
-1 
-1 
-1 
-1 
-1 
-1 
-1 
-1 
-1 
-1 
-1 
-1 
-1 
-1 
-1 
-1 
-1 
-1 
-1 
-1 
-1 
-1 
-1 
-1 
-1 
-1 
-1 
-1 
-1 
-1 
-1 
-1 
-1 
-1 
-1 
-1 
-1 
-1 
-1 
-1 
-1 
-1 
-1 
-1 
-1 
-1 
-1 
-1 
-1 
-1 
-1 
-1 
-1 
-1 
-1 
-1 
-1 
-1 
-1 
-1 
-1 
-1 
-1 
-1 
-1 
-1 
-1 
-1 
-1 
-1 
-1 
-1 
-1 
-1 
-1 
-1 
-1 
-1 
-1 
-1 
-1 
-1 
-1 
-1 
-1 
-1 
-1 
-1 
-1 
-1 
-1 
-1 
-1 
-1 
-1 
-1 
-1 
-1 
-1 
-1 
-1 
-1 
-1 
-1 
-1 
-1 
-1 
-1 
-1 
-1 
-1 
-1 
-1 
-1 
-1 
-1 
-1 
-1 
-1 
-1 
-1 
-1 
-1 
-1 
-1 
-1 
-1 
-1 
-1 
-1 
-1 
-1 
-1 
-1 
-1 
-1 
-1 
-1 
-1 
-1 
-1 
-1 
-1 
-1 
-1 
-1 
-1 
-1 
-1 
-1 
-1 
-1 
-1 
-1 
-1 
-1 
-1 
-1 
-1 
-1 
-1 
-1 
-1 
-1 
-1 
-1 
-1 
-1 
-1 
-1 
-1 
-1 
-1 
-1 
-1 
-1 
-1 
-1 
-1 
-1 
-1 
-1 
-1 
-1 
-1 
-1 
-1 
-1 
-1 
-1 
-1 
-1 
-1 
-1 
-1 
-1 
-1 
-1 
-1 
-1 
-1 
-1 
-1 
-1 
-1 
-1 
-1 
-1 
-1 
-1 
-1 
-1 
-1 
-1 
-1 
-1 
-1 
-1 
-1 
-1 
-1 
-1 
-1 
-1 
-1 
-1 
-1 
-1 
-1 
-1 
-1 
-1 
-1 
-1 
-1 
-1 
-1 
-1 
-1 
-1 
-1 
-1 
-1 
-1 
-1 
-1 
-1 
-1 
-1 
-1 
-1 
-1 
-1 
-1 
-1 
-1 
-1 
-1 
-1 
-1 
-1 
-1 
-1 
-1 
-1 
-1 
-1 
-1 
-1 
-1 
-1 
-1 
-1 
-1 
-1 
-1 
-1 
-1 
-1 
-1 
-1 
-1 
-1 
-1 
-1 
-1 
-1 
-1 
-1 
-1 
-1 
-1 
-1 
-1 
-1 
-1 
-1 
-1 
-1 
-1 
-1 
-1 
-1 
-1 
-1 
-1 
-1 
-1 
-1 
-1 
-1 
-1 
-1 
-1 
-1 
-1 
-1 
-1 
-1 
-1 
-1 
-1 
-1 
-1 
-1 
-1 
-1 
-1 
-1 
-1 
-1 
-1 
-1 
-1 
-1 
-1 
-1 
-1 
-1 
-1 
-1 
-1 
-1 
-1 
-1 
-1 
-1 
-1 
-1 
-1 
-1 
-1 
-1 
-1 
-1 
-1 
-1 
-1 
-1 
-1 
-1 
-1 
-1 
-1 
-1 
-1 
-1 
-1 
-1 
-1 
-1 
-1 
-1 
-1 
-1 
-1 
-1 
-1 
-1 
-1 
-1 
-1 
-1 
-1 
-1 
-1 
-1 
-1 
-1 
-1 
-1 
-1 
-1 
-1 
-1 
-1 
-1 
-1 
-1 
-1 
-1 
-1 
-1 
-1 
-1 
-1 
-1 
-1 
-1 
-1 
-1 
-1 
-1 
-1 
-1 
-1 
-1 
-1 
-1 
-1 
-1 
-1 
-1 
-1 
-1 
-1 
-1 
-1 
-1 
-1 
-1 
-1 
-1 
-1 
-1 
-1 
-1 
-1 
-1 
-1 
-1 
-1 
-1 
-1 
-1 
-1 
-1 
-1 
-1 
-1 
-1 
-1 
-1 
-1 
-1 
-1 
-1 
-1 
-1 
-1 
-1 
-1 
-1 
-1 
-1 
-1 
-1 
-1 
-1 
-1 
-1 
-1 
-1 
-1 
-1 
-1 
-1 
-1 
-1 
-1 
-1 
-1 
-1 
-1 
-1 
-1 
-1 
-1 
-1 
-1 
-1 
-1 
-1 
-1 
-1 
-1 
-1 
-1 
-1 
-1 
-1 
-1 
-1 
-1 
-1 
-1 
-1 
-1 
-1 
-1 
-1 
-1 
-1 
-1 
-1 
-1 
-1 
-1 
-1 
-1 
-1 
-1 
-1 
-1 
-1 
-1 
-1 
-1 
-1 
-1 
-1 
-1 
-1 
-1 
-1 
-1 
-1 
-1 
-1 
-1 
-1 
-1 
-1 
-1 
-1 
-1 
-1 
-1 
-1 
-1 
-1 
-1 
-1 
-1 
-1 
-1 
-1 
-1 
-1 
-1 
-1 
-1 
-1 
-1 
-1 
-1 
-1 
-1 
-1 
-1 
-1 
-1 
-1 
-1 
-1 
-1 
-1 
-1 
-1 
-1 
-1 
-1 
-1 
-1 
-1 
-1 
-1 
-1 
-1 
-1 
-1 
-1 
-1 
-1 
-1 
-1 
-1 
-1 
-1 
-1 
-1 
-1 
-1 
-1 
-1 
-1 
-1 
-1 
-1 
-1 
-1 
-1 
-1 
-1 
-1 
-1 
-1 
-1 
-1 
-1 
-1 
-1 
-1 
-1 
-1 
-1 
-1 
-1 
-1 
-1 
-1 
-1 
-1 
-1 
-1 
-1 
-1 
-1 
-1 
-1 
-1 
-1 
-1 
-1 
-1 
-1 
-1 
-1 
-1 
-1 
-1 
-1 
-1 
-1 
-1 
-1 
-1 
-1 
-1 
-1 
-1 
-1 
-1 
-1 
-1 
-1 
-1 
-1 
-1 
-1 
-1 
-1 
-1 
-1 
-1 
-1 
-1 
-1 
-1 
-1 
-1 
-1 
-1 
-1 
-1 
-1 
-1 
-1 
-1 
-1 
-1 
-1 
-1 
-1 
-1 
-1 
-1 
-1 
-1 
-1 
-1 
-1 
-1 
-1 
-1 
-1 
-1 
-1 
-1 
-1 
-1 
-1 
-1 
-1 
-1 
-1 
-1 
-1 
-1 
-1 
-1 
-1 
-1 
-1 
-1 
-1 
-1 
-1 
-1 
-1 
-1 
-1 
-1 
-1 
-1 
-1 
-1 
-1 
-1 
-1 
-1 
-1 
-1 
-1 
-1 
-1 
-1 
-1 
-1 
-1 
-1 
-1 
-1 
-1 
-1 
-1 
-1 
-1 
-1 
-1 
-1 
-1 
-1 
-1 
-1 
-1 
-1 
-1 
-1 
-1 
-1 
-1 
-1 
-1 
-1 
-1 
-1 
-1 
-1 
-1 
-1 
-1 
-1 
-1 
-1 
-1 
-1 
-1 
-1 
-1 
-1 
-1 
-1 
-1 
-1 
-1 
-1 
-1 
-1 
-1 
-1 
-1 
-1 
-1 
-1 
-1 
-1 
-1 
-1 
-1 
-1 
-1 
-1 
-1 
-1 
-1 
-1 
-1 
-1 
-1 
-1 
-1 
-1 
-1 
-1 
-1 
-1 
-1 
-1 
-1 
-1 
-1 
-1 
-1 
-1 
-1 
-1 
-1 
-1 
-1 
-1 
-1 
-1 
-1 
-1 
-1 
-1 
-1 
-1 
-1 
-1 
-1 
-1 
-1 
-1 
-1 
-1 
-1 
-1 
-1 
-1 
-1 
-1 
-1 
-1 
-1 
-1 
-1 
-1 
-1 
-1 
-1 
-1 
-1 
-1 
-1 
-1 
-1 
-1 
-1 
-1 
-1 
-1 
-1 
-1 
-1 
-1 
-1 
-1 
-1 
-1 
-1 
-1 
-1 
-1 
-1 
-1 
-1 
-1 
-1 
-1 
-1 
-1 
-1 
-1 
-1 
-1 
-1 
-1 
-1 
-1 
-1 
-1 
-1 
-1 
-1 
-1 
-1 
-1 
-1 
-1 
-1 
-1 
-1 
-1 
-1 
-1 
-1 
-1 
-1 
-1 
-1 
-1 
-1 
-1 
-1 
-1 
-1 
-1 
-1 
-1 
-1 
-1 
-1 
-1 
-1 
-1 
-1 
-1 
-1 
-1 
-1 
-1 
-1 
-1 
-1 
-1 
-1 
-1 
-1 
-1 
-1 
-1 
-1 
-1 
-1 
-1 
-1 
-1 
-1 
-1 
-1 
-1 
-1 
-1 
-1 
-1 
-1 
-1 
-1 
-1 
-1 
-1 
-1 
-1 
-1 
-1 
-1 
-1 
-1 
-1 
-1 
-1 
-1 
-1 
-1 
-1 
-1 
-1 
-1 
-1 
-1 
-1 
-1 
-1 
-1 
-1 
-1 
-1 
-1 
-1 
-1 
-1 
-1 
-1 
-1 
-1 
-1 
-1 
-1 
-1 
-1 
-1 
-1 
-1 
-1 
-1 
-1 
-1 
-1 
-1 
-1 
-1 
-1 
-1 
-1 
-1 
-1 
-1 
-1 
-1 
-1 
-1 
-1 
-1 
-1 
-1 
-1 
-1 
-1 
-1 
-1 
-1 
-1 
-1 
-1 
-1 
-1 
-1 
-1 
-1 
-1 
-1 
-1 
-1 
-1 
-1 
-1 
-1 
-1 
-1 
-1 
-1 
-1 
-1 
-1 
-1 
-1 
-1 
-1 
-1 
-1 
-1 
-1 
-1 
-1 
-1 
-1 
-1 
-1 
-1 
-1 
-1 
-1 
-1 
-1 
-1 
-1 
-1 
-1 
-1 
-1 
-1 
-1 
-1 
-1 
-1 
-1 
-1 
-1 
-1 
-1 
-1 
-1 
-1 
-1 
-1 
-1 
-1 
-1 
-1 
-1 
-1 
-1 
-1 
-1 
-1 
-1 
-1 
-1 
-1 
-1 
-1 
-1 
-1 
-1 
-1 
-1 
-1 
-1 
-1 
-1 
-1 
-1 
-1 
-1 
-1 
-1 
-1 
-1 
-1 
-1 
-1 
-1 
-1 
-1 
-1 
-1 
-1 
-1 
-1 
-1 
-1 
-1 
-1 
-1 
-1 
-1 
-1 
-1 
-1 
-1 
-1 
-1 
-1 
-1 
-1 
-1 
-1 
-1 
-1 
-1 
-1 
-1 
-1 
-1 
-1 
-1 
-1 
-1 
-1 
-1 
-1 
-1 
-1 
-1 
-1 
-1 
-1 
-1 
-1 
-1 
-1 
-1 
-1 
-1 
-1 
-1 
-1 
-1 
-1 
-1 
-1 
-1 
-1 
-1 
-1 
-1 
-1 
-1 
-1 
-1 
-1 
-1 
-1 
-1 
-1 
-1 
-1 
-1 
-1 
-1 
-1 
-1 
-1 
-1 
-1 
-1 
-1 
-1 
-1 
-1 
-1 
-1 
-1 
-1 
-1 
-1 
-1 
-1 
-1 
-1 
-1 
-1 
-1 
-1 
-1 
-1 
-1 
-1 
-1 
-1 
-1 
-1 
-1 
-1 
-1 
-1 
-1 
-1 
-1 
-1 
-1 
-1 
-1 
-1 
-1 
-1 
-1 
-1 
-1 
-1 
-1 
-1 
-1 
-1 
-1 
-1 
-1 
-1 
-1 
-1 
-1 
-1 
-1 
-1 
-1 
-1 
-1 
-1 
-1 
-1 
-1 
-1 
-1 
-1 
-1 
-1 
-1 
-1 
-1 
-1 
-1 
-1 
-1 
-1 
-1 
-1 
-1 
-1 
-1 
-1 
-1 
-1 
-1 
-1 
-1 
-1 
-1 
-1 
-1 
-1 
-1 
-1 
-1 
-1 
-1 
-1 
-1 
-1 
-1 
-1 
-1 
-1 
-1 
-1 
-1 
-1 
-1 
-1 
-1 
-1 
-1 
-1 
-1 
-1 
-1 
-1 
-1 
-1 
-1 
-1 
-1 
-1 
-1 
-1 
-1 
-1 
-1 
-1 
-1 
-1 
-1 
-1 
-1 
-1 
-1 
-1 
-1 
-1 
-1 
-1 
-1 
-1 
-1 
-1 
-1 
-1 
-1 
-1 
-1 
-1 
-1 
-1 
-1 
-1 
-1 
-1 
-1 
-1 
-1 
-1 
-1 
-1 
-1 
-1 
-1 
-1 
-1 
-1 
-1 
-1 
-1 
-1 
-1 
-1 
-1 
-1 
-1 
-1 
-1 
-1 
-1 
-1 
-1 
-1 
-1 
-1 
-1 
-1 
-1 
-1 
-1 
-1 
-1 
-1 
-1 
-1 
-1 
-1 
-1 
-1 
-1 
-1 
-1 
-1 
-1 
-1 
-1 
-1 
-1 
-1 
-1 
-1 
-1 
-1 
-1 
-1 
-1 
-1 
-1 
-1 
-1 
-1 
-1 
-1 
-1 
-1 
-1 
-1 
-1 
-1 
-1 
-1 
-1 
-1 
-1 
-1 
-1 
-1 
-1 
-1 
-1 
-1 
-1 
-1 
-1 
-1 
-1 
-1 
-1 
-1 
-1 
-1 
-1 
-1 
-1 
-1 
-1 
-1 
-1 
-1 
-1 
-1 
-1 
-1 
-1 
-1 
-1 
-1 
-1 
-1 
-1 
-1 
-1 
-1 
-1 
-1 
-1 
-1 
-1 
-1 
-1 
-1 
-1 
-1 
-1 
-1 
-1 
-1 
-1 
-1 
-1 
-1 
-1 
-1 
-1 
-1 
-1 
-1 
-1 
-1 
-1 
-1 
-1 
-1 
-1 
-1 
-1 
-1 
-1 
-1 
-1 
-1 
-1 
-1 
-1 
-1 
-1 
-1 
-1 
-1 
-1 
-1 
-1 
-1 
-1 
-1 
-1 
-1 
-1 
-1 
-1 
-1 
-1 
-1 
-1 
-1 
-1 
-1 
-1 
-1 
-1 
-1 
-1 
-1 
-1 
-1 
-1 
-1 
-1 
-1 
-1 
-1 
-1 
-1 
-1 
-1 
-1 
-1 
-1 
-1 
-1 
-1 
-1 
-1 
-1 
-1 
-1 
-1 
-1 
-1 
-1 
-1 
-1 
-1 
-1 
-1 
-1 
-1 
-1 
-1 
-1 
-1 
-1 
-1 
-1 
-1 
-1 
-1 
-1 
-1 
-1 
-1 
-1 
-1 
-1 
-1 
-1 
-1 
-1 
-1 
-1 
-1 
-1 
-1 
-1 
-1 
-1 
-1 
-1 
-1 
-1 
-1 
-1 
-1 
-1 
-1 
-1 
-1 
-1 
-1 
-1 
-1 
-1 
-1 
-1 
-1 
-1 
-1 
-1 
-1 
-1 
-1 
-1 
-1 
-1 
-1 
-1 
-1 
-1 
-1 
-1 
-1 
-1 
-1 
-1 
-1 
-1 
-1 
-1 
-1 
-1 
-1 
-1 
-1 
-1 
-1 
-1 
-1 
-1 
-1 
-1 
-1 
-1 
-1 
-1 
-1 
-1 
-1 
-1 
-1 
-1 
-1 
-1 
-1 
-1 
-1 
-1 
-1 
-1 
-1 
-1 
-1 
-1 
-1 
-1 
-1 
-1 
-1 
-1 
-1 
-1 
-1 
-1 
-1 
-1 
-1 
-1 
-1 
-1 
-1 
-1 
-1 
-1 
-1 
-1 
-1 
-1 
-1 
-1 
-1 
-1 
-1 
-1 
-1 
-1 
-1 
-1 
-1 
-1 
-1 
-1 
-1 
-1 
-1 
-1 
-1 
-1 
-1 
-1 
-1 
-1 
-1 
-1 
-1 
-1 
-1 
-1 
-1 
-1 
-1 
-1 
-1 
-1 
-1 
-1 
-1 
-1 
-1 
-1 
-1 
-1 
-1 
-1 
-1 
-1 
-1 
-1 
-1 
-1 
-1 
-1 
-1 
-1 
-1 
-1 
-1 
-1 
-1 
-1 
-1 
-1 
-1 
-1 
-1 
-1 
-1 
-1 
-1 
-1 
-1 
-1 
-1 
-1 
-1 
-1 
-1 
-1 
-1 
-1 
-1 
-1 
-1 
-1 
-1 
-1 
-1 
-1 
-1 
-1 
-1 
-1 
-1 
-1 
-1 
-1 
-1 
-1 
-1 
-1 
-1 
-1 
-1 
-1 
-1 
-1 
-1 
-1 
-1 
-1 
-1 
-1 
-1 
-1 
-1 
-1 
-1 
-1 
-1 
-1 
-1 
-1 
-1 
-1 
-1 
-1 
-1 
-1 
-1 
-1 
-1 
-1 
-1 
-1 
-1 
-1 
-1 
-1 
-1 
-1 
-1 
-1 
-1 
-1 
-1 
-1 
-1 
-1 
-1 
-1 
-1 
-1 
-1 
-1 
-1 
-1 
-1 
-1 
-1 
-1 
-1 
-1 
-1 
-1 
-1 
-1 
-1 
-1 
-1 
-1 
-1 
-1 
-1 
-1 
-1 
-1 
-1 
-1 
-1 
-1 
-1 
-1 
-1 
-1 
-1 
-1 
-1 
-1 
-1 
-1 
-1 
-1 
-1 
-1 
-1 
-1 
-1 
-1 
-1 
-1 
-1 
-1 
-1 
-1 
-1 
-1 
-1 
-1 
-1 
-1 
-1 
-1 
-1 
-1 
-1 
-1 
-1 
-1 
-1 
-1 
-1 
-1 
-1 
-1 
-1 
-1 
-1 
-1 
-1 
-1 
-1 
-1 
-1 
-1 
-1 
-1 
-1 
-1 
-1 
-1 
-1 
-1 
-1 
-1 
-1 
-1 
-1 
-1 
-1 
-1 
-1 
-1 
-1 
-1 
-1 
-1 
-1 
-1 
-1 
-1 
-1 
-1 
-1 
-1 
-1 
-1 
-1 
-1 
-1 
-1 
-1 
-1 
-1 
-1 
-1 
-1 
-1 
-1 
-1 
-1 
-1 
-1 
-1 
-1 
-1 
-1 
-1 
-1 
-1 
-1 
-1 
-1 
-1 
-1 
-1 
-1 
-1 
-1 
-1 
-1 
-1 
-1 
-1 
-1 
-1 
-1 
-1 
-1 
-1 
-1 
-1 
-1 
-1 
-1 
-1 
-1 
-1 
-1 
-1 
-1 
-1 
-1 
-1 
-1 
-1 
-1 
-1 
-1 
-1 
-1 
-1 
-1 
-1 
-1 
-1 
-1 
-1 
-1 
-1 
-1 
-1 
-1 
-1 
-1 
-1 
-1 
-1 
-1 
-1 
-1 
-1 
-1 
-1 
-1 
-1 
-1 
-1 
-1 
-1 
-1 
-1 
-1 
-1 
-1 
-1 
-1 
-1 
-1 
-1 
-1 
-1 
-1 
-1 
-1 
-1 
-1 
-1 
-1 
-1 
-1 
-1 
-1 
-1 
-1 
-1 
-1 
-1 
-1 
-1 
-1 
-1 
-1 
-1 
-1 
-1 
-1 
-1 
-1 
-1 
-1 
-1 
-1 
-1 
-1 
-1 
-1 
-1 
-1 
-1 
-1 
-1 
-1 
-1 
-1 
-1 
-1 
-1 
-1 
-1 
-1 
-1 
-1 
-1 
-1 
-1 
-1 
-1 
-1 
-1 
-1 
-1 
-1 
-1 
-1 
-1 
-1 
-1 
-1 
-1 
-1 
-1 
-1 
-1 
-1 
-1 
-1 
-1 
-1 
-1 
-1 
-1 
-1 
-1 
-1 
-1 
-1 
-1 
-1 
-1 
-1 
-1 
-1 
-1 
-1 
-1 
-1 
-1 
-1 
-1 
-1 
-1 
-1 
-1 
-1 
-1 
-1 
-1 
-1 
-1 
-1 
-1 
-1 
-1 
-1 
-1 
-1 
-1 
-1 
-1 
-1 
-1 
-1 
-1 
-1 
-1 
-1 
-1 
-1 
-1 
-1 
-1 
-1 
-1 
-1 
-1 
-1 
-1 
-1 
-1 
-1 
-1 
-1 
-1 
-1 
-1 
-1 
-1 
-1 
-1 
-1 
-1 
-1 
-1 
-1 
-1 
-1 
-1 
-1 
-1 
-1 
-1 
-1 
-1 
-1 
-1 
-1 
-1 
-1 
-1 
-1 
-1 
-1 
-1 
-1 
-1 
-1 
-1 
-1 
-1 
-1 
-1 
-1 
-1 
-1 
-1 
-1 
-1 
-1 
-1 
-1 
-1 
-1 
-1 
-1 
-1 
-1 
-1 
-1 
-1 
-1 
-1 
-1 
-1 
-1 
-1 
-1 
-1 
-1 
-1 
-1 
-1 
-1 
-1 
-1 
-1 
-1 
-1 
-1 
-1 
-1 
-1 
-1 
-1 
-1 
-1 
-1 
-1 
-1 
-1 
-1 
-1 
-1 
-1 
-1 
-1 
-1 
-1 
-1 
-1 
-1 
-1 
-1 
-1 
-1 
-1 
-1 
-1 
-1 
-1 
-1 
-1 
-1 
-1 
-1 
-1 
-1 
-1 
-1 
-1 
-1 
-1 
-1 
-1 
-1 
-1 
-1 
-1 
-1 
-1 
-1 
-1 
-1 
-1 
-1 
-1 
-1 
-1 
-1 
-1 
-1 
-1 
-1 
-1 
-1 
-1 
-1 
-1 
-1 
-1 
-1 
-1 
-1 
-1 
-1 
-1 
-1 
-1 
-1 
-1 
-1 
-1 
-1 
-1 
-1 
-1 
-1 
-1 
-1 
-1 
-1 
-1 
-1 
-1 
-1 
-1 
-1 
-1 
-1 
-1 
-1 
-1 
-1 
-1 
-1 
-1 
-1 
-1 
-1 
-1 
-1 
-1 
-1 
-1 
-1 
-1 
-1 
-1 
-1 
-1 
-1 
-1 
-1 
-1 
-1 
-1 
-1 
-1 
-1 
-1 
-1 
-1 
-1 
-1 
-1 
-1 
-1 
-1 
-1 
-1 
-1 
-1 
-1 
-1 
-1 
-1 
-1 
-1 
-1 
-1 
-1 
-1 
-1 
-1 
-1 
-1 
-1 
-1 
-1 
-1 
-1 
-1 
-1 
-1 
-1 
-1 
-1 
-1 
-1 
-1 
-1 
-1 
-1 
-1 
-1 
-1 
-1 
-1 
-1 
-1 
-1 
-1 
-1 
-1 
-1 
-1 
-1 
-1 
-1 
-1 
-1 
-1 
-1 
-1 
-1 
-1 
-1 
-1 
-1 
-1 
-1 
-1 
-1 
-1 
-1 
-1 
-1 
-1 
-1 
-1 
-1 
-1 
-1 
-1 
-1 
-1 
-1 
-1 
-1 
-1 
-1 
-1 
-1 
-1 
-1 
-1 
-1 
-1 
-1 
-1 
-1 
-1 
-1 
-1 
-1 
-1 
-1 
-1 
-1 
-1 
-1 
-1 
-1 
-1 
-1 
-1 
-1 
-1 
-1 
-1 
-1 
-1 
-1 
-1 
-1 
-1 
-1 
-1 
-1 
-1 
-1 
-1 
-1 
-1 
-1 
-1 
-1 
-1 
-1 
-1 
-1 
-1 
-1 
-1 
-1 
-1 
-1 
-1 
-1 
-1 
-1 
-1 
-1 
-1 
-1 
-1 
-1 
-1 
-1 
-1 
-1 
-1 
-1 
-1 
-1 
-1 
-1 
-1 
-1 
-1 
-1 
-1 
-1 
-1 
-1 
-1 
-1 
-1 
-1 
-1 
-1 
-1 
-1 
-1 
-1 
-1 
-1 
-1 
-1 
-1 
-1 
-1 
-1 
-1 
-1 
-1 
-1 
-1 
-1 
-1 
-1 
-1 
-1 
-1 
-1 
-1 
-1 
-1 
-1 
-1 
-1 
-1 
-1 
-1 
-1 
-1 
-1 
-1 
-1 
-1 
-1 
-1 
-1 
-1 
-1 
-1 
-1 
-1 
-1 
-1 
-1 
-1 
-1 
-1 
-1 
-1 
-1 
-1 
-1 
-1 
-1 
-1 
-1 
-1 
-1 
-1 
-1 
-1 
-1 
-1 
-1 
-1 
-1 
-1 
-1 
-1 
-1 
-1 
-1 
-1 
-1 
-1 
-1 
-1 
-1 
-1 
-1 
-1 
-1 
-1 
-1 
-1 
-1 
-1 
-1 
-1 
-1 
-1 
-1 
-1 
-1 
-1 
-1 
-1 
-1 
-1 
-1 
-1 
-1 
-1 
-1 
-1 
-1 
-1 
-1 
-1 
-1 
-1 
-1 
-1 
-1 
-1 
-1 
-1 
-1 
-1 
-1 
-1 
-1 
-1 
-1 
-1 
-1 
-1 
-1 
-1 
-1 
-1 
-1 
-1 
-1 
-1 
-1 
-1 
-1 
-1 
-1 
-1 
-1 
-1 
-1 
-1 
-1 
-1 
-1 
-1 
-1 
-1 
-1 
-1 
-1 
-1 
-1 
-1 
-1 
-1 
-1 
-1 
-1 
-1 
-1 
-1 
-1 
-1 
-1 
-1 
-1 
-1 
-1 
-1 
-1 
-1 
-1 
-1 
-1 
-1 
-1 
-1 
-1 
-1 
-1 
-1 
-1 
-1 
-1 
-1 
-1 
-1 
-1 
-1 
-1 
-1 
-1 
-1 
-1 
-1 
-1 
-1 
-1 
-1 
-1 
-1 
-1 
-1 
-1 
-1 
-1 
-1 
-1 
-1 
-1 
-1 
-1 
-1 
-1 
-1 
-1 
-1 
-1 
-1 
-1 
-1 
-1 
-1 
-1 
-1 
-1 
-1 
-1 
-1 
-1 
-1 
-1 
-1 
-1 
-1 
-1 
-1 
-1 
-1 
-1 
-1 
-1 
-1 
-1 
-1 
-1 
-1 
-1 
-1 
-1 
-1 
-1 
-1 
-1 
-1 
-1 
-1 
-1 
-1 
-1 
-1 
-1 
-1 
-1 
-1 
-1 
-1 
-1 
-1 
-1 
-1 
-1 
-1 
-1 
-1 
-1 
-1 
-1 
-1 
-1 
-1 
-1 
-1 
-1 
-1 
-1 
-1 
-1 
-1 
-1 
-1 
-1 
-1 
-1 
-1 
-1 
-1 
-1 
-1 
-1 
-1 
-1 
-1 
-1 
-1 
-1 
-1 
-1 
-1 
-1 
-1 
-1 
-1 
-1 
-1 
-1 
-1 
-1 
-1 
-1 
-1 
-1 
-1 
-1 
-1 
-1 
-1 
-1 
-1 
-1 
-1 
-1 
-1 
-1 
-1 
-1 
-1 
-1 
-1 
-1 
-1 
-1 
-1 
-1 
-1 
-1 
-1 
-1 
-1 
-1 
-1 
-1 
-1 
-1 
-1 
-1 
-1 
-1 
-1 
-1 
-1 
-1 
-1 
-1 
-1 
-1 
-1 
-1 
-1 
-1 
-1 
-1 
-1 
-1 
-1 
-1 
-1 
-1 
-1 
-1 
-1 
-1 
-1 
-1 
-1 
-1 
-1 
-1 
-1 
-1 
-1 
-1 
-1 
-1 
-1 
-1 
-1 
-1 
-1 
-1 
-1 
-1 
-1 
-1 
-1 
-1 
-1 
-1 
-1 
-1 
-1 
-1 
-1 
-1 
-1 
-1 
-1 
-1 
-1 
-1 
-1 
-1 
-1 
-1 
-1 
-1 
-1 
-1 
-1 
-1 
-1 
-1 
-1 
-1 
-1 
-1 
-1 
-1 
-1 
-1 
-1 
-1 
-1 
-1 
-1 
-1 
-1 
-1 
-1 
-1 
-1 
-1 
-1 
-1 
-1 
-1 
-1 
-1 
-1 
-1 
-1 
-1 
-1 
-1 
-1 
-1 
-1 
-1 
-1 
-1 
-1 
-1 
-1 
-1 
-1 
-1 
-1 
-1 
-1 
-1 
-1 
-1 
-1 
-1 
-1 
-1 
-1 
-1 
-1 
-1 
-1 
-1 
-1 
-1 
-1 
-1 
-1 
-1 
-1 
-1 
-1 
-1 
-1 
-1 
-1 
-1 
-1 
-1 
-1 
-1 
-1 
-1 
-1 
-1 
-1 
-1 
-1 
-1 
-1 
-1 
-1 
-1 
-1 
-1 
-1 
-1 
-1 
-1 
-1 
-1 
-1 
-1 
-1 
-1 
-1 
-1 
-1 
-1 
-1 
-1 
-1 
-1 
-1 
-1 
-1 
-1 
-1 
-1 
-1 
-1 
-1 
-1 
-1 
-1 
-1 
-1 
-1 
-1 
-1 
-1 
-1 
-1 
-1 
-1 
-1 
-1 
-1 
-1 
-1 
-1 
-1 
-1 
-1 
-1 
-1 
-1 
-1 
-1 
-1 
-1 
-1 
-1 
-1 
-1 
-1 
-1 
-1 
-1 
-1 
-1 
-1 
-1 
-1 
-1 
-1 
-1 
-1 
-1 
-1 
-1 
-1 
-1 
-1 
-1 
-1 
-1 
-1 
-1 
-1 
-1 
-1 
-1 
-1 
-1 
-1 
-1 
-1 
-1 
-1 
-1 
-1 
-1 
-1 
-1 
-1 
-1 
-1 
-1 
-1 
-1 
-1 
-1 
-1 
-1 
-1 
-1 
-1 
-1 
-1 
-1 
-1 
-1 
-1 
-1 
-1 
-1 
-1 
-1 
-1 
-1 
-1 
-1 
-1 
-1 
-1 
-1 
-1 
-1 
-1 
-1 
-1 
-1 
-1 
-1 
-1 
-1 
-1 
-1 
-1 
-1 
-1 
-1 
-1 
-1 
-1 
-1 
-1 
-1 
-1 
-1 
-1 
-1 
-1 
-1 
-1 
-1 
-1 
-1 
-1 
-1 
-1 
-1 
-1 
-1 
-1 
-1 
-1 
-1 
-1 
-1 
-1 
-1 
-1 
-1 
-1 
-1 
-1 
-1 
-1 
-1 
-1 
-1 
-1 
-1 
-1 
-1 
-1 
-1 
-1 
-1 
-1 
-1 
-1 
-1 
-1 
-1 
-1 
-1 
-1 
-1 
-1 
-1 
-1 
-1 
-1 
-1 
-1 
-1 
-1 
-1 
-1 
-1 
-1 
-1 
-1 
-1 
-1 
-1 
-1 
-1 
-1 
-1 
-1 
-1 
-1 
-1 
-1 
-1 
-1 
-1 
-1 
-1 
-1 
-1 
-1 
-1 
-1 
-1 
-1 
-1 
-1 
-1 
-1 
-1 
-1 
-1 
-1 
-1 
-1 
-1 
-1 
-1 
-1 
-1 
-1 
-1 
-1 
-1 
-1 
-1 
-1 
-1 
-1 
-1 
-1 
-1 
-1 
-1 
-1 
-1 
-1 
-1 
-1 
-1 
-1 
-1 
-1 
-1 
-1 
-1 
-1 
-1 
-1 
-1 
-1 
-1 
-1 
-1 
-1 
-1 
-1 
-1 
-1 
-1 
-1 
-1 
-1 
-1 
-1 
-1 
-1 
-1 
-1 
-1 
-1 
-1 
-1 
-1 
-1 
-1 
-1 
-1 
-1 
-1 
-1 
-1 
-1 
-1 
-1 
-1 
-1 
-1 
-1 
-1 
-1 
-1 
-1 
-1 
-1 
-1 
-1 
-1 
-1 
-1 
-1 
-1 
-1 
-1 
-1 
-1 
-1 
-1 
-1 
-1 
-1 
-1 
-1 
-1 
-1 
-1 
-1 
-1 
-1 
-1 
-1 
-1 
-1 
-1 
-1 
-1 
-1 
-1 
-1 
-1 
-1 
-1 
-1 
-1 
-1 
-1 
-1 
-1 
-1 
-1 
-1 
-1 
-1 
-1 
-1 
-1 
-1 
-1 
-1 
-1 
-1 
-1 
-1 
-1 
-1 
-1 
-1 
-1 
-1 
-1 
-1 
-1 
-1 
-1 
-1 
-1 
-1 
-1 
-1 
-1 
-1 
-1 
-1 
-1 
-1 
-1 
-1 
-1 
-1 
-1 
-1 
-1 
-1 
-1 
-1 
-1 
-1 
-1 
-1 
-1 
-1 
-1 
-1 
-1 
-1 
-1 
-1 
-1 
-1 
-1 
-1 
-1 
-1 
-1 
-1 
-1 
-1 
-1 
-1 
-1 
-1 
-1 
-1 
-1 
-1 
-1 
-1 
-1 
-1 
-1 
-1 
-1 
-1 
-1 
-1 
-1 
-1 
-1 
-1 
-1 
-1 
-1 
-1 
-1 
-1 
-1 
-1 
-1 
-1 
-1 
-1 
-1 
-1 
-1 
-1 
-1 
-1 
-1 
-1 
-1 
-1 
-1 
-1 
-1 
-1 
-1 
-1 
-1 
-1 
-1 
-1 
-1 
-1 
-1 
-1 
-1 
-1 
-1 
-1 
-1 
-1 
-1 
-1 
-1 
-1 
-1 
-1 
-1 
-1 
-1 
-1 
-1 
-1 
-1 
-1 
-1 
-1 
-1 
-1 
-1 
-1 
-1 
-1 
-1 
-1 
-1 
-1 
-1 
-1 
-1 
-1 
-1 
-1 
-1 
-1 
-1 
-1 
-1 
-1 
-1 
-1 
-1 
-1 
-1 
-1 
-1 
-1 
-1 
-1 
-1 
-1 
-1 
-1 
-1 
-1 
-1 
-1 
-1 
-1 
-1 
-1 
-1 
-1 
-1 
-1 
-1 
-1 
-1 
-1 
-1 
-1 
-1 
-1 
-1 
-1 
-1 
-1 
-1 
-1 
-1 
-1 
-1 
-1 
-1 
-1 
-1 
-1 
-1 
-1 
-1 
-1 
-1 
-1 
-1 
-1 
-1 
-1 
-1 
-1 
-1 
-1 
-1 
-1 
-1 
-1 
-1 
-1 
-1 
-1 
-1 
-1 
-1 
-1 
-1 
-1 
-1 
-1 
-1 
-1 
-1 
-1 
-1 
-1 
-1 
-1 
-1 
-1 
-1 
-1 
-1 
-1 
-1 
-1 
-1 
-1 
-1 
-1 
-1 
-1 
-1 
-1 
-1 
-1 
-1 
-1 
-1 
-1 
-1 
-1 
-1 
-1 
-1 
-1 
-1 
-1 
-1 
-1 
-1 
-1 
-1 
-1 
-1 
-1 
-1 
-1 
-1 
-1 
-1 
-1 
-1 
-1 
-1 
-1 
-1 
-1 
-1 
-1 
-1 
-1 
-1 
-1 
-1 
-1 
-1 
-1 
-1 
-1 
-1 
-1 
-1 
-1 
-1 
-1 
-1 
-1 
-1 
-1 
-1 
-1 
-1 
-1 
-1 
-1 
-1 
-1 
-1 
-1 
-1 
-1 
-1 
-1 
-1 
-1 
-1 
-1 
-1 
-1 
-1 
-1 
-1 
-1 
-1 
-1 
-1 
-1 
-1 
-1 
-1 
-1 
-1 
-1 
-1 
-1 
-1 
-1 
-1 
-1 
-1 
-1 
-1 
-1 
-1 
-1 
-1 
-1 
-1 
-1 
-1 
-1 
-1 
-1 
-1 
-1 
-1 
-1 
-1 
-1 
-1 
-1 
-1 
-1 
-1 
-1 
-1 
-1 
-1 
-1 
-1 
-1 
-1 
-1 
-1 
-1 
-1 
-1 
-1 
-1 
-1 
-1 
-1 
-1 
-1 
-1 
-1 
-1 
-1 
-1 
-1 
-1 
-1 
-1 
-1 
-1 
-1 
-1 
-1 
-1 
-1 
-1 
-1 
-1 
-1 
-1 
-1 
-1 
-1 
-1 
-1 
-1 
-1 
-1 
-1 
-1 
-1 
-1 
-1 
-1 
-1 
-1 
-1 
-1 
-1 
-1 
-1 
-1 
-1 
-1 
-1 
-1 
-1 
-1 
-1 
-1 
-1 
-1 
-1 
-1 
-1 
-1 
-1 
-1 
-1 
-1 
-1 
-1 
-1 
-1 
-1 
-1 
-1 
-1 
-1 
-1 
-1 
-1 
-1 
-1 
-1 
-1 
-1 
-1 
-1 
-1 
-1 
-1 
-1 
-1 
-1 
-1 
-1 
-1 
-1 
-1 
-1 
-1 
-1 
-1 
-1 
-1 
-1 
-1 
-1 
-1 
-1 
-1 
-1 
-1 
-1 
-1 
-1 
-1 
-1 
-1 
-1 
-1 
-1 
-1 
-1 
-1 
-1 
-1 
-1 
-1 
-1 
-1 
-1 
-1 
-1 
-1 
-1 
-1 
-1 
-1 
-1 
-1 
-1 
-1 
-1 
-1 
-1 
-1 
-1 
-1 
-1 
-1 
-1 
-1 
-1 
-1 
-1 
-1 
-1 
-1 
-1 
-1 
-1 
-1 
-1 
-1 
-1 
-1 
-1 
-1 
-1 
-1 
-1 
-1 
-1 
-1 
-1 
-1 
-1 
-1 
-1 
-1 
-1 
-1 
-1 
-1 
-1 
-1 
-1 
-1 
-1 
-1 
-1 
-1 
-1 
-1 
-1 
-1 
-1 
-1 
-1 
-1 
-1 
-1 
-1 
-1 
-1 
-1 
-1 
-1 
-1 
-1 
-1 
-1 
-1 
-1 
-1 
-1 
-1 
-1 
-1 
-1 
-1 
-1 
-1 
-1 
-1 
-1 
-1 
-1 
-1 
-1 
-1 
-1 
-1 
-1 
-1 
-1 
-1 
-1 
-1 
-1 
-1 
-1 
-1 
-1 
-1 
-1 
-1 
-1 
-1 
-1 
-1 
-1 
-1 
-1 
-1 
-1 
-1 
-1 
-1 
-1 
-1 
-1 
-1 
-1 
-1 
-1 
-1 
-1 
-1 
-1 
-1 
-1 
-1 
-1 
-1 
-1 
-1 
-1 
-1 
-1 
-1 
-1 
-1 
-1 
-1 
-1 
-1 
-1 
-1 
-1 
-1 
-1 
-1 
-1 
-1 
-1 
-1 
-1 
-1 
-1 
-1 
-1 
-1 
-1 
-1 
-1 
-1 
-1 
-1 
-1 
-1 
-1 
-1 
-1 
-1 
-1 
-1 
-1 
-1 
-1 
-1 
-1 
-1 
-1 
-1 
-1 
-1 
-1 
-1 
-1 
-1 
-1 
-1 
-1 
-1 
-1 
-1 
-1 
-1 
-1 
-1 
-1 
-1 
-1 
-1 
-1 
-1 
-1 
-1 
-1 
-1 
-1 
-1 
-1 
-1 
-1 
-1 
-1 
-1 
-1 
-1 
-1 
-1 
-1 
-1 
-1 
-1 
-1 
-1 
-1 
-1 
-1 
-1 
-1 
-1 
-1 
-1 
-1 
-1 
-1 
-1 
-1 
-1 
-1 
-1 
-1 
-1 
-1 
-1 
-1 
-1 
-1 
-1 
-1 
-1 
-1 
-1 
-1 
-1 
-1 
-1 
-1 
-1 
-1 
-1 
-1 
-1 
-1 
-1 
-1 
-1 
-1 
-1 
-1 
-1 
-1 
-1 
-1 
-1 
-1 
-1 
-1 
-1 
-1 
-1 
-1 
-1 
-1 
-1 
-1 
-1 
-1 
-1 
-1 
-1 
-1 
-1 
-1 
-1 
-1 
-1 
-1 
-1 
-1 
-1 
-1 
-1 
-1 
-1 
-1 
-1 
-1 
-1 
-1 
-1 
-1 
-1 
-1 
-1 
-1 
-1 
-1 
-1 
-1 
-1 
-1 
-1 
-1 
-1 
-1 
-1 
-1 
-1 
-1 
-1 
-1 
-1 
-1 
-1 
-1 
-1 
-1 
-1 
-1 
-1 
-1 
-1 
-1 
-1 
-1 
-1 
-1 
-1 
-1 
-1 
-1 
-1 
-1 
-1 
-1 
-1 
-1 
-1 
-1 
-1 
-1 
-1 
-1 
-1 
-1 
-1 
-1 
-1 
-1 
-1 
-1 
-1 
-1 
-1 
-1 
-1 
-1 
-1 
-1 
-1 
-1 
-1 
-1 
-1 
-1 
-1 
-1 
-1 
-1 
-1 
-1 
-1 
-1 
-1 
-1 
-1 
-1 
-1 
-1 
-1 
-1 
-1 
-1 
-1 
-1 
-1 
-1 
-1 
-1 
-1 
-1 
-1 
-1 
-1 
-1 
-1 
-1 
-1 
-1 
-1 
-1 
-1 
-1 
-1 
-1 
-1 
-1 
-1 
-1 
-1 
-1 
-1 
-1 
-1 
-1 
-1 
-1 
-1 
-1 
-1 
-1 
-1 
-1 
-1 
-1 
-1 
-1 
-1 
-1 
-1 
-1 
-1 
-1 
-1 
-1 
-1 
-1 
-1 
-1 
-1 
-1 
-1 
-1 
-1 
-1 
-1 
-1 
-1 
-1 
-1 
-1 
-1 
-1 
-1 
-1 
-1 
-1 
-1 
-1 
-1 
-1 
-1 
-1 
-1 
-1 
-1 
-1 
-1 
-1 
-1 
-1 
-1 
-1 
-1 
-1 
-1 
-1 
-1 
-1 
-1 
-1 
-1 
-1 
-1 
-1 
-1 
-1 
-1 
-1 
-1 
-1 
-1 
-1 
-1 
-1 
-1 
-1 
-1 
-1 
-1 
-1 
-1 
-1 
-1 
-1 
-1 
-1 
-1 
-1 
-1 
-1 
-1 
-1 
-1 
-1 
-1 
-1 
-1 
-1 
-1 
-1 
-1 
-1 
-1 
-1 
-1 
-1 
-1 
-1 
-1 
-1 
-1 
-1 
-1 
-1 
-1 
-1 
-1 
-1 
-1 
-1 
-1 
-1 
-1 
-1 
-1 
-1 
-1 
-1 
-1 
-1 
-1 
-1 
-1 
-1 
-1 
-1 
-1 
-1 
-1 
-1 
-1 
-1 
-1 
-1 
-1 
-1 
-1 
-1 
-1 
-1 
-1 
-1 
-1 
-1 
-1 
-1 
-1 
-1 
-1 
-1 
-1 
-1 
-1 
-1 
-1 
-1 
-1 
-1 
-1 
-1 
-1 
-1 
-1 
-1 
-1 
-1 
-1 
-1 
-1 
-1 
-1 
-1 
-1 
-1 
-1 
-1 
-1 
-1 
-1 
-1 
-1 
-1 
-1 
-1 
-1 
-1 
-1 
-1 
-1 
-1 
-1 
-1 
-1 
-1 
-1 
-1 
-1 
-1 
-1 
-1 
-1 
-1 
-1 
-1 
-1 
-1 
-1 
-1 
-1 
-1 
-1 
-1 
-1 
-1 
-1 
-1 
-1 
-1 
-1 
-1 
-1 
-1 
-1 
-1 
-1 
-1 
-1 
-1 
-1 
-1 
-1 
-1 
-1 
-1 
-1 
-1 
-1 
-1 
-1 
-1 
-1 
-1 
-1 
-1 
-1 
-1 
-1 
-1 
-1 
-1 
-1 
-1 
-1 
-1 
-1 
-1 
-1 
-1 
-1 
-1 
-1 
-1 
-1 
-1 
-1 
-1 
-1 
-1 
-1 
-1 
-1 
-1 
-1 
-1 
-1 
-1 
-1 
-1 
-1 
-1 
-1 
-1 
-1 
-1 
-1 
-1 
-1 
-1 
-1 
-1 
-1 
-1 
-1 
-1 
-1 
-1 
-1 
-1 
-1 
-1 
-1 
-1 
-1 
-1 
-1 
-1 
-1 
-1 
-1 
-1 
-1 
-1 
-1 
-1 
-1 
-1 
-1 
-1 
-1 
-1 
-1 
-1 
-1 
-1 
-1 
-1 
-1 
-1 
-1 
-1 
-1 
-1 
-1 
-1 
-1 
-1 
-1 
-1 
-1 
-1 
-1 
-1 
-1 
-1 
-1 
-1 
-1 
-1 
-1 
-1 
-1 
-1 
-1 
-1 
-1 
-1 
-1 
-1 
-1 
-1 
-1 
-1 
-1 
-1 
-1 
-1 
-1 
-1 
-1 
-1 
-1 
-1 
-1 
-1 
-1 
-1 
-1 
-1 
-1 
-1 
-1 
-1 
-1 
-1 
-1 
-1 
-1 
-1 
-1 
-1 
-1 
-1 
-1 
-1 
-1 
-1 
-1 
-1 
-1 
-1 
-1 
-1 
-1 
-1 
-1 
-1 
-1 
-1 
-1 
-1 
-1 
-1 
-1 
-1 
-1 
-1 
-1 
-1 
-1 
-1 
-1 
-1 
-1 
-1 
-1 
-1 
-1 
-1 
-1 
-1 
-1 
-1 
-1 
-1 
-1 
-1 
-1 
-1 
-1 
-1 
-1 
-1 
-1 
-1 
-1 
-1 
-1 
-1 
-1 
-1 
-1 
-1 
-1 
-1 
-1 
-1 
-1 
-1 
-1 
-1 
-1 
-1 
-1 
-1 
-1 
-1 
-1 
-1 
-1 
-1 
-1 
-1 
-1 
-1 
-1 
-1 
-1 
-1 
-1 
-1 
-1 
-1 
-1 
-1 
-1 
-1 
-1 
-1 
-1 
-1 
-1 
-1 
-1 
-1 
-1 
-1 
-1 
-1 
-1 
-1 
-1 
-1 
-1 
-1 
-1 
-1 
-1 
-1 
-1 
-1 
-1 
-1 
-1 
-1 
-1 
-1 
-1 
-1 
-1 
-1 
-1 
-1 
-1 
-1 
-1 
-1 
-1 
-1 
-1 
-1 
-1 
-1 
-1 
-1 
-1 
-1 
-1 
-1 
-1 
-1 
-1 
-1 
-1 
-1 
-1 
-1 
-1 
-1 
-1 
-1 
-1 
-1 
-1 
-1 
-1 
-1 
-1 
-1 
-1 
-1 
-1 
-1 
-1 
-1 
-1 
-1 
-1 
-1 
-1 
-1 
-1 
-1 
-1 
-1 
-1 
-1 
-1 
-1 
-1 
-1 
-1 
-1 
-1 
-1 
-1 
-1 
-1 
-1 
-1 
-1 
-1 
-1 
-1 
-1 
-1 
-1 
-1 
-1 
-1 
-1 
-1 
-1 
-1 
-1 
-1 
-1 
-1 
-1 
-1 
-1 
-1 
-1 
-1 
-1 
-1 
-1 
-1 
-1 
-1 
-1 
-1 
-1 
-1 
-1 
-1 
-1 
-1 
-1 
-1 
-1 
-1 
-1 
-1 
-1 
-1 
-1 
-1 
-1 
-1 
-1 
-1 
-1 
-1 
-1 
-1 
-1 
-1 
-1 
-1 
-1 
-1 
-1 
-1 
-1 
-1 
-1 
-1 
-1 
-1 
-1 
-1 
-1 
-1 
-1 
-1 
-1 
-1 
-1 
-1 
-1 
-1 
-1 
-1 
-1 
-1 
-1 
-1 
-1 
-1 
-1 
-1 
-1 
-1 
-1 
-1 
-1 
-1 
-1 
-1 
-1 
-1 
-1 
-1 
-1 
-1 
-1 
-1 
-1 
-1 
-1 
-1 
-1 
-1 
-1 
-1 
-1 
-1 
-1 
-1 
-1 
-1 
-1 
-1 
-1 
-1 
-1 
-1 
-1 
-1 
-1 
-1 
-1 
-1 
-1 
-1 
-1 
-1 
-1 
-1 
-1 
-1 
-1 
-1 
-1 
-1 
-1 
-1 
-1 
-1 
-1 
-1 
-1 
-1 
-1 
-1 
-1 
-1 
-1 
-1 
-1 
-1 
-1 
-1 
-1 
-1 
-1 
-1 
-1 
-1 
-1 
-1 
-1 
-1 
-1 
-1 
-1 
-1 
-1 
-1 
-1 
-1 
-1 
-1 
-1 
-1 
-1 
-1 
-1 
-1 
-1 
-1 
-1 
-1 
-1 
-1 
-1 
-1 
-1 
-1 
-1 
-1 
-1 
-1 
-1 
-1 
-1 
-1 
-1 
-1 
-1 
-1 
-1 
-1 
-1 
-1 
-1 
-1 
-1 
-1 
-1 
-1 
-1 
-1 
-1 
-1 
-1 
-1 
-1 
-1 
-1 
-1 
-1 
-1 
-1 
-1 
-1 
-1 
-1 
-1 
-1 
-1 
-1 
-1 
-1 
-1 
-1 
-1 
-1 
-1 
-1 
-1 
-1 
-1 
-1 
-1 
-1 
-1 
-1 
-1 
-1 
-1 
-1 
-1 
-1 
-1 
-1 
-1 
-1 
-1 
-1 
-1 
-1 
-1 
-1 
-1 
-1 
-1 
-1 
-1 
-1 
-1 
-1 
-1 
-1 
-1 
-1 
-1 
-1 
-1 
-1 
-1 
-1 
-1 
-1 
-1 
-1 
-1 
-1 
-1 
-1 
-1 
-1 
-1 
-1 
-1 
-1 
-1 
-1 
-1 
-1 
-1 
-1 
-1 
-1 
-1 
-1 
-1 
-1 
-1 
-1 
-1 
-1 
-1 
-1 
-1 
-1 
-1 
-1 
-1 
-1 
-1 
-1 
-1 
-1 
-1 
-1 
-1 
-1 
-1 
-1 
-1 
-1 
-1 
-1 
-1 
-1 
-1 
-1 
-1 
-1 
-1 
-1 
-1 
-1 
-1 
-1 
-1 
-1 
-1 
-1 
-1 
-1 
-1 
-1 
-1 
-1 
-1 
-1 
-1 
-1 
-1 
-1 
-1 
-1 
-1 
-1 
-1 
-1 
-1 
-1 
-1 
-1 
-1 
-1 
-1 
-1 
-1 
-1 
-1 
-1 
-1 
-1 
-1 
-1 
-1 
-1 
-1 
-1 
-1 
-1 
-1 
-1 
-1 
-1 
-1 
-1 
-1 
-1 
-1 
-1 
-1 
-1 
-1 
-1 
-1 
-1 
-1 
-1 
-1 
-1 
-1 
-1 
-1 
-1 
-1 
-1 
-1 
-1 
-1 
-1 
-1 
-1 
-1 
-1 
-1 
-1 
-1 
-1 
-1 
-1 
-1 
-1 
-1 
-1 
-1 
-1 
-1 
-1 
-1 
-1 
-1 
-1 
-1 
-1 
-1 
-1 
-1 
-1 
-1 
-1 
-1 
-1 
-1 
-1 
-1 
-1 
-1 
-1 
-1 
-1 
-1 
-1 
-1 
-1 
-1 
-1 
-1 
-1 
-1 
-1 
-1 
-1 
-1 
-1 
-1 
-1 
-1 
-1 
-1 
-1 
-1 
-1 
-1 
-1 
-1 
-1 
-1 
-1 
-1 
-1 
-1 
-1 
-1 
-1 
-1 
-1 
-1 
-1 
-1 
-1 
-1 
-1 
-1 
-1 
-1 
-1 
-1 
-1 
-1 
-1 
-1 
-1 
-1 
-1 
-1 
-1 
-1 
-1 
-1 
-1 
-1 
-1 
-1 
-1 
-1 
-1 
-1 
-1 
-1 
-1 
-1 
-1 
-1 
-1 
-1 
-1 
-1 
-1 
-1 
-1 
-1 
-1 
-1 
-1 
-1 
-1 
-1 
-1 
-1 
-1 
-1 
-1 
-1 
-1 
-1 
-1 
-1 
-1 
-1 
-1 
-1 
-1 
-1 
-1 
-1 
-1 
-1 
-1 
-1 
-1 
-1 
-1 
-1 
-1 
-1 
-1 
-1 
-1 
-1 
-1 
-1 
-1 
-1 
-1 
-1 
-1 
-1 
-1 
-1 
-1 
-1 
-1 
-1 
-1 
-1 
-1 
-1 
-1 
-1 
-1 
-1 
-1 
-1 
-1 
-1 
-1 
-1 
-1 
-1 
-1 
-1 
-1 
-1 
-1 
-1 
-1 
-1 
-1 
-1 
-1 
-1 
-1 
-1 
-1 
-1 
-1 
-1 
-1 
-1 
-1 
-1 
-1 
-1 
-1 
-1 
-1 
-1 
-1 
-1 
-1 
-1 
-1 
-1 
-1 
-1 
-1 
-1 
-1 
-1 
-1 
-1 
-1 
-1 
-1 
-1 
-1 
-1 
-1 
-1 
-1 
-1 
-1 
-1 
-1 
-1 
-1 
-1 
-1 
-1 
-1 
-1 
-1 
-1 
-1 
-1 
-1 
-1 
-1 
-1 
-1 
-1 
-1 
-1 
-1 
-1 
-1 
-1 
-1 
-1 
-1 
-1 
-1 
-1 
-1 
-1 
-1 
-1 
-1 
-1 
-1 
-1 
-1 
-1 
-1 
-1 
-1 
-1 
-1 
-1 
-1 
-1 
-1 
-1 
-1 
-1 
-1 
-1 
-1 
-1 
-1 
-1 
-1 
-1 
-1 
-1 
-1 
-1 
-1 
-1 
-1 
-1 
-1 
-1 
-1 
-1 
-1 
-1 
-1 
-1 
-1 
-1 
-1 
-1 
-1 
-1 
-1 
-1 
-1 
-1 
-1 
-1 
-1 
-1 
-1 
-1 
-1 
-1 
-1 
-1 
-1 
-1 
-1 
-1 
-1 
-1 
-1 
-1 
-1 
-1 
-1 
-1 
-1 
-1 
-1 
-1 
-1 
-1 
-1 
-1 
-1 
-1 
-1 
-1 
-1 
-1 
-1 
-1 
-1 
-1 
-1 
-1 
-1 
-1 
-1 
-1 
-1 
-1 
-1 
-1 
-1 
-1 
-1 
-1 
-1 
-1 
-1 
-1 
-1 
-1 
-1 
-1 
-1 
-1 
-1 
-1 
-1 
-1 
-1 
-1 
-1 
-1 
-1 
-1 
-1 
-1 
-1 
-1 
-1 
-1 
-1 
-1 
-1 
-1 
-1 
-1 
-1 
-1 
-1 
-1 
-1 
-1 
-1 
-1 
-1 
-1 
-1 
-1 
-1 
-1 
-1 
-1 
-1 
-1 
-1 
-1 
-1 
-1 
-1 
-1 
-1 
-1 
-1 
-1 
-1 
-1 
-1 
-1 
-1 
-1 
-1 
-1 
-1 
-1 
-1 
-1 
-1 
-1 
-1 
-1 
-1 
-1 
-1 
-1 
-1 
-1 
-1 
-1 
-1 
-1 
-1 
-1 
-1 
-1 
-1 
-1 
-1 
-1 
-1 
-1 
-1 
-1 
-1 
-1 
-1 
-1 
-1 
-1 
-1 
-1 
-1 
-1 
-1 
-1 
-1 
-1 
-1 
-1 
-1 
-1 
-1 
-1 
-1 
-1 
-1 
-1 
-1 
-1 
-1 
-1 
-1 
-1 
-1 
-1 
-1 
-1 
-1 
-1 
-1 
-1 
-1 
-1 
-1 
-1 
-1 
-1 
-1 
-1 
-1 
-1 
-1 
-1 
-1 
-1 
-1 
-1 
-1 
-1 
-1 
-1 
-1 
-1 
-1 
-1 
-1 
-1 
-1 
-1 
-1 
-1 
-1 
-1 
-1 
-1 
-1 
-1 
-1 
-1 
-1 
-1 
-1 
-1 
-1 
-1 
-1 
-1 
-1 
-1 
-1 
-1 
-1 
-1 
-1 
-1 
-1 
-1 
-1 
-1 
-1 
-1 
-1 
-1 
-1 
-1 
-1 
-1 
-1 
-1 
-1 
-1 
-1 
-1 
-1 
-1 
-1 
-1 
-1 
-1 
-1 
-1 
-1 
-1 
-1 
-1 
-1 
-1 
-1 
-1 
-1 
-1 
-1 
-1 
-1 
-1 
-1 
-1 
-1 
-1 
-1 
-1 
-1 
-1 
-1 
-1 
-1 
-1 
-1 
-1 
-1 
-1 
-1 
-1 
-1 
-1 
-1 
-1 
-1 
-1 
-1 
-1 
-1 
-1 
-1 
-1 
-1 
-1 
-1 
-1 
-1 
-1 
-1 
-1 
-1 
-1 
-1 
-1 
-1 
-1 
-1 
-1 
-1 
-1 
-1 
-1 
-1 
-1 
-1 
-1 
-1 
-1 
-1 
-1 
-1 
-1 
-1 
-1 
-1 
-1 
-1 
-1 
-1 
-1 
-1 
-1 
-1 
-1 
-1 
-1 
-1 
-1 
-1 
-1 
-1 
-1 
-1 
-1 
-1 
-1 
-1 
-1 
-1 
-1 
-1 
-1 
-1 
-1 
-1 
-1 
-1 
-1 
-1 
-1 
-1 
-1 
-1 
-1 
-1 
-1 
-1 
-1 
-1 
-1 
-1 
-1 
-1 
-1 
-1 
-1 
-1 
-1 
-1 
-1 
-1 
-1 
-1 
-1 
-1 
-1 
-1 
-1 
-1 
-1 
-1 
-1 
-1 
-1 
-1 
-1 
-1 
-1 
-1 
-1 
-1 
-1 
-1 
-1 
-1 
-1 
-1 
-1 
-1 
-1 
-1 
-1 
-1 
-1 
-1 
-1 
-1 
-1 
-1 
-1 
-1 
-1 
-1 
-1 
-1 
-1 
-1 
-1 
-1 
-1 
-1 
-1 
-1 
-1 
-1 
-1 
-1 
-1 
-1 
-1 
-1 
-1 
-1 
-1 
-1 
-1 
-1 
-1 
-1 
-1 
-1 
-1 
-1 
-1 
-1 
-1 
-1 
-1 
-1 
-1 
-1 
-1 
-1 
-1 
-1 
-1 
-1 
-1 
-1 
-1 
-1 
-1 
-1 
-1 
-1 
-1 
-1 
-1 
-1 
-1 
-1 
-1 
-1 
-1 
-1 
-1 
-1 
-1 
-1 
-1 
-1 
-1 
-1 
-1 
-1 
-1 
-1 
-1 
-1 
-1 
-1 
-1 
-1 
-1 
-1 
-1 
-1 
-1 
-1 
-1 
-1 
-1 
-1 
-1 
-1 
-1 
-1 
-1 
-1 
-1 
-1 
-1 
-1 
-1 
-1 
-1 
-1 
-1 
-1 
-1 
-1 
-1 
-1 
-1 
-1 
-1 
-1 
-1 
-1 
-1 
-1 
-1 
-1 
-1 
-1 
-1 
-1 
-1 
-1 
-1 
-1 
-1 
-1 
-1 
-1 
-1 
-1 
-1 
-1 
-1 
-1 
-1 
-1 
-1 
-1 
-1 
-1 
-1 
-1 
-1 
-1 
-1 
-1 
-1 
-1 
-1 
-1 
-1 
-1 
-1 
-1 
-1 
-1 
-1 
-1 
-1 
-1 
-1 
-1 
-1 
-1 
-1 
-1 
-1 
-1 
-1 
-1 
-1 
-1 
-1 
-1 
-1 
-1 
-1 
-1 
-1 
-1 
-1 
-1 
-1 
-1 
-1 
-1 
-1 
-1 
-1 
-1 
-1 
-1 
-1 
-1 
-1 
-1 
-1 
-1 
-1 
-1 
-1 
-1 
-1 
-1 
-1 
-1 
-1 
-1 
-1 
-1 
-1 
-1 
-1 
-1 
-1 
-1 
-1 
-1 
-1 
-1 
-1 
-1 
-1 
-1 
-1 
-1 
-1 
-1 
-1 
-1 
-1 
-1 
-1 
-1 
-1 
-1 
-1 
-1 
-1 
-1 
-1 
-1 
-1 
-1 
-1 
-1 
-1 
-1 
-1 
-1 
-1 
-1 
-1 
-1 
-1 
-1 
-1 
-1 
-1 
-1 
-1 
-1 
-1 
-1 
-1 
-1 
-1 
-1 
-1 
-1 
-1 
-1 
-1 
-1 
-1 
-1 
-1 
-1 
-1 
-1 
-1 
-1 
-1 
-1 
-1 
-1 
-1 
-1 
-1 
-1 
-1 
-1 
-1 
-1 
-1 
-1 
-1 
-1 
-1 
-1 
-1 
-1 
-1 
-1 
-1 
-1 
-1 
-1 
-1 
-1 
-1 
-1 
-1 
-1 
-1 
-1 
-1 
-1 
-1 
-1 
-1 
-1 
-1 
-1 
-1 
-1 
-1 
-1 
-1 
-1 
-1 
-1 
-1 
-1 
-1 
-1 
-1 
-1 
-1 
-1 
-1 
-1 
-1 
-1 
-1 
-1 
-1 
-1 
-1 
-1 
-1 
-1 
-1 
-1 
-1 
-1 
-1 
-1 
-1 
-1 
-1 
-1 
-1 
-1 
-1 
-1 
-1 
-1 
-1 
-1 
-1 
-1 
-1 
-1 
-1 
-1 
-1 
-1 
-1 
-1 
-1 
-1 
-1 
-1 
-1 
-1 
-1 
-1 
-1 
-1 
-1 
-1 
-1 
-1 
-1 
-1 
-1 
-1 
-1 
-1 
-1 
-1 
-1 
-1 
-1 
-1 
-1 
-1 
-1 
-1 
-1 
-1 
-1 
-1 
-1 
-1 
-1 
-1 
-1 
-1 
-1 
-1 
-1 
-1 
-1 
-1 
-1 
-1 
-1 
-1 
-1 
-1 
-1 
-1 
-1 
-1 
-1 
-1 
-1 
-1 
-1 
-1 
-1 
-1 
-1 
-1 
-1 
-1 
-1 
-1 
-1 
-1 
-1 
-1 
-1 
-1 
-1 
-1 
-1 
-1 
-1 
-1 
-1 
-1 
-1 
-1 
-1 
-1 
-1 
-1 
-1 
-1 
-1 
-1 
-1 
-1 
-1 
-1 
-1 
-1 
-1 
-1 
-1 
-1 
-1 
-1 
-1 
-1 
-1 
-1 
-1 
-1 
-1 
-1 
-1 
-1 
-1 
-1 
-1 
-1 
-1 
-1 
-1 
-1 
-1 
-1 
-1 
-1 
-1 
-1 
-1 
-1 
-1 
-1 
-1 
-1 
-1 
-1 
-1 
-1 
-1 
-1 
-1 
-1 
-1 
-1 
-1 
-1 
-1 
-1 
-1 
-1 
-1 
-1 
-1 
-1 
-1 
-1 
-1 
-1 
-1 
-1 
-1 
-1 
-1 
-1 
-1 
-1 
-1 
-1 
-1 
-1 
-1 
-1 
-1 
-1 
-1 
-1 
-1 
-1 
-1 
-1 
-1 
-1 
-1 
-1 
-1 
-1 
-1 
-1 
-1 
-1 
-1 
-1 
-1 
-1 
-1 
-1 
-1 
-1 
-1 
-1 
-1 
-1 
-1 
-1 
-1 
-1 
-1 
-1 
-1 
-1 
-1 
-1 
-1 
-1 
-1 
-1 
-1 
-1 
-1 
-1 
-1 
-1 
-1 
-1 
-1 
-1 
-1 
-1 
-1 
-1 
-1 
-1 
-1 
-1 
-1 
-1 
-1 
-1 
-1 
-1 
-1 
-1 
-1 
-1 
-1 
-1 
-1 
-1 
-1 
-1 
-1 
-1 
-1 
-1 
-1 
-1 
-1 
-1 
-1 
-1 
-1 
-1 
-1 
-1 
-1 
-1 
-1 
-1 
-1 
-1 
-1 
-1 
-1 
-1 
-1 
-1 
-1 
-1 
-1 
-1 
-1 
-1 
-1 
-1 
-1 
-1 
-1 
-1 
-1 
-1 
-1 
-1 
-1 
-1 
-1 
-1 
-1 
-1 
-1 
-1 
-1 
-1 
-1 
-1 
-1 
-1 
-1 
-1 
-1 
-1 
-1 
-1 
-1 
-1 
-1 
-1 
-1 
-1 
-1 
-1 
-1 
-1 
-1 
-1 
-1 
-1 
-1 
-1 
-1 
-1 
-1 
-1 
-1 
-1 
-1 
-1 
-1 
-1 
-1 
-1 
-1 
-1 
-1 
-1 
-1 
-1 
-1 
-1 
-1 
-1 
-1 
-1 
-1 
-1 
-1 
-1 
-1 
-1 
-1 
-1 
-1 
-1 
-1 
-1 
-1 
-1 
-1 
-1 
-1 
-1 
-1 
-1 
-1 
-1 
-1 
-1 
-1 
-1 
-1 
-1 
-1 
-1 
-1 
-1 
-1 
-1 
-1 
-1 
-1 
-1 
-1 
-1 
-1 
-1 
-1 
-1 
-1 
-1 
-1 
-1 
-1 
-1 
-1 
-1 
-1 
-1 
-1 
-1 
-1 
-1 
-1 
-1 
-1 
-1 
-1 
-1 
-1 
-1 
-1 
-1 
-1 
-1 
-1 
-1 
-1 
-1 
-1 
-1 
-1 
-1 
-1 
-1 
-1 
-1 
-1 
-1 
-1 
-1 
-1 
-1 
-1 
-1 
-1 
-1 
-1 
-1 
-1 
-1 
-1 
-1 
-1 
-1 
-1 
-1 
-1 
-1 
-1 
-1 
-1 
-1 
-1 
-1 
-1 
-1 
-1 
-1 
-1 
-1 
-1 
-1 
-1 
-1 
-1 
-1 
-1 
-1 
-1 
-1 
-1 
-1 
-1 
-1 
-1 
-1 
-1 
-1 
-1 
-1 
-1 
-1 
-1 
-1 
-1 
-1 
-1 
-1 
-1 
-1 
-1 
-1 
-1 
-1 
-1 
-1 
-1 
-1 
-1 
-1 
-1 
-1 
-1 
-1 
-1 
-1 
-1 
-1 
-1 
-1 
-1 
-1 
-1 
-1 
-1 
-1 
-1 
-1 
-1 
-1 
-1 
-1 
-1 
-1 
-1 
-1 
-1 
-1 
-1 
-1 
-1 
-1 
-1 
-1 
-1 
-1 
-1 
-1 
-1 
-1 
-1 
-1 
-1 
-1 
-1 
-1 
-1 
-1 
-1 
-1 
-1 
-1 
-1 
-1 
-1 
-1 
-1 
-1 
-1 
-1 
-1 
-1 
-1 
-1 
-1 
-1 
-1 
-1 
-1 
-1 
-1 
-1 
-1 
-1 
-1 
-1 
-1 
-1 
-1 
-1 
-1 
-1 
-1 
-1 
-1 
-1 
-1 
-1 
-1 
-1 
-1 
-1 
-1 
-1 
-1 
-1 
-1 
-1 
-1 
-1 
-1 
-1 
-1 
-1 
-1 
-1 
-1 
-1 
-1 
-1 
-1 
-1 
-1 
-1 
-1 
-1 
-1 
-1 
-1 
-1 
-1 
-1 
-1 
-1 
-1 
-1 
-1 
-1 
-1 
-1 
-1 
-1 
-1 
-1 
-1 
-1 
-1 
-1 
-1 
-1 
-1 
-1 
-1 
-1 
-1 
-1 
-1 
-1 
-1 
-1 
-1 
-1 
-1 
-1 
-1 
-1 
-1 
-1 
-1 
-1 
-1 
-1 
-1 
-1 
-1 
-1 
-1 
-1 
-1 
-1 
-1 
-1 
-1 
-1 
-1 
-1 
-1 
-1 
-1 
-1 
-1 
-1 
-1 
-1 
-1 
-1 
-1 
-1 
-1 
-1 
-1 
-1 
-1 
-1 
-1 
-1 
-1 
-1 
-1 
-1 
-1 
-1 
-1 
-1 
-1 
-1 
-1 
-1 
-1 
-1 
-1 
-1 
-1 
-1 
-1 
-1 
-1 
-1 
-1 
-1 
-1 
-1 
-1 
-1 
-1 
-1 
-1 
-1 
-1 
-1 
-1 
-1 
-1 
-1 
-1 
-1 
-1 
-1 
-1 
-1 
-1 
-1 
-1 
-1 
-1 
-1 
-1 
-1 
-1 
-1 
-1 
-1 
-1 
-1 
-1 
-1 
-1 
-1 
-1 
-1 
-1 
-1 
-1 
-1 
-1 
-1 
-1 
-1 
-1 
-1 
-1 
-1 
-1 
-1 
-1 
-1 
-1 
-1 
-1 
-1 
-1 
-1 
-1 
-1 
-1 
-1 
-1 
-1 
-1 
-1 
-1 
-1 
-1 
-1 
-1 
-1 
-1 
-1 
-1 
-1 
-1 
-1 
-1 
-1 
-1 
-1 
-1 
-1 
-1 
-1 
-1 
-1 
-1 
-1 
-1 
-1 
-1 
-1 
-1 
-1 
-1 
-1 
-1 
-1 
-1 
-1 
-1 
-1 
-1 
-1 
-1 
-1 
-1 
-1 
-1 
-1 
-1 
-1 
-1 
-1 
-1 
-1 
-1 
-1 
-1 
-1 
-1 
-1 
-1 
-1 
-1 
-1 
-1 
-1 
-1 
-1 
-1 
-1 
-1 
-1 
-1 
-1 
-1 
-1 
-1 
-1 
-1 
-1 
-1 
-1 
-1 
-1 
-1 
-1 
-1 
-1 
-1 
-1 
-1 
-1 
-1 
-1 
-1 
-1 
-1 
-1 
-1 
-1 
-1 
-1 
-1 
-1 
-1 
-1 
-1 
-1 
-1 
-1 
-1 
-1 
-1 
-1 
-1 
-1 
-1 
-1 
-1 
-1 
-1 
-1 
-1 
-1 
-1 
-1 
-1 
-1 
-1 
-1 
-1 
-1 
-1 
-1 
-1 
-1 
-1 
-1 
-1 
-1 
-1 
-1 
-1 
-1 
-1 
-1 
-1 
-1 
-1 
-1 
-1 
-1 
-1 
-1 
-1 
-1 
-1 
-1 
-1 
-1 
-1 
-1 
-1 
-1 
-1 
-1 
-1 
-1 
-1 
-1 
-1 
-1 
-1 
-1 
-1 
-1 
-1 
-1 
-1 
-1 
-1 
-1 
-1 
-1 
-1 
-1 
-1 
-1 
-1 
-1 
-1 
-1 
-1 
-1 
-1 
-1 
-1 
-1 
-1 
-1 
-1 
-1 
-1 
-1 
-1 
-1 
-1 
-1 
-1 
-1 
-1 
-1 
-1 
-1 
-1 
-1 
-1 
-1 
-1 
-1 
-1 
-1 
-1 
-1 
-1 
-1 
-1 
-1 
-1 
-1 
-1 
-1 
-1 
-1 
-1 
-1 
-1 
-1 
-1 
-1 
-1 
-1 
-1 
-1 
-1 
-1 
-1 
-1 
-1 
-1 
-1 
-1 
-1 
-1 
-1 
-1 
-1 
-1 
-1 
-1 
-1 
-1 
-1 
-1 
-1 
-1 
-1 
-1 
-1 
-1 
-1 
-1 
-1 
-1 
-1 
-1 
-1 
-1 
-1 
-1 
-1 
-1 
-1 
-1 
-1 
-1 
-1 
-1 
-1 
-1 
-1 
-1 
-1 
-1 
-1 
-1 
-1 
-1 
-1 
-1 
-1 
-1 
-1 
-1 
-1 
-1 
-1 
-1 
-1 
-1 
-1 
-1 
-1 
-1 
-1 
-1 
-1 
-1 
-1 
-1 
-1 
-1 
-1 
-1 
-1 
-1 
-1 
-1 
-1 
-1 
-1 
-1 
-1 
-1 
-1 
-1 
-1 
-1 
-1 
-1 
-1 
-1 
-1 
-1 
-1 
-1 
-1 
-1 
-1 
-1 
-1 
-1 
-1 
-1 
-1 
-1 
-1 
-1 
-1 
-1 
-1 
-1 
-1 
-1 
-1 
-1 
-1 
-1 
-1 
-1 
-1 
-1 
-1 
-1 
-1 
-1 
-1 
-1 
-1 
-1 
-1 
-1 
-1 
-1 
-1 
-1 
-1 
-1 
-1 
-1 
-1 
-1 
-1 
-1 
-1 
-1 
-1 
-1 
-1 
-1 
-1 
-1 
-1 
-1 
-1 
-1 
-1 
-1 
-1 
-1 
-1 
-1 
-1 
-1 
-1 
-1 
-1 
-1 
-1 
-1 
-1 
-1 
-1 
-1 
-1 
-1 
-1 
-1 
-1 
-1 
-1 
-1 
-1 
-1 
-1 
-1 
-1 
-1 
-1 
-1 
-1 
-1 
-1 
-1 
-1 
-1 
-1 
-1 
-1 
-1 
-1 
-1 
-1 
-1 
-1 
-1 
-1 
-1 
-1 
-1 
-1 
-1 
-1 
-1 
-1 
-1 
-1 
-1 
-1 
-1 
-1 
-1 
-1 
-1 
-1 
-1 
-1 
-1 
-1 
-1 
-1 
-1 
-1 
-1 
-1 
-1 
-1 
-1 
-1 
-1 
-1 
-1 
-1 
-1 
-1 
-1 
-1 
-1 
-1 
-1 
-1 
-1 
-1 
-1 
-1 
-1 
-1 
-1 
-1 
-1 
-1 
-1 
-1 
-1 
-1 
-1 
-1 
-1 
-1 
-1 
-1 
-1 
-1 
-1 
-1 
-1 
-1 
-1 
-1 
-1 
-1 
-1 
-1 
-1 
-1 
-1 
-1 
-1 
-1 
-1 
-1 
-1 
-1 
-1 
-1 
-1 
-1 
-1 
-1 
-1 
-1 
-1 
-1 
-1 
-1 
-1 
-1 
-1 
-1 
-1 
-1 
-1 
-1 
-1 
-1 
-1 
-1 
-1 
-1 
-1 
-1 
-1 
-1 
-1 
-1 
-1 
-1 
-1 
-1 
-1 
-1 
-1 
-1 
-1 
-1 
-1 
-1 
-1 
-1 
-1 
-1 
-1 
-1 
-1 
-1 
-1 
-1 
-1 
-1 
-1 
-1 
-1 
-1 
-1 
-1 
-1 
-1 
-1 
-1 
-1 
-1 
-1 
-1 
-1 
-1 
-1 
-1 
-1 
-1 
-1 
-1 
-1 
-1 
-1 
-1 
-1 
-1 
-1 
-1 
-1 
-1 
-1 
-1 
-1 
-1 
-1 
-1 
-1 
-1 
-1 
-1 
-1 
-1 
-1 
-1 
-1 
-1 
-1 
-1 
-1 
-1 
-1 
-1 
-1 
-1 
-1 
-1 
-1 
-1 
-1 
-1 
-1 
-1 
-1 
-1 
-1 
-1 
-1 
-1 
-1 
-1 
-1 
-1 
-1 
-1 
-1 
-1 
-1 
-1 
-1 
-1 
-1 
-1 
-1 
-1 
-1 
-1 
-1 
-1 
-1 
-1 
-1 
-1 
-1 
-1 
-1 
-1 
-1 
-1 
-1 
-1 
-1 
-1 
-1 
-1 
-1 
-1 
-1 
-1 
-1 
-1 
-1 
-1 
-1 
-1 
-1 
-1 
-1 
-1 
-1 
-1 
-1 
-1 
-1 
-1 
-1 
-1 
-1 
-1 
-1 
-1 
-1 
-1 
-1 
-1 
-1 
-1 
-1 
-1 
-1 
-1 
-1 
-1 
-1 
-1 
-1 
-1 
-1 
-1 
-1 
-1 
-1 
-1 
-1 
-1 
-1 
-1 
-1 
-1 
-1 
-1 
-1 
-1 
-1 
-1 
-1 
-1 
-1 
-1 
-1 
-1 
-1 
-1 
-1 
-1 
-1 
-1 
-1 
-1 
-1 
-1 
-1 
-1 
-1 
-1 
-1 
-1 
-1 
-1 
-1 
-1 
-1 
-1 
-1 
-1 
-1 
-1 
-1 
-1 
-1 
-1 
-1 
-1 
-1 
-1 
-1 
-1 
-1 
-1 
-1 
-1 
-1 
-1 
-1 
-1 
-1 
-1 
-1 
-1 
-1 
-1 
-1 
-1 
-1 
-1 
-1 
-1 
-1 
-1 
-1 
-1 
-1 
-1 
-1 
-1 
-1 
-1 
-1 
-1 
-1 
-1 
-1 
-1 
-1 
-1 
-1 
-1 
-1 
-1 
-1 
-1 
-1 
-1 
-1 
-1 
-1 
-1 
-1 
-1 
-1 
-1 
-1 
-1 
-1 
-1 
-1 
-1 
-1 
-1 
-1 
-1 
-1 
-1 
-1 
-1 
-1 
-1 
-1 
-1 
-1 
-1 
-1 
-1 
-1 
-1 
-1 
-1 
-1 
-1 
-1 
-1 
-1 
-1 
-1 
-1 
-1 
-1 
-1 
-1 
-1 
-1 
-1 
-1 
-1 
-1 
-1 
-1 
-1 
-1 
-1 
-1 
-1 
-1 
-1 
-1 
-1 
-1 
-1 
-1 
-1 
-1 
-1 
-1 
-1 
-1 
-1 
-1 
-1 
-1 
-1 
-1 
-1 
-1 
-1 
-1 
-1 
-1 
-1 
-1 
-1 
-1 
-1 
-1 
-1 
-1 
-1 
-1 
-1 
-1 
-1 
-1 
-1 
-1 
-1 
-1 
-1 
-1 
-1 
-1 
-1 
-1 
-1 
-1 
-1 
-1 
-1 
-1 
-1 
-1 
-1 
-1 
-1 
-1 
-1 
-1 
-1 
-1 
-1 
-1 
-1 
-1 
-1 
-1 
-1 
-1 
-1 
-1 
-1 
-1 
-1 
-1 
-1 
-1 
-1 
-1 
-1 
-1 
-1 
-1 
-1 
-1 
-1 
-1 
-1 
-1 
-1 
-1 
-1 
-1 
-1 
-1 
-1 
-1 
-1 
-1 
-1 
-1 
-1 
-1 
-1 
-1 
-1 
-1 
-1 
-1 
-1 
-1 
-1 
-1 
-1 
-1 
-1 
-1 
-1 
-1 
-1 
-1 
-1 
-1 
-1 
-1 
-1 
-1 
-1 
-1 
-1 
-1 
-1 
-1 
-1 
-1 
-1 
-1 
-1 
-1 
-1 
-1 
-1 
-1 
-1 
-1 
-1 
-1 
-1 
-1 
-1 
-1 
-1 
-1 
-1 
-1 
-1 
-1 
-1 
-1 
-1 
-1 
-1 
-1 
-1 
-1 
-1 
-1 
-1 
-1 
-1 
-1 
-1 
-1 
-1 
-1 
-1 
-1 
-1 
-1 
-1 
-1 
-1 
-1 
-1 
-1 
-1 
-1 
-1 
-1 
-1 
-1 
-1 
-1 
-1 
-1 
-1 
-1 
-1 
-1 
-1 
-1 
-1 
-1 
-1 
-1 
-1 
-1 
-1 
-1 
-1 
-1 
-1 
-1 
-1 
-1 
-1 
-1 
-1 
-1 
-1 
-1 
-1 
-1 
-1 
-1 
-1 
-1 
-1 
-1 
-1 
-1 
-1 
-1 
-1 
-1 
-1 
-1 
-1 
-1 
-1 
-1 
-1 
-1 
-1 
-1 
-1 
-1 
-1 
-1 
-1 
-1 
-1 
-1 
-1 
-1 
-1 
-1 
-1 
-1 
-1 
-1 
-1 
-1 
-1 
-1 
-1 
-1 
-1 
-1 
-1 
-1 
-1 
-1 
-1 
-1 
-1 
-1 
-1 
-1 
-1 
-1 
-1 
-1 
-1 
-1 
-1 
-1 
-1 
-1 
-1 
-1 
-1 
-1 
-1 
-1 
-1 
-1 
-1 
-1 
-1 
-1 
-1 
-1 
-1 
-1 
-1 
-1 
-1 
-1 
-1 
-1 
-1 
-1 
-1 
-1 
-1 
-1 
-1 
-1 
-1 
-1 
-1 
-1 
-1 
-1 
-1 
-1 
-1 
-1 
-1 
-1 
-1 
-1 
-1 
-1 
-1 
-1 
-1 
-1 
-1 
-1 
-1 
-1 
-1 
-1 
-1 
-1 
-1 
-1 
-1 
-1 
-1 
-1 
-1 
-1 
-1 
-1 
-1 
-1 
-1 
-1 
-1 
-1 
-1 
-1 
-1 
-1 
-1 
-1 
-1 
-1 
-1 
-1 
-1 
-1 
-1 
-1 
-1 
-1 
-1 
-1 
-1 
-1 
-1 
-1 
-1 
-1 
-1 
-1 
-1 
-1 
-1 
-1 
-1 
-1 
-1 
-1 
-1 
-1 
-1 
-1 
-1 
-1 
-1 
-1 
-1 
-1 
-1 
-1 
-1 
-1 
-1 
-1 
-1 
-1 
-1 
-1 
-1 
-1 
-1 
-1 
-1 
-1 
-1 
-1 
-1 
-1 
-1 
-1 
-1 
-1 
-1 
-1 
-1 
-1 
-1 
-1 
-1 
-1 
-1 
-1 
-1 
-1 
-1 
-1 
-1 
-1 
-1 
-1 
-1 
-1 
-1 
-1 
-1 
-1 
-1 
-1 
-1 
-1 
-1 
-1 
-1 
-1 
-1 
-1 
-1 
-1 
-1 
-1 
-1 
-1 
-1 
-1 
-1 
-1 
-1 
-1 
-1 
-1 
-1 
-1 
-1 
-1 
-1 
-1 
-1 
-1 
-1 
-1 
-1 
-1 
-1 
-1 
-1 
-1 
-1 
-1 
-1 
-1 
-1 
-1 
-1 
-1 
-1 
-1 
-1 
-1 
-1 
-1 
-1 
-1 
-1 
-1 
-1 
-1 
-1 
-1 
-1 
-1 
-1 
-1 
-1 
-1 
-1 
-1 
-1 
-1 
-1 
-1 
-1 
-1 
-1 
-1 
-1 
-1 
-1 
-1 
-1 
-1 
-1 
-1 
-1 
-1 
-1 
-1 
-1 
-1 
-1 
-1 
-1 
-1 
-1 
-1 
-1 
-1 
-1 
-1 
-1 
-1 
-1 
-1 
-1 
-1 
-1 
-1 
-1 
-1 
-1 
-1 
-1 
-1 
-1 
-1 
-1 
-1 
-1 
-1 
-1 
-1 
-1 
-1 
-1 
-1 
-1 
-1 
-1 
-1 
-1 
-1 
-1 
-1 
-1 
-1 
-1 
-1 
-1 
-1 
-1 
-1 
-1 
-1 
-1 
-1 
-1 
-1 
-1 
-1 
-1 
-1 
-1 
-1 
-1 
-1 
-1 
-1 
-1 
-1 
-1 
-1 
-1 
-1 
-1 
-1 
-1 
-1 
-1 
-1 
-1 
-1 
-1 
-1 
-1 
-1 
-1 
-1 
-1 
-1 
-1 
-1 
-1 
-1 
-1 
-1 
-1 
-1 
-1 
-1 
-1 
-1 
-1 
-1 
-1 
-1 
-1 
-1 
-1 
-1 
-1 
-1 
-1 
-1 
-1 
-1 
-1 
-1 
-1 
-1 
-1 
-1 
-1 
-1 
-1 
-1 
-1 
-1 
-1 
-1 
-1 
-1 
-1 
-1 
-1 
-1 
-1 
-1 
-1 
-1 
-1 
-1 
-1 
-1 
-1 
-1 
-1 
-1 
-1 
-1 
-1 
-1 
-1 
-1 
-1 
-1 
-1 
-1 
-1 
-1 
-1 
-1 
-1 
-1 
-1 
-1 
-1 
-1 
-1 
-1 
-1 
-1 
-1 
-1 
-1 
-1 
-1 
-1 
-1 
-1 
-1 
-1 
-1 
-1 
-1 
-1 
-1 
-1 
-1 
-1 
-1 
-1 
-1 
-1 
-1 
-1 
-1 
-1 
-1 
-1 
-1 
-1 
-1 
-1 
-1 
-1 
-1 
-1 
-1 
-1 
-1 
-1 
-1 
-1 
-1 
-1 
-1 
-1 
-1 
-1 
-1 
-1 
-1 
-1 
-1 
-1 
-1 
-1 
-1 
-1 
-1 
-1 
-1 
-1 
-1 
-1 
-1 
-1 
-1 
-1 
-1 
-1 
-1 
-1 
-1 
-1 
-1 
-1 
-1 
-1 
-1 
-1 
-1 
-1 
-1 
-1 
-1 
-1 
-1 
-1 
-1 
-1 
-1 
-1 
-1 
-1 
-1 
-1 
-1 
-1 
-1 
-1 
-1 
-1 
-1 
-1 
-1 
-1 
-1 
-1 
-1 
-1 
-1 
-1 
-1 
-1 
-1 
-1 
-1 
-1 
-1 
-1 
-1 
-1 
-1 
-1 
-1 
-1 
-1 
-1 
-1 
-1 
-1 
-1 
-1 
-1 
-1 
-1 
-1 
-1 
-1 
-1 
-1 
-1 
-1 
-1 
-1 
-1 
-1 
-1 
-1 
-1 
-1 
-1 
-1 
-1 
-1 
-1 
-1 
-1 
-1 
-1 
-1 
-1 
-1 
-1 
-1 
-1 
-1 
-1 
-1 
-1 
-1 
-1 
-1 
-1 
-1 
-1 
-1 
-1 
-1 
-1 
-1 
-1 
-1 
-1 
-1 
-1 
-1 
-1 
-1 
-1 
-1 
-1 
-1 
-1 
-1 
-1 
-1 
-1 
-1 
-1 
-1 
-1 
-1 
-1 
-1 
-1 
-1 
-1 
-1 
-1 
-1 
-1 
-1 
-1 
-1 
-1 
-1 
-1 
-1 
-1 
-1 
-1 
-1 
-1 
-1 
-1 
-1 
-1 
-1 
-1 
-1 
-1 
-1 
-1 
-1 
-1 
-1 
-1 
-1 
-1 
-1 
-1 
-1 
-1 
-1 
-1 
-1 
-1 
-1 
-1 
-1 
-1 
-1 
-1 
-1 
-1 
-1 
-1 
-1 
-1 
-1 
-1 
-1 
-1 
-1 
-1 
-1 
-1 
-1 
-1 
-1 
-1 
-1 
-1 
-1 
-1 
-1 
-1 
-1 
-1 
-1 
-1 
-1 
-1 
-1 
-1 
-1 
-1 
-1 
-1 
-1 
-1 
-1 
-1 
-1 
-1 
-1 
-1 
-1 
-1 
-1 
-1 
-1 
-1 
-1 
-1 
-1 
-1 
-1 
-1 
-1 
-1 
-1 
-1 
-1 
-1 
-1 
-1 
-1 
-1 
-1 
-1 
-1 
-1 
-1 
-1 
-1 
-1 
-1 
-1 
-1 
-1 
-1 
-1 
-1 
-1 
-1 
-1 
-1 
-1 
-1 
-1 
-1 
-1 
-1 
-1 
-1 
-1 
-1 
-1 
-1 
-1 
-1 
-1 
-1 
-1 
-1 
-1 
-1 
-1 
-1 
-1 
-1 
-1 
-1 
-1 
-1 
-1 
-1 
-1 
-1 
-1 
-1 
-1 
-1 
-1 
-1 
-1 
-1 
-1 
-1 
-1 
-1 
-1 
-1 
-1 
-1 
-1 
-1 
-1 
-1 
-1 
-1 
-1 
-1 
-1 
-1 
-1 
-1 
-1 
-1 
-1 
-1 
-1 
-1 
-1 
-1 
-1 
-1 
-1 
-1 
-1 
-1 
-1 
-1 
-1 
-1 
-1 
-1 
-1 
-1 
-1 
-1 
-1 
-1 
-1 
-1 
-1 
-1 
-1 
-1 
-1 
-1 
-1 
-1 
-1 
-1 
-1 
-1 
-1 
-1 
-1 
-1 
-1 
-1 
-1 
-1 
-1 
-1 
-1 
-1 
-1 
-1 
-1 
-1 
-1 
-1 
-1 
-1 
-1 
-1 
-1 
-1 
-1 
-1 
-1 
-1 
-1 
-1 
-1 
-1 
-1 
-1 
-1 
-1 
-1 
-1 
-1 
-1 
-1 
-1 
-1 
-1 
-1 
-1 
-1 
-1 
-1 
-1 
-1 
-1 
-1 
-1 
-1 
-1 
-1 
-1 
-1 
-1 
-1 
-1 
-1 
-1 
-1 
-1 
-1 
-1 
-1 
-1 
-1 
-1 
-1 
-1 
-1 
-1 
-1 
-1 
-1 
-1 
-1 
-1 
-1 
-1 
-1 
-1 
-1 
-1 
-1 
-1 
-1 
-1 
-1 
-1 
-1 
-1 
-1 
-1 
-1 
-1 
-1 
-1 
-1 
-1 
-1 
-1 
-1 
-1 
-1 
-1 
-1 
-1 
-1 
-1 
-1 
-1 
-1 
-1 
-1 
-1 
-1 
-1 
-1 
-1 
-1 
-1 
-1 
-1 
-1 
-1 
-1 
-1 
-1 
-1 
-1 
-1 
-1 
-1 
-1 
-1 
-1 
-1 
-1 
-1 
-1 
-1 
-1 
-1 
-1 
-1 
-1 
-1 
-1 
-1 
-1 
-1 
-1 
-1 
-1 
-1 
-1 
-1 
-1 
-1 
-1 
-1 
-1 
-1 
-1 
-1 
-1 
-1 
-1 
-1 
-1 
-1 
-1 
-1 
-1 
-1 
-1 
-1 
-1 
-1 
-1 
-1 
-1 
-1 
-1 
-1 
-1 
-1 
-1 
-1 
-1 
-1 
-1 
-1 
-1 
-1 
-1 
-1 
-1 
-1 
-1 
-1 
-1 
-1 
-1 
-1 
-1 
-1 
-1 
-1 
-1 
-1 
-1 
-1 
-1 
-1 
-1 
-1 
-1 
-1 
-1 
-1 
-1 
-1 
-1 
-1 
-1 
-1 
-1 
-1 
-1 
-1 
-1 
-1 
-1 
-1 
-1 
-1 
-1 
-1 
-1 
-1 
-1 
-1 
-1 
-1 
-1 
-1 
-1 
-1 
-1 
-1 
-1 
-1 
-1 
-1 
-1 
-1 
-1 
-1 
-1 
-1 
-1 
-1 
-1 
-1 
-1 
-1 
-1 
-1 
-1 
-1 
-1 
-1 
-1 
-1 
-1 
-1 
-1 
-1 
-1 
-1 
-1 
-1 
-1 
-1 
-1 
-1 
-1 
-1 
-1 
-1 
-1 
-1 
-1 
-1 
-1 
-1 
-1 
-1 
-1 
-1 
-1 
-1 
-1 
-1 
-1 
-1 
-1 
-1 
-1 
-1 
-1 
-1 
-1 
-1 
-1 
-1 
-1 
-1 
-1 
-1 
-1 
-1 
-1 
-1 
-1 
-1 
-1 
-1 
-1 
-1 
-1 
-1 
-1 
-1 
-1 
-1 
-1 
-1 
-1 
-1 
-1 
-1 
-1 
-1 
-1 
-1 
-1 
-1 
-1 
-1 
-1 
-1 
-1 
-1 
-1 
-1 
-1 
-1 
-1 
-1 
-1 
-1 
-1 
-1 
-1 
-1 
-1 
-1 
-1 
-1 
-1 
-1 
-1 
-1 
-1 
-1 
-1 
-1 
-1 
-1 
-1 
-1 
-1 
-1 
-1 
-1 
-1 
-1 
-1 
-1 
-1 
-1 
-1 
-1 
-1 
-1 
-1 
-1 
-1 
-1 
-1 
-1 
-1 
-1 
-1 
-1 
-1 
-1 
-1 
-1 
-1 
-1 
-1 
-1 
-1 
-1 
-1 
-1 
-1 
-1 
-1 
-1 
-1 
-1 
-1 
-1 
-1 
-1 
-1 
-1 
-1 
-1 
-1 
-1 
-1 
-1 
-1 
-1 
-1 
-1 
-1 
-1 
-1 
-1 
-1 
-1 
-1 
-1 
-1 
-1 
-1 
-1 
-1 
-1 
-1 
-1 
-1 
-1 
-1 
-1 
-1 
-1 
-1 
-1 
-1 
-1 
-1 
-1 
-1 
-1 
-1 
-1 
-1 
-1 
-1 
-1 
-1 
-1 
-1 
-1 
-1 
-1 
-1 
-1 
-1 
-1 
-1 
-1 
-1 
-1 
-1 
-1 
-1 
-1 
-1 
-1 
-1 
-1 
-1 
-1 
-1 
-1 
-1 
-1 
-1 
-1 
-1 
-1 
-1 
-1 
-1 
-1 
-1 
-1 
-1 
-1 
-1 
-1 
-1 
-1 
-1 
-1 
-1 
-1 
-1 
-1 
-1 
-1 
-1 
-1 
-1 
-1 
-1 
-1 
-1 
-1 
-1 
-1 
-1 
-1 
-1 
-1 
-1 
-1 
-1 
-1 
-1 
-1 
-1 
-1 
-1 
-1 
-1 
-1 
-1 
-1 
-1 
-1 
-1 
-1 
-1 
-1 
-1 
-1 
-1 
-1 
-1 
-1 
-1 
-1 
-1 
-1 
-1 
-1 
-1 
-1 
-1 
-1 
-1 
-1 
-1 
-1 
-1 
-1 
-1 
-1 
-1 
-1 
-1 
-1 
-1 
-1 
-1 
-1 
-1 
-1 
-1 
-1 
-1 
-1 
-1 
-1 
-1 
-1 
-1 
-1 
-1 
-1 
-1 
-1 
-1 
-1 
-1 
-1 
-1 
-1 
-1 
-1 
-1 
-1 
-1 
-1 
-1 
-1 
-1 
-1 
-1 
-1 
-1 
-1 
-1 
-1 
-1 
-1 
-1 
-1 
-1 
-1 
-1 
-1 
-1 
-1 
-1 
-1 
-1 
-1 
-1 
-1 
-1 
-1 
-1 
-1 
-1 
-1 
-1 
-1 
-1 
-1 
-1 
-1 
-1 
-1 
-1 
-1 
-1 
-1 
-1 
-1 
-1 
-1 
-1 
-1 
-1 
-1 
-1 
-1 
-1 
-1 
-1 
-1 
-1 
-1 
-1 
-1 
-1 
-1 
-1 
-1 
-1 
-1 
-1 
-1 
-1 
-1 
-1 
-1 
-1 
-1 
-1 
-1 
-1 
-1 
-1 
-1 
-1 
-1 
-1 
-1 
-1 
-1 
-1 
-1 
-1 
-1 
-1 
-1 
-1 
-1 
-1 
-1 
-1 
-1 
-1 
-1 
-1 
-1 
-1 
-1 
-1 
-1 
-1 
-1 
-1 
-1 
-1 
-1 
-1 
-1 
-1 
-1 
-1 
-1 
-1 
-1 
-1 
-1 
-1 
-1 
-1 
-1 
-1 
-1 
-1 
-1 
-1 
-1 
-1 
-1 
-1 
-1 
-1 
-1 
-1 
-1 
-1 
-1 
-1 
-1 
-1 
-1 
-1 
-1 
-1 
-1 
-1 
-1 
-1 
-1 
-1 
-1 
-1 
-1 
-1 
-1 
-1 
-1 
-1 
-1 
-1 
-1 
-1 
-1 
-1 
-1 
-1 
-1 
-1 
-1 
-1 
-1 
-1 
-1 
-1 
-1 
-1 
-1 
-1 
-1 
-1 
-1 
-1 
-1 
-1 
-1 
-1 
-1 
-1 
-1 
-1 
-1 
-1 
-1 
-1 
-1 
-1 
-1 
-1 
-1 
-1 
-1 
-1 
-1 
-1 
-1 
-1 
-1 
-1 
-1 
-1 
-1 
-1 
-1 
-1 
-1 
-1 
-1 
-1 
-1 
-1 
-1 
-1 
-1 
-1 
-1 
-1 
-1 
-1 
-1 
-1 
-1 
-1 
-1 
-1 
-1 
-1 
-1 
-1 
-1 
-1 
-1 
-1 
-1 
-1 
-1 
-1 
-1 
-1 
-1 
-1 
-1 
-1 
-1 
-1 
-1 
-1 
-1 
-1 
-1 
-1 
-1 
-1 
-1 
-1 
-1 
-1 
-1 
-1 
-1 
-1 
-1 
-1 
-1 
-1 
-1 
-1 
-1 
-1 
-1 
-1 
-1 
-1 
-1 
-1 
-1 
-1 
-1 
-1 
-1 
-1 
-1 
-1 
-1 
-1 
-1 
-1 
-1 
-1 
-1 
-1 
-1 
-1 
-1 
-1 
-1 
-1 
-1 
-1 
-1 
-1 
-1 
-1 
-1 
-1 
-1 
-1 
-1 
-1 
-1 
-1 
-1 
-1 
-1 
-1 
-1 
-1 
-1 
-1 
-1 
-1 
VECTORS DISPLACEMENT double
0 0 0 
0 0 0 
0 0 0 
0 0 0 
0 0 0 
0 0 0 
0 0 0 
0 0 0 
0 0 0 
0 0 0 
0 0 0 
0 0 0 
0 0 0 
0 0 0 
0 0 0 
0 0 0 
0 0 0 
0 0 0 
0 0 0 
0 0 0 
0 0 0 
0 0 0 
0 0 0 
0 0 0 
0 0 0 
0 0 0 
0 0 0 
0 0 0 
0 0 0 
0 0 0 
0 0 0 
0 0 0 
0 0 0 
0 0 0 
0 0 0 
0 0 0 
0 0 0 
0 0 0 
0 0 0 
0 0 0 
0 0 0 
0 0 0 
0 0 0 
0 0 0 
0 0 0 
0 0 0 
0 0 0 
0 0 0 
0 0 0 
0 0 0 
0 0 0 
0 0 0 
0 0 0 
0 0 0 
0 0 0 
0 0 0 
0 0 0 
0 0 0 
0 0 0 
0 0 0 
0 0 0 
0 0 0 
0 0 0 
0 0 0 
0 0 0 
0 0 0 
0 0 0 
0 0 0 
0 0 0 
0 0 0 
0 0 0 
0 0 0 
0 0 0 
0 0 0 
0 0 0 
0 0 0 
0 0 0 
0 0 0 
0 0 0 
0 0 0 
0 0 0 
0 0 0 
0 0 0 
0 0 0 
0 0 0 
0 0 0 
0 0 0 
0 0 0 
0 0 0 
0 0 0 
0 0 0 
0 0 0 
0 0 0 
0 0 0 
0 0 0 
0 0 0 
0 0 0 
0 0 0 
0 0 0 
0 0 0 
0 0 0 
0 0 0 
0 0 0 
0 0 0 
0 0 0 
0 0 0 
0 0 0 
0 0 0 
0 0 0 
0 0 0 
0 0 0 
0 0 0 
0 0 0 
0 0 0 
0 0 0 
0 0 0 
0 0 0 
0 0 0 
0 0 0 
0 0 0 
0 0 0 
0 0 0 
0 0 0 
0 0 0 
0 0 0 
0 0 0 
0 0 0 
0 0 0 
0 0 0 
0 0 0 
0 0 0 
0 0 0 
0 0 0 
0 0 0 
0 0 0 
0 0 0 
0 0 0 
0 0 0 
0 0 0 
0 0 0 
0 0 0 
0 0 0 
0 0 0 
0 0 0 
0 0 0 
0 0 0 
0 0 0 
0 0 0 
0 0 0 
0 0 0 
0 0 0 
0 0 0 
0 0 0 
0 0 0 
0 0 0 
0 0 0 
0 0 0 
0 0 0 
0 0 0 
0 0 0 
0 0 0 
0 0 0 
0 0 0 
0 0 0 
0 0 0 
0 0 0 
0 0 0 
0 0 0 
0 0 0 
0 0 0 
0 0 0 
0 0 0 
0 0 0 
0 0 0 
0 0 0 
0 0 0 
0 0 0 
0 0 0 
0 0 0 
0 0 0 
0 0 0 
0 0 0 
0 0 0 
0 0 0 
0 0 0 
0 0 0 
0 0 0 
0 0 0 
0 0 0 
0 0 0 
0 0 0 
0 0 0 
0 0 0 
0 0 0 
0 0 0 
0 0 0 
0 0 0 
0 0 0 
0 0 0 
0 0 0 
0 0 0 
0 0 0 
0 0 0 
0 0 0 
0 0 0 
0 0 0 
0 0 0 
0 0 0 
0 0 0 
0 0 0 
0 0 0 
0 0 0 
0 0 0 
0 0 0 
0 0 0 
0 0 0 
0 0 0 
0 0 0 
0 0 0 
0 0 0 
0 0 0 
0 0 0 
0 0 0 
0 0 0 
0 0 0 
0 0 0 
0 0 0 
0 0 0 
0 0 0 
0 0 0 
0 0 0 
0 0 0 
0 0 0 
0 0 0 
0 0 0 
0 0 0 
0 0 0 
0 0 0 
0 0 0 
0 0 0 
0 0 0 
0 0 0 
0 0 0 
0 0 0 
0 0 0 
0 0 0 
0 0 0 
0 0 0 
0 0 0 
0 0 0 
0 0 0 
0 0 0 
0 0 0 
0 0 0 
0 0 0 
0 0 0 
0 0 0 
0 0 0 
0 0 0 
0 0 0 
0 0 0 
0 0 0 
0 0 0 
0 0 0 
0 0 0 
0 0 0 
0 0 0 
0 0 0 
0 0 0 
0 0 0 
0 0 0 
0 0 0 
0 0 0 
0 0 0 
0 0 0 
0 0 0 
0 0 0 
0 0 0 
0 0 0 
0 0 0 
0 0 0 
0 0 0 
0 0 0 
0 0 0 
0 0 0 
0 0 0 
0 0 0 
0 0 0 
0 0 0 
0 0 0 
0 0 0 
0 0 0 
0 0 0 
0 0 0 
0 0 0 
0 0 0 
0 0 0 
0 0 0 
0 0 0 
0 0 0 
0 0 0 
0 0 0 
0 0 0 
0 0 0 
0 0 0 
0 0 0 
0 0 0 
0 0 0 
0 0 0 
0 0 0 
0 0 0 
0 0 0 
0 0 0 
0 0 0 
0 0 0 
0 0 0 
0 0 0 
0 0 0 
0 0 0 
0 0 0 
0 0 0 
0 0 0 
0 0 0 
0 0 0 
0 0 0 
0 0 0 
0 0 0 
0 0 0 
0 0 0 
0 0 0 
0 0 0 
0 0 0 
0 0 0 
0 0 0 
0 0 0 
0 0 0 
0 0 0 
0 0 0 
0 0 0 
0 0 0 
0 0 0 
0 0 0 
0 0 0 
0 0 0 
0 0 0 
0 0 0 
0 0 0 
0 0 0 
0 0 0 
0 0 0 
0 0 0 
0 0 0 
0 0 0 
0 0 0 
0 0 0 
0 0 0 
0 0 0 
0 0 0 
0 0 0 
0 0 0 
0 0 0 
0 0 0 
0 0 0 
0 0 0 
0 0 0 
0 0 0 
0 0 0 
0 0 0 
0 0 0 
0 0 0 
0 0 0 
0 0 0 
0 0 0 
0 0 0 
0 0 0 
0 0 0 
0 0 0 
0 0 0 
0 0 0 
0 0 0 
0 0 0 
0 0 0 
0 0 0 
0 0 0 
0 0 0 
0 0 0 
0 0 0 
0 0 0 
0 0 0 
0 0 0 
0 0 0 
0 0 0 
0 0 0 
0 0 0 
0 0 0 
0 0 0 
0 0 0 
0 0 0 
0 0 0 
0 0 0 
0 0 0 
0 0 0 
0 0 0 
0 0 0 
0 0 0 
0 0 0 
0 0 0 
0 0 0 
0 0 0 
0 0 0 
0 0 0 
0 0 0 
0 0 0 
0 0 0 
0 0 0 
0 0 0 
0 0 0 
0 0 0 
0 0 0 
0 0 0 
0 0 0 
0 0 0 
0 0 0 
0 0 0 
0 0 0 
0 0 0 
0 0 0 
0 0 0 
0 0 0 
0 0 0 
0 0 0 
0 0 0 
0 0 0 
0 0 0 
0 0 0 
0 0 0 
0 0 0 
0 0 0 
0 0 0 
0 0 0 
0 0 0 
0 0 0 
0 0 0 
0 0 0 
0 0 0 
0 0 0 
0 0 0 
0 0 0 
0 0 0 
0 0 0 
0 0 0 
0 0 0 
0 0 0 
0 0 0 
0 0 0 
0 0 0 
0 0 0 
0 0 0 
0 0 0 
0 0 0 
0 0 0 
0 0 0 
0 0 0 
0 0 0 
0 0 0 
0 0 0 
0 0 0 
0 0 0 
0 0 0 
0 0 0 
0 0 0 
0 0 0 
0 0 0 
0 0 0 
0 0 0 
0 0 0 
0 0 0 
0 0 0 
0 0 0 
0 0 0 
0 0 0 
0 0 0 
0 0 0 
0 0 0 
0 0 0 
0 0 0 
0 0 0 
0 0 0 
0 0 0 
0 0 0 
0 0 0 
0 0 0 
0 0 0 
0 0 0 
0 0 0 
0 0 0 
0 0 0 
0 0 0 
0 0 0 
0 0 0 
0 0 0 
0 0 0 
0 0 0 
0 0 0 
0 0 0 
0 0 0 
0 0 0 
0 0 0 
0 0 0 
0 0 0 
0 0 0 
0 0 0 
0 0 0 
0 0 0 
0 0 0 
0 0 0 
0 0 0 
0 0 0 
0 0 0 
0 0 0 
0 0 0 
0 0 0 
0 0 0 
0 0 0 
0 0 0 
0 0 0 
0 0 0 
0 0 0 
0 0 0 
0 0 0 
0 0 0 
0 0 0 
0 0 0 
0 0 0 
0 0 0 
0 0 0 
0 0 0 
0 0 0 
0 0 0 
0 0 0 
0 0 0 
0 0 0 
0 0 0 
0 0 0 
0 0 0 
0 0 0 
0 0 0 
0 0 0 
0 0 0 
0 0 0 
0 0 0 
0 0 0 
0 0 0 
0 0 0 
0 0 0 
0 0 0 
0 0 0 
0 0 0 
0 0 0 
0 0 0 
0 0 0 
0 0 0 
0 0 0 
0 0 0 
0 0 0 
0 0 0 
0 0 0 
0 0 0 
0 0 0 
0 0 0 
0 0 0 
0 0 0 
0 0 0 
0 0 0 
0 0 0 
0 0 0 
0 0 0 
0 0 0 
0 0 0 
0 0 0 
0 0 0 
0 0 0 
0 0 0 
0 0 0 
0 0 0 
0 0 0 
0 0 0 
0 0 0 
0 0 0 
0 0 0 
0 0 0 
0 0 0 
0 0 0 
0 0 0 
0 0 0 
0 0 0 
0 0 0 
0 0 0 
0 0 0 
0 0 0 
0 0 0 
0 0 0 
0 0 0 
0 0 0 
0 0 0 
0 0 0 
0 0 0 
0 0 0 
0 0 0 
0 0 0 
0 0 0 
0 0 0 
0 0 0 
0 0 0 
0 0 0 
0 0 0 
0 0 0 
0 0 0 
0 0 0 
0 0 0 
0 0 0 
0 0 0 
0 0 0 
0 0 0 
0 0 0 
0 0 0 
0 0 0 
0 0 0 
0 0 0 
0 0 0 
0 0 0 
0 0 0 
0 0 0 
0 0 0 
0 0 0 
0 0 0 
0 0 0 
0 0 0 
0 0 0 
0 0 0 
0 0 0 
0 0 0 
0 0 0 
0 0 0 
0 0 0 
0 0 0 
0 0 0 
0 0 0 
0 0 0 
0 0 0 
0 0 0 
0 0 0 
0 0 0 
0 0 0 
0 0 0 
0 0 0 
0 0 0 
0 0 0 
0 0 0 
0 0 0 
0 0 0 
0 0 0 
0 0 0 
0 0 0 
0 0 0 
0 0 0 
0 0 0 
0 0 0 
0 0 0 
0 0 0 
0 0 0 
0 0 0 
0 0 0 
0 0 0 
0 0 0 
0 0 0 
0 0 0 
0 0 0 
0 0 0 
0 0 0 
0 0 0 
0 0 0 
0 0 0 
0 0 0 
0 0 0 
0 0 0 
0 0 0 
0 0 0 
0 0 0 
0 0 0 
0 0 0 
0 0 0 
0 0 0 
0 0 0 
0 0 0 
0 0 0 
0 0 0 
0 0 0 
0 0 0 
0 0 0 
0 0 0 
0 0 0 
0 0 0 
0 0 0 
0 0 0 
0 0 0 
0 0 0 
0 0 0 
0 0 0 
0 0 0 
0 0 0 
0 0 0 
0 0 0 
0 0 0 
0 0 0 
0 0 0 
0 0 0 
0 0 0 
0 0 0 
0 0 0 
0 0 0 
0 0 0 
0 0 0 
0 0 0 
0 0 0 
0 0 0 
0 0 0 
0 0 0 
0 0 0 
0 0 0 
0 0 0 
0 0 0 
0 0 0 
0 0 0 
0 0 0 
0 0 0 
0 0 0 
0 0 0 
0 0 0 
0 0 0 
0 0 0 
0 0 0 
0 0 0 
0 0 0 
0 0 0 
0 0 0 
0 0 0 
0 0 0 
0 0 0 
0 0 0 
0 0 0 
0 0 0 
0 0 0 
0 0 0 
0 0 0 
0 0 0 
0 0 0 
0 0 0 
0 0 0 
0 0 0 
0 0 0 
0 0 0 
0 0 0 
0 0 0 
0 0 0 
0 0 0 
0 0 0 
0 0 0 
0 0 0 
0 0 0 
0 0 0 
0 0 0 
0 0 0 
0 0 0 
0 0 0 
0 0 0 
0 0 0 
0 0 0 
0 0 0 
0 0 0 
0 0 0 
0 0 0 
0 0 0 
0 0 0 
0 0 0 
0 0 0 
0 0 0 
0 0 0 
0 0 0 
0 0 0 
0 0 0 
0 0 0 
0 0 0 
0 0 0 
0 0 0 
0 0 0 
0 0 0 
0 0 0 
0 0 0 
0 0 0 
0 0 0 
0 0 0 
0 0 0 
0 0 0 
0 0 0 
0 0 0 
0 0 0 
0 0 0 
0 0 0 
0 0 0 
0 0 0 
0 0 0 
0 0 0 
0 0 0 
0 0 0 
0 0 0 
0 0 0 
0 0 0 
0 0 0 
0 0 0 
0 0 0 
0 0 0 
0 0 0 
0 0 0 
0 0 0 
0 0 0 
0 0 0 
0 0 0 
0 0 0 
0 0 0 
0 0 0 
0 0 0 
0 0 0 
0 0 0 
0 0 0 
0 0 0 
0 0 0 
0 0 0 
0 0 0 
0 0 0 
0 0 0 
0 0 0 
0 0 0 
0 0 0 
0 0 0 
0 0 0 
0 0 0 
0 0 0 
0 0 0 
0 0 0 
0 0 0 
0 0 0 
0 0 0 
0 0 0 
0 0 0 
0 0 0 
0 0 0 
0 0 0 
0 0 0 
0 0 0 
0 0 0 
0 0 0 
0 0 0 
0 0 0 
0 0 0 
0 0 0 
0 0 0 
0 0 0 
0 0 0 
0 0 0 
0 0 0 
0 0 0 
0 0 0 
0 0 0 
0 0 0 
0 0 0 
0 0 0 
0 0 0 
0 0 0 
0 0 0 
0 0 0 
0 0 0 
0 0 0 
0 0 0 
0 0 0 
0 0 0 
0 0 0 
0 0 0 
0 0 0 
0 0 0 
0 0 0 
0 0 0 
0 0 0 
0 0 0 
0 0 0 
0 0 0 
0 0 0 
0 0 0 
0 0 0 
0 0 0 
0 0 0 
0 0 0 
0 0 0 
0 0 0 
0 0 0 
0 0 0 
0 0 0 
0 0 0 
0 0 0 
0 0 0 
0 0 0 
0 0 0 
0 0 0 
0 0 0 
0 0 0 
0 0 0 
0 0 0 
0 0 0 
0 0 0 
0 0 0 
0 0 0 
0 0 0 
0 0 0 
0 0 0 
0 0 0 
0 0 0 
0 0 0 
0 0 0 
0 0 0 
0 0 0 
0 0 0 
0 0 0 
0 0 0 
0 0 0 
0 0 0 
0 0 0 
0 0 0 
0 0 0 
0 0 0 
0 0 0 
0 0 0 
0 0 0 
0 0 0 
0 0 0 
0 0 0 
0 0 0 
0 0 0 
0 0 0 
0 0 0 
0 0 0 
0 0 0 
0 0 0 
0 0 0 
0 0 0 
0 0 0 
0 0 0 
0 0 0 
0 0 0 
0 0 0 
0 0 0 
0 0 0 
0 0 0 
0 0 0 
0 0 0 
0 0 0 
0 0 0 
0 0 0 
0 0 0 
0 0 0 
0 0 0 
0 0 0 
0 0 0 
0 0 0 
0 0 0 
0 0 0 
0 0 0 
0 0 0 
0 0 0 
0 0 0 
0 0 0 
0 0 0 
0 0 0 
0 0 0 
0 0 0 
0 0 0 
0 0 0 
0 0 0 
0 0 0 
0 0 0 
0 0 0 
0 0 0 
0 0 0 
0 0 0 
0 0 0 
0 0 0 
0 0 0 
0 0 0 
0 0 0 
0 0 0 
0 0 0 
0 0 0 
0 0 0 
0 0 0 
0 0 0 
0 0 0 
0 0 0 
0 0 0 
0 0 0 
0 0 0 
0 0 0 
0 0 0 
0 0 0 
0 0 0 
0 0 0 
0 0 0 
0 0 0 
0 0 0 
0 0 0 
0 0 0 
0 0 0 
0 0 0 
0 0 0 
0 0 0 
0 0 0 
0 0 0 
0 0 0 
0 0 0 
0 0 0 
0 0 0 
0 0 0 
0 0 0 
0 0 0 
0 0 0 
0 0 0 
0 0 0 
0 0 0 
0 0 0 
0 0 0 
0 0 0 
0 0 0 
0 0 0 
0 0 0 
0 0 0 
0 0 0 
0 0 0 
0 0 0 
0 0 0 
0 0 0 
0 0 0 
0 0 0 
0 0 0 
0 0 0 
0 0 0 
0 0 0 
0 0 0 
0 0 0 
0 0 0 
0 0 0 
0 0 0 
0 0 0 
0 0 0 
0 0 0 
0 0 0 
0 0 0 
0 0 0 
0 0 0 
0 0 0 
0 0 0 
0 0 0 
0 0 0 
0 0 0 
0 0 0 
0 0 0 
0 0 0 
0 0 0 
0 0 0 
0 0 0 
0 0 0 
0 0 0 
0 0 0 
0 0 0 
0 0 0 
0 0 0 
0 0 0 
0 0 0 
0 0 0 
0 0 0 
0 0 0 
0 0 0 
0 0 0 
0 0 0 
0 0 0 
0 0 0 
0 0 0 
0 0 0 
0 0 0 
0 0 0 
0 0 0 
0 0 0 
0 0 0 
0 0 0 
0 0 0 
0 0 0 
0 0 0 
0 0 0 
0 0 0 
0 0 0 
0 0 0 
0 0 0 
0 0 0 
0 0 0 
0 0 0 
0 0 0 
0 0 0 
0 0 0 
0 0 0 
0 0 0 
0 0 0 
0 0 0 
0 0 0 
0 0 0 
0 0 0 
0 0 0 
0 0 0 
0 0 0 
0 0 0 
0 0 0 
0 0 0 
0 0 0 
0 0 0 
0 0 0 
0 0 0 
0 0 0 
0 0 0 
0 0 0 
0 0 0 
0 0 0 
0 0 0 
0 0 0 
0 0 0 
0 0 0 
0 0 0 
0 0 0 
0 0 0 
0 0 0 
0 0 0 
0 0 0 
0 0 0 
0 0 0 
0 0 0 
0 0 0 
0 0 0 
0 0 0 
0 0 0 
0 0 0 
0 0 0 
0 0 0 
0 0 0 
0 0 0 
0 0 0 
0 0 0 
0 0 0 
0 0 0 
0 0 0 
0 0 0 
0 0 0 
0 0 0 
0 0 0 
0 0 0 
0 0 0 
0 0 0 
0 0 0 
0 0 0 
0 0 0 
0 0 0 
0 0 0 
0 0 0 
0 0 0 
0 0 0 
0 0 0 
0 0 0 
0 0 0 
0 0 0 
0 0 0 
0 0 0 
0 0 0 
0 0 0 
0 0 0 
0 0 0 
0 0 0 
0 0 0 
0 0 0 
0 0 0 
0 0 0 
0 0 0 
0 0 0 
0 0 0 
0 0 0 
0 0 0 
0 0 0 
0 0 0 
0 0 0 
0 0 0 
0 0 0 
0 0 0 
0 0 0 
0 0 0 
0 0 0 
0 0 0 
0 0 0 
0 0 0 
0 0 0 
0 0 0 
0 0 0 
0 0 0 
0 0 0 
0 0 0 
0 0 0 
0 0 0 
0 0 0 
0 0 0 
0 0 0 
0 0 0 
0 0 0 
0 0 0 
0 0 0 
0 0 0 
0 0 0 
0 0 0 
0 0 0 
0 0 0 
0 0 0 
0 0 0 
0 0 0 
0 0 0 
0 0 0 
0 0 0 
0 0 0 
0 0 0 
0 0 0 
0 0 0 
0 0 0 
0 0 0 
0 0 0 
0 0 0 
0 0 0 
0 0 0 
0 0 0 
0 0 0 
0 0 0 
0 0 0 
0 0 0 
0 0 0 
0 0 0 
0 0 0 
0 0 0 
0 0 0 
0 0 0 
0 0 0 
0 0 0 
0 0 0 
0 0 0 
0 0 0 
0 0 0 
0 0 0 
0 0 0 
0 0 0 
0 0 0 
0 0 0 
0 0 0 
0 0 0 
0 0 0 
0 0 0 
0 0 0 
0 0 0 
0 0 0 
0 0 0 
0 0 0 
0 0 0 
0 0 0 
0 0 0 
0 0 0 
0 0 0 
0 0 0 
0 0 0 
0 0 0 
0 0 0 
0 0 0 
0 0 0 
0 0 0 
0 0 0 
0 0 0 
0 0 0 
0 0 0 
0 0 0 
0 0 0 
0 0 0 
0 0 0 
0 0 0 
0 0 0 
0 0 0 
0 0 0 
0 0 0 
0 0 0 
0 0 0 
0 0 0 
0 0 0 
0 0 0 
0 0 0 
0 0 0 
0 0 0 
0 0 0 
0 0 0 
0 0 0 
0 0 0 
0 0 0 
0 0 0 
0 0 0 
0 0 0 
0 0 0 
0 0 0 
0 0 0 
0 0 0 
0 0 0 
0 0 0 
0 0 0 
0 0 0 
0 0 0 
0 0 0 
0 0 0 
0 0 0 
0 0 0 
0 0 0 
0 0 0 
0 0 0 
0 0 0 
0 0 0 
0 0 0 
0 0 0 
0 0 0 
0 0 0 
0 0 0 
0 0 0 
0 0 0 
0 0 0 
0 0 0 
0 0 0 
0 0 0 
0 0 0 
0 0 0 
0 0 0 
0 0 0 
0 0 0 
0 0 0 
0 0 0 
0 0 0 
0 0 0 
0 0 0 
0 0 0 
0 0 0 
0 0 0 
0 0 0 
0 0 0 
0 0 0 
0 0 0 
0 0 0 
0 0 0 
0 0 0 
0 0 0 
0 0 0 
0 0 0 
0 0 0 
0 0 0 
0 0 0 
0 0 0 
0 0 0 
0 0 0 
0 0 0 
0 0 0 
0 0 0 
0 0 0 
0 0 0 
0 0 0 
0 0 0 
0 0 0 
0 0 0 
0 0 0 
0 0 0 
0 0 0 
0 0 0 
0 0 0 
0 0 0 
0 0 0 
0 0 0 
0 0 0 
0 0 0 
0 0 0 
0 0 0 
0 0 0 
0 0 0 
0 0 0 
0 0 0 
0 0 0 
0 0 0 
0 0 0 
0 0 0 
0 0 0 
0 0 0 
0 0 0 
0 0 0 
0 0 0 
0 0 0 
0 0 0 
0 0 0 
0 0 0 
0 0 0 
0 0 0 
0 0 0 
0 0 0 
0 0 0 
0 0 0 
0 0 0 
0 0 0 
0 0 0 
0 0 0 
0 0 0 
0 0 0 
0 0 0 
0 0 0 
0 0 0 
0 0 0 
0 0 0 
0 0 0 
0 0 0 
0 0 0 
0 0 0 
0 0 0 
0 0 0 
0 0 0 
0 0 0 
0 0 0 
0 0 0 
0 0 0 
0 0 0 
0 0 0 
0 0 0 
0 0 0 
0 0 0 
0 0 0 
0 0 0 
0 0 0 
0 0 0 
0 0 0 
0 0 0 
0 0 0 
0 0 0 
0 0 0 
0 0 0 
0 0 0 
0 0 0 
0 0 0 
0 0 0 
0 0 0 
0 0 0 
0 0 0 
0 0 0 
0 0 0 
0 0 0 
0 0 0 
0 0 0 
0 0 0 
0 0 0 
0 0 0 
0 0 0 
0 0 0 
0 0 0 
0 0 0 
0 0 0 
0 0 0 
0 0 0 
0 0 0 
0 0 0 
0 0 0 
0 0 0 
0 0 0 
0 0 0 
0 0 0 
0 0 0 
0 0 0 
0 0 0 
0 0 0 
0 0 0 
0 0 0 
0 0 0 
0 0 0 
0 0 0 
0 0 0 
0 0 0 
0 0 0 
0 0 0 
0 0 0 
0 0 0 
0 0 0 
0 0 0 
0 0 0 
0 0 0 
0 0 0 
0 0 0 
0 0 0 
0 0 0 
0 0 0 
0 0 0 
0 0 0 
0 0 0 
0 0 0 
0 0 0 
0 0 0 
0 0 0 
0 0 0 
0 0 0 
0 0 0 
0 0 0 
0 0 0 
0 0 0 
0 0 0 
0 0 0 
0 0 0 
0 0 0 
0 0 0 
0 0 0 
0 0 0 
0 0 0 
0 0 0 
0 0 0 
0 0 0 
0 0 0 
0 0 0 
0 0 0 
0 0 0 
0 0 0 
0 0 0 
0 0 0 
0 0 0 
0 0 0 
0 0 0 
0 0 0 
0 0 0 
0 0 0 
0 0 0 
0 0 0 
0 0 0 
0 0 0 
0 0 0 
0 0 0 
0 0 0 
0 0 0 
0 0 0 
0 0 0 
0 0 0 
0 0 0 
0 0 0 
0 0 0 
0 0 0 
0 0 0 
0 0 0 
0 0 0 
0 0 0 
0 0 0 
0 0 0 
0 0 0 
0 0 0 
0 0 0 
0 0 0 
0 0 0 
0 0 0 
0 0 0 
0 0 0 
0 0 0 
0 0 0 
0 0 0 
0 0 0 
0 0 0 
0 0 0 
0 0 0 
0 0 0 
0 0 0 
0 0 0 
0 0 0 
0 0 0 
0 0 0 
0 0 0 
0 0 0 
0 0 0 
0 0 0 
0 0 0 
0 0 0 
0 0 0 
0 0 0 
0 0 0 
0 0 0 
0 0 0 
0 0 0 
0 0 0 
0 0 0 
0 0 0 
0 0 0 
0 0 0 
0 0 0 
0 0 0 
0 0 0 
0 0 0 
0 0 0 
0 0 0 
0 0 0 
0 0 0 
0 0 0 
0 0 0 
0 0 0 
0 0 0 
0 0 0 
0 0 0 
0 0 0 
0 0 0 
0 0 0 
0 0 0 
0 0 0 
0 0 0 
0 0 0 
0 0 0 
0 0 0 
0 0 0 
0 0 0 
0 0 0 
0 0 0 
0 0 0 
0 0 0 
0 0 0 
0 0 0 
0 0 0 
0 0 0 
0 0 0 
0 0 0 
0 0 0 
0 0 0 
0 0 0 
0 0 0 
0 0 0 
0 0 0 
0 0 0 
0 0 0 
0 0 0 
0 0 0 
0 0 0 
0 0 0 
0 0 0 
0 0 0 
0 0 0 
0 0 0 
0 0 0 
0 0 0 
0 0 0 
0 0 0 
0 0 0 
0 0 0 
0 0 0 
0 0 0 
0 0 0 
0 0 0 
0 0 0 
0 0 0 
0 0 0 
0 0 0 
0 0 0 
0 0 0 
0 0 0 
0 0 0 
0 0 0 
0 0 0 
0 0 0 
0 0 0 
0 0 0 
0 0 0 
0 0 0 
0 0 0 
0 0 0 
0 0 0 
0 0 0 
0 0 0 
0 0 0 
0 0 0 
0 0 0 
0 0 0 
0 0 0 
0 0 0 
0 0 0 
0 0 0 
0 0 0 
0 0 0 
0 0 0 
0 0 0 
0 0 0 
0 0 0 
0 0 0 
0 0 0 
0 0 0 
0 0 0 
0 0 0 
0 0 0 
0 0 0 
0 0 0 
0 0 0 
0 0 0 
0 0 0 
0 0 0 
0 0 0 
0 0 0 
0 0 0 
0 0 0 
0 0 0 
0 0 0 
0 0 0 
0 0 0 
0 0 0 
0 0 0 
0 0 0 
0 0 0 
0 0 0 
0 0 0 
0 0 0 
0 0 0 
0 0 0 
0 0 0 
0 0 0 
0 0 0 
0 0 0 
0 0 0 
0 0 0 
0 0 0 
0 0 0 
0 0 0 
0 0 0 
0 0 0 
0 0 0 
0 0 0 
0 0 0 
0 0 0 
0 0 0 
0 0 0 
0 0 0 
0 0 0 
0 0 0 
0 0 0 
0 0 0 
0 0 0 
0 0 0 
0 0 0 
0 0 0 
0 0 0 
0 0 0 
0 0 0 
0 0 0 
0 0 0 
0 0 0 
0 0 0 
0 0 0 
0 0 0 
0 0 0 
0 0 0 
0 0 0 
0 0 0 
0 0 0 
0 0 0 
0 0 0 
0 0 0 
0 0 0 
0 0 0 
0 0 0 
0 0 0 
0 0 0 
0 0 0 
0 0 0 
0 0 0 
0 0 0 
0 0 0 
0 0 0 
0 0 0 
0 0 0 
0 0 0 
0 0 0 
0 0 0 
0 0 0 
0 0 0 
0 0 0 
0 0 0 
0 0 0 
0 0 0 
0 0 0 
0 0 0 
0 0 0 
0 0 0 
0 0 0 
0 0 0 
0 0 0 
0 0 0 
0 0 0 
0 0 0 
0 0 0 
0 0 0 
0 0 0 
0 0 0 
0 0 0 
0 0 0 
0 0 0 
0 0 0 
0 0 0 
0 0 0 
0 0 0 
0 0 0 
0 0 0 
0 0 0 
0 0 0 
0 0 0 
0 0 0 
0 0 0 
0 0 0 
0 0 0 
0 0 0 
0 0 0 
0 0 0 
0 0 0 
0 0 0 
0 0 0 
0 0 0 
0 0 0 
0 0 0 
0 0 0 
0 0 0 
0 0 0 
0 0 0 
0 0 0 
0 0 0 
0 0 0 
0 0 0 
0 0 0 
0 0 0 
0 0 0 
0 0 0 
0 0 0 
0 0 0 
0 0 0 
0 0 0 
0 0 0 
0 0 0 
0 0 0 
0 0 0 
0 0 0 
0 0 0 
0 0 0 
0 0 0 
0 0 0 
0 0 0 
0 0 0 
0 0 0 
0 0 0 
0 0 0 
0 0 0 
0 0 0 
0 0 0 
0 0 0 
0 0 0 
0 0 0 
0 0 0 
0 0 0 
0 0 0 
0 0 0 
0 0 0 
0 0 0 
0 0 0 
0 0 0 
0 0 0 
0 0 0 
0 0 0 
0 0 0 
0 0 0 
0 0 0 
0 0 0 
0 0 0 
0 0 0 
0 0 0 
0 0 0 
0 0 0 
0 0 0 
0 0 0 
0 0 0 
0 0 0 
0 0 0 
0 0 0 
0 0 0 
0 0 0 
0 0 0 
0 0 0 
0 0 0 
0 0 0 
0 0 0 
0 0 0 
0 0 0 
0 0 0 
0 0 0 
0 0 0 
0 0 0 
0 0 0 
0 0 0 
0 0 0 
0 0 0 
0 0 0 
0 0 0 
0 0 0 
0 0 0 
0 0 0 
0 0 0 
0 0 0 
0 0 0 
0 0 0 
0 0 0 
0 0 0 
0 0 0 
0 0 0 
0 0 0 
0 0 0 
0 0 0 
0 0 0 
0 0 0 
0 0 0 
0 0 0 
0 0 0 
0 0 0 
0 0 0 
0 0 0 
0 0 0 
0 0 0 
0 0 0 
0 0 0 
0 0 0 
0 0 0 
0 0 0 
0 0 0 
0 0 0 
0 0 0 
0 0 0 
0 0 0 
0 0 0 
0 0 0 
0 0 0 
0 0 0 
0 0 0 
0 0 0 
0 0 0 
0 0 0 
0 0 0 
0 0 0 
0 0 0 
0 0 0 
0 0 0 
0 0 0 
0 0 0 
0 0 0 
0 0 0 
0 0 0 
0 0 0 
0 0 0 
0 0 0 
0 0 0 
0 0 0 
0 0 0 
0 0 0 
0 0 0 
0 0 0 
0 0 0 
0 0 0 
0 0 0 
0 0 0 
0 0 0 
0 0 0 
0 0 0 
0 0 0 
0 0 0 
0 0 0 
0 0 0 
0 0 0 
0 0 0 
0 0 0 
0 0 0 
0 0 0 
0 0 0 
0 0 0 
0 0 0 
0 0 0 
0 0 0 
0 0 0 
0 0 0 
0 0 0 
0 0 0 
0 0 0 
0 0 0 
0 0 0 
0 0 0 
0 0 0 
0 0 0 
0 0 0 
0 0 0 
0 0 0 
0 0 0 
0 0 0 
0 0 0 
0 0 0 
0 0 0 
0 0 0 
0 0 0 
0 0 0 
0 0 0 
0 0 0 
0 0 0 
0 0 0 
0 0 0 
0 0 0 
0 0 0 
0 0 0 
0 0 0 
0 0 0 
0 0 0 
0 0 0 
0 0 0 
0 0 0 
0 0 0 
0 0 0 
0 0 0 
0 0 0 
0 0 0 
0 0 0 
0 0 0 
0 0 0 
0 0 0 
0 0 0 
0 0 0 
0 0 0 
0 0 0 
0 0 0 
0 0 0 
0 0 0 
0 0 0 
0 0 0 
0 0 0 
0 0 0 
0 0 0 
0 0 0 
0 0 0 
0 0 0 
0 0 0 
0 0 0 
0 0 0 
0 0 0 
0 0 0 
0 0 0 
0 0 0 
0 0 0 
0 0 0 
0 0 0 
0 0 0 
0 0 0 
0 0 0 
0 0 0 
0 0 0 
0 0 0 
0 0 0 
0 0 0 
0 0 0 
0 0 0 
0 0 0 
0 0 0 
0 0 0 
0 0 0 
0 0 0 
0 0 0 
0 0 0 
0 0 0 
0 0 0 
0 0 0 
0 0 0 
0 0 0 
0 0 0 
0 0 0 
0 0 0 
0 0 0 
0 0 0 
0 0 0 
0 0 0 
0 0 0 
0 0 0 
0 0 0 
0 0 0 
0 0 0 
0 0 0 
0 0 0 
0 0 0 
0 0 0 
0 0 0 
0 0 0 
0 0 0 
0 0 0 
0 0 0 
0 0 0 
0 0 0 
0 0 0 
0 0 0 
0 0 0 
0 0 0 
0 0 0 
0 0 0 
0 0 0 
0 0 0 
0 0 0 
0 0 0 
0 0 0 
0 0 0 
0 0 0 
0 0 0 
0 0 0 
0 0 0 
0 0 0 
0 0 0 
0 0 0 
0 0 0 
0 0 0 
0 0 0 
0 0 0 
0 0 0 
0 0 0 
0 0 0 
0 0 0 
0 0 0 
0 0 0 
0 0 0 
0 0 0 
0 0 0 
0 0 0 
0 0 0 
0 0 0 
0 0 0 
0 0 0 
0 0 0 
0 0 0 
0 0 0 
0 0 0 
0 0 0 
0 0 0 
0 0 0 
0 0 0 
0 0 0 
0 0 0 
0 0 0 
0 0 0 
0 0 0 
0 0 0 
0 0 0 
0 0 0 
0 0 0 
0 0 0 
0 0 0 
0 0 0 
0 0 0 
0 0 0 
0 0 0 
0 0 0 
0 0 0 
0 0 0 
0 0 0 
0 0 0 
0 0 0 
0 0 0 
0 0 0 
0 0 0 
0 0 0 
0 0 0 
0 0 0 
0 0 0 
0 0 0 
0 0 0 
0 0 0 
0 0 0 
0 0 0 
0 0 0 
0 0 0 
0 0 0 
0 0 0 
0 0 0 
0 0 0 
0 0 0 
0 0 0 
0 0 0 
0 0 0 
0 0 0 
0 0 0 
0 0 0 
0 0 0 
0 0 0 
0 0 0 
0 0 0 
0 0 0 
0 0 0 
0 0 0 
0 0 0 
0 0 0 
0 0 0 
0 0 0 
0 0 0 
0 0 0 
0 0 0 
0 0 0 
0 0 0 
0 0 0 
0 0 0 
0 0 0 
0 0 0 
0 0 0 
0 0 0 
0 0 0 
0 0 0 
0 0 0 
0 0 0 
0 0 0 
0 0 0 
0 0 0 
0 0 0 
0 0 0 
0 0 0 
0 0 0 
0 0 0 
0 0 0 
0 0 0 
0 0 0 
0 0 0 
0 0 0 
0 0 0 
0 0 0 
0 0 0 
0 0 0 
0 0 0 
0 0 0 
0 0 0 
0 0 0 
0 0 0 
0 0 0 
0 0 0 
0 0 0 
0 0 0 
0 0 0 
0 0 0 
0 0 0 
0 0 0 
0 0 0 
0 0 0 
0 0 0 
0 0 0 
0 0 0 
0 0 0 
0 0 0 
0 0 0 
0 0 0 
0 0 0 
0 0 0 
0 0 0 
0 0 0 
0 0 0 
0 0 0 
0 0 0 
0 0 0 
0 0 0 
0 0 0 
0 0 0 
0 0 0 
0 0 0 
0 0 0 
0 0 0 
0 0 0 
0 0 0 
0 0 0 
0 0 0 
0 0 0 
0 0 0 
0 0 0 
0 0 0 
0 0 0 
0 0 0 
0 0 0 
0 0 0 
0 0 0 
0 0 0 
0 0 0 
0 0 0 
0 0 0 
0 0 0 
0 0 0 
0 0 0 
0 0 0 
0 0 0 
0 0 0 
0 0 0 
0 0 0 
0 0 0 
0 0 0 
0 0 0 
0 0 0 
0 0 0 
0 0 0 
0 0 0 
0 0 0 
0 0 0 
0 0 0 
0 0 0 
0 0 0 
0 0 0 
0 0 0 
0 0 0 
0 0 0 
0 0 0 
0 0 0 
0 0 0 
0 0 0 
0 0 0 
0 0 0 
0 0 0 
0 0 0 
0 0 0 
0 0 0 
0 0 0 
0 0 0 
0 0 0 
0 0 0 
0 0 0 
0 0 0 
0 0 0 
0 0 0 
0 0 0 
0 0 0 
0 0 0 
0 0 0 
0 0 0 
0 0 0 
0 0 0 
0 0 0 
0 0 0 
0 0 0 
0 0 0 
0 0 0 
0 0 0 
0 0 0 
0 0 0 
0 0 0 
0 0 0 
0 0 0 
0 0 0 
0 0 0 
0 0 0 
0 0 0 
0 0 0 
0 0 0 
0 0 0 
0 0 0 
0 0 0 
0 0 0 
0 0 0 
0 0 0 
0 0 0 
0 0 0 
0 0 0 
0 0 0 
0 0 0 
0 0 0 
0 0 0 
0 0 0 
0 0 0 
0 0 0 
0 0 0 
0 0 0 
0 0 0 
0 0 0 
0 0 0 
0 0 0 
0 0 0 
0 0 0 
0 0 0 
0 0 0 
0 0 0 
0 0 0 
0 0 0 
0 0 0 
0 0 0 
0 0 0 
0 0 0 
0 0 0 
0 0 0 
0 0 0 
0 0 0 
0 0 0 
0 0 0 
0 0 0 
0 0 0 
0 0 0 
0 0 0 
0 0 0 
0 0 0 
0 0 0 
0 0 0 
0 0 0 
0 0 0 
0 0 0 
0 0 0 
0 0 0 
0 0 0 
0 0 0 
0 0 0 
0 0 0 
0 0 0 
0 0 0 
0 0 0 
0 0 0 
0 0 0 
0 0 0 
0 0 0 
0 0 0 
0 0 0 
0 0 0 
0 0 0 
0 0 0 
0 0 0 
0 0 0 
0 0 0 
0 0 0 
0 0 0 
0 0 0 
0 0 0 
0 0 0 
0 0 0 
0 0 0 
0 0 0 
0 0 0 
0 0 0 
0 0 0 
0 0 0 
0 0 0 
0 0 0 
0 0 0 
0 0 0 
0 0 0 
0 0 0 
0 0 0 
0 0 0 
0 0 0 
0 0 0 
0 0 0 
0 0 0 
0 0 0 
0 0 0 
0 0 0 
0 0 0 
0 0 0 
0 0 0 
0 0 0 
0 0 0 
0 0 0 
0 0 0 
0 0 0 
0 0 0 
0 0 0 
0 0 0 
0 0 0 
0 0 0 
0 0 0 
0 0 0 
0 0 0 
0 0 0 
0 0 0 
0 0 0 
0 0 0 
0 0 0 
0 0 0 
0 0 0 
0 0 0 
0 0 0 
0 0 0 
0 0 0 
0 0 0 
0 0 0 
0 0 0 
0 0 0 
0 0 0 
0 0 0 
0 0 0 
0 0 0 
0 0 0 
0 0 0 
0 0 0 
0 0 0 
0 0 0 
0 0 0 
0 0 0 
0 0 0 
0 0 0 
0 0 0 
0 0 0 
0 0 0 
0 0 0 
0 0 0 
0 0 0 
0 0 0 
0 0 0 
0 0 0 
0 0 0 
0 0 0 
0 0 0 
0 0 0 
0 0 0 
0 0 0 
0 0 0 
0 0 0 
0 0 0 
0 0 0 
0 0 0 
0 0 0 
0 0 0 
0 0 0 
0 0 0 
0 0 0 
0 0 0 
0 0 0 
0 0 0 
0 0 0 
0 0 0 
0 0 0 
0 0 0 
0 0 0 
0 0 0 
0 0 0 
0 0 0 
0 0 0 
0 0 0 
0 0 0 
0 0 0 
0 0 0 
0 0 0 
0 0 0 
0 0 0 
0 0 0 
0 0 0 
0 0 0 
0 0 0 
0 0 0 
0 0 0 
0 0 0 
0 0 0 
0 0 0 
0 0 0 
0 0 0 
0 0 0 
0 0 0 
0 0 0 
0 0 0 
0 0 0 
0 0 0 
0 0 0 
0 0 0 
0 0 0 
0 0 0 
0 0 0 
0 0 0 
0 0 0 
0 0 0 
0 0 0 
0 0 0 
0 0 0 
0 0 0 
0 0 0 
0 0 0 
0 0 0 
0 0 0 
0 0 0 
0 0 0 
0 0 0 
0 0 0 
0 0 0 
0 0 0 
0 0 0 
0 0 0 
0 0 0 
0 0 0 
0 0 0 
0 0 0 
0 0 0 
0 0 0 
0 0 0 
0 0 0 
0 0 0 
0 0 0 
0 0 0 
0 0 0 
0 0 0 
0 0 0 
0 0 0 
0 0 0 
0 0 0 
0 0 0 
0 0 0 
0 0 0 
0 0 0 
0 0 0 
0 0 0 
0 0 0 
0 0 0 
0 0 0 
0 0 0 
0 0 0 
0 0 0 
0 0 0 
0 0 0 
0 0 0 
0 0 0 
0 0 0 
0 0 0 
0 0 0 
0 0 0 
0 0 0 
0 0 0 
0 0 0 
0 0 0 
0 0 0 
0 0 0 
0 0 0 
0 0 0 
0 0 0 
0 0 0 
0 0 0 
0 0 0 
0 0 0 
0 0 0 
0 0 0 
0 0 0 
0 0 0 
0 0 0 
0 0 0 
0 0 0 
0 0 0 
0 0 0 
0 0 0 
0 0 0 
0 0 0 
0 0 0 
0 0 0 
0 0 0 
0 0 0 
0 0 0 
0 0 0 
0 0 0 
0 0 0 
0 0 0 
0 0 0 
0 0 0 
0 0 0 
0 0 0 
0 0 0 
0 0 0 
0 0 0 
0 0 0 
0 0 0 
0 0 0 
0 0 0 
0 0 0 
0 0 0 
0 0 0 
0 0 0 
0 0 0 
0 0 0 
0 0 0 
0 0 0 
0 0 0 
0 0 0 
0 0 0 
0 0 0 
0 0 0 
0 0 0 
0 0 0 
0 0 0 
0 0 0 
0 0 0 
0 0 0 
0 0 0 
0 0 0 
0 0 0 
0 0 0 
0 0 0 
0 0 0 
0 0 0 
0 0 0 
0 0 0 
0 0 0 
0 0 0 
0 0 0 
0 0 0 
0 0 0 
0 0 0 
0 0 0 
0 0 0 
0 0 0 
0 0 0 
0 0 0 
0 0 0 
0 0 0 
0 0 0 
0 0 0 
0 0 0 
0 0 0 
0 0 0 
0 0 0 
0 0 0 
0 0 0 
0 0 0 
0 0 0 
0 0 0 
0 0 0 
0 0 0 
0 0 0 
0 0 0 
0 0 0 
0 0 0 
0 0 0 
0 0 0 
0 0 0 
0 0 0 
0 0 0 
0 0 0 
0 0 0 
0 0 0 
0 0 0 
0 0 0 
0 0 0 
0 0 0 
0 0 0 
0 0 0 
0 0 0 
0 0 0 
0 0 0 
0 0 0 
0 0 0 
0 0 0 
0 0 0 
0 0 0 
0 0 0 
0 0 0 
0 0 0 
0 0 0 
0 0 0 
0 0 0 
0 0 0 
0 0 0 
0 0 0 
0 0 0 
0 0 0 
0 0 0 
0 0 0 
0 0 0 
0 0 0 
0 0 0 
0 0 0 
0 0 0 
0 0 0 
0 0 0 
0 0 0 
0 0 0 
0 0 0 
0 0 0 
0 0 0 
0 0 0 
0 0 0 
0 0 0 
0 0 0 
0 0 0 
0 0 0 
0 0 0 
0 0 0 
0 0 0 
0 0 0 
0 0 0 
0 0 0 
0 0 0 
0 0 0 
0 0 0 
0 0 0 
0 0 0 
0 0 0 
0 0 0 
0 0 0 
0 0 0 
0 0 0 
0 0 0 
0 0 0 
0 0 0 
0 0 0 
0 0 0 
0 0 0 
0 0 0 
0 0 0 
0 0 0 
0 0 0 
0 0 0 
0 0 0 
0 0 0 
0 0 0 
0 0 0 
0 0 0 
0 0 0 
0 0 0 
0 0 0 
0 0 0 
0 0 0 
0 0 0 
0 0 0 
0 0 0 
0 0 0 
0 0 0 
0 0 0 
0 0 0 
0 0 0 
0 0 0 
0 0 0 
0 0 0 
0 0 0 
0 0 0 
0 0 0 
0 0 0 
0 0 0 
0 0 0 
0 0 0 
0 0 0 
0 0 0 
0 0 0 
0 0 0 
0 0 0 
0 0 0 
0 0 0 
0 0 0 
0 0 0 
0 0 0 
0 0 0 
0 0 0 
0 0 0 
0 0 0 
0 0 0 
0 0 0 
0 0 0 
0 0 0 
0 0 0 
0 0 0 
0 0 0 
0 0 0 
0 0 0 
0 0 0 
0 0 0 
0 0 0 
0 0 0 
0 0 0 
0 0 0 
0 0 0 
0 0 0 
0 0 0 
0 0 0 
0 0 0 
0 0 0 
0 0 0 
0 0 0 
0 0 0 
0 0 0 
0 0 0 
0 0 0 
0 0 0 
0 0 0 
0 0 0 
0 0 0 
0 0 0 
0 0 0 
0 0 0 
0 0 0 
0 0 0 
0 0 0 
0 0 0 
0 0 0 
0 0 0 
0 0 0 
0 0 0 
0 0 0 
0 0 0 
0 0 0 
0 0 0 
0 0 0 
0 0 0 
0 0 0 
0 0 0 
0 0 0 
0 0 0 
0 0 0 
0 0 0 
0 0 0 
0 0 0 
0 0 0 
0 0 0 
0 0 0 
0 0 0 
0 0 0 
0 0 0 
0 0 0 
0 0 0 
0 0 0 
0 0 0 
0 0 0 
0 0 0 
0 0 0 
0 0 0 
0 0 0 
0 0 0 
0 0 0 
0 0 0 
0 0 0 
0 0 0 
0 0 0 
0 0 0 
0 0 0 
0 0 0 
0 0 0 
0 0 0 
0 0 0 
0 0 0 
0 0 0 
0 0 0 
0 0 0 
0 0 0 
0 0 0 
0 0 0 
0 0 0 
0 0 0 
0 0 0 
0 0 0 
0 0 0 
0 0 0 
0 0 0 
0 0 0 
0 0 0 
0 0 0 
0 0 0 
0 0 0 
0 0 0 
0 0 0 
0 0 0 
0 0 0 
0 0 0 
0 0 0 
0 0 0 
0 0 0 
0 0 0 
0 0 0 
0 0 0 
0 0 0 
0 0 0 
0 0 0 
0 0 0 
0 0 0 
0 0 0 
0 0 0 
0 0 0 
0 0 0 
0 0 0 
0 0 0 
0 0 0 
0 0 0 
0 0 0 
0 0 0 
0 0 0 
0 0 0 
0 0 0 
0 0 0 
0 0 0 
0 0 0 
0 0 0 
0 0 0 
0 0 0 
0 0 0 
0 0 0 
0 0 0 
0 0 0 
0 0 0 
0 0 0 
0 0 0 
0 0 0 
0 0 0 
0 0 0 
0 0 0 
0 0 0 
0 0 0 
0 0 0 
0 0 0 
0 0 0 
0 0 0 
0 0 0 
0 0 0 
0 0 0 
0 0 0 
0 0 0 
0 0 0 
0 0 0 
0 0 0 
0 0 0 
0 0 0 
0 0 0 
0 0 0 
0 0 0 
0 0 0 
0 0 0 
0 0 0 
0 0 0 
0 0 0 
0 0 0 
0 0 0 
0 0 0 
0 0 0 
0 0 0 
0 0 0 
0 0 0 
0 0 0 
0 0 0 
0 0 0 
0 0 0 
0 0 0 
0 0 0 
0 0 0 
0 0 0 
0 0 0 
0 0 0 
0 0 0 
0 0 0 
0 0 0 
0 0 0 
0 0 0 
0 0 0 
0 0 0 
0 0 0 
0 0 0 
0 0 0 
0 0 0 
0 0 0 
0 0 0 
0 0 0 
0 0 0 
0 0 0 
0 0 0 
0 0 0 
0 0 0 
0 0 0 
0 0 0 
0 0 0 
0 0 0 
0 0 0 
0 0 0 
0 0 0 
0 0 0 
0 0 0 
0 0 0 
0 0 0 
0 0 0 
0 0 0 
0 0 0 
0 0 0 
0 0 0 
0 0 0 
0 0 0 
0 0 0 
0 0 0 
0 0 0 
0 0 0 
0 0 0 
0 0 0 
0 0 0 
0 0 0 
0 0 0 
0 0 0 
0 0 0 
0 0 0 
0 0 0 
0 0 0 
0 0 0 
0 0 0 
0 0 0 
0 0 0 
0 0 0 
0 0 0 
0 0 0 
0 0 0 
0 0 0 
0 0 0 
0 0 0 
0 0 0 
0 0 0 
0 0 0 
0 0 0 
0 0 0 
0 0 0 
0 0 0 
0 0 0 
0 0 0 
0 0 0 
0 0 0 
0 0 0 
0 0 0 
0 0 0 
0 0 0 
0 0 0 
0 0 0 
0 0 0 
0 0 0 
0 0 0 
0 0 0 
0 0 0 
0 0 0 
0 0 0 
0 0 0 
0 0 0 
0 0 0 
0 0 0 
0 0 0 
0 0 0 
0 0 0 
0 0 0 
0 0 0 
0 0 0 
0 0 0 
0 0 0 
0 0 0 
0 0 0 
0 0 0 
0 0 0 
0 0 0 
0 0 0 
0 0 0 
0 0 0 
0 0 0 
0 0 0 
0 0 0 
0 0 0 
0 0 0 
0 0 0 
0 0 0 
0 0 0 
0 0 0 
0 0 0 
0 0 0 
0 0 0 
0 0 0 
0 0 0 
0 0 0 
0 0 0 
0 0 0 
0 0 0 
0 0 0 
0 0 0 
0 0 0 
0 0 0 
0 0 0 
0 0 0 
0 0 0 
0 0 0 
0 0 0 
0 0 0 
0 0 0 
0 0 0 
0 0 0 
0 0 0 
0 0 0 
0 0 0 
0 0 0 
0 0 0 
0 0 0 
0 0 0 
0 0 0 
0 0 0 
0 0 0 
0 0 0 
0 0 0 
0 0 0 
0 0 0 
0 0 0 
0 0 0 
0 0 0 
0 0 0 
0 0 0 
0 0 0 
0 0 0 
0 0 0 
0 0 0 
0 0 0 
0 0 0 
0 0 0 
0 0 0 
0 0 0 
0 0 0 
0 0 0 
0 0 0 
0 0 0 
0 0 0 
0 0 0 
0 0 0 
0 0 0 
0 0 0 
0 0 0 
0 0 0 
0 0 0 
0 0 0 
0 0 0 
0 0 0 
0 0 0 
0 0 0 
0 0 0 
0 0 0 
0 0 0 
0 0 0 
0 0 0 
0 0 0 
0 0 0 
0 0 0 
0 0 0 
0 0 0 
0 0 0 
0 0 0 
0 0 0 
0 0 0 
0 0 0 
0 0 0 
0 0 0 
0 0 0 
0 0 0 
0 0 0 
0 0 0 
0 0 0 
0 0 0 
0 0 0 
0 0 0 
0 0 0 
0 0 0 
0 0 0 
0 0 0 
0 0 0 
0 0 0 
0 0 0 
0 0 0 
0 0 0 
0 0 0 
0 0 0 
0 0 0 
0 0 0 
0 0 0 
0 0 0 
0 0 0 
0 0 0 
0 0 0 
0 0 0 
0 0 0 
0 0 0 
0 0 0 
0 0 0 
0 0 0 
0 0 0 
0 0 0 
0 0 0 
0 0 0 
0 0 0 
0 0 0 
0 0 0 
0 0 0 
0 0 0 
0 0 0 
0 0 0 
0 0 0 
0 0 0 
0 0 0 
0 0 0 
0 0 0 
0 0 0 
0 0 0 
0 0 0 
0 0 0 
0 0 0 
0 0 0 
0 0 0 
0 0 0 
0 0 0 
0 0 0 
0 0 0 
0 0 0 
0 0 0 
0 0 0 
0 0 0 
0 0 0 
0 0 0 
0 0 0 
0 0 0 
0 0 0 
0 0 0 
0 0 0 
0 0 0 
0 0 0 
0 0 0 
0 0 0 
0 0 0 
0 0 0 
0 0 0 
0 0 0 
0 0 0 
0 0 0 
0 0 0 
0 0 0 
0 0 0 
0 0 0 
0 0 0 
0 0 0 
0 0 0 
0 0 0 
0 0 0 
0 0 0 
0 0 0 
0 0 0 
0 0 0 
0 0 0 
0 0 0 
0 0 0 
0 0 0 
0 0 0 
0 0 0 
0 0 0 
0 0 0 
0 0 0 
0 0 0 
0 0 0 
0 0 0 
0 0 0 
0 0 0 
0 0 0 
0 0 0 
0 0 0 
0 0 0 
0 0 0 
0 0 0 
0 0 0 
0 0 0 
0 0 0 
0 0 0 
0 0 0 
0 0 0 
0 0 0 
0 0 0 
0 0 0 
0 0 0 
0 0 0 
0 0 0 
0 0 0 
0 0 0 
0 0 0 
0 0 0 
0 0 0 
0 0 0 
0 0 0 
0 0 0 
0 0 0 
0 0 0 
0 0 0 
0 0 0 
0 0 0 
0 0 0 
0 0 0 
0 0 0 
0 0 0 
0 0 0 
0 0 0 
0 0 0 
0 0 0 
0 0 0 
0 0 0 
0 0 0 
0 0 0 
0 0 0 
0 0 0 
0 0 0 
0 0 0 
0 0 0 
0 0 0 
0 0 0 
0 0 0 
0 0 0 
0 0 0 
0 0 0 
0 0 0 
0 0 0 
0 0 0 
0 0 0 
0 0 0 
0 0 0 
0 0 0 
0 0 0 
0 0 0 
0 0 0 
0 0 0 
0 0 0 
0 0 0 
0 0 0 
0 0 0 
0 0 0 
0 0 0 
0 0 0 
0 0 0 
0 0 0 
0 0 0 
0 0 0 
0 0 0 
0 0 0 
0 0 0 
0 0 0 
0 0 0 
0 0 0 
0 0 0 
0 0 0 
0 0 0 
0 0 0 
0 0 0 
0 0 0 
0 0 0 
0 0 0 
0 0 0 
0 0 0 
0 0 0 
0 0 0 
0 0 0 
0 0 0 
0 0 0 
0 0 0 
0 0 0 
0 0 0 
0 0 0 
0 0 0 
0 0 0 
0 0 0 
0 0 0 
0 0 0 
0 0 0 
0 0 0 
0 0 0 
0 0 0 
0 0 0 
0 0 0 
0 0 0 
0 0 0 
0 0 0 
0 0 0 
0 0 0 
0 0 0 
0 0 0 
0 0 0 
0 0 0 
0 0 0 
0 0 0 
0 0 0 
0 0 0 
0 0 0 
0 0 0 
0 0 0 
0 0 0 
0 0 0 
0 0 0 
0 0 0 
0 0 0 
0 0 0 
0 0 0 
0 0 0 
0 0 0 
0 0 0 
0 0 0 
0 0 0 
0 0 0 
0 0 0 
0 0 0 
0 0 0 
0 0 0 
0 0 0 
0 0 0 
0 0 0 
0 0 0 
0 0 0 
0 0 0 
0 0 0 
0 0 0 
0 0 0 
0 0 0 
0 0 0 
0 0 0 
0 0 0 
0 0 0 
0 0 0 
0 0 0 
0 0 0 
0 0 0 
0 0 0 
0 0 0 
0 0 0 
0 0 0 
0 0 0 
0 0 0 
0 0 0 
0 0 0 
0 0 0 
0 0 0 
0 0 0 
0 0 0 
0 0 0 
0 0 0 
0 0 0 
0 0 0 
0 0 0 
0 0 0 
0 0 0 
0 0 0 
0 0 0 
0 0 0 
0 0 0 
0 0 0 
0 0 0 
0 0 0 
0 0 0 
0 0 0 
0 0 0 
0 0 0 
0 0 0 
0 0 0 
0 0 0 
0 0 0 
0 0 0 
0 0 0 
0 0 0 
0 0 0 
0 0 0 
0 0 0 
0 0 0 
0 0 0 
0 0 0 
0 0 0 
0 0 0 
0 0 0 
0 0 0 
0 0 0 
0 0 0 
0 0 0 
0 0 0 
0 0 0 
0 0 0 
0 0 0 
0 0 0 
0 0 0 
0 0 0 
0 0 0 
0 0 0 
0 0 0 
0 0 0 
0 0 0 
0 0 0 
0 0 0 
0 0 0 
0 0 0 
0 0 0 
0 0 0 
0 0 0 
0 0 0 
0 0 0 
0 0 0 
0 0 0 
0 0 0 
0 0 0 
0 0 0 
0 0 0 
0 0 0 
0 0 0 
0 0 0 
0 0 0 
0 0 0 
0 0 0 
0 0 0 
0 0 0 
0 0 0 
0 0 0 
0 0 0 
0 0 0 
0 0 0 
0 0 0 
0 0 0 
0 0 0 
0 0 0 
0 0 0 
0 0 0 
0 0 0 
0 0 0 
0 0 0 
0 0 0 
0 0 0 
0 0 0 
0 0 0 
0 0 0 
0 0 0 
0 0 0 
0 0 0 
0 0 0 
0 0 0 
0 0 0 
0 0 0 
0 0 0 
0 0 0 
0 0 0 
0 0 0 
0 0 0 
0 0 0 
0 0 0 
0 0 0 
0 0 0 
0 0 0 
0 0 0 
0 0 0 
0 0 0 
0 0 0 
0 0 0 
0 0 0 
0 0 0 
0 0 0 
0 0 0 
0 0 0 
0 0 0 
0 0 0 
0 0 0 
0 0 0 
0 0 0 
0 0 0 
0 0 0 
0 0 0 
0 0 0 
0 0 0 
0 0 0 
0 0 0 
0 0 0 
0 0 0 
0 0 0 
0 0 0 
0 0 0 
0 0 0 
0 0 0 
0 0 0 
0 0 0 
0 0 0 
0 0 0 
0 0 0 
0 0 0 
0 0 0 
0 0 0 
0 0 0 
0 0 0 
0 0 0 
0 0 0 
0 0 0 
0 0 0 
0 0 0 
0 0 0 
0 0 0 
0 0 0 
0 0 0 
0 0 0 
0 0 0 
0 0 0 
0 0 0 
0 0 0 
0 0 0 
0 0 0 
0 0 0 
0 0 0 
0 0 0 
0 0 0 
0 0 0 
0 0 0 
0 0 0 
0 0 0 
0 0 0 
0 0 0 
0 0 0 
0 0 0 
0 0 0 
0 0 0 
0 0 0 
0 0 0 
0 0 0 
0 0 0 
0 0 0 
0 0 0 
0 0 0 
0 0 0 
0 0 0 
0 0 0 
0 0 0 
0 0 0 
0 0 0 
0 0 0 
0 0 0 
0 0 0 
0 0 0 
0 0 0 
0 0 0 
0 0 0 
0 0 0 
0 0 0 
0 0 0 
0 0 0 
0 0 0 
0 0 0 
0 0 0 
0 0 0 
0 0 0 
0 0 0 
0 0 0 
0 0 0 
0 0 0 
0 0 0 
0 0 0 
0 0 0 
0 0 0 
0 0 0 
0 0 0 
0 0 0 
0 0 0 
0 0 0 
0 0 0 
0 0 0 
0 0 0 
0 0 0 
0 0 0 
0 0 0 
0 0 0 
0 0 0 
0 0 0 
0 0 0 
0 0 0 
0 0 0 
0 0 0 
0 0 0 
0 0 0 
0 0 0 
0 0 0 
0 0 0 
0 0 0 
0 0 0 
0 0 0 
0 0 0 
0 0 0 
0 0 0 
0 0 0 
0 0 0 
0 0 0 
0 0 0 
0 0 0 
0 0 0 
0 0 0 
0 0 0 
0 0 0 
0 0 0 
0 0 0 
0 0 0 
0 0 0 
0 0 0 
0 0 0 
0 0 0 
0 0 0 
0 0 0 
0 0 0 
0 0 0 
0 0 0 
0 0 0 
0 0 0 
0 0 0 
0 0 0 
0 0 0 
0 0 0 
0 0 0 
0 0 0 
0 0 0 
0 0 0 
0 0 0 
0 0 0 
0 0 0 
0 0 0 
0 0 0 
0 0 0 
0 0 0 
0 0 0 
0 0 0 
0 0 0 
0 0 0 
0 0 0 
0 0 0 
0 0 0 
0 0 0 
0 0 0 
0 0 0 
0 0 0 
0 0 0 
0 0 0 
0 0 0 
0 0 0 
0 0 0 
0 0 0 
0 0 0 
0 0 0 
0 0 0 
0 0 0 
0 0 0 
0 0 0 
0 0 0 
0 0 0 
0 0 0 
0 0 0 
0 0 0 
0 0 0 
0 0 0 
0 0 0 
0 0 0 
0 0 0 
0 0 0 
0 0 0 
0 0 0 
0 0 0 
0 0 0 
0 0 0 
0 0 0 
0 0 0 
0 0 0 
0 0 0 
0 0 0 
0 0 0 
0 0 0 
0 0 0 
0 0 0 
0 0 0 
0 0 0 
0 0 0 
0 0 0 
0 0 0 
0 0 0 
0 0 0 
0 0 0 
0 0 0 
0 0 0 
0 0 0 
0 0 0 
0 0 0 
0 0 0 
0 0 0 
0 0 0 
0 0 0 
0 0 0 
0 0 0 
0 0 0 
0 0 0 
0 0 0 
0 0 0 
0 0 0 
0 0 0 
0 0 0 
0 0 0 
0 0 0 
0 0 0 
0 0 0 
0 0 0 
0 0 0 
0 0 0 
0 0 0 
0 0 0 
0 0 0 
0 0 0 
0 0 0 
0 0 0 
0 0 0 
0 0 0 
0 0 0 
0 0 0 
0 0 0 
0 0 0 
0 0 0 
0 0 0 
0 0 0 
0 0 0 
0 0 0 
0 0 0 
0 0 0 
0 0 0 
0 0 0 
0 0 0 
0 0 0 
0 0 0 
0 0 0 
0 0 0 
0 0 0 
0 0 0 
0 0 0 
0 0 0 
0 0 0 
0 0 0 
0 0 0 
0 0 0 
0 0 0 
0 0 0 
0 0 0 
0 0 0 
0 0 0 
0 0 0 
0 0 0 
0 0 0 
0 0 0 
0 0 0 
0 0 0 
0 0 0 
0 0 0 
0 0 0 
0 0 0 
0 0 0 
0 0 0 
0 0 0 
0 0 0 
0 0 0 
0 0 0 
0 0 0 
0 0 0 
0 0 0 
0 0 0 
0 0 0 
0 0 0 
0 0 0 
0 0 0 
0 0 0 
0 0 0 
0 0 0 
0 0 0 
0 0 0 
0 0 0 
0 0 0 
0 0 0 
0 0 0 
0 0 0 
0 0 0 
0 0 0 
0 0 0 
0 0 0 
0 0 0 
0 0 0 
0 0 0 
0 0 0 
0 0 0 
0 0 0 
0 0 0 
0 0 0 
0 0 0 
0 0 0 
0 0 0 
0 0 0 
0 0 0 
0 0 0 
0 0 0 
0 0 0 
0 0 0 
0 0 0 
0 0 0 
0 0 0 
0 0 0 
0 0 0 
0 0 0 
0 0 0 
0 0 0 
0 0 0 
0 0 0 
0 0 0 
0 0 0 
0 0 0 
0 0 0 
0 0 0 
0 0 0 
0 0 0 
0 0 0 
0 0 0 
0 0 0 
0 0 0 
0 0 0 
0 0 0 
0 0 0 
0 0 0 
0 0 0 
0 0 0 
0 0 0 
0 0 0 
0 0 0 
0 0 0 
0 0 0 
0 0 0 
0 0 0 
0 0 0 
0 0 0 
0 0 0 
0 0 0 
0 0 0 
0 0 0 
0 0 0 
0 0 0 
0 0 0 
0 0 0 
0 0 0 
0 0 0 
0 0 0 
0 0 0 
0 0 0 
0 0 0 
0 0 0 
0 0 0 
0 0 0 
0 0 0 
0 0 0 
0 0 0 
0 0 0 
0 0 0 
0 0 0 
0 0 0 
0 0 0 
0 0 0 
0 0 0 
0 0 0 
0 0 0 
0 0 0 
0 0 0 
0 0 0 
0 0 0 
0 0 0 
0 0 0 
0 0 0 
0 0 0 
0 0 0 
0 0 0 
0 0 0 
0 0 0 
0 0 0 
0 0 0 
0 0 0 
0 0 0 
0 0 0 
0 0 0 
0 0 0 
0 0 0 
0 0 0 
0 0 0 
0 0 0 
0 0 0 
0 0 0 
0 0 0 
0 0 0 
0 0 0 
0 0 0 
0 0 0 
0 0 0 
0 0 0 
0 0 0 
0 0 0 
0 0 0 
0 0 0 
0 0 0 
0 0 0 
0 0 0 
0 0 0 
0 0 0 
0 0 0 
0 0 0 
0 0 0 
0 0 0 
0 0 0 
0 0 0 
0 0 0 
0 0 0 
0 0 0 
0 0 0 
0 0 0 
0 0 0 
0 0 0 
0 0 0 
0 0 0 
0 0 0 
0 0 0 
0 0 0 
0 0 0 
0 0 0 
0 0 0 
0 0 0 
0 0 0 
0 0 0 
0 0 0 
0 0 0 
0 0 0 
0 0 0 
0 0 0 
0 0 0 
0 0 0 
0 0 0 
0 0 0 
0 0 0 
0 0 0 
0 0 0 
0 0 0 
0 0 0 
0 0 0 
0 0 0 
0 0 0 
0 0 0 
0 0 0 
0 0 0 
0 0 0 
0 0 0 
0 0 0 
0 0 0 
0 0 0 
0 0 0 
0 0 0 
0 0 0 
0 0 0 
0 0 0 
0 0 0 
0 0 0 
0 0 0 
0 0 0 
0 0 0 
0 0 0 
0 0 0 
0 0 0 
0 0 0 
0 0 0 
0 0 0 
0 0 0 
0 0 0 
0 0 0 
0 0 0 
0 0 0 
0 0 0 
0 0 0 
0 0 0 
0 0 0 
0 0 0 
0 0 0 
0 0 0 
0 0 0 
0 0 0 
0 0 0 
0 0 0 
0 0 0 
0 0 0 
0 0 0 
0 0 0 
0 0 0 
0 0 0 
0 0 0 
0 0 0 
0 0 0 
0 0 0 
0 0 0 
0 0 0 
0 0 0 
0 0 0 
0 0 0 
0 0 0 
0 0 0 
0 0 0 
0 0 0 
0 0 0 
0 0 0 
0 0 0 
0 0 0 
0 0 0 
0 0 0 
0 0 0 
0 0 0 
0 0 0 
0 0 0 
0 0 0 
0 0 0 
0 0 0 
0 0 0 
0 0 0 
0 0 0 
0 0 0 
0 0 0 
0 0 0 
0 0 0 
0 0 0 
0 0 0 
0 0 0 
0 0 0 
0 0 0 
0 0 0 
0 0 0 
0 0 0 
0 0 0 
0 0 0 
0 0 0 
0 0 0 
0 0 0 
0 0 0 
0 0 0 
0 0 0 
0 0 0 
0 0 0 
0 0 0 
0 0 0 
0 0 0 
0 0 0 
0 0 0 
0 0 0 
0 0 0 
0 0 0 
0 0 0 
0 0 0 
0 0 0 
0 0 0 
0 0 0 
0 0 0 
0 0 0 
0 0 0 
0 0 0 
0 0 0 
0 0 0 
0 0 0 
0 0 0 
0 0 0 
0 0 0 
0 0 0 
0 0 0 
0 0 0 
0 0 0 
0 0 0 
0 0 0 
0 0 0 
0 0 0 
0 0 0 
0 0 0 
0 0 0 
0 0 0 
0 0 0 
0 0 0 
0 0 0 
0 0 0 
0 0 0 
0 0 0 
0 0 0 
0 0 0 
0 0 0 
0 0 0 
0 0 0 
0 0 0 
0 0 0 
0 0 0 
0 0 0 
0 0 0 
0 0 0 
0 0 0 
0 0 0 
0 0 0 
0 0 0 
0 0 0 
0 0 0 
0 0 0 
0 0 0 
0 0 0 
0 0 0 
0 0 0 
0 0 0 
0 0 0 
0 0 0 
0 0 0 
0 0 0 
0 0 0 
0 0 0 
0 0 0 
0 0 0 
0 0 0 
0 0 0 
0 0 0 
0 0 0 
0 0 0 
0 0 0 
0 0 0 
0 0 0 
0 0 0 
0 0 0 
0 0 0 
0 0 0 
0 0 0 
0 0 0 
0 0 0 
0 0 0 
0 0 0 
0 0 0 
0 0 0 
0 0 0 
0 0 0 
0 0 0 
0 0 0 
0 0 0 
0 0 0 
0 0 0 
0 0 0 
0 0 0 
0 0 0 
0 0 0 
0 0 0 
0 0 0 
0 0 0 
0 0 0 
0 0 0 
0 0 0 
0 0 0 
0 0 0 
0 0 0 
0 0 0 
0 0 0 
0 0 0 
0 0 0 
0 0 0 
0 0 0 
0 0 0 
0 0 0 
0 0 0 
0 0 0 
0 0 0 
0 0 0 
0 0 0 
0 0 0 
0 0 0 
0 0 0 
0 0 0 
0 0 0 
0 0 0 
0 0 0 
0 0 0 
0 0 0 
0 0 0 
0 0 0 
0 0 0 
0 0 0 
0 0 0 
0 0 0 
0 0 0 
0 0 0 
0 0 0 
0 0 0 
0 0 0 
0 0 0 
0 0 0 
0 0 0 
0 0 0 
0 0 0 
0 0 0 
0 0 0 
0 0 0 
0 0 0 
0 0 0 
0 0 0 
0 0 0 
0 0 0 
0 0 0 
0 0 0 
0 0 0 
0 0 0 
0 0 0 
0 0 0 
0 0 0 
0 0 0 
0 0 0 
0 0 0 
0 0 0 
0 0 0 
0 0 0 
0 0 0 
0 0 0 
0 0 0 
0 0 0 
0 0 0 
0 0 0 
0 0 0 
0 0 0 
0 0 0 
0 0 0 
0 0 0 
0 0 0 
0 0 0 
0 0 0 
0 0 0 
0 0 0 
0 0 0 
0 0 0 
0 0 0 
0 0 0 
0 0 0 
0 0 0 
0 0 0 
0 0 0 
0 0 0 
0 0 0 
0 0 0 
0 0 0 
0 0 0 
0 0 0 
0 0 0 
0 0 0 
0 0 0 
0 0 0 
0 0 0 
0 0 0 
0 0 0 
0 0 0 
0 0 0 
0 0 0 
0 0 0 
0 0 0 
0 0 0 
0 0 0 
0 0 0 
0 0 0 
0 0 0 
0 0 0 
0 0 0 
0 0 0 
0 0 0 
0 0 0 
0 0 0 
0 0 0 
0 0 0 
0 0 0 
0 0 0 
0 0 0 
0 0 0 
0 0 0 
0 0 0 
0 0 0 
0 0 0 
0 0 0 
0 0 0 
0 0 0 
0 0 0 
0 0 0 
0 0 0 
0 0 0 
0 0 0 
0 0 0 
0 0 0 
0 0 0 
0 0 0 
0 0 0 
0 0 0 
0 0 0 
0 0 0 
0 0 0 
0 0 0 
0 0 0 
0 0 0 
0 0 0 
0 0 0 
0 0 0 
0 0 0 
0 0 0 
0 0 0 
0 0 0 
0 0 0 
0 0 0 
0 0 0 
0 0 0 
0 0 0 
0 0 0 
0 0 0 
0 0 0 
0 0 0 
0 0 0 
0 0 0 
0 0 0 
0 0 0 
0 0 0 
0 0 0 
0 0 0 
0 0 0 
0 0 0 
0 0 0 
0 0 0 
0 0 0 
0 0 0 
0 0 0 
0 0 0 
0 0 0 
0 0 0 
0 0 0 
0 0 0 
0 0 0 
0 0 0 
0 0 0 
0 0 0 
0 0 0 
0 0 0 
0 0 0 
0 0 0 
0 0 0 
0 0 0 
0 0 0 
0 0 0 
0 0 0 
0 0 0 
0 0 0 
0 0 0 
0 0 0 
0 0 0 
0 0 0 
0 0 0 
0 0 0 
0 0 0 
0 0 0 
0 0 0 
0 0 0 
0 0 0 
0 0 0 
0 0 0 
0 0 0 
0 0 0 
0 0 0 
0 0 0 
0 0 0 
0 0 0 
0 0 0 
0 0 0 
0 0 0 
0 0 0 
0 0 0 
0 0 0 
0 0 0 
0 0 0 
0 0 0 
0 0 0 
0 0 0 
0 0 0 
0 0 0 
0 0 0 
0 0 0 
0 0 0 
0 0 0 
0 0 0 
0 0 0 
0 0 0 
0 0 0 
0 0 0 
0 0 0 
0 0 0 
0 0 0 
0 0 0 
0 0 0 
0 0 0 
0 0 0 
0 0 0 
0 0 0 
0 0 0 
0 0 0 
0 0 0 
0 0 0 
0 0 0 
0 0 0 
0 0 0 
0 0 0 
0 0 0 
0 0 0 
0 0 0 
0 0 0 
0 0 0 
0 0 0 
0 0 0 
0 0 0 
0 0 0 
0 0 0 
0 0 0 
0 0 0 
0 0 0 
0 0 0 
0 0 0 
0 0 0 
0 0 0 
0 0 0 
0 0 0 
0 0 0 
0 0 0 
0 0 0 
0 0 0 
0 0 0 
0 0 0 
0 0 0 
0 0 0 
0 0 0 
0 0 0 
0 0 0 
0 0 0 
0 0 0 
0 0 0 
0 0 0 
0 0 0 
0 0 0 
0 0 0 
0 0 0 
0 0 0 
0 0 0 
0 0 0 
0 0 0 
0 0 0 
0 0 0 
0 0 0 
0 0 0 
0 0 0 
0 0 0 
0 0 0 
0 0 0 
0 0 0 
0 0 0 
0 0 0 
0 0 0 
0 0 0 
0 0 0 
0 0 0 
0 0 0 
0 0 0 
0 0 0 
0 0 0 
0 0 0 
0 0 0 
0 0 0 
0 0 0 
0 0 0 
0 0 0 
0 0 0 
0 0 0 
0 0 0 
0 0 0 
0 0 0 
0 0 0 
0 0 0 
0 0 0 
0 0 0 
0 0 0 
0 0 0 
0 0 0 
0 0 0 
0 0 0 
0 0 0 
0 0 0 
0 0 0 
0 0 0 
0 0 0 
0 0 0 
0 0 0 
0 0 0 
0 0 0 
0 0 0 
0 0 0 
0 0 0 
0 0 0 
0 0 0 
0 0 0 
0 0 0 
0 0 0 
0 0 0 
0 0 0 
0 0 0 
0 0 0 
0 0 0 
0 0 0 
0 0 0 
0 0 0 
0 0 0 
0 0 0 
0 0 0 
0 0 0 
0 0 0 
0 0 0 
0 0 0 
0 0 0 
0 0 0 
0 0 0 
0 0 0 
0 0 0 
0 0 0 
0 0 0 
0 0 0 
0 0 0 
0 0 0 
0 0 0 
0 0 0 
0 0 0 
0 0 0 
0 0 0 
0 0 0 
0 0 0 
0 0 0 
0 0 0 
0 0 0 
0 0 0 
0 0 0 
0 0 0 
0 0 0 
0 0 0 
0 0 0 
0 0 0 
0 0 0 
0 0 0 
0 0 0 
0 0 0 
0 0 0 
0 0 0 
0 0 0 
0 0 0 
0 0 0 
0 0 0 
0 0 0 
0 0 0 
0 0 0 
0 0 0 
0 0 0 
0 0 0 
0 0 0 
0 0 0 
0 0 0 
0 0 0 
0 0 0 
0 0 0 
0 0 0 
0 0 0 
0 0 0 
0 0 0 
0 0 0 
0 0 0 
0 0 0 
0 0 0 
0 0 0 
0 0 0 
0 0 0 
0 0 0 
0 0 0 
0 0 0 
0 0 0 
0 0 0 
0 0 0 
0 0 0 
0 0 0 
0 0 0 
0 0 0 
0 0 0 
0 0 0 
0 0 0 
0 0 0 
0 0 0 
0 0 0 
0 0 0 
0 0 0 
0 0 0 
0 0 0 
0 0 0 
0 0 0 
0 0 0 
0 0 0 
0 0 0 
0 0 0 
0 0 0 
0 0 0 
0 0 0 
0 0 0 
0 0 0 
0 0 0 
0 0 0 
0 0 0 
0 0 0 
0 0 0 
0 0 0 
0 0 0 
0 0 0 
0 0 0 
0 0 0 
0 0 0 
0 0 0 
0 0 0 
0 0 0 
0 0 0 
0 0 0 
0 0 0 
0 0 0 
0 0 0 
0 0 0 
0 0 0 
0 0 0 
0 0 0 
0 0 0 
0 0 0 
0 0 0 
0 0 0 
0 0 0 
0 0 0 
0 0 0 
0 0 0 
0 0 0 
0 0 0 
0 0 0 
0 0 0 
0 0 0 
0 0 0 
0 0 0 
0 0 0 
0 0 0 
0 0 0 
0 0 0 
0 0 0 
0 0 0 
0 0 0 
0 0 0 
0 0 0 
0 0 0 
0 0 0 
0 0 0 
0 0 0 
0 0 0 
0 0 0 
0 0 0 
0 0 0 
0 0 0 
0 0 0 
0 0 0 
0 0 0 
0 0 0 
0 0 0 
0 0 0 
0 0 0 
0 0 0 
0 0 0 
0 0 0 
0 0 0 
0 0 0 
0 0 0 
0 0 0 
0 0 0 
0 0 0 
0 0 0 
0 0 0 
0 0 0 
0 0 0 
0 0 0 
0 0 0 
0 0 0 
0 0 0 
0 0 0 
0 0 0 
0 0 0 
0 0 0 
0 0 0 
0 0 0 
0 0 0 
0 0 0 
0 0 0 
0 0 0 
0 0 0 
0 0 0 
0 0 0 
0 0 0 
0 0 0 
0 0 0 
0 0 0 
0 0 0 
0 0 0 
0 0 0 
0 0 0 
0 0 0 
0 0 0 
0 0 0 
0 0 0 
0 0 0 
0 0 0 
0 0 0 
0 0 0 
0 0 0 
0 0 0 
0 0 0 
0 0 0 
0 0 0 
0 0 0 
0 0 0 
0 0 0 
0 0 0 
0 0 0 
0 0 0 
0 0 0 
0 0 0 
0 0 0 
0 0 0 
0 0 0 
0 0 0 
0 0 0 
0 0 0 
0 0 0 
0 0 0 
0 0 0 
0 0 0 
0 0 0 
0 0 0 
0 0 0 
0 0 0 
0 0 0 
0 0 0 
0 0 0 
0 0 0 
0 0 0 
0 0 0 
0 0 0 
0 0 0 
0 0 0 
0 0 0 
0 0 0 
0 0 0 
0 0 0 
0 0 0 
0 0 0 
0 0 0 
0 0 0 
0 0 0 
0 0 0 
0 0 0 
0 0 0 
0 0 0 
0 0 0 
0 0 0 
0 0 0 
0 0 0 
0 0 0 
0 0 0 
0 0 0 
0 0 0 
0 0 0 
0 0 0 
0 0 0 
0 0 0 
0 0 0 
0 0 0 
0 0 0 
0 0 0 
0 0 0 
0 0 0 
0 0 0 
0 0 0 
0 0 0 
0 0 0 
0 0 0 
0 0 0 
0 0 0 
0 0 0 
0 0 0 
0 0 0 
0 0 0 
0 0 0 
0 0 0 
0 0 0 
0 0 0 
0 0 0 
0 0 0 
0 0 0 
0 0 0 
0 0 0 
0 0 0 
0 0 0 
0 0 0 
0 0 0 
0 0 0 
0 0 0 
0 0 0 
0 0 0 
0 0 0 
0 0 0 
0 0 0 
0 0 0 
0 0 0 
0 0 0 
0 0 0 
0 0 0 
0 0 0 
0 0 0 
0 0 0 
0 0 0 
0 0 0 
0 0 0 
0 0 0 
0 0 0 
0 0 0 
0 0 0 
0 0 0 
0 0 0 
0 0 0 
0 0 0 
0 0 0 
0 0 0 
0 0 0 
0 0 0 
0 0 0 
0 0 0 
0 0 0 
0 0 0 
0 0 0 
0 0 0 
0 0 0 
0 0 0 
0 0 0 
0 0 0 
0 0 0 
0 0 0 
0 0 0 
0 0 0 
0 0 0 
0 0 0 
0 0 0 
0 0 0 
0 0 0 
0 0 0 
0 0 0 
0 0 0 
0 0 0 
0 0 0 
0 0 0 
0 0 0 
0 0 0 
0 0 0 
0 0 0 
0 0 0 
0 0 0 
0 0 0 
0 0 0 
0 0 0 
0 0 0 
0 0 0 
0 0 0 
0 0 0 
0 0 0 
0 0 0 
0 0 0 
0 0 0 
0 0 0 
0 0 0 
0 0 0 
0 0 0 
0 0 0 
0 0 0 
0 0 0 
0 0 0 
0 0 0 
0 0 0 
0 0 0 
0 0 0 
0 0 0 
0 0 0 
0 0 0 
0 0 0 
0 0 0 
0 0 0 
0 0 0 
0 0 0 
0 0 0 
0 0 0 
0 0 0 
0 0 0 
0 0 0 
0 0 0 
0 0 0 
0 0 0 
0 0 0 
0 0 0 
0 0 0 
0 0 0 
0 0 0 
0 0 0 
0 0 0 
0 0 0 
0 0 0 
0 0 0 
0 0 0 
0 0 0 
0 0 0 
0 0 0 
0 0 0 
0 0 0 
0 0 0 
0 0 0 
0 0 0 
0 0 0 
0 0 0 
0 0 0 
0 0 0 
0 0 0 
0 0 0 
0 0 0 
0 0 0 
0 0 0 
0 0 0 
0 0 0 
0 0 0 
0 0 0 
0 0 0 
0 0 0 
0 0 0 
0 0 0 
0 0 0 
0 0 0 
0 0 0 
0 0 0 
0 0 0 
0 0 0 
0 0 0 
0 0 0 
0 0 0 
0 0 0 
0 0 0 
0 0 0 
0 0 0 
0 0 0 
0 0 0 
0 0 0 
0 0 0 
0 0 0 
0 0 0 
0 0 0 
0 0 0 
0 0 0 
0 0 0 
0 0 0 
0 0 0 
0 0 0 
0 0 0 
0 0 0 
0 0 0 
0 0 0 
0 0 0 
0 0 0 
0 0 0 
0 0 0 
0 0 0 
0 0 0 
0 0 0 
0 0 0 
0 0 0 
0 0 0 
0 0 0 
0 0 0 
0 0 0 
0 0 0 
0 0 0 
0 0 0 
0 0 0 
0 0 0 
0 0 0 
0 0 0 
0 0 0 
0 0 0 
0 0 0 
0 0 0 
0 0 0 
0 0 0 
0 0 0 
0 0 0 
0 0 0 
0 0 0 
0 0 0 
0 0 0 
0 0 0 
0 0 0 
0 0 0 
0 0 0 
0 0 0 
0 0 0 
0 0 0 
0 0 0 
0 0 0 
0 0 0 
0 0 0 
0 0 0 
0 0 0 
0 0 0 
0 0 0 
0 0 0 
0 0 0 
0 0 0 
0 0 0 
0 0 0 
0 0 0 
0 0 0 
0 0 0 
0 0 0 
0 0 0 
0 0 0 
0 0 0 
0 0 0 
0 0 0 
0 0 0 
0 0 0 
0 0 0 
0 0 0 
0 0 0 
0 0 0 
0 0 0 
0 0 0 
0 0 0 
0 0 0 
0 0 0 
0 0 0 
0 0 0 
0 0 0 
0 0 0 
0 0 0 
0 0 0 
0 0 0 
0 0 0 
0 0 0 
0 0 0 
0 0 0 
0 0 0 
0 0 0 
0 0 0 
0 0 0 
0 0 0 
0 0 0 
0 0 0 
0 0 0 
0 0 0 
0 0 0 
0 0 0 
0 0 0 
0 0 0 
0 0 0 
0 0 0 
0 0 0 
0 0 0 
0 0 0 
0 0 0 
0 0 0 
0 0 0 
0 0 0 
0 0 0 
0 0 0 
0 0 0 
0 0 0 
0 0 0 
0 0 0 
0 0 0 
0 0 0 
0 0 0 
0 0 0 
0 0 0 
0 0 0 
0 0 0 
0 0 0 
0 0 0 
0 0 0 
0 0 0 
0 0 0 
0 0 0 
0 0 0 
0 0 0 
0 0 0 
0 0 0 
0 0 0 
0 0 0 
0 0 0 
0 0 0 
0 0 0 
0 0 0 
0 0 0 
0 0 0 
0 0 0 
0 0 0 
0 0 0 
0 0 0 
0 0 0 
0 0 0 
0 0 0 
0 0 0 
0 0 0 
0 0 0 
0 0 0 
0 0 0 
0 0 0 
0 0 0 
0 0 0 
0 0 0 
0 0 0 
0 0 0 
0 0 0 
0 0 0 
0 0 0 
0 0 0 
0 0 0 
0 0 0 
0 0 0 
0 0 0 
0 0 0 
0 0 0 
0 0 0 
0 0 0 
0 0 0 
0 0 0 
0 0 0 
0 0 0 
0 0 0 
0 0 0 
0 0 0 
0 0 0 
0 0 0 
0 0 0 
0 0 0 
0 0 0 
0 0 0 
0 0 0 
0 0 0 
0 0 0 
0 0 0 
0 0 0 
0 0 0 
0 0 0 
0 0 0 
0 0 0 
0 0 0 
0 0 0 
0 0 0 
0 0 0 
0 0 0 
0 0 0 
0 0 0 
0 0 0 
0 0 0 
0 0 0 
0 0 0 
0 0 0 
0 0 0 
0 0 0 
0 0 0 
0 0 0 
0 0 0 
0 0 0 
0 0 0 
0 0 0 
0 0 0 
0 0 0 
0 0 0 
0 0 0 
0 0 0 
0 0 0 
0 0 0 
0 0 0 
0 0 0 
0 0 0 
0 0 0 
0 0 0 
0 0 0 
0 0 0 
0 0 0 
0 0 0 
0 0 0 
0 0 0 
0 0 0 
0 0 0 
0 0 0 
0 0 0 
0 0 0 
0 0 0 
0 0 0 
0 0 0 
0 0 0 
0 0 0 
0 0 0 
0 0 0 
0 0 0 
0 0 0 
0 0 0 
0 0 0 
0 0 0 
0 0 0 
0 0 0 
0 0 0 
0 0 0 
0 0 0 
0 0 0 
0 0 0 
0 0 0 
0 0 0 
0 0 0 
0 0 0 
0 0 0 
0 0 0 
0 0 0 
0 0 0 
0 0 0 
0 0 0 
0 0 0 
0 0 0 
0 0 0 
0 0 0 
0 0 0 
0 0 0 
0 0 0 
0 0 0 
0 0 0 
0 0 0 
0 0 0 
0 0 0 
0 0 0 
0 0 0 
0 0 0 
0 0 0 
0 0 0 
0 0 0 
0 0 0 
0 0 0 
0 0 0 
0 0 0 
0 0 0 
0 0 0 
0 0 0 
0 0 0 
0 0 0 
0 0 0 
0 0 0 
0 0 0 
0 0 0 
0 0 0 
0 0 0 
0 0 0 
0 0 0 
0 0 0 
0 0 0 
0 0 0 
0 0 0 
0 0 0 
0 0 0 
0 0 0 
0 0 0 
0 0 0 
0 0 0 
0 0 0 
0 0 0 
0 0 0 
0 0 0 
0 0 0 
0 0 0 
0 0 0 
0 0 0 
0 0 0 
0 0 0 
0 0 0 
0 0 0 
0 0 0 
0 0 0 
0 0 0 
0 0 0 
0 0 0 
0 0 0 
0 0 0 
0 0 0 
0 0 0 
0 0 0 
0 0 0 
0 0 0 
0 0 0 
0 0 0 
0 0 0 
0 0 0 
0 0 0 
0 0 0 
0 0 0 
0 0 0 
0 0 0 
0 0 0 
0 0 0 
0 0 0 
0 0 0 
0 0 0 
0 0 0 
0 0 0 
0 0 0 
0 0 0 
0 0 0 
0 0 0 
0 0 0 
0 0 0 
0 0 0 
0 0 0 
0 0 0 
0 0 0 
0 0 0 
0 0 0 
0 0 0 
0 0 0 
0 0 0 
0 0 0 
0 0 0 
0 0 0 
0 0 0 
0 0 0 
0 0 0 
0 0 0 
0 0 0 
0 0 0 
0 0 0 
0 0 0 
0 0 0 
0 0 0 
0 0 0 
0 0 0 
0 0 0 
0 0 0 
0 0 0 
0 0 0 
0 0 0 
0 0 0 
0 0 0 
0 0 0 
0 0 0 
0 0 0 
0 0 0 
0 0 0 
0 0 0 
0 0 0 
0 0 0 
0 0 0 
0 0 0 
0 0 0 
0 0 0 
0 0 0 
0 0 0 
0 0 0 
0 0 0 
0 0 0 
0 0 0 
0 0 0 
0 0 0 
0 0 0 
0 0 0 
0 0 0 
0 0 0 
0 0 0 
0 0 0 
0 0 0 
0 0 0 
0 0 0 
0 0 0 
0 0 0 
0 0 0 
0 0 0 
0 0 0 
0 0 0 
0 0 0 
0 0 0 
0 0 0 
0 0 0 
0 0 0 
0 0 0 
0 0 0 
0 0 0 
0 0 0 
0 0 0 
0 0 0 
0 0 0 
0 0 0 
0 0 0 
0 0 0 
0 0 0 
0 0 0 
0 0 0 
0 0 0 
0 0 0 
0 0 0 
0 0 0 
0 0 0 
0 0 0 
0 0 0 
0 0 0 
0 0 0 
0 0 0 
0 0 0 
0 0 0 
0 0 0 
0 0 0 
0 0 0 
0 0 0 
0 0 0 
0 0 0 
0 0 0 
0 0 0 
0 0 0 
0 0 0 
0 0 0 
0 0 0 
0 0 0 
0 0 0 
0 0 0 
0 0 0 
0 0 0 
0 0 0 
0 0 0 
0 0 0 
0 0 0 
0 0 0 
0 0 0 
0 0 0 
0 0 0 
0 0 0 
0 0 0 
0 0 0 
0 0 0 
0 0 0 
0 0 0 
0 0 0 
0 0 0 
0 0 0 
0 0 0 
0 0 0 
0 0 0 
0 0 0 
0 0 0 
0 0 0 
0 0 0 
0 0 0 
0 0 0 
0 0 0 
0 0 0 
0 0 0 
0 0 0 
0 0 0 
0 0 0 
0 0 0 
0 0 0 
0 0 0 
0 0 0 
0 0 0 
0 0 0 
0 0 0 
0 0 0 
0 0 0 
0 0 0 
0 0 0 
0 0 0 
0 0 0 
0 0 0 
0 0 0 
0 0 0 
0 0 0 
0 0 0 
0 0 0 
0 0 0 
0 0 0 
0 0 0 
0 0 0 
0 0 0 
0 0 0 
0 0 0 
0 0 0 
0 0 0 
0 0 0 
0 0 0 
0 0 0 
0 0 0 
0 0 0 
0 0 0 
0 0 0 
0 0 0 
0 0 0 
0 0 0 
0 0 0 
0 0 0 
0 0 0 
0 0 0 
0 0 0 
0 0 0 
0 0 0 
0 0 0 
0 0 0 
0 0 0 
0 0 0 
0 0 0 
0 0 0 
0 0 0 
0 0 0 
0 0 0 
0 0 0 
0 0 0 
0 0 0 
0 0 0 
0 0 0 
0 0 0 
0 0 0 
0 0 0 
0 0 0 
0 0 0 
0 0 0 
0 0 0 
0 0 0 
0 0 0 
0 0 0 
0 0 0 
0 0 0 
0 0 0 
0 0 0 
0 0 0 
0 0 0 
0 0 0 
0 0 0 
0 0 0 
0 0 0 
0 0 0 
0 0 0 
0 0 0 
0 0 0 
0 0 0 
0 0 0 
0 0 0 
0 0 0 
0 0 0 
0 0 0 
0 0 0 
0 0 0 
0 0 0 
0 0 0 
0 0 0 
0 0 0 
0 0 0 
0 0 0 
0 0 0 
0 0 0 
0 0 0 
0 0 0 
0 0 0 
0 0 0 
0 0 0 
0 0 0 
0 0 0 
0 0 0 
0 0 0 
0 0 0 
0 0 0 
0 0 0 
0 0 0 
0 0 0 
0 0 0 
0 0 0 
0 0 0 
0 0 0 
0 0 0 
0 0 0 
0 0 0 
0 0 0 
0 0 0 
0 0 0 
0 0 0 
0 0 0 
0 0 0 
0 0 0 
0 0 0 
0 0 0 
0 0 0 
0 0 0 
0 0 0 
0 0 0 
0 0 0 
0 0 0 
0 0 0 
0 0 0 
0 0 0 
0 0 0 
0 0 0 
0 0 0 
0 0 0 
0 0 0 
0 0 0 
0 0 0 
0 0 0 
0 0 0 
0 0 0 
0 0 0 
0 0 0 
0 0 0 
0 0 0 
0 0 0 
0 0 0 
0 0 0 
0 0 0 
0 0 0 
0 0 0 
0 0 0 
0 0 0 
0 0 0 
0 0 0 
0 0 0 
0 0 0 
0 0 0 
0 0 0 
0 0 0 
0 0 0 
0 0 0 
0 0 0 
0 0 0 
0 0 0 
0 0 0 
0 0 0 
0 0 0 
0 0 0 
0 0 0 
0 0 0 
0 0 0 
0 0 0 
0 0 0 
0 0 0 
0 0 0 
0 0 0 
0 0 0 
0 0 0 
0 0 0 
0 0 0 
0 0 0 
0 0 0 
0 0 0 
0 0 0 
0 0 0 
0 0 0 
0 0 0 
0 0 0 
0 0 0 
0 0 0 
0 0 0 
0 0 0 
0 0 0 
0 0 0 
0 0 0 
0 0 0 
0 0 0 
0 0 0 
0 0 0 
0 0 0 
0 0 0 
0 0 0 
0 0 0 
0 0 0 
0 0 0 
0 0 0 
0 0 0 
0 0 0 
0 0 0 
0 0 0 
0 0 0 
0 0 0 
0 0 0 
0 0 0 
0 0 0 
0 0 0 
0 0 0 
0 0 0 
0 0 0 
0 0 0 
0 0 0 
0 0 0 
0 0 0 
0 0 0 
0 0 0 
0 0 0 
0 0 0 
0 0 0 
0 0 0 
0 0 0 
0 0 0 
0 0 0 
0 0 0 
0 0 0 
0 0 0 
0 0 0 
0 0 0 
0 0 0 
0 0 0 
0 0 0 
0 0 0 
0 0 0 
0 0 0 
0 0 0 
0 0 0 
0 0 0 
0 0 0 
0 0 0 
0 0 0 
0 0 0 
0 0 0 
0 0 0 
0 0 0 
0 0 0 
0 0 0 
0 0 0 
0 0 0 
0 0 0 
0 0 0 
0 0 0 
0 0 0 
0 0 0 
0 0 0 
0 0 0 
0 0 0 
0 0 0 
0 0 0 
0 0 0 
0 0 0 
0 0 0 
0 0 0 
0 0 0 
0 0 0 
0 0 0 
0 0 0 
0 0 0 
0 0 0 
0 0 0 
0 0 0 
0 0 0 
0 0 0 
0 0 0 
0 0 0 
0 0 0 
0 0 0 
0 0 0 
0 0 0 
0 0 0 
0 0 0 
0 0 0 
0 0 0 
0 0 0 
0 0 0 
0 0 0 
0 0 0 
0 0 0 
0 0 0 
0 0 0 
0 0 0 
0 0 0 
0 0 0 
0 0 0 
0 0 0 
0 0 0 
0 0 0 
0 0 0 
0 0 0 
0 0 0 
0 0 0 
0 0 0 
0 0 0 
0 0 0 
0 0 0 
0 0 0 
0 0 0 
0 0 0 
0 0 0 
0 0 0 
0 0 0 
0 0 0 
0 0 0 
0 0 0 
0 0 0 
0 0 0 
0 0 0 
0 0 0 
0 0 0 
0 0 0 
0 0 0 
0 0 0 
0 0 0 
0 0 0 
0 0 0 
0 0 0 
0 0 0 
0 0 0 
0 0 0 
0 0 0 
0 0 0 
0 0 0 
0 0 0 
0 0 0 
0 0 0 
0 0 0 
0 0 0 
0 0 0 
0 0 0 
0 0 0 
0 0 0 
0 0 0 
0 0 0 
0 0 0 
0 0 0 
0 0 0 
0 0 0 
0 0 0 
0 0 0 
0 0 0 
0 0 0 
0 0 0 
0 0 0 
0 0 0 
0 0 0 
0 0 0 
0 0 0 
0 0 0 
0 0 0 
0 0 0 
0 0 0 
0 0 0 
0 0 0 
0 0 0 
0 0 0 
0 0 0 
0 0 0 
0 0 0 
0 0 0 
0 0 0 
0 0 0 
0 0 0 
0 0 0 
0 0 0 
0 0 0 
0 0 0 
0 0 0 
0 0 0 
0 0 0 
0 0 0 
0 0 0 
0 0 0 
0 0 0 
0 0 0 
0 0 0 
0 0 0 
0 0 0 
0 0 0 
0 0 0 
0 0 0 
0 0 0 
0 0 0 
0 0 0 
0 0 0 
0 0 0 
0 0 0 
0 0 0 
0 0 0 
0 0 0 
0 0 0 
0 0 0 
0 0 0 
0 0 0 
0 0 0 
0 0 0 
0 0 0 
0 0 0 
0 0 0 
0 0 0 
0 0 0 
0 0 0 
0 0 0 
0 0 0 
0 0 0 
0 0 0 
0 0 0 
0 0 0 
0 0 0 
0 0 0 
0 0 0 
0 0 0 
0 0 0 
0 0 0 
0 0 0 
0 0 0 
0 0 0 
0 0 0 
0 0 0 
0 0 0 
0 0 0 
0 0 0 
0 0 0 
0 0 0 
0 0 0 
0 0 0 
0 0 0 
0 0 0 
0 0 0 
0 0 0 
0 0 0 
0 0 0 
0 0 0 
0 0 0 
0 0 0 
0 0 0 
0 0 0 
0 0 0 
0 0 0 
0 0 0 
0 0 0 
0 0 0 
0 0 0 
0 0 0 
0 0 0 
0 0 0 
0 0 0 
0 0 0 
0 0 0 
0 0 0 
0 0 0 
0 0 0 
0 0 0 
0 0 0 
0 0 0 
0 0 0 
0 0 0 
0 0 0 
0 0 0 
0 0 0 
0 0 0 
0 0 0 
0 0 0 
0 0 0 
0 0 0 
0 0 0 
0 0 0 
0 0 0 
0 0 0 
0 0 0 
0 0 0 
0 0 0 
0 0 0 
0 0 0 
0 0 0 
0 0 0 
0 0 0 
0 0 0 
0 0 0 
0 0 0 
0 0 0 
0 0 0 
0 0 0 
0 0 0 
0 0 0 
0 0 0 
0 0 0 
0 0 0 
0 0 0 
0 0 0 
0 0 0 
0 0 0 
0 0 0 
0 0 0 
0 0 0 
0 0 0 
0 0 0 
0 0 0 
0 0 0 
0 0 0 
0 0 0 
0 0 0 
0 0 0 
0 0 0 
0 0 0 
0 0 0 
0 0 0 
0 0 0 
0 0 0 
0 0 0 
0 0 0 
0 0 0 
0 0 0 
0 0 0 
0 0 0 
0 0 0 
0 0 0 
0 0 0 
0 0 0 
0 0 0 
0 0 0 
0 0 0 
0 0 0 
0 0 0 
0 0 0 
0 0 0 
0 0 0 
0 0 0 
0 0 0 
0 0 0 
0 0 0 
0 0 0 
0 0 0 
0 0 0 
0 0 0 
0 0 0 
0 0 0 
0 0 0 
0 0 0 
0 0 0 
0 0 0 
0 0 0 
0 0 0 
0 0 0 
0 0 0 
0 0 0 
0 0 0 
0 0 0 
0 0 0 
0 0 0 
0 0 0 
0 0 0 
0 0 0 
0 0 0 
0 0 0 
0 0 0 
0 0 0 
0 0 0 
0 0 0 
0 0 0 
0 0 0 
0 0 0 
0 0 0 
0 0 0 
0 0 0 
0 0 0 
0 0 0 
0 0 0 
0 0 0 
0 0 0 
0 0 0 
0 0 0 
0 0 0 
0 0 0 
0 0 0 
0 0 0 
0 0 0 
0 0 0 
0 0 0 
0 0 0 
0 0 0 
0 0 0 
0 0 0 
0 0 0 
0 0 0 
0 0 0 
0 0 0 
0 0 0 
0 0 0 
0 0 0 
0 0 0 
0 0 0 
0 0 0 
0 0 0 
0 0 0 
0 0 0 
0 0 0 
0 0 0 
0 0 0 
0 0 0 
0 0 0 
0 0 0 
0 0 0 
0 0 0 
0 0 0 
0 0 0 
0 0 0 
0 0 0 
0 0 0 
0 0 0 
0 0 0 
0 0 0 
0 0 0 
0 0 0 
0 0 0 
0 0 0 
0 0 0 
0 0 0 
0 0 0 
0 0 0 
0 0 0 
0 0 0 
0 0 0 
0 0 0 
0 0 0 
0 0 0 
0 0 0 
0 0 0 
0 0 0 
0 0 0 
0 0 0 
0 0 0 
0 0 0 
0 0 0 
0 0 0 
0 0 0 
0 0 0 
0 0 0 
0 0 0 
0 0 0 
0 0 0 
0 0 0 
0 0 0 
0 0 0 
0 0 0 
0 0 0 
0 0 0 
0 0 0 
0 0 0 
0 0 0 
0 0 0 
0 0 0 
0 0 0 
0 0 0 
0 0 0 
0 0 0 
0 0 0 
0 0 0 
0 0 0 
0 0 0 
0 0 0 
0 0 0 
0 0 0 
0 0 0 
0 0 0 
0 0 0 
0 0 0 
0 0 0 
0 0 0 
0 0 0 
0 0 0 
0 0 0 
0 0 0 
0 0 0 
0 0 0 
0 0 0 
0 0 0 
0 0 0 
0 0 0 
0 0 0 
0 0 0 
0 0 0 
0 0 0 
0 0 0 
0 0 0 
0 0 0 
0 0 0 
0 0 0 
0 0 0 
0 0 0 
0 0 0 
0 0 0 
0 0 0 
0 0 0 
0 0 0 
0 0 0 
0 0 0 
0 0 0 
0 0 0 
0 0 0 
0 0 0 
0 0 0 
0 0 0 
0 0 0 
0 0 0 
0 0 0 
0 0 0 
0 0 0 
0 0 0 
0 0 0 
0 0 0 
0 0 0 
0 0 0 
0 0 0 
0 0 0 
0 0 0 
0 0 0 
0 0 0 
0 0 0 
0 0 0 
0 0 0 
0 0 0 
0 0 0 
0 0 0 
0 0 0 
0 0 0 
0 0 0 
0 0 0 
0 0 0 
0 0 0 
0 0 0 
0 0 0 
0 0 0 
0 0 0 
0 0 0 
0 0 0 
0 0 0 
0 0 0 
0 0 0 
0 0 0 
0 0 0 
0 0 0 
0 0 0 
0 0 0 
0 0 0 
0 0 0 
0 0 0 
0 0 0 
0 0 0 
0 0 0 
0 0 0 
0 0 0 
0 0 0 
0 0 0 
0 0 0 
0 0 0 
0 0 0 
0 0 0 
0 0 0 
0 0 0 
0 0 0 
0 0 0 
0 0 0 
0 0 0 
0 0 0 
0 0 0 
0 0 0 
0 0 0 
0 0 0 
0 0 0 
0 0 0 
0 0 0 
0 0 0 
0 0 0 
0 0 0 
0 0 0 
0 0 0 
0 0 0 
0 0 0 
0 0 0 
0 0 0 
0 0 0 
0 0 0 
0 0 0 
0 0 0 
0 0 0 
0 0 0 
0 0 0 
0 0 0 
0 0 0 
0 0 0 
0 0 0 
0 0 0 
0 0 0 
0 0 0 
0 0 0 
0 0 0 
0 0 0 
0 0 0 
0 0 0 
0 0 0 
0 0 0 
0 0 0 
0 0 0 
0 0 0 
0 0 0 
0 0 0 
0 0 0 
0 0 0 
0 0 0 
0 0 0 
0 0 0 
0 0 0 
0 0 0 
0 0 0 
0 0 0 
0 0 0 
0 0 0 
0 0 0 
0 0 0 
0 0 0 
0 0 0 
0 0 0 
0 0 0 
0 0 0 
0 0 0 
0 0 0 
0 0 0 
0 0 0 
0 0 0 
0 0 0 
0 0 0 
0 0 0 
0 0 0 
0 0 0 
0 0 0 
0 0 0 
0 0 0 
0 0 0 
0 0 0 
0 0 0 
0 0 0 
0 0 0 
0 0 0 
0 0 0 
0 0 0 
0 0 0 
0 0 0 
0 0 0 
0 0 0 
0 0 0 
0 0 0 
0 0 0 
0 0 0 
0 0 0 
0 0 0 
0 0 0 
0 0 0 
0 0 0 
0 0 0 
0 0 0 
0 0 0 
0 0 0 
0 0 0 
0 0 0 
0 0 0 
0 0 0 
0 0 0 
0 0 0 
0 0 0 
0 0 0 
0 0 0 
0 0 0 
0 0 0 
0 0 0 
0 0 0 
0 0 0 
0 0 0 
0 0 0 
0 0 0 
0 0 0 
0 0 0 
0 0 0 
0 0 0 
0 0 0 
0 0 0 
0 0 0 
0 0 0 
0 0 0 
0 0 0 
0 0 0 
0 0 0 
0 0 0 
0 0 0 
0 0 0 
0 0 0 
0 0 0 
0 0 0 
0 0 0 
0 0 0 
0 0 0 
0 0 0 
0 0 0 
0 0 0 
0 0 0 
0 0 0 
0 0 0 
0 0 0 
0 0 0 
0 0 0 
0 0 0 
0 0 0 
0 0 0 
0 0 0 
0 0 0 
0 0 0 
0 0 0 
0 0 0 
0 0 0 
0 0 0 
0 0 0 
0 0 0 
0 0 0 
0 0 0 
0 0 0 
0 0 0 
0 0 0 
0 0 0 
0 0 0 
0 0 0 
0 0 0 
0 0 0 
0 0 0 
0 0 0 
0 0 0 
0 0 0 
0 0 0 
0 0 0 
0 0 0 
0 0 0 
0 0 0 
0 0 0 
0 0 0 
0 0 0 
0 0 0 
0 0 0 
0 0 0 
0 0 0 
0 0 0 
0 0 0 
0 0 0 
0 0 0 
0 0 0 
0 0 0 
0 0 0 
0 0 0 
0 0 0 
0 0 0 
0 0 0 
0 0 0 
0 0 0 
0 0 0 
0 0 0 
0 0 0 
0 0 0 
0 0 0 
0 0 0 
0 0 0 
0 0 0 
0 0 0 
0 0 0 
0 0 0 
0 0 0 
0 0 0 
0 0 0 
0 0 0 
0 0 0 
0 0 0 
0 0 0 
0 0 0 
0 0 0 
0 0 0 
0 0 0 
0 0 0 
0 0 0 
0 0 0 
0 0 0 
0 0 0 
0 0 0 
0 0 0 
0 0 0 
0 0 0 
0 0 0 
0 0 0 
0 0 0 
0 0 0 
0 0 0 
0 0 0 
0 0 0 
0 0 0 
0 0 0 
0 0 0 
0 0 0 
0 0 0 
0 0 0 
0 0 0 
0 0 0 
0 0 0 
0 0 0 
0 0 0 
0 0 0 
0 0 0 
0 0 0 
0 0 0 
0 0 0 
0 0 0 
0 0 0 
0 0 0 
0 0 0 
0 0 0 
0 0 0 
0 0 0 
0 0 0 
0 0 0 
0 0 0 
0 0 0 
0 0 0 
0 0 0 
0 0 0 
0 0 0 
0 0 0 
0 0 0 
0 0 0 
0 0 0 
0 0 0 
0 0 0 
0 0 0 
0 0 0 
0 0 0 
0 0 0 
0 0 0 
0 0 0 
0 0 0 
0 0 0 
0 0 0 
0 0 0 
0 0 0 
0 0 0 
0 0 0 
0 0 0 
0 0 0 
0 0 0 
0 0 0 
0 0 0 
0 0 0 
0 0 0 
0 0 0 
0 0 0 
0 0 0 
0 0 0 
0 0 0 
0 0 0 
0 0 0 
0 0 0 
0 0 0 
0 0 0 
0 0 0 
0 0 0 
0 0 0 
0 0 0 
0 0 0 
0 0 0 
0 0 0 
0 0 0 
0 0 0 
0 0 0 
0 0 0 
0 0 0 
0 0 0 
0 0 0 
0 0 0 
0 0 0 
0 0 0 
0 0 0 
0 0 0 
0 0 0 
0 0 0 
0 0 0 
0 0 0 
0 0 0 
0 0 0 
0 0 0 
0 0 0 
0 0 0 
0 0 0 
0 0 0 
0 0 0 
0 0 0 
0 0 0 
0 0 0 
0 0 0 
0 0 0 
0 0 0 
0 0 0 
0 0 0 
0 0 0 
0 0 0 
0 0 0 
0 0 0 
0 0 0 
0 0 0 
0 0 0 
0 0 0 
0 0 0 
0 0 0 
0 0 0 
0 0 0 
0 0 0 
0 0 0 
0 0 0 
0 0 0 
0 0 0 
0 0 0 
0 0 0 
0 0 0 
0 0 0 
0 0 0 
0 0 0 
0 0 0 
0 0 0 
0 0 0 
0 0 0 
0 0 0 
0 0 0 
0 0 0 
0 0 0 
0 0 0 
0 0 0 
0 0 0 
0 0 0 
0 0 0 
0 0 0 
0 0 0 
0 0 0 
0 0 0 
0 0 0 
0 0 0 
0 0 0 
0 0 0 
0 0 0 
0 0 0 
0 0 0 
0 0 0 
0 0 0 
0 0 0 
0 0 0 
0 0 0 
0 0 0 
0 0 0 
0 0 0 
0 0 0 
0 0 0 
0 0 0 
0 0 0 
0 0 0 
0 0 0 
0 0 0 
0 0 0 
0 0 0 
0 0 0 
0 0 0 
0 0 0 
0 0 0 
0 0 0 
0 0 0 
0 0 0 
0 0 0 
0 0 0 
0 0 0 
0 0 0 
0 0 0 
0 0 0 
0 0 0 
0 0 0 
0 0 0 
0 0 0 
0 0 0 
0 0 0 
0 0 0 
0 0 0 
0 0 0 
0 0 0 
0 0 0 
0 0 0 
0 0 0 
0 0 0 
0 0 0 
0 0 0 
0 0 0 
0 0 0 
0 0 0 
0 0 0 
0 0 0 
0 0 0 
0 0 0 
0 0 0 
0 0 0 
0 0 0 
0 0 0 
0 0 0 
0 0 0 
0 0 0 
0 0 0 
0 0 0 
0 0 0 
0 0 0 
0 0 0 
0 0 0 
0 0 0 
0 0 0 
0 0 0 
0 0 0 
0 0 0 
0 0 0 
0 0 0 
0 0 0 
0 0 0 
0 0 0 
0 0 0 
0 0 0 
0 0 0 
0 0 0 
0 0 0 
0 0 0 
0 0 0 
0 0 0 
0 0 0 
0 0 0 
0 0 0 
0 0 0 
0 0 0 
0 0 0 
0 0 0 
0 0 0 
0 0 0 
0 0 0 
0 0 0 
0 0 0 
0 0 0 
0 0 0 
0 0 0 
0 0 0 
0 0 0 
0 0 0 
0 0 0 
0 0 0 
0 0 0 
0 0 0 
0 0 0 
0 0 0 
0 0 0 
0 0 0 
0 0 0 
0 0 0 
0 0 0 
0 0 0 
0 0 0 
0 0 0 
0 0 0 
0 0 0 
0 0 0 
0 0 0 
0 0 0 
0 0 0 
0 0 0 
0 0 0 
0 0 0 
0 0 0 
0 0 0 
0 0 0 
0 0 0 
0 0 0 
0 0 0 
0 0 0 
0 0 0 
0 0 0 
0 0 0 
0 0 0 
0 0 0 
0 0 0 
0 0 0 
0 0 0 
0 0 0 
0 0 0 
0 0 0 
0 0 0 
0 0 0 
0 0 0 
0 0 0 
0 0 0 
0 0 0 
0 0 0 
0 0 0 
0 0 0 
0 0 0 
0 0 0 
0 0 0 
0 0 0 
0 0 0 
0 0 0 
0 0 0 
0 0 0 
0 0 0 
0 0 0 
0 0 0 
0 0 0 
0 0 0 
0 0 0 
0 0 0 
0 0 0 
0 0 0 
0 0 0 
0 0 0 
0 0 0 
0 0 0 
0 0 0 
0 0 0 
0 0 0 
0 0 0 
0 0 0 
0 0 0 
0 0 0 
0 0 0 
0 0 0 
0 0 0 
0 0 0 
0 0 0 
0 0 0 
0 0 0 
0 0 0 
0 0 0 
0 0 0 
0 0 0 
0 0 0 
0 0 0 
0 0 0 
0 0 0 
0 0 0 
0 0 0 
0 0 0 
0 0 0 
0 0 0 
0 0 0 
0 0 0 
0 0 0 
0 0 0 
0 0 0 
0 0 0 
0 0 0 
0 0 0 
0 0 0 
0 0 0 
0 0 0 
0 0 0 
0 0 0 
0 0 0 
0 0 0 
0 0 0 
0 0 0 
0 0 0 
0 0 0 
0 0 0 
0 0 0 
0 0 0 
0 0 0 
0 0 0 
0 0 0 
0 0 0 
0 0 0 
0 0 0 
0 0 0 
0 0 0 
0 0 0 
0 0 0 
0 0 0 
0 0 0 
0 0 0 
0 0 0 
0 0 0 
0 0 0 
0 0 0 
0 0 0 
0 0 0 
0 0 0 
0 0 0 
0 0 0 
0 0 0 
0 0 0 
0 0 0 
0 0 0 
0 0 0 
0 0 0 
0 0 0 
0 0 0 
0 0 0 
0 0 0 
0 0 0 
0 0 0 
0 0 0 
0 0 0 
0 0 0 
0 0 0 
0 0 0 
0 0 0 
0 0 0 
0 0 0 
0 0 0 
0 0 0 
0 0 0 
0 0 0 
0 0 0 
0 0 0 
0 0 0 
0 0 0 
0 0 0 
0 0 0 
0 0 0 
0 0 0 
0 0 0 
0 0 0 
0 0 0 
0 0 0 
0 0 0 
0 0 0 
0 0 0 
0 0 0 
0 0 0 
0 0 0 
0 0 0 
0 0 0 
0 0 0 
0 0 0 
0 0 0 
0 0 0 
0 0 0 
0 0 0 
0 0 0 
0 0 0 
0 0 0 
0 0 0 
0 0 0 
0 0 0 
0 0 0 
0 0 0 
0 0 0 
0 0 0 
0 0 0 
0 0 0 
0 0 0 
0 0 0 
0 0 0 
0 0 0 
0 0 0 
0 0 0 
0 0 0 
0 0 0 
0 0 0 
0 0 0 
0 0 0 
0 0 0 
0 0 0 
0 0 0 
0 0 0 
0 0 0 
0 0 0 
0 0 0 
0 0 0 
0 0 0 
0 0 0 
0 0 0 
0 0 0 
0 0 0 
0 0 0 
0 0 0 
0 0 0 
0 0 0 
0 0 0 
0 0 0 
0 0 0 
0 0 0 
0 0 0 
0 0 0 
0 0 0 
0 0 0 
0 0 0 
0 0 0 
0 0 0 
0 0 0 
0 0 0 
0 0 0 
0 0 0 
0 0 0 
0 0 0 
0 0 0 
0 0 0 
0 0 0 
0 0 0 
0 0 0 
0 0 0 
0 0 0 
0 0 0 
0 0 0 
0 0 0 
0 0 0 
0 0 0 
0 0 0 
0 0 0 
0 0 0 
0 0 0 
0 0 0 
0 0 0 
0 0 0 
0 0 0 
0 0 0 
0 0 0 
0 0 0 
0 0 0 
0 0 0 
0 0 0 
0 0 0 
0 0 0 
0 0 0 
0 0 0 
0 0 0 
0 0 0 
0 0 0 
0 0 0 
0 0 0 
0 0 0 
0 0 0 
0 0 0 
0 0 0 
0 0 0 
0 0 0 
0 0 0 
0 0 0 
0 0 0 
0 0 0 
0 0 0 
0 0 0 
0 0 0 
0 0 0 
0 0 0 
0 0 0 
0 0 0 
0 0 0 
0 0 0 
0 0 0 
0 0 0 
0 0 0 
0 0 0 
0 0 0 
0 0 0 
0 0 0 
0 0 0 
0 0 0 
0 0 0 
0 0 0 
0 0 0 
0 0 0 
0 0 0 
0 0 0 
0 0 0 
0 0 0 
0 0 0 
0 0 0 
0 0 0 
0 0 0 
0 0 0 
0 0 0 
0 0 0 
0 0 0 
0 0 0 
0 0 0 
0 0 0 
0 0 0 
0 0 0 
0 0 0 
0 0 0 
0 0 0 
0 0 0 
0 0 0 
0 0 0 
0 0 0 
0 0 0 
0 0 0 
0 0 0 
0 0 0 
0 0 0 
0 0 0 
0 0 0 
0 0 0 
0 0 0 
0 0 0 
0 0 0 
0 0 0 
0 0 0 
0 0 0 
0 0 0 
0 0 0 
0 0 0 
0 0 0 
0 0 0 
0 0 0 
0 0 0 
0 0 0 
0 0 0 
0 0 0 
0 0 0 
0 0 0 
0 0 0 
0 0 0 
0 0 0 
0 0 0 
0 0 0 
0 0 0 
0 0 0 
0 0 0 
0 0 0 
0 0 0 
0 0 0 
0 0 0 
0 0 0 
0 0 0 
0 0 0 
0 0 0 
0 0 0 
0 0 0 
0 0 0 
0 0 0 
0 0 0 
0 0 0 
0 0 0 
0 0 0 
0 0 0 
0 0 0 
0 0 0 
0 0 0 
0 0 0 
0 0 0 
0 0 0 
0 0 0 
0 0 0 
0 0 0 
0 0 0 
0 0 0 
0 0 0 
0 0 0 
0 0 0 
0 0 0 
0 0 0 
0 0 0 
0 0 0 
0 0 0 
0 0 0 
0 0 0 
0 0 0 
0 0 0 
0 0 0 
0 0 0 
0 0 0 
0 0 0 
0 0 0 
0 0 0 
0 0 0 
0 0 0 
0 0 0 
0 0 0 
0 0 0 
0 0 0 
0 0 0 
0 0 0 
0 0 0 
0 0 0 
0 0 0 
0 0 0 
0 0 0 
0 0 0 
0 0 0 
0 0 0 
0 0 0 
0 0 0 
0 0 0 
0 0 0 
0 0 0 
0 0 0 
0 0 0 
0 0 0 
0 0 0 
0 0 0 
0 0 0 
0 0 0 
0 0 0 
0 0 0 
0 0 0 
0 0 0 
0 0 0 
0 0 0 
0 0 0 
0 0 0 
0 0 0 
0 0 0 
0 0 0 
0 0 0 
0 0 0 
0 0 0 
0 0 0 
0 0 0 
0 0 0 
0 0 0 
0 0 0 
0 0 0 
0 0 0 
0 0 0 
0 0 0 
0 0 0 
0 0 0 
0 0 0 
0 0 0 
0 0 0 
0 0 0 
0 0 0 
0 0 0 
0 0 0 
0 0 0 
0 0 0 
0 0 0 
0 0 0 
0 0 0 
0 0 0 
0 0 0 
0 0 0 
0 0 0 
0 0 0 
0 0 0 
0 0 0 
0 0 0 
0 0 0 
0 0 0 
0 0 0 
0 0 0 
0 0 0 
0 0 0 
0 0 0 
0 0 0 
0 0 0 
0 0 0 
0 0 0 
0 0 0 
0 0 0 
0 0 0 
0 0 0 
0 0 0 
0 0 0 
0 0 0 
0 0 0 
0 0 0 
0 0 0 
0 0 0 
0 0 0 
0 0 0 
0 0 0 
0 0 0 
0 0 0 
0 0 0 
0 0 0 
0 0 0 
0 0 0 
0 0 0 
0 0 0 
0 0 0 
0 0 0 
0 0 0 
0 0 0 
0 0 0 
0 0 0 
0 0 0 
0 0 0 
0 0 0 
0 0 0 
0 0 0 
0 0 0 
0 0 0 
0 0 0 
0 0 0 
0 0 0 
0 0 0 
0 0 0 
0 0 0 
0 0 0 
0 0 0 
0 0 0 
0 0 0 
0 0 0 
0 0 0 
0 0 0 
0 0 0 
0 0 0 
0 0 0 
0 0 0 
0 0 0 
0 0 0 
0 0 0 
0 0 0 
0 0 0 
0 0 0 
0 0 0 
0 0 0 
0 0 0 
0 0 0 
0 0 0 
0 0 0 
0 0 0 
0 0 0 
0 0 0 
0 0 0 
0 0 0 
0 0 0 
0 0 0 
0 0 0 
0 0 0 
0 0 0 
0 0 0 
0 0 0 
0 0 0 
0 0 0 
0 0 0 
0 0 0 
0 0 0 
0 0 0 
0 0 0 
0 0 0 
0 0 0 
0 0 0 
0 0 0 
0 0 0 
0 0 0 
0 0 0 
0 0 0 
0 0 0 
0 0 0 
0 0 0 
0 0 0 
0 0 0 
0 0 0 
0 0 0 
0 0 0 
0 0 0 
0 0 0 
0 0 0 
0 0 0 
0 0 0 
0 0 0 
0 0 0 
0 0 0 
0 0 0 
0 0 0 
0 0 0 
0 0 0 
0 0 0 
0 0 0 
0 0 0 
0 0 0 
0 0 0 
0 0 0 
0 0 0 
0 0 0 
0 0 0 
0 0 0 
0 0 0 
0 0 0 
0 0 0 
0 0 0 
0 0 0 
0 0 0 
0 0 0 
0 0 0 
0 0 0 
0 0 0 
0 0 0 
0 0 0 
0 0 0 
0 0 0 
0 0 0 
0 0 0 
0 0 0 
0 0 0 
0 0 0 
0 0 0 
0 0 0 
0 0 0 
0 0 0 
0 0 0 
0 0 0 
0 0 0 
0 0 0 
0 0 0 
0 0 0 
0 0 0 
0 0 0 
0 0 0 
0 0 0 
0 0 0 
0 0 0 
0 0 0 
0 0 0 
0 0 0 
0 0 0 
0 0 0 
0 0 0 
0 0 0 
0 0 0 
0 0 0 
0 0 0 
0 0 0 
0 0 0 
0 0 0 
0 0 0 
0 0 0 
0 0 0 
0 0 0 
0 0 0 
0 0 0 
0 0 0 
0 0 0 
0 0 0 
0 0 0 
0 0 0 
0 0 0 
0 0 0 
0 0 0 
0 0 0 
0 0 0 
0 0 0 
0 0 0 
0 0 0 
0 0 0 
0 0 0 
0 0 0 
0 0 0 
0 0 0 
0 0 0 
0 0 0 
0 0 0 
0 0 0 
0 0 0 
0 0 0 
0 0 0 
0 0 0 
0 0 0 
0 0 0 
0 0 0 
0 0 0 
0 0 0 
0 0 0 
0 0 0 
0 0 0 
0 0 0 
0 0 0 
0 0 0 
0 0 0 
0 0 0 
0 0 0 
0 0 0 
0 0 0 
0 0 0 
0 0 0 
0 0 0 
0 0 0 
0 0 0 
0 0 0 
0 0 0 
0 0 0 
0 0 0 
0 0 0 
0 0 0 
0 0 0 
0 0 0 
0 0 0 
0 0 0 
0 0 0 
0 0 0 
0 0 0 
0 0 0 
0 0 0 
0 0 0 
0 0 0 
0 0 0 
0 0 0 
0 0 0 
0 0 0 
0 0 0 
0 0 0 
0 0 0 
0 0 0 
0 0 0 
0 0 0 
0 0 0 
0 0 0 
0 0 0 
0 0 0 
0 0 0 
0 0 0 
0 0 0 
0 0 0 
0 0 0 
0 0 0 
0 0 0 
0 0 0 
0 0 0 
0 0 0 
0 0 0 
0 0 0 
0 0 0 
0 0 0 
0 0 0 
0 0 0 
0 0 0 
0 0 0 
0 0 0 
0 0 0 
0 0 0 
0 0 0 
0 0 0 
0 0 0 
0 0 0 
0 0 0 
0 0 0 
0 0 0 
0 0 0 
0 0 0 
0 0 0 
0 0 0 
0 0 0 
0 0 0 
0 0 0 
0 0 0 
0 0 0 
0 0 0 
0 0 0 
0 0 0 
0 0 0 
0 0 0 
0 0 0 
0 0 0 
0 0 0 
0 0 0 
0 0 0 
0 0 0 
0 0 0 
0 0 0 
0 0 0 
0 0 0 
0 0 0 
0 0 0 
0 0 0 
0 0 0 
0 0 0 
0 0 0 
0 0 0 
0 0 0 
0 0 0 
0 0 0 
0 0 0 
0 0 0 
0 0 0 
0 0 0 
0 0 0 
0 0 0 
0 0 0 
0 0 0 
0 0 0 
0 0 0 
0 0 0 
0 0 0 
0 0 0 
0 0 0 
0 0 0 
0 0 0 
0 0 0 
0 0 0 
0 0 0 
0 0 0 
0 0 0 
0 0 0 
0 0 0 
0 0 0 
0 0 0 
0 0 0 
0 0 0 
0 0 0 
0 0 0 
0 0 0 
0 0 0 
0 0 0 
0 0 0 
0 0 0 
0 0 0 
0 0 0 
0 0 0 
0 0 0 
0 0 0 
0 0 0 
0 0 0 
0 0 0 
0 0 0 
0 0 0 
0 0 0 
0 0 0 
0 0 0 
0 0 0 
0 0 0 
0 0 0 
0 0 0 
0 0 0 
0 0 0 
0 0 0 
0 0 0 
0 0 0 
0 0 0 
0 0 0 
0 0 0 
0 0 0 
0 0 0 
0 0 0 
0 0 0 
0 0 0 
0 0 0 
0 0 0 
0 0 0 
0 0 0 
0 0 0 
0 0 0 
0 0 0 
0 0 0 
0 0 0 
0 0 0 
0 0 0 
0 0 0 
0 0 0 
0 0 0 
0 0 0 
0 0 0 
0 0 0 
0 0 0 
0 0 0 
0 0 0 
0 0 0 
0 0 0 
0 0 0 
0 0 0 
0 0 0 
0 0 0 
0 0 0 
0 0 0 
0 0 0 
0 0 0 
0 0 0 
0 0 0 
0 0 0 
0 0 0 
0 0 0 
0 0 0 
0 0 0 
0 0 0 
0 0 0 
0 0 0 
0 0 0 
0 0 0 
0 0 0 
0 0 0 
0 0 0 
0 0 0 
0 0 0 
0 0 0 
0 0 0 
0 0 0 
0 0 0 
0 0 0 
0 0 0 
0 0 0 
0 0 0 
0 0 0 
0 0 0 
0 0 0 
0 0 0 
0 0 0 
0 0 0 
0 0 0 
0 0 0 
0 0 0 
0 0 0 
0 0 0 
0 0 0 
0 0 0 
0 0 0 
0 0 0 
0 0 0 
0 0 0 
0 0 0 
0 0 0 
0 0 0 
0 0 0 
0 0 0 
0 0 0 
0 0 0 
0 0 0 
0 0 0 
0 0 0 
0 0 0 
0 0 0 
0 0 0 
0 0 0 
0 0 0 
0 0 0 
0 0 0 
0 0 0 
0 0 0 
0 0 0 
0 0 0 
0 0 0 
0 0 0 
0 0 0 
0 0 0 
0 0 0 
0 0 0 
0 0 0 
0 0 0 
0 0 0 
0 0 0 
0 0 0 
0 0 0 
0 0 0 
0 0 0 
0 0 0 
0 0 0 
0 0 0 
0 0 0 
0 0 0 
0 0 0 
0 0 0 
0 0 0 
0 0 0 
0 0 0 
0 0 0 
0 0 0 
0 0 0 
0 0 0 
0 0 0 
0 0 0 
0 0 0 
0 0 0 
0 0 0 
0 0 0 
0 0 0 
0 0 0 
0 0 0 
0 0 0 
0 0 0 
0 0 0 
0 0 0 
0 0 0 
0 0 0 
0 0 0 
0 0 0 
0 0 0 
0 0 0 
0 0 0 
0 0 0 
0 0 0 
0 0 0 
0 0 0 
0 0 0 
0 0 0 
0 0 0 
0 0 0 
0 0 0 
0 0 0 
0 0 0 
0 0 0 
0 0 0 
0 0 0 
0 0 0 
0 0 0 
0 0 0 
0 0 0 
0 0 0 
0 0 0 
0 0 0 
0 0 0 
0 0 0 
0 0 0 
0 0 0 
0 0 0 
0 0 0 
0 0 0 
0 0 0 
0 0 0 
0 0 0 
0 0 0 
0 0 0 
0 0 0 
0 0 0 
0 0 0 
0 0 0 
0 0 0 
0 0 0 
0 0 0 
0 0 0 
0 0 0 
0 0 0 
0 0 0 
0 0 0 
0 0 0 
0 0 0 
0 0 0 
0 0 0 
0 0 0 
0 0 0 
0 0 0 
0 0 0 
0 0 0 
0 0 0 
0 0 0 
0 0 0 
0 0 0 
0 0 0 
0 0 0 
0 0 0 
0 0 0 
0 0 0 
0 0 0 
0 0 0 
0 0 0 
0 0 0 
0 0 0 
0 0 0 
0 0 0 
0 0 0 
0 0 0 
0 0 0 
0 0 0 
0 0 0 
0 0 0 
0 0 0 
0 0 0 
0 0 0 
0 0 0 
0 0 0 
0 0 0 
0 0 0 
0 0 0 
0 0 0 
0 0 0 
0 0 0 
0 0 0 
0 0 0 
0 0 0 
0 0 0 
0 0 0 
0 0 0 
0 0 0 
0 0 0 
0 0 0 
0 0 0 
0 0 0 
0 0 0 
0 0 0 
0 0 0 
0 0 0 
0 0 0 
0 0 0 
0 0 0 
0 0 0 
0 0 0 
0 0 0 
0 0 0 
0 0 0 
0 0 0 
0 0 0 
0 0 0 
0 0 0 
0 0 0 
0 0 0 
0 0 0 
0 0 0 
0 0 0 
0 0 0 
0 0 0 
0 0 0 
0 0 0 
0 0 0 
0 0 0 
0 0 0 
0 0 0 
0 0 0 
0 0 0 
0 0 0 
0 0 0 
0 0 0 
0 0 0 
0 0 0 
0 0 0 
0 0 0 
0 0 0 
0 0 0 
0 0 0 
0 0 0 
0 0 0 
0 0 0 
0 0 0 
0 0 0 
0 0 0 
0 0 0 
0 0 0 
0 0 0 
0 0 0 
0 0 0 
0 0 0 
0 0 0 
0 0 0 
0 0 0 
0 0 0 
0 0 0 
0 0 0 
0 0 0 
0 0 0 
0 0 0 
0 0 0 
0 0 0 
0 0 0 
0 0 0 
0 0 0 
0 0 0 
0 0 0 
0 0 0 
0 0 0 
0 0 0 
0 0 0 
0 0 0 
0 0 0 
0 0 0 
0 0 0 
0 0 0 
0 0 0 
0 0 0 
0 0 0 
0 0 0 
0 0 0 
0 0 0 
0 0 0 
0 0 0 
0 0 0 
0 0 0 
0 0 0 
0 0 0 
0 0 0 
0 0 0 
0 0 0 
0 0 0 
0 0 0 
0 0 0 
0 0 0 
0 0 0 
0 0 0 
0 0 0 
0 0 0 
0 0 0 
0 0 0 
0 0 0 
0 0 0 
0 0 0 
0 0 0 
0 0 0 
0 0 0 
0 0 0 
0 0 0 
0 0 0 
0 0 0 
0 0 0 
0 0 0 
0 0 0 
0 0 0 
0 0 0 
0 0 0 
0 0 0 
0 0 0 
0 0 0 
0 0 0 
0 0 0 
0 0 0 
0 0 0 
0 0 0 
0 0 0 
0 0 0 
0 0 0 
0 0 0 
0 0 0 
0 0 0 
0 0 0 
0 0 0 
0 0 0 
0 0 0 
0 0 0 
0 0 0 
0 0 0 
0 0 0 
0 0 0 
0 0 0 
0 0 0 
0 0 0 
0 0 0 
0 0 0 
0 0 0 
0 0 0 
0 0 0 
0 0 0 
0 0 0 
0 0 0 
0 0 0 
0 0 0 
0 0 0 
0 0 0 
0 0 0 
0 0 0 
0 0 0 
0 0 0 
0 0 0 
0 0 0 
0 0 0 
0 0 0 
0 0 0 
0 0 0 
0 0 0 
0 0 0 
0 0 0 
0 0 0 
0 0 0 
0 0 0 
0 0 0 
0 0 0 
0 0 0 
0 0 0 
0 0 0 
0 0 0 
0 0 0 
0 0 0 
0 0 0 
0 0 0 
0 0 0 
0 0 0 
0 0 0 
0 0 0 
0 0 0 
0 0 0 
0 0 0 
0 0 0 
0 0 0 
0 0 0 
0 0 0 
0 0 0 
0 0 0 
0 0 0 
0 0 0 
0 0 0 
0 0 0 
0 0 0 
0 0 0 
0 0 0 
0 0 0 
0 0 0 
0 0 0 
0 0 0 
0 0 0 
0 0 0 
0 0 0 
0 0 0 
0 0 0 
0 0 0 
0 0 0 
0 0 0 
0 0 0 
0 0 0 
0 0 0 
0 0 0 
0 0 0 
0 0 0 
0 0 0 
0 0 0 
0 0 0 
0 0 0 
0 0 0 
0 0 0 
0 0 0 
0 0 0 
0 0 0 
0 0 0 
0 0 0 
0 0 0 
0 0 0 
0 0 0 
0 0 0 
0 0 0 
0 0 0 
0 0 0 
0 0 0 
0 0 0 
0 0 0 
0 0 0 
0 0 0 
0 0 0 
0 0 0 
0 0 0 
0 0 0 
0 0 0 
0 0 0 
0 0 0 
0 0 0 
0 0 0 
0 0 0 
0 0 0 
0 0 0 
0 0 0 
0 0 0 
0 0 0 
0 0 0 
0 0 0 
0 0 0 
0 0 0 
0 0 0 
0 0 0 
0 0 0 
0 0 0 
0 0 0 
0 0 0 
0 0 0 
0 0 0 
0 0 0 
0 0 0 
0 0 0 
0 0 0 
0 0 0 
0 0 0 
0 0 0 
0 0 0 
0 0 0 
0 0 0 
0 0 0 
0 0 0 
0 0 0 
0 0 0 
0 0 0 
0 0 0 
0 0 0 
0 0 0 
0 0 0 
0 0 0 
0 0 0 
0 0 0 
0 0 0 
0 0 0 
0 0 0 
0 0 0 
0 0 0 
0 0 0 
0 0 0 
0 0 0 
0 0 0 
0 0 0 
0 0 0 
0 0 0 
0 0 0 
0 0 0 
0 0 0 
0 0 0 
0 0 0 
0 0 0 
0 0 0 
0 0 0 
0 0 0 
0 0 0 
0 0 0 
0 0 0 
0 0 0 
0 0 0 
0 0 0 
0 0 0 
0 0 0 
0 0 0 
0 0 0 
0 0 0 
0 0 0 
0 0 0 
0 0 0 
0 0 0 
0 0 0 
0 0 0 
0 0 0 
0 0 0 
0 0 0 
0 0 0 
0 0 0 
0 0 0 
0 0 0 
0 0 0 
0 0 0 
0 0 0 
0 0 0 
0 0 0 
0 0 0 
0 0 0 
0 0 0 
0 0 0 
0 0 0 
0 0 0 
0 0 0 
0 0 0 
0 0 0 
0 0 0 
0 0 0 
0 0 0 
0 0 0 
0 0 0 
0 0 0 
0 0 0 
0 0 0 
0 0 0 
0 0 0 
0 0 0 
0 0 0 
0 0 0 
0 0 0 
0 0 0 
0 0 0 
0 0 0 
0 0 0 
0 0 0 
0 0 0 
0 0 0 
0 0 0 
0 0 0 
0 0 0 
0 0 0 
0 0 0 
0 0 0 
0 0 0 
0 0 0 
0 0 0 
0 0 0 
0 0 0 
0 0 0 
0 0 0 
0 0 0 
0 0 0 
0 0 0 
0 0 0 
0 0 0 
0 0 0 
0 0 0 
0 0 0 
0 0 0 
0 0 0 
0 0 0 
0 0 0 
0 0 0 
0 0 0 
0 0 0 
0 0 0 
0 0 0 
0 0 0 
0 0 0 
0 0 0 
0 0 0 
0 0 0 
0 0 0 
0 0 0 
0 0 0 
0 0 0 
0 0 0 
0 0 0 
0 0 0 
0 0 0 
0 0 0 
0 0 0 
0 0 0 
0 0 0 
0 0 0 
0 0 0 
0 0 0 
0 0 0 
0 0 0 
0 0 0 
0 0 0 
0 0 0 
0 0 0 
0 0 0 
0 0 0 
0 0 0 
0 0 0 
0 0 0 
0 0 0 
0 0 0 
0 0 0 
0 0 0 
0 0 0 
0 0 0 
0 0 0 
0 0 0 
0 0 0 
0 0 0 
0 0 0 
0 0 0 
0 0 0 
0 0 0 
0 0 0 
0 0 0 
0 0 0 
0 0 0 
0 0 0 
0 0 0 
0 0 0 
0 0 0 
0 0 0 
0 0 0 
0 0 0 
0 0 0 
0 0 0 
0 0 0 
0 0 0 
0 0 0 
0 0 0 
0 0 0 
0 0 0 
0 0 0 
0 0 0 
0 0 0 
0 0 0 
0 0 0 
0 0 0 
0 0 0 
0 0 0 
0 0 0 
0 0 0 
0 0 0 
0 0 0 
0 0 0 
0 0 0 
0 0 0 
0 0 0 
0 0 0 
0 0 0 
0 0 0 
0 0 0 
0 0 0 
0 0 0 
0 0 0 
0 0 0 
0 0 0 
0 0 0 
0 0 0 
0 0 0 
0 0 0 
0 0 0 
0 0 0 
0 0 0 
0 0 0 
0 0 0 
0 0 0 
0 0 0 
0 0 0 
0 0 0 
0 0 0 
0 0 0 
0 0 0 
0 0 0 
0 0 0 
0 0 0 
0 0 0 
0 0 0 
0 0 0 
0 0 0 
0 0 0 
0 0 0 
0 0 0 
0 0 0 
0 0 0 
0 0 0 
0 0 0 
0 0 0 
0 0 0 
0 0 0 
0 0 0 
0 0 0 
0 0 0 
0 0 0 
0 0 0 
0 0 0 
0 0 0 
0 0 0 
0 0 0 
0 0 0 
0 0 0 
0 0 0 
0 0 0 
0 0 0 
0 0 0 
0 0 0 
0 0 0 
0 0 0 
0 0 0 
0 0 0 
0 0 0 
0 0 0 
0 0 0 
0 0 0 
0 0 0 
0 0 0 
0 0 0 
0 0 0 
0 0 0 
0 0 0 
0 0 0 
0 0 0 
0 0 0 
0 0 0 
0 0 0 
0 0 0 
0 0 0 
0 0 0 
0 0 0 
0 0 0 
0 0 0 
0 0 0 
0 0 0 
0 0 0 
0 0 0 
0 0 0 
0 0 0 
0 0 0 
0 0 0 
0 0 0 
0 0 0 
0 0 0 
0 0 0 
0 0 0 
0 0 0 
0 0 0 
0 0 0 
0 0 0 
0 0 0 
0 0 0 
0 0 0 
0 0 0 
0 0 0 
0 0 0 
0 0 0 
0 0 0 
0 0 0 
0 0 0 
0 0 0 
0 0 0 
0 0 0 
0 0 0 
0 0 0 
0 0 0 
0 0 0 
0 0 0 
0 0 0 
0 0 0 
0 0 0 
0 0 0 
0 0 0 
0 0 0 
0 0 0 
0 0 0 
0 0 0 
0 0 0 
0 0 0 
0 0 0 
0 0 0 
0 0 0 
0 0 0 
0 0 0 
0 0 0 
0 0 0 
0 0 0 
0 0 0 
0 0 0 
0 0 0 
0 0 0 
0 0 0 
0 0 0 
0 0 0 
0 0 0 
0 0 0 
0 0 0 
0 0 0 
0 0 0 
0 0 0 
0 0 0 
0 0 0 
0 0 0 
0 0 0 
0 0 0 
0 0 0 
0 0 0 
0 0 0 
0 0 0 
0 0 0 
0 0 0 
0 0 0 
0 0 0 
0 0 0 
0 0 0 
0 0 0 
0 0 0 
0 0 0 
0 0 0 
0 0 0 
0 0 0 
0 0 0 
0 0 0 
0 0 0 
0 0 0 
0 0 0 
0 0 0 
0 0 0 
0 0 0 
0 0 0 
0 0 0 
0 0 0 
0 0 0 
0 0 0 
0 0 0 
0 0 0 
0 0 0 
0 0 0 
0 0 0 
0 0 0 
0 0 0 
0 0 0 
0 0 0 
0 0 0 
0 0 0 
0 0 0 
0 0 0 
0 0 0 
0 0 0 
0 0 0 
0 0 0 
0 0 0 
0 0 0 
0 0 0 
0 0 0 
0 0 0 
0 0 0 
0 0 0 
0 0 0 
0 0 0 
0 0 0 
0 0 0 
0 0 0 
0 0 0 
0 0 0 
0 0 0 
0 0 0 
0 0 0 
0 0 0 
0 0 0 
0 0 0 
0 0 0 
0 0 0 
0 0 0 
0 0 0 
0 0 0 
0 0 0 
0 0 0 
0 0 0 
0 0 0 
0 0 0 
0 0 0 
0 0 0 
0 0 0 
0 0 0 
0 0 0 
0 0 0 
0 0 0 
0 0 0 
0 0 0 
0 0 0 
0 0 0 
0 0 0 
0 0 0 
0 0 0 
0 0 0 
0 0 0 
0 0 0 
0 0 0 
0 0 0 
0 0 0 
0 0 0 
0 0 0 
0 0 0 
0 0 0 
0 0 0 
0 0 0 
0 0 0 
0 0 0 
0 0 0 
0 0 0 
0 0 0 
0 0 0 
0 0 0 
0 0 0 
0 0 0 
0 0 0 
0 0 0 
0 0 0 
0 0 0 
0 0 0 
0 0 0 
0 0 0 
0 0 0 
0 0 0 
0 0 0 
0 0 0 
0 0 0 
0 0 0 
0 0 0 
0 0 0 
0 0 0 
0 0 0 
0 0 0 
0 0 0 
0 0 0 
0 0 0 
0 0 0 
0 0 0 
0 0 0 
0 0 0 
0 0 0 
0 0 0 
0 0 0 
0 0 0 
0 0 0 
0 0 0 
0 0 0 
0 0 0 
0 0 0 
0 0 0 
0 0 0 
0 0 0 
0 0 0 
0 0 0 
0 0 0 
0 0 0 
0 0 0 
0 0 0 
0 0 0 
0 0 0 
0 0 0 
0 0 0 
0 0 0 
0 0 0 
0 0 0 
0 0 0 
0 0 0 
0 0 0 
0 0 0 
0 0 0 
0 0 0 
0 0 0 
0 0 0 
0 0 0 
0 0 0 
0 0 0 
0 0 0 
0 0 0 
0 0 0 
0 0 0 
0 0 0 
0 0 0 
0 0 0 
0 0 0 
0 0 0 
0 0 0 
0 0 0 
0 0 0 
0 0 0 
0 0 0 
0 0 0 
0 0 0 
0 0 0 
0 0 0 
0 0 0 
0 0 0 
0 0 0 
0 0 0 
0 0 0 
0 0 0 
0 0 0 
0 0 0 
0 0 0 
0 0 0 
0 0 0 
0 0 0 
0 0 0 
0 0 0 
0 0 0 
0 0 0 
0 0 0 
0 0 0 
0 0 0 
0 0 0 
0 0 0 
0 0 0 
0 0 0 
0 0 0 
0 0 0 
0 0 0 
0 0 0 
0 0 0 
0 0 0 
0 0 0 
0 0 0 
0 0 0 
0 0 0 
0 0 0 
0 0 0 
0 0 0 
0 0 0 
0 0 0 
0 0 0 
0 0 0 
0 0 0 
0 0 0 
0 0 0 
0 0 0 
0 0 0 
0 0 0 
0 0 0 
0 0 0 
0 0 0 
0 0 0 
0 0 0 
0 0 0 
0 0 0 
0 0 0 
0 0 0 
0 0 0 
0 0 0 
0 0 0 
0 0 0 
0 0 0 
0 0 0 
0 0 0 
0 0 0 
0 0 0 
0 0 0 
0 0 0 
0 0 0 
0 0 0 
0 0 0 
0 0 0 
0 0 0 
0 0 0 
0 0 0 
0 0 0 
0 0 0 
0 0 0 
0 0 0 
0 0 0 
0 0 0 
0 0 0 
0 0 0 
0 0 0 
0 0 0 
0 0 0 
0 0 0 
0 0 0 
0 0 0 
0 0 0 
0 0 0 
0 0 0 
0 0 0 
0 0 0 
0 0 0 
0 0 0 
0 0 0 
0 0 0 
0 0 0 
0 0 0 
0 0 0 
0 0 0 
0 0 0 
0 0 0 
0 0 0 
0 0 0 
0 0 0 
0 0 0 
0 0 0 
0 0 0 
0 0 0 
0 0 0 
0 0 0 
0 0 0 
0 0 0 
0 0 0 
0 0 0 
0 0 0 
0 0 0 
0 0 0 
0 0 0 
0 0 0 
0 0 0 
0 0 0 
0 0 0 
0 0 0 
0 0 0 
0 0 0 
0 0 0 
0 0 0 
0 0 0 
0 0 0 
0 0 0 
0 0 0 
0 0 0 
0 0 0 
0 0 0 
0 0 0 
0 0 0 
0 0 0 
0 0 0 
0 0 0 
0 0 0 
0 0 0 
0 0 0 
0 0 0 
0 0 0 
0 0 0 
0 0 0 
0 0 0 
0 0 0 
0 0 0 
0 0 0 
0 0 0 
0 0 0 
0 0 0 
0 0 0 
0 0 0 
0 0 0 
0 0 0 
0 0 0 
0 0 0 
0 0 0 
0 0 0 
0 0 0 
0 0 0 
0 0 0 
0 0 0 
0 0 0 
0 0 0 
0 0 0 
0 0 0 
0 0 0 
0 0 0 
0 0 0 
0 0 0 
0 0 0 
0 0 0 
0 0 0 
0 0 0 
0 0 0 
0 0 0 
0 0 0 
0 0 0 
0 0 0 
0 0 0 
0 0 0 
0 0 0 
0 0 0 
0 0 0 
0 0 0 
0 0 0 
0 0 0 
0 0 0 
0 0 0 
0 0 0 
0 0 0 
0 0 0 
0 0 0 
0 0 0 
0 0 0 
0 0 0 
0 0 0 
0 0 0 
0 0 0 
0 0 0 
0 0 0 
0 0 0 
0 0 0 
0 0 0 
0 0 0 
0 0 0 
0 0 0 
0 0 0 
0 0 0 
0 0 0 
0 0 0 
0 0 0 
0 0 0 
0 0 0 
0 0 0 
0 0 0 
0 0 0 
0 0 0 
0 0 0 
0 0 0 
0 0 0 
0 0 0 
0 0 0 
0 0 0 
0 0 0 
0 0 0 
0 0 0 
0 0 0 
0 0 0 
0 0 0 
0 0 0 
0 0 0 
0 0 0 
0 0 0 
0 0 0 
0 0 0 
0 0 0 
0 0 0 
0 0 0 
0 0 0 
0 0 0 
0 0 0 
0 0 0 
0 0 0 
0 0 0 
0 0 0 
0 0 0 
0 0 0 
0 0 0 
0 0 0 
0 0 0 
0 0 0 
0 0 0 
0 0 0 
0 0 0 
0 0 0 
0 0 0 
0 0 0 
0 0 0 
0 0 0 
0 0 0 
0 0 0 
0 0 0 
0 0 0 
0 0 0 
0 0 0 
0 0 0 
0 0 0 
0 0 0 
0 0 0 
0 0 0 
0 0 0 
0 0 0 
0 0 0 
0 0 0 
0 0 0 
0 0 0 
0 0 0 
0 0 0 
0 0 0 
0 0 0 
0 0 0 
0 0 0 
0 0 0 
0 0 0 
0 0 0 
0 0 0 
0 0 0 
0 0 0 
0 0 0 
0 0 0 
0 0 0 
0 0 0 
0 0 0 
0 0 0 
0 0 0 
0 0 0 
0 0 0 
0 0 0 
0 0 0 
0 0 0 
0 0 0 
0 0 0 
0 0 0 
0 0 0 
0 0 0 
0 0 0 
0 0 0 
0 0 0 
0 0 0 
0 0 0 
0 0 0 
0 0 0 
0 0 0 
0 0 0 
0 0 0 
0 0 0 
0 0 0 
0 0 0 
0 0 0 
0 0 0 
0 0 0 
0 0 0 
0 0 0 
0 0 0 
0 0 0 
0 0 0 
0 0 0 
0 0 0 
0 0 0 
0 0 0 
0 0 0 
0 0 0 
0 0 0 
0 0 0 
0 0 0 
0 0 0 
0 0 0 
0 0 0 
0 0 0 
0 0 0 
0 0 0 
0 0 0 
0 0 0 
0 0 0 
0 0 0 
0 0 0 
0 0 0 
0 0 0 
0 0 0 
0 0 0 
0 0 0 
0 0 0 
0 0 0 
0 0 0 
0 0 0 
0 0 0 
0 0 0 
0 0 0 
0 0 0 
0 0 0 
0 0 0 
0 0 0 
0 0 0 
0 0 0 
0 0 0 
0 0 0 
0 0 0 
0 0 0 
0 0 0 
0 0 0 
0 0 0 
0 0 0 
0 0 0 
0 0 0 
0 0 0 
0 0 0 
0 0 0 
0 0 0 
0 0 0 
0 0 0 
0 0 0 
0 0 0 
0 0 0 
0 0 0 
0 0 0 
0 0 0 
0 0 0 
0 0 0 
0 0 0 
0 0 0 
0 0 0 
0 0 0 
0 0 0 
0 0 0 
0 0 0 
0 0 0 
0 0 0 
0 0 0 
0 0 0 
0 0 0 
0 0 0 
0 0 0 
0 0 0 
0 0 0 
0 0 0 
0 0 0 
0 0 0 
0 0 0 
0 0 0 
0 0 0 
0 0 0 
0 0 0 
0 0 0 
0 0 0 
0 0 0 
0 0 0 
0 0 0 
0 0 0 
0 0 0 
0 0 0 
0 0 0 
0 0 0 
0 0 0 
0 0 0 
0 0 0 
0 0 0 
0 0 0 
0 0 0 
0 0 0 
0 0 0 
0 0 0 
0 0 0 
0 0 0 
0 0 0 
0 0 0 
0 0 0 
0 0 0 
0 0 0 
0 0 0 
0 0 0 
0 0 0 
0 0 0 
0 0 0 
0 0 0 
0 0 0 
0 0 0 
0 0 0 
0 0 0 
0 0 0 
0 0 0 
0 0 0 
0 0 0 
0 0 0 
0 0 0 
0 0 0 
0 0 0 
0 0 0 
0 0 0 
0 0 0 
0 0 0 
0 0 0 
0 0 0 
0 0 0 
0 0 0 
0 0 0 
0 0 0 
0 0 0 
0 0 0 
0 0 0 
0 0 0 
0 0 0 
0 0 0 
0 0 0 
0 0 0 
0 0 0 
0 0 0 
0 0 0 
0 0 0 
0 0 0 
0 0 0 
0 0 0 
0 0 0 
0 0 0 
0 0 0 
0 0 0 
0 0 0 
0 0 0 
0 0 0 
0 0 0 
0 0 0 
0 0 0 
0 0 0 
0 0 0 
0 0 0 
0 0 0 
0 0 0 
0 0 0 
0 0 0 
0 0 0 
0 0 0 
0 0 0 
0 0 0 
0 0 0 
0 0 0 
0 0 0 
0 0 0 
0 0 0 
0 0 0 
0 0 0 
0 0 0 
0 0 0 
0 0 0 
0 0 0 
0 0 0 
0 0 0 
0 0 0 
0 0 0 
0 0 0 
0 0 0 
0 0 0 
0 0 0 
0 0 0 
0 0 0 
0 0 0 
0 0 0 
0 0 0 
0 0 0 
0 0 0 
0 0 0 
0 0 0 
0 0 0 
0 0 0 
0 0 0 
0 0 0 
0 0 0 
0 0 0 
0 0 0 
0 0 0 
0 0 0 
0 0 0 
0 0 0 
0 0 0 
0 0 0 
0 0 0 
0 0 0 
0 0 0 
0 0 0 
0 0 0 
0 0 0 
0 0 0 
0 0 0 
0 0 0 
0 0 0 
0 0 0 
0 0 0 
0 0 0 
0 0 0 
0 0 0 
0 0 0 
0 0 0 
0 0 0 
0 0 0 
0 0 0 
0 0 0 
0 0 0 
0 0 0 
0 0 0 
0 0 0 
0 0 0 
0 0 0 
0 0 0 
0 0 0 
0 0 0 
0 0 0 
0 0 0 
0 0 0 
0 0 0 
0 0 0 
0 0 0 
0 0 0 
0 0 0 
0 0 0 
0 0 0 
0 0 0 
0 0 0 
0 0 0 
0 0 0 
0 0 0 
0 0 0 
0 0 0 
0 0 0 
0 0 0 
0 0 0 
0 0 0 
0 0 0 
0 0 0 
0 0 0 
0 0 0 
0 0 0 
0 0 0 
0 0 0 
0 0 0 
0 0 0 
0 0 0 
0 0 0 
0 0 0 
0 0 0 
0 0 0 
0 0 0 
0 0 0 
0 0 0 
0 0 0 
0 0 0 
0 0 0 
0 0 0 
0 0 0 
0 0 0 
0 0 0 
0 0 0 
0 0 0 
0 0 0 
0 0 0 
0 0 0 
0 0 0 
0 0 0 
0 0 0 
0 0 0 
0 0 0 
0 0 0 
0 0 0 
0 0 0 
0 0 0 
0 0 0 
0 0 0 
0 0 0 
0 0 0 
0 0 0 
0 0 0 
0 0 0 
0 0 0 
0 0 0 
0 0 0 
0 0 0 
0 0 0 
0 0 0 
0 0 0 
0 0 0 
0 0 0 
0 0 0 
0 0 0 
0 0 0 
0 0 0 
0 0 0 
0 0 0 
0 0 0 
0 0 0 
0 0 0 
0 0 0 
0 0 0 
0 0 0 
0 0 0 
0 0 0 
0 0 0 
0 0 0 
0 0 0 
0 0 0 
0 0 0 
0 0 0 
0 0 0 
0 0 0 
0 0 0 
0 0 0 
0 0 0 
0 0 0 
0 0 0 
0 0 0 
0 0 0 
0 0 0 
0 0 0 
0 0 0 
0 0 0 
0 0 0 
0 0 0 
0 0 0 
0 0 0 
0 0 0 
0 0 0 
0 0 0 
0 0 0 
0 0 0 
0 0 0 
0 0 0 
0 0 0 
0 0 0 
0 0 0 
0 0 0 
0 0 0 
0 0 0 
0 0 0 
0 0 0 
0 0 0 
0 0 0 
0 0 0 
0 0 0 
0 0 0 
0 0 0 
0 0 0 
0 0 0 
0 0 0 
0 0 0 
0 0 0 
0 0 0 
0 0 0 
0 0 0 
0 0 0 
0 0 0 
0 0 0 
0 0 0 
0 0 0 
0 0 0 
0 0 0 
0 0 0 
0 0 0 
0 0 0 
0 0 0 
0 0 0 
0 0 0 
0 0 0 
0 0 0 
0 0 0 
0 0 0 
0 0 0 
0 0 0 
0 0 0 
0 0 0 
0 0 0 
0 0 0 
0 0 0 
0 0 0 
0 0 0 
0 0 0 
0 0 0 
0 0 0 
0 0 0 
0 0 0 
0 0 0 
0 0 0 
0 0 0 
0 0 0 
0 0 0 
0 0 0 
0 0 0 
0 0 0 
0 0 0 
0 0 0 
0 0 0 
0 0 0 
0 0 0 
0 0 0 
0 0 0 
0 0 0 
0 0 0 
0 0 0 
0 0 0 
0 0 0 
0 0 0 
0 0 0 
0 0 0 
0 0 0 
0 0 0 
0 0 0 
0 0 0 
0 0 0 
0 0 0 
0 0 0 
0 0 0 
0 0 0 
0 0 0 
0 0 0 
0 0 0 
0 0 0 
0 0 0 
0 0 0 
0 0 0 
0 0 0 
0 0 0 
0 0 0 
0 0 0 
0 0 0 
0 0 0 
0 0 0 
0 0 0 
0 0 0 
0 0 0 
0 0 0 
0 0 0 
0 0 0 
0 0 0 
0 0 0 
0 0 0 
0 0 0 
0 0 0 
0 0 0 
0 0 0 
0 0 0 
0 0 0 
0 0 0 
0 0 0 
0 0 0 
0 0 0 
0 0 0 
0 0 0 
0 0 0 
0 0 0 
0 0 0 
0 0 0 
0 0 0 
0 0 0 
0 0 0 
0 0 0 
0 0 0 
0 0 0 
0 0 0 
0 0 0 
0 0 0 
0 0 0 
0 0 0 
0 0 0 
0 0 0 
0 0 0 
0 0 0 
0 0 0 
0 0 0 
0 0 0 
0 0 0 
0 0 0 
0 0 0 
0 0 0 
0 0 0 
0 0 0 
0 0 0 
0 0 0 
0 0 0 
0 0 0 
0 0 0 
0 0 0 
0 0 0 
0 0 0 
0 0 0 
0 0 0 
0 0 0 
0 0 0 
0 0 0 
0 0 0 
0 0 0 
0 0 0 
0 0 0 
0 0 0 
0 0 0 
0 0 0 
0 0 0 
0 0 0 
0 0 0 
0 0 0 
0 0 0 
0 0 0 
0 0 0 
0 0 0 
0 0 0 
0 0 0 
0 0 0 
0 0 0 
0 0 0 
0 0 0 
0 0 0 
0 0 0 
0 0 0 
0 0 0 
0 0 0 
0 0 0 
0 0 0 
0 0 0 
0 0 0 
0 0 0 
0 0 0 
0 0 0 
0 0 0 
0 0 0 
0 0 0 
0 0 0 
0 0 0 
0 0 0 
0 0 0 
0 0 0 
0 0 0 
0 0 0 
0 0 0 
0 0 0 
0 0 0 
0 0 0 
0 0 0 
0 0 0 
0 0 0 
0 0 0 
0 0 0 
0 0 0 
0 0 0 
0 0 0 
0 0 0 
0 0 0 
0 0 0 
0 0 0 
0 0 0 
0 0 0 
0 0 0 
0 0 0 
0 0 0 
0 0 0 
0 0 0 
0 0 0 
0 0 0 
0 0 0 
0 0 0 
0 0 0 
0 0 0 
0 0 0 
0 0 0 
0 0 0 
0 0 0 
0 0 0 
0 0 0 
0 0 0 
0 0 0 
0 0 0 
0 0 0 
0 0 0 
0 0 0 
0 0 0 
0 0 0 
0 0 0 
0 0 0 
0 0 0 
0 0 0 
0 0 0 
0 0 0 
0 0 0 
0 0 0 
0 0 0 
0 0 0 
0 0 0 
0 0 0 
0 0 0 
0 0 0 
0 0 0 
0 0 0 
0 0 0 
0 0 0 
0 0 0 
0 0 0 
0 0 0 
0 0 0 
0 0 0 
0 0 0 
0 0 0 
0 0 0 
0 0 0 
0 0 0 
0 0 0 
0 0 0 
0 0 0 
0 0 0 
0 0 0 
0 0 0 
0 0 0 
0 0 0 
0 0 0 
0 0 0 
0 0 0 
0 0 0 
0 0 0 
0 0 0 
0 0 0 
0 0 0 
0 0 0 
0 0 0 
0 0 0 
0 0 0 
0 0 0 
0 0 0 
0 0 0 
0 0 0 
0 0 0 
0 0 0 
0 0 0 
0 0 0 
0 0 0 
0 0 0 
0 0 0 
0 0 0 
0 0 0 
0 0 0 
0 0 0 
0 0 0 
0 0 0 
0 0 0 
0 0 0 
0 0 0 
0 0 0 
0 0 0 
0 0 0 
0 0 0 
0 0 0 
0 0 0 
0 0 0 
0 0 0 
0 0 0 
0 0 0 
0 0 0 
0 0 0 
0 0 0 
0 0 0 
0 0 0 
0 0 0 
0 0 0 
0 0 0 
0 0 0 
0 0 0 
0 0 0 
0 0 0 
0 0 0 
0 0 0 
0 0 0 
0 0 0 
0 0 0 
0 0 0 
0 0 0 
0 0 0 
0 0 0 
0 0 0 
0 0 0 
0 0 0 
0 0 0 
0 0 0 
0 0 0 
0 0 0 
0 0 0 
0 0 0 
0 0 0 
0 0 0 
0 0 0 
0 0 0 
0 0 0 
0 0 0 
0 0 0 
0 0 0 
0 0 0 
0 0 0 
0 0 0 
0 0 0 
0 0 0 
0 0 0 
0 0 0 
0 0 0 
0 0 0 
0 0 0 
0 0 0 
0 0 0 
0 0 0 
0 0 0 
0 0 0 
0 0 0 
0 0 0 
0 0 0 
0 0 0 
0 0 0 
0 0 0 
0 0 0 
0 0 0 
0 0 0 
0 0 0 
0 0 0 
0 0 0 
0 0 0 
0 0 0 
0 0 0 
0 0 0 
0 0 0 
0 0 0 
0 0 0 
0 0 0 
0 0 0 
0 0 0 
0 0 0 
0 0 0 
0 0 0 
0 0 0 
0 0 0 
0 0 0 
0 0 0 
0 0 0 
0 0 0 
0 0 0 
0 0 0 
0 0 0 
0 0 0 
0 0 0 
0 0 0 
0 0 0 
0 0 0 
0 0 0 
0 0 0 
0 0 0 
0 0 0 
0 0 0 
0 0 0 
0 0 0 
0 0 0 
0 0 0 
0 0 0 
0 0 0 
0 0 0 
0 0 0 
0 0 0 
0 0 0 
0 0 0 
0 0 0 
0 0 0 
0 0 0 
0 0 0 
0 0 0 
0 0 0 
0 0 0 
0 0 0 
0 0 0 
0 0 0 
0 0 0 
0 0 0 
0 0 0 
0 0 0 
0 0 0 
0 0 0 
0 0 0 
0 0 0 
0 0 0 
0 0 0 
0 0 0 
0 0 0 
0 0 0 
0 0 0 
0 0 0 
0 0 0 
0 0 0 
0 0 0 
0 0 0 
0 0 0 
0 0 0 
0 0 0 
0 0 0 
0 0 0 
0 0 0 
0 0 0 
0 0 0 
0 0 0 
0 0 0 
0 0 0 
0 0 0 
0 0 0 
0 0 0 
0 0 0 
0 0 0 
0 0 0 
0 0 0 
0 0 0 
0 0 0 
0 0 0 
0 0 0 
0 0 0 
0 0 0 
0 0 0 
0 0 0 
0 0 0 
0 0 0 
0 0 0 
0 0 0 
0 0 0 
0 0 0 
0 0 0 
0 0 0 
0 0 0 
0 0 0 
0 0 0 
0 0 0 
0 0 0 
0 0 0 
0 0 0 
0 0 0 
0 0 0 
0 0 0 
0 0 0 
0 0 0 
0 0 0 
0 0 0 
0 0 0 
0 0 0 
0 0 0 
0 0 0 
0 0 0 
0 0 0 
0 0 0 
0 0 0 
0 0 0 
0 0 0 
0 0 0 
0 0 0 
0 0 0 
0 0 0 
0 0 0 
0 0 0 
0 0 0 
0 0 0 
0 0 0 
0 0 0 
0 0 0 
0 0 0 
0 0 0 
0 0 0 
0 0 0 
0 0 0 
0 0 0 
0 0 0 
0 0 0 
0 0 0 
0 0 0 
0 0 0 
0 0 0 
0 0 0 
0 0 0 
0 0 0 
0 0 0 
0 0 0 
0 0 0 
0 0 0 
0 0 0 
0 0 0 
0 0 0 
0 0 0 
0 0 0 
0 0 0 
0 0 0 
0 0 0 
0 0 0 
0 0 0 
0 0 0 
0 0 0 
0 0 0 
0 0 0 
0 0 0 
0 0 0 
0 0 0 
0 0 0 
0 0 0 
0 0 0 
0 0 0 
0 0 0 
0 0 0 
0 0 0 
0 0 0 
0 0 0 
0 0 0 
0 0 0 
0 0 0 
0 0 0 
0 0 0 
0 0 0 
0 0 0 
0 0 0 
0 0 0 
0 0 0 
0 0 0 
0 0 0 
0 0 0 
0 0 0 
0 0 0 
0 0 0 
0 0 0 
0 0 0 
0 0 0 
0 0 0 
0 0 0 
0 0 0 
0 0 0 
0 0 0 
0 0 0 
0 0 0 
0 0 0 
0 0 0 
0 0 0 
0 0 0 
0 0 0 
0 0 0 
0 0 0 
0 0 0 
0 0 0 
0 0 0 
0 0 0 
0 0 0 
0 0 0 
0 0 0 
0 0 0 
0 0 0 
0 0 0 
0 0 0 
0 0 0 
0 0 0 
0 0 0 
0 0 0 
0 0 0 
0 0 0 
0 0 0 
0 0 0 
0 0 0 
0 0 0 
0 0 0 
0 0 0 
0 0 0 
0 0 0 
0 0 0 
0 0 0 
0 0 0 
0 0 0 
0 0 0 
0 0 0 
0 0 0 
0 0 0 
0 0 0 
0 0 0 
0 0 0 
0 0 0 
0 0 0 
0 0 0 
0 0 0 
0 0 0 
0 0 0 
0 0 0 
0 0 0 
0 0 0 
0 0 0 
0 0 0 
0 0 0 
0 0 0 
0 0 0 
0 0 0 
0 0 0 
0 0 0 
0 0 0 
0 0 0 
0 0 0 
0 0 0 
0 0 0 
0 0 0 
0 0 0 
0 0 0 
0 0 0 
0 0 0 
0 0 0 
0 0 0 
0 0 0 
0 0 0 
0 0 0 
0 0 0 
0 0 0 
0 0 0 
0 0 0 
0 0 0 
0 0 0 
0 0 0 
0 0 0 
0 0 0 
0 0 0 
0 0 0 
0 0 0 
0 0 0 
0 0 0 
0 0 0 
0 0 0 
0 0 0 
0 0 0 
0 0 0 
0 0 0 
0 0 0 
0 0 0 
0 0 0 
0 0 0 
0 0 0 
0 0 0 
0 0 0 
0 0 0 
0 0 0 
0 0 0 
0 0 0 
0 0 0 
0 0 0 
0 0 0 
0 0 0 
0 0 0 
0 0 0 
0 0 0 
0 0 0 
0 0 0 
0 0 0 
0 0 0 
0 0 0 
0 0 0 
0 0 0 
0 0 0 
0 0 0 
0 0 0 
0 0 0 
0 0 0 
0 0 0 
0 0 0 
0 0 0 
0 0 0 
0 0 0 
0 0 0 
0 0 0 
0 0 0 
0 0 0 
0 0 0 
0 0 0 
0 0 0 
0 0 0 
0 0 0 
0 0 0 
0 0 0 
0 0 0 
0 0 0 
0 0 0 
0 0 0 
0 0 0 
0 0 0 
0 0 0 
0 0 0 
0 0 0 
0 0 0 
0 0 0 
0 0 0 
0 0 0 
0 0 0 
0 0 0 
0 0 0 
0 0 0 
0 0 0 
0 0 0 
0 0 0 
0 0 0 
0 0 0 
0 0 0 
0 0 0 
0 0 0 
0 0 0 
0 0 0 
0 0 0 
0 0 0 
0 0 0 
0 0 0 
0 0 0 
0 0 0 
0 0 0 
0 0 0 
0 0 0 
0 0 0 
0 0 0 
0 0 0 
0 0 0 
0 0 0 
0 0 0 
0 0 0 
0 0 0 
0 0 0 
0 0 0 
0 0 0 
0 0 0 
0 0 0 
0 0 0 
0 0 0 
0 0 0 
0 0 0 
0 0 0 
0 0 0 
0 0 0 
0 0 0 
0 0 0 
0 0 0 
0 0 0 
0 0 0 
0 0 0 
0 0 0 
0 0 0 
0 0 0 
0 0 0 
0 0 0 
0 0 0 
0 0 0 
0 0 0 
0 0 0 
0 0 0 
0 0 0 
0 0 0 
0 0 0 
0 0 0 
0 0 0 
0 0 0 
0 0 0 
0 0 0 
0 0 0 
0 0 0 
0 0 0 
0 0 0 
0 0 0 
0 0 0 
0 0 0 
0 0 0 
0 0 0 
0 0 0 
0 0 0 
0 0 0 
0 0 0 
0 0 0 
0 0 0 
0 0 0 
0 0 0 
0 0 0 
0 0 0 
0 0 0 
0 0 0 
0 0 0 
0 0 0 
0 0 0 
0 0 0 
0 0 0 
0 0 0 
0 0 0 
0 0 0 
0 0 0 
0 0 0 
0 0 0 
0 0 0 
0 0 0 
0 0 0 
0 0 0 
0 0 0 
0 0 0 
0 0 0 
0 0 0 
0 0 0 
0 0 0 
0 0 0 
0 0 0 
0 0 0 
0 0 0 
0 0 0 
0 0 0 
0 0 0 
0 0 0 
0 0 0 
0 0 0 
0 0 0 
0 0 0 
0 0 0 
0 0 0 
0 0 0 
0 0 0 
0 0 0 
0 0 0 
0 0 0 
0 0 0 
0 0 0 
0 0 0 
0 0 0 
0 0 0 
0 0 0 
0 0 0 
0 0 0 
0 0 0 
0 0 0 
0 0 0 
0 0 0 
0 0 0 
0 0 0 
0 0 0 
0 0 0 
0 0 0 
0 0 0 
0 0 0 
0 0 0 
0 0 0 
0 0 0 
0 0 0 
0 0 0 
0 0 0 
0 0 0 
0 0 0 
0 0 0 
0 0 0 
0 0 0 
0 0 0 
0 0 0 
0 0 0 
0 0 0 
0 0 0 
0 0 0 
0 0 0 
0 0 0 
0 0 0 
0 0 0 
0 0 0 
0 0 0 
0 0 0 
0 0 0 
0 0 0 
0 0 0 
0 0 0 
0 0 0 
0 0 0 
0 0 0 
0 0 0 
0 0 0 
0 0 0 
0 0 0 
0 0 0 
0 0 0 
0 0 0 
0 0 0 
0 0 0 
0 0 0 
0 0 0 
0 0 0 
0 0 0 
0 0 0 
0 0 0 
0 0 0 
0 0 0 
0 0 0 
0 0 0 
0 0 0 
0 0 0 
0 0 0 
0 0 0 
0 0 0 
0 0 0 
0 0 0 
0 0 0 
0 0 0 
0 0 0 
0 0 0 
0 0 0 
0 0 0 
0 0 0 
0 0 0 
0 0 0 
0 0 0 
0 0 0 
0 0 0 
0 0 0 
0 0 0 
0 0 0 
0 0 0 
0 0 0 
0 0 0 
0 0 0 
0 0 0 
0 0 0 
0 0 0 
0 0 0 
0 0 0 
0 0 0 
0 0 0 
0 0 0 
0 0 0 
0 0 0 
0 0 0 
0 0 0 
0 0 0 
0 0 0 
0 0 0 
0 0 0 
0 0 0 
0 0 0 
0 0 0 
0 0 0 
0 0 0 
0 0 0 
0 0 0 
0 0 0 
0 0 0 
0 0 0 
0 0 0 
0 0 0 
0 0 0 
0 0 0 
0 0 0 
0 0 0 
0 0 0 
0 0 0 
0 0 0 
0 0 0 
0 0 0 
0 0 0 
0 0 0 
0 0 0 
0 0 0 
0 0 0 
0 0 0 
0 0 0 
0 0 0 
0 0 0 
0 0 0 
0 0 0 
0 0 0 
0 0 0 
0 0 0 
0 0 0 
0 0 0 
0 0 0 
0 0 0 
0 0 0 
0 0 0 
0 0 0 
0 0 0 
0 0 0 
0 0 0 
0 0 0 
0 0 0 
0 0 0 
0 0 0 
0 0 0 
0 0 0 
0 0 0 
0 0 0 
0 0 0 
0 0 0 
0 0 0 
0 0 0 
0 0 0 
0 0 0 
0 0 0 
0 0 0 
0 0 0 
0 0 0 
0 0 0 
0 0 0 
0 0 0 
0 0 0 
0 0 0 
0 0 0 
0 0 0 
0 0 0 
0 0 0 
0 0 0 
0 0 0 
0 0 0 
0 0 0 
0 0 0 
0 0 0 
0 0 0 
0 0 0 
0 0 0 
0 0 0 
0 0 0 
0 0 0 
0 0 0 
0 0 0 
0 0 0 
0 0 0 
0 0 0 
0 0 0 
0 0 0 
0 0 0 
0 0 0 
0 0 0 
0 0 0 
0 0 0 
0 0 0 
0 0 0 
0 0 0 
0 0 0 
0 0 0 
0 0 0 
0 0 0 
0 0 0 
0 0 0 
0 0 0 
0 0 0 
0 0 0 
0 0 0 
0 0 0 
0 0 0 
0 0 0 
0 0 0 
0 0 0 
0 0 0 
0 0 0 
0 0 0 
0 0 0 
0 0 0 
0 0 0 
0 0 0 
0 0 0 
0 0 0 
0 0 0 
0 0 0 
0 0 0 
0 0 0 
0 0 0 
0 0 0 
0 0 0 
0 0 0 
0 0 0 
0 0 0 
0 0 0 
0 0 0 
0 0 0 
0 0 0 
0 0 0 
0 0 0 
0 0 0 
0 0 0 
0 0 0 
0 0 0 
0 0 0 
0 0 0 
0 0 0 
0 0 0 
0 0 0 
0 0 0 
0 0 0 
0 0 0 
0 0 0 
0 0 0 
0 0 0 
0 0 0 
0 0 0 
0 0 0 
0 0 0 
0 0 0 
0 0 0 
0 0 0 
0 0 0 
0 0 0 
0 0 0 
0 0 0 
0 0 0 
0 0 0 
0 0 0 
0 0 0 
0 0 0 
0 0 0 
0 0 0 
0 0 0 
0 0 0 
0 0 0 
0 0 0 
0 0 0 
0 0 0 
0 0 0 
0 0 0 
0 0 0 
0 0 0 
0 0 0 
0 0 0 
0 0 0 
0 0 0 
0 0 0 
0 0 0 
0 0 0 
0 0 0 
0 0 0 
0 0 0 
0 0 0 
0 0 0 
0 0 0 
0 0 0 
0 0 0 
0 0 0 
0 0 0 
0 0 0 
0 0 0 
0 0 0 
0 0 0 
0 0 0 
0 0 0 
0 0 0 
0 0 0 
0 0 0 
0 0 0 
0 0 0 
0 0 0 
0 0 0 
0 0 0 
0 0 0 
0 0 0 
0 0 0 
0 0 0 
0 0 0 
0 0 0 
0 0 0 
0 0 0 
0 0 0 
0 0 0 
0 0 0 
0 0 0 
0 0 0 
0 0 0 
0 0 0 
0 0 0 
0 0 0 
0 0 0 
0 0 0 
0 0 0 
0 0 0 
0 0 0 
0 0 0 
0 0 0 
0 0 0 
0 0 0 
0 0 0 
0 0 0 
0 0 0 
0 0 0 
0 0 0 
0 0 0 
0 0 0 
0 0 0 
0 0 0 
0 0 0 
0 0 0 
0 0 0 
0 0 0 
0 0 0 
0 0 0 
0 0 0 
0 0 0 
0 0 0 
0 0 0 
0 0 0 
0 0 0 
0 0 0 
0 0 0 
0 0 0 
0 0 0 
0 0 0 
0 0 0 
0 0 0 
0 0 0 
0 0 0 
0 0 0 
0 0 0 
0 0 0 
0 0 0 
0 0 0 
0 0 0 
0 0 0 
0 0 0 
0 0 0 
0 0 0 
0 0 0 
0 0 0 
0 0 0 
0 0 0 
0 0 0 
0 0 0 
0 0 0 
0 0 0 
0 0 0 
0 0 0 
0 0 0 
0 0 0 
0 0 0 
0 0 0 
0 0 0 
0 0 0 
0 0 0 
0 0 0 
0 0 0 
0 0 0 
0 0 0 
0 0 0 
0 0 0 
0 0 0 
0 0 0 
0 0 0 
0 0 0 
0 0 0 
0 0 0 
0 0 0 
0 0 0 
0 0 0 
0 0 0 
0 0 0 
0 0 0 
0 0 0 
0 0 0 
0 0 0 
0 0 0 
0 0 0 
0 0 0 
0 0 0 
0 0 0 
0 0 0 
0 0 0 
0 0 0 
0 0 0 
0 0 0 
0 0 0 
0 0 0 
0 0 0 
0 0 0 
0 0 0 
0 0 0 
0 0 0 
0 0 0 
0 0 0 
0 0 0 
0 0 0 
0 0 0 
0 0 0 
0 0 0 
0 0 0 
0 0 0 
0 0 0 
0 0 0 
0 0 0 
0 0 0 
0 0 0 
0 0 0 
0 0 0 
0 0 0 
0 0 0 
0 0 0 
0 0 0 
0 0 0 
0 0 0 
0 0 0 
0 0 0 
0 0 0 
0 0 0 
0 0 0 
0 0 0 
0 0 0 
0 0 0 
0 0 0 
0 0 0 
0 0 0 
0 0 0 
0 0 0 
0 0 0 
0 0 0 
0 0 0 
0 0 0 
0 0 0 
0 0 0 
0 0 0 
0 0 0 
0 0 0 
0 0 0 
0 0 0 
0 0 0 
0 0 0 
0 0 0 
0 0 0 
0 0 0 
0 0 0 
0 0 0 
0 0 0 
0 0 0 
0 0 0 
0 0 0 
0 0 0 
0 0 0 
0 0 0 
0 0 0 
0 0 0 
0 0 0 
0 0 0 
0 0 0 
0 0 0 
0 0 0 
0 0 0 
0 0 0 
0 0 0 
0 0 0 
0 0 0 
0 0 0 
0 0 0 
0 0 0 
0 0 0 
0 0 0 
0 0 0 
0 0 0 
0 0 0 
0 0 0 
0 0 0 
0 0 0 
0 0 0 
0 0 0 
0 0 0 
0 0 0 
0 0 0 
0 0 0 
0 0 0 
0 0 0 
0 0 0 
0 0 0 
0 0 0 
0 0 0 
0 0 0 
0 0 0 
0 0 0 
0 0 0 
0 0 0 
0 0 0 
0 0 0 
0 0 0 
0 0 0 
0 0 0 
0 0 0 
0 0 0 
0 0 0 
0 0 0 
0 0 0 
0 0 0 
0 0 0 
0 0 0 
0 0 0 
0 0 0 
0 0 0 
0 0 0 
0 0 0 
0 0 0 
0 0 0 
0 0 0 
0 0 0 
0 0 0 
0 0 0 
0 0 0 
0 0 0 
0 0 0 
0 0 0 
0 0 0 
0 0 0 
0 0 0 
0 0 0 
0 0 0 
0 0 0 
0 0 0 
0 0 0 
0 0 0 
0 0 0 
0 0 0 
0 0 0 
0 0 0 
0 0 0 
0 0 0 
0 0 0 
0 0 0 
0 0 0 
0 0 0 
0 0 0 
0 0 0 
0 0 0 
0 0 0 
0 0 0 
0 0 0 
0 0 0 
0 0 0 
0 0 0 
0 0 0 
0 0 0 
0 0 0 
0 0 0 
0 0 0 
0 0 0 
0 0 0 
0 0 0 
0 0 0 
0 0 0 
0 0 0 
0 0 0 
0 0 0 
0 0 0 
0 0 0 
0 0 0 
0 0 0 
0 0 0 
0 0 0 
0 0 0 
0 0 0 
0 0 0 
0 0 0 
0 0 0 
0 0 0 
0 0 0 
0 0 0 
0 0 0 
0 0 0 
0 0 0 
0 0 0 
0 0 0 
0 0 0 
0 0 0 
0 0 0 
0 0 0 
0 0 0 
0 0 0 
0 0 0 
0 0 0 
0 0 0 
0 0 0 
0 0 0 
0 0 0 
0 0 0 
0 0 0 
0 0 0 
0 0 0 
0 0 0 
0 0 0 
0 0 0 
0 0 0 
0 0 0 
0 0 0 
0 0 0 
0 0 0 
0 0 0 
0 0 0 
0 0 0 
0 0 0 
0 0 0 
0 0 0 
0 0 0 
0 0 0 
0 0 0 
0 0 0 
0 0 0 
0 0 0 
0 0 0 
0 0 0 
0 0 0 
0 0 0 
0 0 0 
0 0 0 
0 0 0 
0 0 0 
0 0 0 
0 0 0 
0 0 0 
0 0 0 
0 0 0 
0 0 0 
0 0 0 
0 0 0 
0 0 0 
0 0 0 
0 0 0 
0 0 0 
0 0 0 
0 0 0 
0 0 0 
0 0 0 
0 0 0 
0 0 0 
0 0 0 
0 0 0 
0 0 0 
0 0 0 
0 0 0 
0 0 0 
0 0 0 
0 0 0 
0 0 0 
0 0 0 
0 0 0 
0 0 0 
0 0 0 
0 0 0 
0 0 0 
0 0 0 
0 0 0 
0 0 0 
0 0 0 
0 0 0 
0 0 0 
0 0 0 
0 0 0 
0 0 0 
0 0 0 
0 0 0 
0 0 0 
0 0 0 
0 0 0 
0 0 0 
0 0 0 
0 0 0 
0 0 0 
0 0 0 
0 0 0 
0 0 0 
0 0 0 
0 0 0 
0 0 0 
0 0 0 
0 0 0 
0 0 0 
0 0 0 
0 0 0 
0 0 0 
0 0 0 
0 0 0 
0 0 0 
0 0 0 
0 0 0 
0 0 0 
0 0 0 
0 0 0 
0 0 0 
0 0 0 
0 0 0 
0 0 0 
0 0 0 
0 0 0 
0 0 0 
0 0 0 
0 0 0 
0 0 0 
0 0 0 
0 0 0 
0 0 0 
0 0 0 
0 0 0 
0 0 0 
0 0 0 
0 0 0 
0 0 0 
0 0 0 
0 0 0 
0 0 0 
0 0 0 
0 0 0 
0 0 0 
0 0 0 
0 0 0 
0 0 0 
0 0 0 
0 0 0 
0 0 0 
0 0 0 
0 0 0 
0 0 0 
0 0 0 
0 0 0 
0 0 0 
0 0 0 
0 0 0 
0 0 0 
0 0 0 
0 0 0 
0 0 0 
0 0 0 
0 0 0 
0 0 0 
0 0 0 
0 0 0 
0 0 0 
0 0 0 
0 0 0 
0 0 0 
0 0 0 
0 0 0 
0 0 0 
0 0 0 
0 0 0 
0 0 0 
0 0 0 
0 0 0 
0 0 0 
0 0 0 
0 0 0 
0 0 0 
0 0 0 
0 0 0 
0 0 0 
0 0 0 
0 0 0 
0 0 0 
0 0 0 
0 0 0 
0 0 0 
0 0 0 
0 0 0 
0 0 0 
0 0 0 
0 0 0 
0 0 0 
0 0 0 
0 0 0 
0 0 0 
0 0 0 
0 0 0 
0 0 0 
0 0 0 
0 0 0 
0 0 0 
0 0 0 
0 0 0 
0 0 0 
0 0 0 
0 0 0 
0 0 0 
0 0 0 
0 0 0 
0 0 0 
0 0 0 
0 0 0 
0 0 0 
0 0 0 
0 0 0 
0 0 0 
0 0 0 
0 0 0 
0 0 0 
0 0 0 
0 0 0 
0 0 0 
0 0 0 
0 0 0 
0 0 0 
0 0 0 
0 0 0 
0 0 0 
0 0 0 
0 0 0 
0 0 0 
0 0 0 
0 0 0 
0 0 0 
0 0 0 
0 0 0 
0 0 0 
0 0 0 
0 0 0 
0 0 0 
0 0 0 
0 0 0 
0 0 0 
0 0 0 
0 0 0 
0 0 0 
0 0 0 
0 0 0 
0 0 0 
0 0 0 
0 0 0 
0 0 0 
0 0 0 
0 0 0 
0 0 0 
0 0 0 
0 0 0 
0 0 0 
0 0 0 
0 0 0 
0 0 0 
0 0 0 
0 0 0 
0 0 0 
0 0 0 
0 0 0 
0 0 0 
0 0 0 
0 0 0 
0 0 0 
0 0 0 
0 0 0 
0 0 0 
0 0 0 
0 0 0 
0 0 0 
0 0 0 
0 0 0 
0 0 0 
0 0 0 
0 0 0 
0 0 0 
0 0 0 
0 0 0 
0 0 0 
0 0 0 
0 0 0 
0 0 0 
0 0 0 
0 0 0 
0 0 0 
0 0 0 
0 0 0 
0 0 0 
0 0 0 
0 0 0 
0 0 0 
0 0 0 
0 0 0 
0 0 0 
0 0 0 
0 0 0 
0 0 0 
0 0 0 
0 0 0 
0 0 0 
0 0 0 
0 0 0 
0 0 0 
0 0 0 
0 0 0 
0 0 0 
0 0 0 
0 0 0 
0 0 0 
0 0 0 
0 0 0 
0 0 0 
0 0 0 
0 0 0 
0 0 0 
0 0 0 
0 0 0 
0 0 0 
0 0 0 
0 0 0 
0 0 0 
0 0 0 
0 0 0 
0 0 0 
0 0 0 
0 0 0 
0 0 0 
0 0 0 
0 0 0 
0 0 0 
0 0 0 
0 0 0 
0 0 0 
0 0 0 
0 0 0 
0 0 0 
0 0 0 
0 0 0 
0 0 0 
0 0 0 
0 0 0 
0 0 0 
0 0 0 
0 0 0 
0 0 0 
0 0 0 
0 0 0 
0 0 0 
0 0 0 
0 0 0 
0 0 0 
0 0 0 
0 0 0 
0 0 0 
0 0 0 
0 0 0 
0 0 0 
0 0 0 
0 0 0 
0 0 0 
0 0 0 
0 0 0 
0 0 0 
0 0 0 
0 0 0 
0 0 0 
0 0 0 
0 0 0 
0 0 0 
0 0 0 
0 0 0 
0 0 0 
0 0 0 
0 0 0 
0 0 0 
0 0 0 
0 0 0 
0 0 0 
0 0 0 
0 0 0 
0 0 0 
0 0 0 
0 0 0 
0 0 0 
0 0 0 
0 0 0 
0 0 0 
0 0 0 
0 0 0 
0 0 0 
0 0 0 
0 0 0 
0 0 0 
0 0 0 
0 0 0 
0 0 0 
0 0 0 
0 0 0 
0 0 0 
0 0 0 
0 0 0 
0 0 0 
0 0 0 
0 0 0 
0 0 0 
0 0 0 
0 0 0 
0 0 0 
0 0 0 
0 0 0 
0 0 0 
0 0 0 
0 0 0 
0 0 0 
0 0 0 
0 0 0 
0 0 0 
0 0 0 
0 0 0 
0 0 0 
0 0 0 
0 0 0 
0 0 0 
0 0 0 
0 0 0 
0 0 0 
0 0 0 
0 0 0 
0 0 0 
0 0 0 
0 0 0 
0 0 0 
0 0 0 
0 0 0 
0 0 0 
0 0 0 
0 0 0 
0 0 0 
0 0 0 
0 0 0 
0 0 0 
0 0 0 
0 0 0 
0 0 0 
0 0 0 
0 0 0 
0 0 0 
0 0 0 
0 0 0 
0 0 0 
0 0 0 
0 0 0 
0 0 0 
0 0 0 
0 0 0 
0 0 0 
0 0 0 
0 0 0 
0 0 0 
0 0 0 
0 0 0 
0 0 0 
0 0 0 
0 0 0 
0 0 0 
0 0 0 
0 0 0 
0 0 0 
0 0 0 
0 0 0 
0 0 0 
0 0 0 
0 0 0 
0 0 0 
0 0 0 
0 0 0 
0 0 0 
0 0 0 
0 0 0 
0 0 0 
0 0 0 
0 0 0 
0 0 0 
0 0 0 
0 0 0 
0 0 0 
0 0 0 
0 0 0 
0 0 0 
0 0 0 
0 0 0 
0 0 0 
0 0 0 
0 0 0 
0 0 0 
0 0 0 
0 0 0 
0 0 0 
0 0 0 
0 0 0 
0 0 0 
0 0 0 
0 0 0 
0 0 0 
0 0 0 
0 0 0 
0 0 0 
0 0 0 
0 0 0 
0 0 0 
0 0 0 
0 0 0 
0 0 0 
0 0 0 
0 0 0 
0 0 0 
0 0 0 
0 0 0 
0 0 0 
0 0 0 
0 0 0 
0 0 0 
0 0 0 
0 0 0 
0 0 0 
0 0 0 
0 0 0 
0 0 0 
0 0 0 
0 0 0 
0 0 0 
0 0 0 
0 0 0 
0 0 0 
0 0 0 
0 0 0 
0 0 0 
0 0 0 
0 0 0 
0 0 0 
0 0 0 
0 0 0 
0 0 0 
0 0 0 
0 0 0 
0 0 0 
0 0 0 
0 0 0 
0 0 0 
0 0 0 
0 0 0 
0 0 0 
0 0 0 
0 0 0 
0 0 0 
0 0 0 
0 0 0 
0 0 0 
0 0 0 
0 0 0 
0 0 0 
0 0 0 
0 0 0 
0 0 0 
0 0 0 
0 0 0 
0 0 0 
0 0 0 
0 0 0 
0 0 0 
0 0 0 
0 0 0 
0 0 0 
0 0 0 
0 0 0 
0 0 0 
0 0 0 
0 0 0 
0 0 0 
0 0 0 
0 0 0 
0 0 0 
0 0 0 
0 0 0 
0 0 0 
0 0 0 
0 0 0 
0 0 0 
0 0 0 
0 0 0 
0 0 0 
0 0 0 
0 0 0 
0 0 0 
0 0 0 
0 0 0 
0 0 0 
0 0 0 
0 0 0 
0 0 0 
0 0 0 
0 0 0 
0 0 0 
0 0 0 
0 0 0 
0 0 0 
0 0 0 
0 0 0 
0 0 0 
0 0 0 
0 0 0 
0 0 0 
0 0 0 
0 0 0 
0 0 0 
0 0 0 
0 0 0 
0 0 0 
0 0 0 
0 0 0 
0 0 0 
0 0 0 
0 0 0 
0 0 0 
0 0 0 
0 0 0 
0 0 0 
0 0 0 
0 0 0 
0 0 0 
0 0 0 
0 0 0 
0 0 0 
0 0 0 
0 0 0 
0 0 0 
0 0 0 
0 0 0 
0 0 0 
0 0 0 
0 0 0 
0 0 0 
0 0 0 
0 0 0 
0 0 0 
0 0 0 
0 0 0 
0 0 0 
0 0 0 
0 0 0 
0 0 0 
0 0 0 
0 0 0 
0 0 0 
0 0 0 
0 0 0 
0 0 0 
0 0 0 
0 0 0 
0 0 0 
0 0 0 
0 0 0 
0 0 0 
0 0 0 
0 0 0 
0 0 0 
0 0 0 
0 0 0 
0 0 0 
0 0 0 
0 0 0 
0 0 0 
0 0 0 
0 0 0 
0 0 0 
0 0 0 
0 0 0 
0 0 0 
0 0 0 
0 0 0 
0 0 0 
0 0 0 
0 0 0 
0 0 0 
0 0 0 
0 0 0 
0 0 0 
0 0 0 
0 0 0 
0 0 0 
0 0 0 
0 0 0 
0 0 0 
0 0 0 
0 0 0 
0 0 0 
0 0 0 
0 0 0 
0 0 0 
0 0 0 
0 0 0 
0 0 0 
0 0 0 
0 0 0 
0 0 0 
0 0 0 
0 0 0 
0 0 0 
0 0 0 
0 0 0 
0 0 0 
0 0 0 
0 0 0 
0 0 0 
0 0 0 
0 0 0 
0 0 0 
0 0 0 
0 0 0 
0 0 0 
0 0 0 
0 0 0 
0 0 0 
0 0 0 
0 0 0 
0 0 0 
0 0 0 
0 0 0 
0 0 0 
0 0 0 
0 0 0 
0 0 0 
0 0 0 
0 0 0 
0 0 0 
0 0 0 
0 0 0 
0 0 0 
0 0 0 
0 0 0 
0 0 0 
0 0 0 
0 0 0 
0 0 0 
0 0 0 
0 0 0 
0 0 0 
0 0 0 
0 0 0 
0 0 0 
0 0 0 
0 0 0 
0 0 0 
0 0 0 
0 0 0 
0 0 0 
0 0 0 
0 0 0 
0 0 0 
0 0 0 
0 0 0 
0 0 0 
0 0 0 
0 0 0 
0 0 0 
0 0 0 
0 0 0 
0 0 0 
0 0 0 
0 0 0 
0 0 0 
0 0 0 
0 0 0 
0 0 0 
0 0 0 
0 0 0 
0 0 0 
0 0 0 
0 0 0 
0 0 0 
0 0 0 
0 0 0 
0 0 0 
0 0 0 
0 0 0 
0 0 0 
0 0 0 
0 0 0 
0 0 0 
0 0 0 
0 0 0 
0 0 0 
0 0 0 
0 0 0 
0 0 0 
0 0 0 
0 0 0 
0 0 0 
0 0 0 
0 0 0 
0 0 0 
0 0 0 
0 0 0 
0 0 0 
0 0 0 
0 0 0 
0 0 0 
0 0 0 
0 0 0 
0 0 0 
0 0 0 
0 0 0 
0 0 0 
0 0 0 
0 0 0 
0 0 0 
0 0 0 
0 0 0 
0 0 0 
0 0 0 
0 0 0 
0 0 0 
0 0 0 
0 0 0 
0 0 0 
0 0 0 
0 0 0 
0 0 0 
0 0 0 
0 0 0 
0 0 0 
0 0 0 
0 0 0 
0 0 0 
0 0 0 
0 0 0 
0 0 0 
0 0 0 
0 0 0 
0 0 0 
0 0 0 
0 0 0 
0 0 0 
0 0 0 
0 0 0 
0 0 0 
0 0 0 
0 0 0 
0 0 0 
0 0 0 
0 0 0 
0 0 0 
0 0 0 
0 0 0 
0 0 0 
0 0 0 
0 0 0 
0 0 0 
0 0 0 
0 0 0 
0 0 0 
0 0 0 
0 0 0 
0 0 0 
0 0 0 
0 0 0 
0 0 0 
0 0 0 
0 0 0 
0 0 0 
0 0 0 
0 0 0 
0 0 0 
0 0 0 
0 0 0 
0 0 0 
0 0 0 
0 0 0 
0 0 0 
0 0 0 
0 0 0 
0 0 0 
0 0 0 
0 0 0 
0 0 0 
0 0 0 
0 0 0 
0 0 0 
0 0 0 
0 0 0 
0 0 0 
0 0 0 
0 0 0 
0 0 0 
0 0 0 
0 0 0 
0 0 0 
0 0 0 
0 0 0 
0 0 0 
0 0 0 
0 0 0 
0 0 0 
0 0 0 
0 0 0 
0 0 0 
0 0 0 
0 0 0 
0 0 0 
0 0 0 
0 0 0 
0 0 0 
0 0 0 
0 0 0 
0 0 0 
0 0 0 
0 0 0 
0 0 0 
0 0 0 
0 0 0 
0 0 0 
0 0 0 
0 0 0 
0 0 0 
0 0 0 
0 0 0 
0 0 0 
0 0 0 
0 0 0 
0 0 0 
0 0 0 
0 0 0 
0 0 0 
0 0 0 
0 0 0 
0 0 0 
0 0 0 
0 0 0 
0 0 0 
0 0 0 
0 0 0 
0 0 0 
0 0 0 
0 0 0 
0 0 0 
0 0 0 
0 0 0 
0 0 0 
0 0 0 
0 0 0 
0 0 0 
0 0 0 
0 0 0 
0 0 0 
0 0 0 
0 0 0 
0 0 0 
0 0 0 
0 0 0 
0 0 0 
0 0 0 
0 0 0 
0 0 0 
0 0 0 
0 0 0 
0 0 0 
0 0 0 
0 0 0 
0 0 0 
0 0 0 
0 0 0 
0 0 0 
0 0 0 
0 0 0 
0 0 0 
0 0 0 
0 0 0 
0 0 0 
0 0 0 
0 0 0 
0 0 0 
0 0 0 
0 0 0 
0 0 0 
0 0 0 
0 0 0 
0 0 0 
0 0 0 
0 0 0 
0 0 0 
0 0 0 
0 0 0 
0 0 0 
0 0 0 
0 0 0 
0 0 0 
0 0 0 
0 0 0 
0 0 0 
0 0 0 
0 0 0 
0 0 0 
0 0 0 
0 0 0 
0 0 0 
0 0 0 
0 0 0 
0 0 0 
0 0 0 
0 0 0 
0 0 0 
0 0 0 
0 0 0 
0 0 0 
0 0 0 
0 0 0 
0 0 0 
0 0 0 
0 0 0 
0 0 0 
0 0 0 
0 0 0 
0 0 0 
0 0 0 
0 0 0 
0 0 0 
0 0 0 
0 0 0 
0 0 0 
0 0 0 
0 0 0 
0 0 0 
0 0 0 
0 0 0 
0 0 0 
0 0 0 
0 0 0 
0 0 0 
0 0 0 
0 0 0 
0 0 0 
0 0 0 
0 0 0 
0 0 0 
0 0 0 
0 0 0 
0 0 0 
0 0 0 
0 0 0 
0 0 0 
0 0 0 
0 0 0 
0 0 0 
0 0 0 
0 0 0 
0 0 0 
0 0 0 
0 0 0 
0 0 0 
0 0 0 
0 0 0 
0 0 0 
0 0 0 
0 0 0 
0 0 0 
0 0 0 
0 0 0 
0 0 0 
0 0 0 
0 0 0 
0 0 0 
0 0 0 
0 0 0 
0 0 0 
0 0 0 
0 0 0 
0 0 0 
0 0 0 
0 0 0 
0 0 0 
0 0 0 
0 0 0 
0 0 0 
0 0 0 
0 0 0 
0 0 0 
0 0 0 
0 0 0 
0 0 0 
0 0 0 
0 0 0 
0 0 0 
0 0 0 
0 0 0 
0 0 0 
0 0 0 
0 0 0 
0 0 0 
0 0 0 
0 0 0 
0 0 0 
0 0 0 
0 0 0 
0 0 0 
0 0 0 
0 0 0 
0 0 0 
0 0 0 
0 0 0 
0 0 0 
0 0 0 
0 0 0 
0 0 0 
0 0 0 
0 0 0 
0 0 0 
0 0 0 
0 0 0 
0 0 0 
0 0 0 
0 0 0 
0 0 0 
0 0 0 
0 0 0 
0 0 0 
0 0 0 
0 0 0 
0 0 0 
0 0 0 
0 0 0 
0 0 0 
0 0 0 
0 0 0 
0 0 0 
0 0 0 
0 0 0 
0 0 0 
0 0 0 
0 0 0 
0 0 0 
0 0 0 
0 0 0 
0 0 0 
0 0 0 
0 0 0 
0 0 0 
0 0 0 
0 0 0 
0 0 0 
0 0 0 
0 0 0 
0 0 0 
0 0 0 
0 0 0 
0 0 0 
0 0 0 
0 0 0 
0 0 0 
0 0 0 
0 0 0 
0 0 0 
0 0 0 
0 0 0 
0 0 0 
0 0 0 
0 0 0 
0 0 0 
0 0 0 
0 0 0 
0 0 0 
0 0 0 
0 0 0 
0 0 0 
0 0 0 
0 0 0 
0 0 0 
0 0 0 
0 0 0 
0 0 0 
0 0 0 
0 0 0 
0 0 0 
0 0 0 
0 0 0 
0 0 0 
0 0 0 
0 0 0 
0 0 0 
0 0 0 
0 0 0 
0 0 0 
0 0 0 
0 0 0 
0 0 0 
0 0 0 
0 0 0 
0 0 0 
0 0 0 
0 0 0 
0 0 0 
0 0 0 
0 0 0 
0 0 0 
0 0 0 
0 0 0 
0 0 0 
0 0 0 
0 0 0 
0 0 0 
0 0 0 
0 0 0 
0 0 0 
0 0 0 
0 0 0 
0 0 0 
0 0 0 
0 0 0 
0 0 0 
0 0 0 
0 0 0 
0 0 0 
0 0 0 
0 0 0 
0 0 0 
0 0 0 
0 0 0 
0 0 0 
0 0 0 
0 0 0 
0 0 0 
0 0 0 
0 0 0 
0 0 0 
0 0 0 
0 0 0 
0 0 0 
0 0 0 
0 0 0 
0 0 0 
0 0 0 
0 0 0 
0 0 0 
0 0 0 
0 0 0 
0 0 0 
0 0 0 
0 0 0 
0 0 0 
0 0 0 
0 0 0 
0 0 0 
0 0 0 
0 0 0 
0 0 0 
0 0 0 
0 0 0 
0 0 0 
0 0 0 
0 0 0 
0 0 0 
0 0 0 
0 0 0 
0 0 0 
0 0 0 
0 0 0 
0 0 0 
0 0 0 
0 0 0 
0 0 0 
0 0 0 
0 0 0 
0 0 0 
0 0 0 
0 0 0 
0 0 0 
0 0 0 
0 0 0 
0 0 0 
0 0 0 
0 0 0 
0 0 0 
0 0 0 
0 0 0 
0 0 0 
0 0 0 
0 0 0 
0 0 0 
0 0 0 
0 0 0 
0 0 0 
0 0 0 
0 0 0 
0 0 0 
0 0 0 
0 0 0 
0 0 0 
0 0 0 
0 0 0 
0 0 0 
0 0 0 
0 0 0 
0 0 0 
0 0 0 
0 0 0 
0 0 0 
0 0 0 
0 0 0 
0 0 0 
0 0 0 
0 0 0 
0 0 0 
0 0 0 
0 0 0 
0 0 0 
0 0 0 
0 0 0 
0 0 0 
0 0 0 
0 0 0 
0 0 0 
0 0 0 
0 0 0 
0 0 0 
0 0 0 
0 0 0 
0 0 0 
0 0 0 
0 0 0 
0 0 0 
0 0 0 
0 0 0 
0 0 0 
0 0 0 
0 0 0 
0 0 0 
0 0 0 
0 0 0 
0 0 0 
0 0 0 
0 0 0 
0 0 0 
0 0 0 
0 0 0 
0 0 0 
0 0 0 
0 0 0 
0 0 0 
0 0 0 
0 0 0 
0 0 0 
0 0 0 
0 0 0 
0 0 0 
0 0 0 
0 0 0 
0 0 0 
0 0 0 
0 0 0 
0 0 0 
0 0 0 
0 0 0 
0 0 0 
0 0 0 
0 0 0 
0 0 0 
0 0 0 
0 0 0 
0 0 0 
0 0 0 
0 0 0 
0 0 0 
0 0 0 
0 0 0 
0 0 0 
0 0 0 
0 0 0 
0 0 0 
0 0 0 
0 0 0 
0 0 0 
0 0 0 
0 0 0 
0 0 0 
0 0 0 
0 0 0 
0 0 0 
0 0 0 
0 0 0 
0 0 0 
0 0 0 
0 0 0 
0 0 0 
0 0 0 
0 0 0 
0 0 0 
0 0 0 
0 0 0 
0 0 0 
0 0 0 
0 0 0 
0 0 0 
0 0 0 
0 0 0 
0 0 0 
0 0 0 
0 0 0 
0 0 0 
0 0 0 
0 0 0 
0 0 0 
0 0 0 
0 0 0 
0 0 0 
0 0 0 
0 0 0 
0 0 0 
0 0 0 
0 0 0 
0 0 0 
0 0 0 
0 0 0 
0 0 0 
0 0 0 
0 0 0 
0 0 0 
0 0 0 
0 0 0 
0 0 0 
0 0 0 
0 0 0 
0 0 0 
0 0 0 
0 0 0 
0 0 0 
0 0 0 
0 0 0 
0 0 0 
0 0 0 
0 0 0 
0 0 0 
0 0 0 
0 0 0 
0 0 0 
0 0 0 
0 0 0 
0 0 0 
0 0 0 
0 0 0 
0 0 0 
0 0 0 
0 0 0 
0 0 0 
0 0 0 
0 0 0 
0 0 0 
0 0 0 
0 0 0 
0 0 0 
0 0 0 
0 0 0 
0 0 0 
0 0 0 
0 0 0 
0 0 0 
0 0 0 
0 0 0 
0 0 0 
0 0 0 
0 0 0 
0 0 0 
0 0 0 
0 0 0 
0 0 0 
0 0 0 
0 0 0 
0 0 0 
0 0 0 
0 0 0 
0 0 0 
0 0 0 
0 0 0 
0 0 0 
0 0 0 
0 0 0 
0 0 0 
0 0 0 
0 0 0 
0 0 0 
0 0 0 
0 0 0 
0 0 0 
0 0 0 
0 0 0 
0 0 0 
0 0 0 
0 0 0 
0 0 0 
0 0 0 
0 0 0 
0 0 0 
0 0 0 
0 0 0 
0 0 0 
0 0 0 
0 0 0 
0 0 0 
0 0 0 
0 0 0 
0 0 0 
0 0 0 
0 0 0 
0 0 0 
0 0 0 
0 0 0 
0 0 0 
0 0 0 
0 0 0 
0 0 0 
0 0 0 
0 0 0 
0 0 0 
0 0 0 
0 0 0 
0 0 0 
0 0 0 
0 0 0 
0 0 0 
0 0 0 
0 0 0 
0 0 0 
0 0 0 
0 0 0 
0 0 0 
0 0 0 
0 0 0 
0 0 0 
0 0 0 
0 0 0 
0 0 0 
0 0 0 
0 0 0 
0 0 0 
0 0 0 
0 0 0 
0 0 0 
0 0 0 
0 0 0 
0 0 0 
0 0 0 
0 0 0 
0 0 0 
0 0 0 
0 0 0 
0 0 0 
0 0 0 
0 0 0 
0 0 0 
0 0 0 
0 0 0 
0 0 0 
0 0 0 
0 0 0 
0 0 0 
0 0 0 
0 0 0 
0 0 0 
0 0 0 
0 0 0 
0 0 0 
0 0 0 
0 0 0 
0 0 0 
0 0 0 
0 0 0 
0 0 0 
0 0 0 
0 0 0 
0 0 0 
0 0 0 
0 0 0 
0 0 0 
0 0 0 
0 0 0 
0 0 0 
0 0 0 
0 0 0 
0 0 0 
0 0 0 
0 0 0 
0 0 0 
0 0 0 
0 0 0 
0 0 0 
0 0 0 
0 0 0 
0 0 0 
0 0 0 
0 0 0 
0 0 0 
0 0 0 
0 0 0 
0 0 0 
0 0 0 
0 0 0 
0 0 0 
0 0 0 
0 0 0 
0 0 0 
0 0 0 
0 0 0 
0 0 0 
0 0 0 
0 0 0 
0 0 0 
0 0 0 
0 0 0 
0 0 0 
0 0 0 
0 0 0 
0 0 0 
0 0 0 
0 0 0 
0 0 0 
0 0 0 
0 0 0 
0 0 0 
0 0 0 
0 0 0 
0 0 0 
0 0 0 
0 0 0 
0 0 0 
0 0 0 
0 0 0 
0 0 0 
0 0 0 
0 0 0 
0 0 0 
0 0 0 
0 0 0 
0 0 0 
0 0 0 
0 0 0 
0 0 0 
0 0 0 
0 0 0 
0 0 0 
0 0 0 
0 0 0 
0 0 0 
0 0 0 
0 0 0 
0 0 0 
0 0 0 
0 0 0 
0 0 0 
0 0 0 
0 0 0 
0 0 0 
0 0 0 
0 0 0 
0 0 0 
0 0 0 
0 0 0 
0 0 0 
0 0 0 
0 0 0 
0 0 0 
0 0 0 
0 0 0 
0 0 0 
0 0 0 
0 0 0 
0 0 0 
0 0 0 
0 0 0 
0 0 0 
0 0 0 
0 0 0 
0 0 0 
0 0 0 
0 0 0 
0 0 0 
0 0 0 
0 0 0 
0 0 0 
0 0 0 
0 0 0 
0 0 0 
0 0 0 
0 0 0 
0 0 0 
0 0 0 
0 0 0 
0 0 0 
0 0 0 
0 0 0 
0 0 0 
0 0 0 
0 0 0 
0 0 0 
0 0 0 
0 0 0 
0 0 0 
0 0 0 
0 0 0 
0 0 0 
0 0 0 
0 0 0 
0 0 0 
0 0 0 
0 0 0 
0 0 0 
0 0 0 
0 0 0 
0 0 0 
0 0 0 
0 0 0 
0 0 0 
0 0 0 
0 0 0 
0 0 0 
0 0 0 
0 0 0 
0 0 0 
0 0 0 
0 0 0 
0 0 0 
0 0 0 
0 0 0 
0 0 0 
0 0 0 
0 0 0 
0 0 0 
0 0 0 
0 0 0 
0 0 0 
0 0 0 
0 0 0 
0 0 0 
0 0 0 
0 0 0 
0 0 0 
0 0 0 
0 0 0 
0 0 0 
0 0 0 
0 0 0 
0 0 0 
0 0 0 
0 0 0 
0 0 0 
0 0 0 
0 0 0 
0 0 0 
0 0 0 
0 0 0 
0 0 0 
0 0 0 
0 0 0 
0 0 0 
0 0 0 
0 0 0 
0 0 0 
0 0 0 
0 0 0 
0 0 0 
0 0 0 
0 0 0 
0 0 0 
0 0 0 
0 0 0 
0 0 0 
0 0 0 
0 0 0 
0 0 0 
0 0 0 
0 0 0 
0 0 0 
0 0 0 
0 0 0 
0 0 0 
0 0 0 
0 0 0 
0 0 0 
0 0 0 
0 0 0 
0 0 0 
0 0 0 
0 0 0 
0 0 0 
0 0 0 
0 0 0 
0 0 0 
0 0 0 
0 0 0 
0 0 0 
0 0 0 
0 0 0 
0 0 0 
0 0 0 
0 0 0 
0 0 0 
0 0 0 
0 0 0 
0 0 0 
0 0 0 
0 0 0 
0 0 0 
0 0 0 
0 0 0 
0 0 0 
0 0 0 
0 0 0 
0 0 0 
0 0 0 
0 0 0 
0 0 0 
0 0 0 
0 0 0 
0 0 0 
0 0 0 
0 0 0 
0 0 0 
0 0 0 
0 0 0 
0 0 0 
0 0 0 
0 0 0 
0 0 0 
0 0 0 
0 0 0 
0 0 0 
0 0 0 
0 0 0 
0 0 0 
0 0 0 
0 0 0 
0 0 0 
0 0 0 
0 0 0 
0 0 0 
0 0 0 
0 0 0 
0 0 0 
0 0 0 
0 0 0 
0 0 0 
0 0 0 
0 0 0 
0 0 0 
0 0 0 
0 0 0 
0 0 0 
0 0 0 
0 0 0 
0 0 0 
0 0 0 
0 0 0 
0 0 0 
0 0 0 
0 0 0 
0 0 0 
0 0 0 
0 0 0 
0 0 0 
0 0 0 
0 0 0 
0 0 0 
0 0 0 
0 0 0 
0 0 0 
0 0 0 
0 0 0 
0 0 0 
0 0 0 
0 0 0 
0 0 0 
0 0 0 
0 0 0 
0 0 0 
0 0 0 
0 0 0 
0 0 0 
0 0 0 
0 0 0 
0 0 0 
0 0 0 
0 0 0 
0 0 0 
0 0 0 
0 0 0 
0 0 0 
0 0 0 
0 0 0 
0 0 0 
0 0 0 
0 0 0 
0 0 0 
0 0 0 
0 0 0 
0 0 0 
0 0 0 
0 0 0 
0 0 0 
0 0 0 
0 0 0 
0 0 0 
0 0 0 
0 0 0 
0 0 0 
0 0 0 
0 0 0 
0 0 0 
0 0 0 
0 0 0 
0 0 0 
0 0 0 
0 0 0 
0 0 0 
0 0 0 
0 0 0 
0 0 0 
0 0 0 
0 0 0 
0 0 0 
0 0 0 
0 0 0 
0 0 0 
0 0 0 
0 0 0 
0 0 0 
0 0 0 
0 0 0 
0 0 0 
0 0 0 
0 0 0 
0 0 0 
0 0 0 
0 0 0 
0 0 0 
0 0 0 
0 0 0 
0 0 0 
0 0 0 
0 0 0 
0 0 0 
0 0 0 
0 0 0 
0 0 0 
0 0 0 
0 0 0 
0 0 0 
0 0 0 
0 0 0 
0 0 0 
0 0 0 
0 0 0 
0 0 0 
0 0 0 
0 0 0 
0 0 0 
0 0 0 
0 0 0 
0 0 0 
0 0 0 
0 0 0 
0 0 0 
0 0 0 
0 0 0 
0 0 0 
0 0 0 
0 0 0 
0 0 0 
0 0 0 
0 0 0 
0 0 0 
0 0 0 
0 0 0 
0 0 0 
0 0 0 
0 0 0 
0 0 0 
0 0 0 
0 0 0 
0 0 0 
0 0 0 
0 0 0 
0 0 0 
0 0 0 
0 0 0 
0 0 0 
0 0 0 
0 0 0 
0 0 0 
0 0 0 
0 0 0 
0 0 0 
0 0 0 
0 0 0 
0 0 0 
0 0 0 
0 0 0 
0 0 0 
0 0 0 
0 0 0 
0 0 0 
0 0 0 
0 0 0 
0 0 0 
0 0 0 
0 0 0 
0 0 0 
0 0 0 
0 0 0 
0 0 0 
0 0 0 
0 0 0 
0 0 0 
0 0 0 
0 0 0 
0 0 0 
0 0 0 
0 0 0 
0 0 0 
0 0 0 
0 0 0 
0 0 0 
0 0 0 
0 0 0 
0 0 0 
0 0 0 
0 0 0 
0 0 0 
0 0 0 
0 0 0 
0 0 0 
0 0 0 
0 0 0 
0 0 0 
0 0 0 
0 0 0 
0 0 0 
0 0 0 
0 0 0 
0 0 0 
0 0 0 
0 0 0 
0 0 0 
0 0 0 
0 0 0 
0 0 0 
0 0 0 
0 0 0 
0 0 0 
0 0 0 
0 0 0 
0 0 0 
0 0 0 
0 0 0 
0 0 0 
0 0 0 
0 0 0 
0 0 0 
0 0 0 
0 0 0 
0 0 0 
0 0 0 
0 0 0 
0 0 0 
0 0 0 
0 0 0 
0 0 0 
0 0 0 
0 0 0 
0 0 0 
0 0 0 
0 0 0 
0 0 0 
0 0 0 
0 0 0 
0 0 0 
0 0 0 
0 0 0 
0 0 0 
0 0 0 
0 0 0 
0 0 0 
0 0 0 
0 0 0 
0 0 0 
0 0 0 
0 0 0 
0 0 0 
0 0 0 
0 0 0 
0 0 0 
0 0 0 
0 0 0 
0 0 0 
0 0 0 
0 0 0 
0 0 0 
0 0 0 
0 0 0 
0 0 0 
0 0 0 
0 0 0 
0 0 0 
0 0 0 
0 0 0 
0 0 0 
0 0 0 
0 0 0 
0 0 0 
0 0 0 
0 0 0 
0 0 0 
0 0 0 
0 0 0 
0 0 0 
0 0 0 
0 0 0 
0 0 0 
0 0 0 
0 0 0 
0 0 0 
0 0 0 
0 0 0 
0 0 0 
0 0 0 
0 0 0 
0 0 0 
0 0 0 
0 0 0 
0 0 0 
0 0 0 
0 0 0 
0 0 0 
0 0 0 
0 0 0 
0 0 0 
0 0 0 
0 0 0 
0 0 0 
0 0 0 
0 0 0 
0 0 0 
0 0 0 
0 0 0 
0 0 0 
0 0 0 
0 0 0 
0 0 0 
0 0 0 
0 0 0 
0 0 0 
0 0 0 
0 0 0 
0 0 0 
0 0 0 
0 0 0 
0 0 0 
0 0 0 
0 0 0 
0 0 0 
0 0 0 
0 0 0 
0 0 0 
0 0 0 
0 0 0 
0 0 0 
0 0 0 
0 0 0 
0 0 0 
0 0 0 
0 0 0 
0 0 0 
0 0 0 
0 0 0 
0 0 0 
0 0 0 
0 0 0 
0 0 0 
0 0 0 
0 0 0 
0 0 0 
0 0 0 
0 0 0 
0 0 0 
0 0 0 
0 0 0 
0 0 0 
0 0 0 
0 0 0 
0 0 0 
0 0 0 
0 0 0 
0 0 0 
0 0 0 
0 0 0 
0 0 0 
0 0 0 
0 0 0 
0 0 0 
0 0 0 
0 0 0 
0 0 0 
0 0 0 
0 0 0 
0 0 0 
0 0 0 
0 0 0 
0 0 0 
0 0 0 
0 0 0 
0 0 0 
0 0 0 
0 0 0 
0 0 0 
0 0 0 
0 0 0 
0 0 0 
0 0 0 
0 0 0 
0 0 0 
0 0 0 
0 0 0 
0 0 0 
0 0 0 
0 0 0 
0 0 0 
0 0 0 
0 0 0 
0 0 0 
0 0 0 
0 0 0 
0 0 0 
0 0 0 
0 0 0 
0 0 0 
0 0 0 
0 0 0 
0 0 0 
0 0 0 
0 0 0 
0 0 0 
0 0 0 
0 0 0 
0 0 0 
0 0 0 
0 0 0 
0 0 0 
0 0 0 
0 0 0 
0 0 0 
0 0 0 
0 0 0 
0 0 0 
0 0 0 
0 0 0 
0 0 0 
0 0 0 
0 0 0 
0 0 0 
0 0 0 
0 0 0 
0 0 0 
0 0 0 
0 0 0 
0 0 0 
0 0 0 
0 0 0 
0 0 0 
0 0 0 
0 0 0 
0 0 0 
0 0 0 
0 0 0 
0 0 0 
0 0 0 
0 0 0 
0 0 0 
0 0 0 
0 0 0 
0 0 0 
0 0 0 
0 0 0 
0 0 0 
0 0 0 
0 0 0 
0 0 0 
0 0 0 
0 0 0 
0 0 0 
0 0 0 
0 0 0 
0 0 0 
0 0 0 
0 0 0 
0 0 0 
0 0 0 
0 0 0 
0 0 0 
0 0 0 
0 0 0 
0 0 0 
0 0 0 
0 0 0 
0 0 0 
0 0 0 
0 0 0 
0 0 0 
0 0 0 
0 0 0 
0 0 0 
0 0 0 
0 0 0 
0 0 0 
0 0 0 
0 0 0 
0 0 0 
0 0 0 
0 0 0 
0 0 0 
0 0 0 
0 0 0 
0 0 0 
0 0 0 
0 0 0 
0 0 0 
0 0 0 
0 0 0 
0 0 0 
0 0 0 
0 0 0 
0 0 0 
0 0 0 
0 0 0 
0 0 0 
0 0 0 
0 0 0 
0 0 0 
0 0 0 
0 0 0 
0 0 0 
0 0 0 
0 0 0 
0 0 0 
0 0 0 
0 0 0 
0 0 0 
0 0 0 
0 0 0 
0 0 0 
0 0 0 
0 0 0 
0 0 0 
0 0 0 
0 0 0 
0 0 0 
0 0 0 
0 0 0 
0 0 0 
0 0 0 
0 0 0 
0 0 0 
0 0 0 
0 0 0 
0 0 0 
0 0 0 
0 0 0 
0 0 0 
0 0 0 
0 0 0 
0 0 0 
0 0 0 
0 0 0 
0 0 0 
0 0 0 
0 0 0 
0 0 0 
0 0 0 
0 0 0 
0 0 0 
0 0 0 
0 0 0 
0 0 0 
0 0 0 
0 0 0 
0 0 0 
0 0 0 
0 0 0 
0 0 0 
0 0 0 
0 0 0 
0 0 0 
0 0 0 
0 0 0 
0 0 0 
0 0 0 
0 0 0 
0 0 0 
0 0 0 
0 0 0 
0 0 0 
0 0 0 
0 0 0 
0 0 0 
0 0 0 
0 0 0 
0 0 0 
0 0 0 
0 0 0 
0 0 0 
0 0 0 
0 0 0 
0 0 0 
0 0 0 
0 0 0 
0 0 0 
0 0 0 
0 0 0 
0 0 0 
0 0 0 
0 0 0 
0 0 0 
0 0 0 
0 0 0 
0 0 0 
0 0 0 
0 0 0 
0 0 0 
0 0 0 
0 0 0 
0 0 0 
0 0 0 
0 0 0 
0 0 0 
0 0 0 
0 0 0 
0 0 0 
0 0 0 
0 0 0 
0 0 0 
0 0 0 
0 0 0 
0 0 0 
0 0 0 
0 0 0 
0 0 0 
0 0 0 
0 0 0 
0 0 0 
0 0 0 
0 0 0 
0 0 0 
0 0 0 
0 0 0 
0 0 0 
0 0 0 
0 0 0 
0 0 0 
0 0 0 
0 0 0 
0 0 0 
0 0 0 
0 0 0 
0 0 0 
0 0 0 
0 0 0 
0 0 0 
0 0 0 
0 0 0 
0 0 0 
0 0 0 
0 0 0 
0 0 0 
0 0 0 
0 0 0 
0 0 0 
0 0 0 
0 0 0 
0 0 0 
0 0 0 
0 0 0 
0 0 0 
0 0 0 
0 0 0 
0 0 0 
0 0 0 
0 0 0 
0 0 0 
0 0 0 
0 0 0 
0 0 0 
0 0 0 
0 0 0 
0 0 0 
0 0 0 
0 0 0 
0 0 0 
0 0 0 
0 0 0 
0 0 0 
0 0 0 
0 0 0 
0 0 0 
0 0 0 
0 0 0 
0 0 0 
0 0 0 
0 0 0 
0 0 0 
0 0 0 
0 0 0 
0 0 0 
0 0 0 
0 0 0 
0 0 0 
0 0 0 
0 0 0 
0 0 0 
0 0 0 
0 0 0 
0 0 0 
0 0 0 
0 0 0 
0 0 0 
0 0 0 
0 0 0 
0 0 0 
0 0 0 
0 0 0 
0 0 0 
0 0 0 
0 0 0 
0 0 0 
0 0 0 
0 0 0 
0 0 0 
0 0 0 
0 0 0 
0 0 0 
0 0 0 
0 0 0 
0 0 0 
0 0 0 
0 0 0 
0 0 0 
0 0 0 
0 0 0 
0 0 0 
0 0 0 
0 0 0 
0 0 0 
0 0 0 
0 0 0 
0 0 0 
0 0 0 
0 0 0 
0 0 0 
0 0 0 
0 0 0 
0 0 0 
0 0 0 
0 0 0 
0 0 0 
0 0 0 
0 0 0 
0 0 0 
0 0 0 
0 0 0 
0 0 0 
0 0 0 
0 0 0 
0 0 0 
0 0 0 
0 0 0 
0 0 0 
0 0 0 
0 0 0 
0 0 0 
0 0 0 
0 0 0 
0 0 0 
0 0 0 
0 0 0 
0 0 0 
0 0 0 
0 0 0 
0 0 0 
0 0 0 
0 0 0 
0 0 0 
0 0 0 
0 0 0 
0 0 0 
0 0 0 
0 0 0 
0 0 0 
0 0 0 
0 0 0 
0 0 0 
0 0 0 
0 0 0 
0 0 0 
0 0 0 
0 0 0 
0 0 0 
0 0 0 
0 0 0 
0 0 0 
0 0 0 
0 0 0 
0 0 0 
0 0 0 
0 0 0 
0 0 0 
0 0 0 
0 0 0 
0 0 0 
0 0 0 
0 0 0 
0 0 0 
0 0 0 
0 0 0 
0 0 0 
0 0 0 
0 0 0 
0 0 0 
0 0 0 
0 0 0 
0 0 0 
0 0 0 
0 0 0 
0 0 0 
0 0 0 
0 0 0 
0 0 0 
0 0 0 
0 0 0 
0 0 0 
0 0 0 
0 0 0 
0 0 0 
0 0 0 
0 0 0 
0 0 0 
0 0 0 
0 0 0 
0 0 0 
0 0 0 
0 0 0 
0 0 0 
0 0 0 
0 0 0 
0 0 0 
0 0 0 
0 0 0 
0 0 0 
0 0 0 
0 0 0 
0 0 0 
0 0 0 
0 0 0 
0 0 0 
0 0 0 
0 0 0 
0 0 0 
0 0 0 
0 0 0 
0 0 0 
0 0 0 
0 0 0 
0 0 0 
0 0 0 
0 0 0 
0 0 0 
0 0 0 
0 0 0 
0 0 0 
0 0 0 
0 0 0 
0 0 0 
0 0 0 
0 0 0 
0 0 0 
0 0 0 
0 0 0 
0 0 0 
0 0 0 
0 0 0 
0 0 0 
0 0 0 
0 0 0 
0 0 0 
0 0 0 
0 0 0 
0 0 0 
0 0 0 
0 0 0 
0 0 0 
0 0 0 
0 0 0 
0 0 0 
0 0 0 
0 0 0 
0 0 0 
0 0 0 
0 0 0 
0 0 0 
0 0 0 
0 0 0 
0 0 0 
0 0 0 
0 0 0 
0 0 0 
0 0 0 
0 0 0 
0 0 0 
0 0 0 
0 0 0 
0 0 0 
0 0 0 
0 0 0 
0 0 0 
0 0 0 
0 0 0 
0 0 0 
0 0 0 
0 0 0 
0 0 0 
0 0 0 
0 0 0 
0 0 0 
0 0 0 
0 0 0 
0 0 0 
0 0 0 
0 0 0 
0 0 0 
0 0 0 
0 0 0 
0 0 0 
0 0 0 
0 0 0 
0 0 0 
0 0 0 
0 0 0 
0 0 0 
0 0 0 
0 0 0 
0 0 0 
0 0 0 
0 0 0 
0 0 0 
0 0 0 
0 0 0 
0 0 0 
0 0 0 
0 0 0 
0 0 0 
0 0 0 
0 0 0 
0 0 0 
0 0 0 
0 0 0 
0 0 0 
0 0 0 
0 0 0 
0 0 0 
0 0 0 
0 0 0 
0 0 0 
0 0 0 
0 0 0 
0 0 0 
0 0 0 
0 0 0 
0 0 0 
0 0 0 
0 0 0 
0 0 0 
0 0 0 
0 0 0 
0 0 0 
0 0 0 
0 0 0 
0 0 0 
0 0 0 
0 0 0 
0 0 0 
0 0 0 
0 0 0 
0 0 0 
0 0 0 
0 0 0 
0 0 0 
0 0 0 
0 0 0 
0 0 0 
0 0 0 
0 0 0 
0 0 0 
0 0 0 
0 0 0 
0 0 0 
0 0 0 
0 0 0 
0 0 0 
0 0 0 
0 0 0 
0 0 0 
0 0 0 
0 0 0 
0 0 0 
0 0 0 
0 0 0 
0 0 0 
0 0 0 
0 0 0 
0 0 0 
0 0 0 
0 0 0 
0 0 0 
0 0 0 
0 0 0 
0 0 0 
0 0 0 
0 0 0 
0 0 0 
0 0 0 
0 0 0 
0 0 0 
0 0 0 
0 0 0 
0 0 0 
0 0 0 
0 0 0 
0 0 0 
0 0 0 
0 0 0 
0 0 0 
0 0 0 
0 0 0 
0 0 0 
0 0 0 
0 0 0 
0 0 0 
0 0 0 
0 0 0 
0 0 0 
0 0 0 
0 0 0 
0 0 0 
0 0 0 
0 0 0 
0 0 0 
0 0 0 
0 0 0 
0 0 0 
0 0 0 
0 0 0 
0 0 0 
0 0 0 
0 0 0 
0 0 0 
0 0 0 
0 0 0 
0 0 0 
0 0 0 
0 0 0 
0 0 0 
0 0 0 
0 0 0 
0 0 0 
0 0 0 
0 0 0 
0 0 0 
0 0 0 
0 0 0 
0 0 0 
0 0 0 
0 0 0 
0 0 0 
0 0 0 
0 0 0 
0 0 0 
0 0 0 
0 0 0 
0 0 0 
0 0 0 
0 0 0 
0 0 0 
0 0 0 
0 0 0 
0 0 0 
0 0 0 
0 0 0 
0 0 0 
0 0 0 
0 0 0 
0 0 0 
0 0 0 
0 0 0 
0 0 0 
0 0 0 
0 0 0 
0 0 0 
0 0 0 
0 0 0 
0 0 0 
0 0 0 
0 0 0 
0 0 0 
0 0 0 
0 0 0 
0 0 0 
0 0 0 
0 0 0 
0 0 0 
0 0 0 
0 0 0 
0 0 0 
0 0 0 
0 0 0 
0 0 0 
0 0 0 
0 0 0 
0 0 0 
0 0 0 
0 0 0 
0 0 0 
0 0 0 
0 0 0 
0 0 0 
0 0 0 
0 0 0 
0 0 0 
0 0 0 
0 0 0 
0 0 0 
0 0 0 
0 0 0 
0 0 0 
0 0 0 
0 0 0 
0 0 0 
0 0 0 
0 0 0 
0 0 0 
0 0 0 
0 0 0 
0 0 0 
0 0 0 
0 0 0 
0 0 0 
0 0 0 
0 0 0 
0 0 0 
0 0 0 
0 0 0 
0 0 0 
0 0 0 
0 0 0 
0 0 0 
0 0 0 
0 0 0 
0 0 0 
0 0 0 
0 0 0 
0 0 0 
0 0 0 
0 0 0 
0 0 0 
0 0 0 
0 0 0 
0 0 0 
0 0 0 
0 0 0 
0 0 0 
0 0 0 
0 0 0 
0 0 0 
0 0 0 
0 0 0 
0 0 0 
0 0 0 
0 0 0 
0 0 0 
0 0 0 
0 0 0 
0 0 0 
0 0 0 
0 0 0 
0 0 0 
0 0 0 
0 0 0 
0 0 0 
0 0 0 
0 0 0 
0 0 0 
0 0 0 
0 0 0 
0 0 0 
0 0 0 
0 0 0 
0 0 0 
0 0 0 
0 0 0 
0 0 0 
0 0 0 
0 0 0 
0 0 0 
0 0 0 
0 0 0 
0 0 0 
0 0 0 
0 0 0 
0 0 0 
0 0 0 
0 0 0 
0 0 0 
0 0 0 
0 0 0 
0 0 0 
0 0 0 
0 0 0 
0 0 0 
0 0 0 
0 0 0 
0 0 0 
0 0 0 
0 0 0 
0 0 0 
0 0 0 
0 0 0 
0 0 0 
0 0 0 
0 0 0 
0 0 0 
0 0 0 
0 0 0 
0 0 0 
0 0 0 
0 0 0 
0 0 0 
0 0 0 
0 0 0 
0 0 0 
0 0 0 
0 0 0 
0 0 0 
0 0 0 
0 0 0 
0 0 0 
0 0 0 
0 0 0 
0 0 0 
0 0 0 
0 0 0 
0 0 0 
0 0 0 
0 0 0 
0 0 0 
0 0 0 
0 0 0 
0 0 0 
0 0 0 
0 0 0 
0 0 0 
0 0 0 
0 0 0 
0 0 0 
0 0 0 
0 0 0 
0 0 0 
0 0 0 
0 0 0 
0 0 0 
0 0 0 
0 0 0 
0 0 0 
0 0 0 
0 0 0 
0 0 0 
0 0 0 
0 0 0 
0 0 0 
0 0 0 
0 0 0 
0 0 0 
0 0 0 
0 0 0 
0 0 0 
0 0 0 
0 0 0 
0 0 0 
0 0 0 
0 0 0 
0 0 0 
0 0 0 
0 0 0 
0 0 0 
0 0 0 
0 0 0 
0 0 0 
0 0 0 
0 0 0 
0 0 0 
0 0 0 
0 0 0 
0 0 0 
0 0 0 
0 0 0 
0 0 0 
0 0 0 
0 0 0 
0 0 0 
0 0 0 
0 0 0 
0 0 0 
0 0 0 
0 0 0 
0 0 0 
0 0 0 
0 0 0 
0 0 0 
0 0 0 
0 0 0 
0 0 0 
0 0 0 
0 0 0 
0 0 0 
0 0 0 
0 0 0 
0 0 0 
0 0 0 
0 0 0 
0 0 0 
0 0 0 
0 0 0 
0 0 0 
0 0 0 
0 0 0 
0 0 0 
0 0 0 
0 0 0 
0 0 0 
0 0 0 
0 0 0 
0 0 0 
0 0 0 
0 0 0 
0 0 0 
0 0 0 
0 0 0 
0 0 0 
0 0 0 
0 0 0 
0 0 0 
0 0 0 
0 0 0 
0 0 0 
0 0 0 
0 0 0 
0 0 0 
0 0 0 
0 0 0 
0 0 0 
0 0 0 
0 0 0 
0 0 0 
0 0 0 
0 0 0 
0 0 0 
0 0 0 
0 0 0 
0 0 0 
0 0 0 
0 0 0 
0 0 0 
0 0 0 
0 0 0 
0 0 0 
0 0 0 
0 0 0 
0 0 0 
0 0 0 
0 0 0 
0 0 0 
0 0 0 
0 0 0 
0 0 0 
0 0 0 
0 0 0 
0 0 0 
0 0 0 
0 0 0 
0 0 0 
0 0 0 
0 0 0 
0 0 0 
0 0 0 
0 0 0 
0 0 0 
0 0 0 
0 0 0 
0 0 0 
0 0 0 
0 0 0 
0 0 0 
0 0 0 
0 0 0 
0 0 0 
0 0 0 
0 0 0 
0 0 0 
0 0 0 
0 0 0 
0 0 0 
0 0 0 
0 0 0 
0 0 0 
0 0 0 
0 0 0 
0 0 0 
0 0 0 
0 0 0 
0 0 0 
0 0 0 
0 0 0 
0 0 0 
0 0 0 
0 0 0 
0 0 0 
0 0 0 
0 0 0 
0 0 0 
0 0 0 
0 0 0 
0 0 0 
0 0 0 
0 0 0 
0 0 0 
0 0 0 
0 0 0 
0 0 0 
0 0 0 
0 0 0 
0 0 0 
0 0 0 
0 0 0 
0 0 0 
0 0 0 
0 0 0 
0 0 0 
0 0 0 
0 0 0 
0 0 0 
0 0 0 
0 0 0 
0 0 0 
0 0 0 
0 0 0 
0 0 0 
0 0 0 
0 0 0 
0 0 0 
0 0 0 
0 0 0 
0 0 0 
0 0 0 
0 0 0 
0 0 0 
0 0 0 
0 0 0 
0 0 0 
0 0 0 
0 0 0 
0 0 0 
0 0 0 
0 0 0 
0 0 0 
0 0 0 
0 0 0 
0 0 0 
0 0 0 
0 0 0 
0 0 0 
0 0 0 
0 0 0 
0 0 0 
0 0 0 
0 0 0 
0 0 0 
0 0 0 
0 0 0 
0 0 0 
0 0 0 
0 0 0 
0 0 0 
0 0 0 
0 0 0 
0 0 0 
0 0 0 
0 0 0 
0 0 0 
0 0 0 
0 0 0 
0 0 0 
0 0 0 
0 0 0 
0 0 0 
0 0 0 
0 0 0 
0 0 0 
0 0 0 
0 0 0 
0 0 0 
0 0 0 
0 0 0 
0 0 0 
0 0 0 
0 0 0 
0 0 0 
0 0 0 
0 0 0 
0 0 0 
0 0 0 
0 0 0 
0 0 0 
0 0 0 
0 0 0 
0 0 0 
0 0 0 
0 0 0 
0 0 0 
0 0 0 
0 0 0 
0 0 0 
0 0 0 
0 0 0 
0 0 0 
0 0 0 
0 0 0 
0 0 0 
0 0 0 
0 0 0 
0 0 0 
0 0 0 
0 0 0 
0 0 0 
0 0 0 
0 0 0 
0 0 0 
0 0 0 
0 0 0 
0 0 0 
0 0 0 
0 0 0 
0 0 0 
0 0 0 
0 0 0 
0 0 0 
0 0 0 
0 0 0 
0 0 0 
0 0 0 
0 0 0 
0 0 0 
0 0 0 
0 0 0 
0 0 0 
0 0 0 
0 0 0 
0 0 0 
0 0 0 
0 0 0 
0 0 0 
0 0 0 
0 0 0 
0 0 0 
0 0 0 
0 0 0 
0 0 0 
0 0 0 
0 0 0 
0 0 0 
0 0 0 
0 0 0 
0 0 0 
0 0 0 
0 0 0 
0 0 0 
0 0 0 
0 0 0 
0 0 0 
0 0 0 
0 0 0 
0 0 0 
0 0 0 
0 0 0 
0 0 0 
0 0 0 
0 0 0 
0 0 0 
0 0 0 
0 0 0 
0 0 0 
0 0 0 
0 0 0 
0 0 0 
0 0 0 
0 0 0 
0 0 0 
0 0 0 
0 0 0 
0 0 0 
0 0 0 
0 0 0 
0 0 0 
0 0 0 
0 0 0 
0 0 0 
0 0 0 
0 0 0 
0 0 0 
0 0 0 
0 0 0 
0 0 0 
0 0 0 
0 0 0 
0 0 0 
0 0 0 
0 0 0 
0 0 0 
0 0 0 
0 0 0 
0 0 0 
0 0 0 
0 0 0 
0 0 0 
0 0 0 
0 0 0 
0 0 0 
0 0 0 
0 0 0 
0 0 0 
0 0 0 
0 0 0 
0 0 0 
0 0 0 
0 0 0 
0 0 0 
0 0 0 
0 0 0 
0 0 0 
0 0 0 
0 0 0 
0 0 0 
0 0 0 
0 0 0 
0 0 0 
0 0 0 
0 0 0 
0 0 0 
0 0 0 
0 0 0 
0 0 0 
0 0 0 
0 0 0 
0 0 0 
0 0 0 
0 0 0 
0 0 0 
0 0 0 
0 0 0 
0 0 0 
0 0 0 
0 0 0 
0 0 0 
0 0 0 
0 0 0 
0 0 0 
0 0 0 
0 0 0 
0 0 0 
0 0 0 
0 0 0 
0 0 0 
0 0 0 
0 0 0 
0 0 0 
0 0 0 
0 0 0 
0 0 0 
0 0 0 
0 0 0 
0 0 0 
0 0 0 
0 0 0 
0 0 0 
0 0 0 
0 0 0 
0 0 0 
0 0 0 
0 0 0 
0 0 0 
0 0 0 
0 0 0 
0 0 0 
0 0 0 
0 0 0 
0 0 0 
0 0 0 
0 0 0 
0 0 0 
0 0 0 
0 0 0 
0 0 0 
0 0 0 
0 0 0 
0 0 0 
0 0 0 
0 0 0 
0 0 0 
0 0 0 
0 0 0 
0 0 0 
0 0 0 
0 0 0 
0 0 0 
0 0 0 
0 0 0 
0 0 0 
0 0 0 
0 0 0 
0 0 0 
0 0 0 
0 0 0 
0 0 0 
0 0 0 
0 0 0 
0 0 0 
0 0 0 
0 0 0 
0 0 0 
0 0 0 
0 0 0 
0 0 0 
0 0 0 
0 0 0 
0 0 0 
0 0 0 
0 0 0 
0 0 0 
0 0 0 
0 0 0 
0 0 0 
0 0 0 
0 0 0 
0 0 0 
0 0 0 
0 0 0 
0 0 0 
0 0 0 
0 0 0 
0 0 0 
0 0 0 
0 0 0 
0 0 0 
0 0 0 
0 0 0 
0 0 0 
0 0 0 
0 0 0 
0 0 0 
0 0 0 
0 0 0 
0 0 0 
0 0 0 
0 0 0 
0 0 0 
0 0 0 
0 0 0 
0 0 0 
0 0 0 
0 0 0 
0 0 0 
0 0 0 
0 0 0 
0 0 0 
0 0 0 
0 0 0 
0 0 0 
0 0 0 
0 0 0 
0 0 0 
0 0 0 
0 0 0 
0 0 0 
0 0 0 
0 0 0 
0 0 0 
0 0 0 
0 0 0 
0 0 0 
0 0 0 
0 0 0 
0 0 0 
0 0 0 
0 0 0 
0 0 0 
0 0 0 
0 0 0 
0 0 0 
0 0 0 
0 0 0 
0 0 0 
0 0 0 
0 0 0 
0 0 0 
0 0 0 
0 0 0 
0 0 0 
0 0 0 
0 0 0 
0 0 0 
0 0 0 
0 0 0 
0 0 0 
0 0 0 
0 0 0 
0 0 0 
0 0 0 
0 0 0 
0 0 0 
0 0 0 
0 0 0 
0 0 0 
0 0 0 
0 0 0 
0 0 0 
0 0 0 
0 0 0 
0 0 0 
0 0 0 
0 0 0 
0 0 0 
0 0 0 
0 0 0 
0 0 0 
0 0 0 
0 0 0 
0 0 0 
0 0 0 
0 0 0 
0 0 0 
0 0 0 
0 0 0 
0 0 0 
0 0 0 
0 0 0 
0 0 0 
0 0 0 
0 0 0 
0 0 0 
0 0 0 
0 0 0 
0 0 0 
0 0 0 
0 0 0 
0 0 0 
0 0 0 
0 0 0 
0 0 0 
0 0 0 
0 0 0 
0 0 0 
0 0 0 
0 0 0 
0 0 0 
0 0 0 
0 0 0 
0 0 0 
0 0 0 
0 0 0 
0 0 0 
0 0 0 
0 0 0 
0 0 0 
0 0 0 
0 0 0 
0 0 0 
0 0 0 
0 0 0 
0 0 0 
0 0 0 
0 0 0 
0 0 0 
0 0 0 
0 0 0 
0 0 0 
0 0 0 
0 0 0 
0 0 0 
0 0 0 
0 0 0 
0 0 0 
0 0 0 
0 0 0 
0 0 0 
0 0 0 
0 0 0 
0 0 0 
0 0 0 
0 0 0 
0 0 0 
0 0 0 
0 0 0 
0 0 0 
0 0 0 
0 0 0 
0 0 0 
0 0 0 
0 0 0 
0 0 0 
0 0 0 
0 0 0 
0 0 0 
0 0 0 
0 0 0 
0 0 0 
0 0 0 
0 0 0 
0 0 0 
0 0 0 
0 0 0 
0 0 0 
0 0 0 
0 0 0 
0 0 0 
0 0 0 
0 0 0 
0 0 0 
0 0 0 
0 0 0 
0 0 0 
0 0 0 
0 0 0 
0 0 0 
0 0 0 
0 0 0 
0 0 0 
0 0 0 
0 0 0 
0 0 0 
0 0 0 
0 0 0 
0 0 0 
0 0 0 
0 0 0 
0 0 0 
0 0 0 
0 0 0 
0 0 0 
0 0 0 
0 0 0 
0 0 0 
0 0 0 
0 0 0 
0 0 0 
0 0 0 
0 0 0 
0 0 0 
0 0 0 
0 0 0 
0 0 0 
0 0 0 
0 0 0 
0 0 0 
0 0 0 
0 0 0 
0 0 0 
0 0 0 
0 0 0 
0 0 0 
0 0 0 
0 0 0 
0 0 0 
0 0 0 
0 0 0 
0 0 0 
0 0 0 
0 0 0 
0 0 0 
0 0 0 
0 0 0 
0 0 0 
0 0 0 
0 0 0 
0 0 0 
0 0 0 
0 0 0 
0 0 0 
0 0 0 
0 0 0 
0 0 0 
0 0 0 
0 0 0 
0 0 0 
0 0 0 
0 0 0 
0 0 0 
0 0 0 
0 0 0 
0 0 0 
0 0 0 
0 0 0 
0 0 0 
0 0 0 
0 0 0 
0 0 0 
0 0 0 
0 0 0 
0 0 0 
0 0 0 
0 0 0 
0 0 0 
0 0 0 
0 0 0 
0 0 0 
0 0 0 
0 0 0 
0 0 0 
0 0 0 
0 0 0 
0 0 0 
0 0 0 
0 0 0 
0 0 0 
0 0 0 
0 0 0 
0 0 0 
0 0 0 
0 0 0 
0 0 0 
0 0 0 
0 0 0 
0 0 0 
0 0 0 
0 0 0 
0 0 0 
0 0 0 
0 0 0 
0 0 0 
0 0 0 
0 0 0 
0 0 0 
0 0 0 
0 0 0 
0 0 0 
0 0 0 
0 0 0 
0 0 0 
0 0 0 
0 0 0 
0 0 0 
0 0 0 
0 0 0 
0 0 0 
0 0 0 
0 0 0 
0 0 0 
0 0 0 
0 0 0 
0 0 0 
0 0 0 
0 0 0 
0 0 0 
0 0 0 
0 0 0 
0 0 0 
0 0 0 
0 0 0 
0 0 0 
0 0 0 
0 0 0 
0 0 0 
0 0 0 
0 0 0 
0 0 0 
0 0 0 
0 0 0 
0 0 0 
0 0 0 
0 0 0 
0 0 0 
0 0 0 
0 0 0 
0 0 0 
0 0 0 
0 0 0 
0 0 0 
0 0 0 
0 0 0 
0 0 0 
0 0 0 
0 0 0 
0 0 0 
0 0 0 
0 0 0 
0 0 0 
0 0 0 
0 0 0 
0 0 0 
0 0 0 
0 0 0 
0 0 0 
0 0 0 
0 0 0 
0 0 0 
0 0 0 
0 0 0 
0 0 0 
0 0 0 
0 0 0 
0 0 0 
0 0 0 
0 0 0 
0 0 0 
0 0 0 
0 0 0 
0 0 0 
0 0 0 
0 0 0 
0 0 0 
0 0 0 
0 0 0 
0 0 0 
0 0 0 
0 0 0 
0 0 0 
0 0 0 
0 0 0 
0 0 0 
0 0 0 
0 0 0 
0 0 0 
0 0 0 
0 0 0 
0 0 0 
0 0 0 
0 0 0 
0 0 0 
0 0 0 
0 0 0 
0 0 0 
0 0 0 
0 0 0 
0 0 0 
0 0 0 
0 0 0 
0 0 0 
0 0 0 
0 0 0 
0 0 0 
0 0 0 
0 0 0 
0 0 0 
0 0 0 
0 0 0 
0 0 0 
0 0 0 
0 0 0 
0 0 0 
0 0 0 
0 0 0 
0 0 0 
0 0 0 
0 0 0 
0 0 0 
0 0 0 
0 0 0 
0 0 0 
0 0 0 
0 0 0 
0 0 0 
0 0 0 
0 0 0 
0 0 0 
0 0 0 
0 0 0 
0 0 0 
0 0 0 
0 0 0 
0 0 0 
0 0 0 
0 0 0 
0 0 0 
0 0 0 
0 0 0 
0 0 0 
0 0 0 
0 0 0 
0 0 0 
0 0 0 
0 0 0 
0 0 0 
0 0 0 
0 0 0 
0 0 0 
0 0 0 
0 0 0 
0 0 0 
0 0 0 
0 0 0 
0 0 0 
0 0 0 
0 0 0 
0 0 0 
0 0 0 
0 0 0 
0 0 0 
0 0 0 
0 0 0 
0 0 0 
0 0 0 
0 0 0 
0 0 0 
0 0 0 
0 0 0 
0 0 0 
0 0 0 
0 0 0 
0 0 0 
0 0 0 
0 0 0 
0 0 0 
0 0 0 
0 0 0 
0 0 0 
0 0 0 
0 0 0 
0 0 0 
0 0 0 
0 0 0 
0 0 0 
0 0 0 
0 0 0 
0 0 0 
0 0 0 
0 0 0 
0 0 0 
0 0 0 
0 0 0 
0 0 0 
0 0 0 
0 0 0 
0 0 0 
0 0 0 
0 0 0 
0 0 0 
0 0 0 
0 0 0 
0 0 0 
0 0 0 
0 0 0 
0 0 0 
0 0 0 
0 0 0 
0 0 0 
0 0 0 
0 0 0 
0 0 0 
0 0 0 
0 0 0 
0 0 0 
0 0 0 
0 0 0 
0 0 0 
0 0 0 
0 0 0 
0 0 0 
0 0 0 
0 0 0 
0 0 0 
0 0 0 
0 0 0 
0 0 0 
0 0 0 
0 0 0 
0 0 0 
0 0 0 
0 0 0 
0 0 0 
0 0 0 
0 0 0 
0 0 0 
0 0 0 
0 0 0 
0 0 0 
0 0 0 
0 0 0 
0 0 0 
0 0 0 
0 0 0 
0 0 0 
0 0 0 
0 0 0 
0 0 0 
0 0 0 
0 0 0 
0 0 0 
0 0 0 
0 0 0 
0 0 0 
0 0 0 
0 0 0 
0 0 0 
0 0 0 
0 0 0 
0 0 0 
0 0 0 
0 0 0 
0 0 0 
0 0 0 
0 0 0 
0 0 0 
0 0 0 
0 0 0 
0 0 0 
0 0 0 
0 0 0 
0 0 0 
0 0 0 
0 0 0 
0 0 0 
0 0 0 
0 0 0 
0 0 0 
0 0 0 
0 0 0 
0 0 0 
0 0 0 
0 0 0 
0 0 0 
0 0 0 
0 0 0 
0 0 0 
0 0 0 
0 0 0 
0 0 0 
0 0 0 
0 0 0 
0 0 0 
0 0 0 
0 0 0 
0 0 0 
0 0 0 
0 0 0 
0 0 0 
0 0 0 
0 0 0 
0 0 0 
0 0 0 
0 0 0 
0 0 0 
0 0 0 
0 0 0 
0 0 0 
0 0 0 
0 0 0 
0 0 0 
0 0 0 
0 0 0 
0 0 0 
0 0 0 
0 0 0 
0 0 0 
0 0 0 
0 0 0 
0 0 0 
0 0 0 
0 0 0 
0 0 0 
0 0 0 
0 0 0 
0 0 0 
0 0 0 
0 0 0 
0 0 0 
0 0 0 
0 0 0 
0 0 0 
0 0 0 
0 0 0 
0 0 0 
0 0 0 
0 0 0 
0 0 0 
0 0 0 
0 0 0 
0 0 0 
0 0 0 
0 0 0 
0 0 0 
0 0 0 
0 0 0 
0 0 0 
0 0 0 
0 0 0 
0 0 0 
0 0 0 
0 0 0 
0 0 0 
0 0 0 
0 0 0 
0 0 0 
0 0 0 
0 0 0 
0 0 0 
0 0 0 
0 0 0 
0 0 0 
0 0 0 
0 0 0 
0 0 0 
0 0 0 
0 0 0 
0 0 0 
0 0 0 
0 0 0 
0 0 0 
0 0 0 
0 0 0 
0 0 0 
0 0 0 
0 0 0 
0 0 0 
0 0 0 
0 0 0 
0 0 0 
0 0 0 
0 0 0 
0 0 0 
0 0 0 
0 0 0 
0 0 0 
0 0 0 
0 0 0 
0 0 0 
0 0 0 
0 0 0 
0 0 0 
0 0 0 
0 0 0 
0 0 0 
0 0 0 
0 0 0 
0 0 0 
0 0 0 
0 0 0 
0 0 0 
0 0 0 
0 0 0 
0 0 0 
0 0 0 
0 0 0 
0 0 0 
0 0 0 
0 0 0 
0 0 0 
0 0 0 
0 0 0 
0 0 0 
0 0 0 
0 0 0 
0 0 0 
0 0 0 
0 0 0 
0 0 0 
0 0 0 
0 0 0 
0 0 0 
0 0 0 
0 0 0 
0 0 0 
0 0 0 
0 0 0 
0 0 0 
0 0 0 
0 0 0 
0 0 0 
0 0 0 
0 0 0 
0 0 0 
0 0 0 
0 0 0 
0 0 0 
0 0 0 
0 0 0 
0 0 0 
0 0 0 
0 0 0 
0 0 0 
0 0 0 
0 0 0 
0 0 0 
0 0 0 
0 0 0 
0 0 0 
0 0 0 
0 0 0 
0 0 0 
0 0 0 
0 0 0 
0 0 0 
0 0 0 
0 0 0 
0 0 0 
0 0 0 
0 0 0 
0 0 0 
0 0 0 
0 0 0 
0 0 0 
0 0 0 
0 0 0 
0 0 0 
0 0 0 
0 0 0 
0 0 0 
0 0 0 
0 0 0 
0 0 0 
0 0 0 
0 0 0 
0 0 0 
0 0 0 
0 0 0 
0 0 0 
0 0 0 
0 0 0 
0 0 0 
0 0 0 
0 0 0 
0 0 0 
0 0 0 
0 0 0 
0 0 0 
0 0 0 
0 0 0 
0 0 0 
0 0 0 
0 0 0 
0 0 0 
0 0 0 
0 0 0 
0 0 0 
0 0 0 
0 0 0 
0 0 0 
0 0 0 
0 0 0 
0 0 0 
0 0 0 
0 0 0 
0 0 0 
0 0 0 
0 0 0 
0 0 0 
0 0 0 
0 0 0 
0 0 0 
0 0 0 
0 0 0 
0 0 0 
0 0 0 
0 0 0 
0 0 0 
0 0 0 
0 0 0 
0 0 0 
0 0 0 
0 0 0 
0 0 0 
0 0 0 
0 0 0 
0 0 0 
0 0 0 
0 0 0 
0 0 0 
0 0 0 
0 0 0 
0 0 0 
0 0 0 
0 0 0 
0 0 0 
0 0 0 
0 0 0 
0 0 0 
0 0 0 
0 0 0 
0 0 0 
0 0 0 
0 0 0 
0 0 0 
0 0 0 
0 0 0 
0 0 0 
0 0 0 
0 0 0 
0 0 0 
0 0 0 
0 0 0 
0 0 0 
0 0 0 
0 0 0 
0 0 0 
0 0 0 
0 0 0 
0 0 0 
0 0 0 
0 0 0 
0 0 0 
0 0 0 
0 0 0 
0 0 0 
0 0 0 
0 0 0 
0 0 0 
0 0 0 
0 0 0 
0 0 0 
0 0 0 
0 0 0 
0 0 0 
0 0 0 
0 0 0 
0 0 0 
0 0 0 
0 0 0 
0 0 0 
0 0 0 
0 0 0 
0 0 0 
0 0 0 
0 0 0 
0 0 0 
0 0 0 
0 0 0 
0 0 0 
0 0 0 
0 0 0 
0 0 0 
0 0 0 
0 0 0 
0 0 0 
0 0 0 
0 0 0 
0 0 0 
0 0 0 
0 0 0 
0 0 0 
0 0 0 
0 0 0 
0 0 0 
0 0 0 
0 0 0 
0 0 0 
0 0 0 
0 0 0 
0 0 0 
0 0 0 
0 0 0 
0 0 0 
0 0 0 
0 0 0 
0 0 0 
0 0 0 
0 0 0 
0 0 0 
0 0 0 
0 0 0 
0 0 0 
0 0 0 
0 0 0 
0 0 0 
0 0 0 
0 0 0 
0 0 0 
0 0 0 
0 0 0 
0 0 0 
0 0 0 
0 0 0 
0 0 0 
0 0 0 
0 0 0 
0 0 0 
0 0 0 
0 0 0 
0 0 0 
0 0 0 
0 0 0 
0 0 0 
0 0 0 
0 0 0 
0 0 0 
0 0 0 
0 0 0 
0 0 0 
0 0 0 
0 0 0 
0 0 0 
0 0 0 
0 0 0 
0 0 0 
0 0 0 
0 0 0 
0 0 0 
0 0 0 
0 0 0 
0 0 0 
0 0 0 
0 0 0 
0 0 0 
0 0 0 
0 0 0 
0 0 0 
0 0 0 
0 0 0 
0 0 0 
0 0 0 
0 0 0 
0 0 0 
0 0 0 
0 0 0 
0 0 0 
0 0 0 
0 0 0 
0 0 0 
0 0 0 
0 0 0 
0 0 0 
0 0 0 
0 0 0 
0 0 0 
0 0 0 
0 0 0 
0 0 0 
0 0 0 
0 0 0 
0 0 0 
0 0 0 
0 0 0 
0 0 0 
0 0 0 
0 0 0 
0 0 0 
0 0 0 
0 0 0 
0 0 0 
0 0 0 
0 0 0 
0 0 0 
0 0 0 
0 0 0 
0 0 0 
0 0 0 
0 0 0 
0 0 0 
0 0 0 
0 0 0 
0 0 0 
0 0 0 
0 0 0 
0 0 0 
0 0 0 
0 0 0 
0 0 0 
0 0 0 
0 0 0 
0 0 0 
0 0 0 
0 0 0 
0 0 0 
0 0 0 
0 0 0 
0 0 0 
0 0 0 
0 0 0 
0 0 0 
0 0 0 
0 0 0 
0 0 0 
0 0 0 
0 0 0 
0 0 0 
0 0 0 
0 0 0 
0 0 0 
0 0 0 
0 0 0 
0 0 0 
0 0 0 
0 0 0 
0 0 0 
0 0 0 
0 0 0 
0 0 0 
0 0 0 
0 0 0 
0 0 0 
0 0 0 
0 0 0 
0 0 0 
0 0 0 
0 0 0 
0 0 0 
0 0 0 
0 0 0 
0 0 0 
0 0 0 
0 0 0 
0 0 0 
0 0 0 
0 0 0 
0 0 0 
0 0 0 
0 0 0 
0 0 0 
0 0 0 
0 0 0 
0 0 0 
0 0 0 
0 0 0 
0 0 0 
0 0 0 
0 0 0 
0 0 0 
0 0 0 
0 0 0 
0 0 0 
0 0 0 
0 0 0 
0 0 0 
0 0 0 
0 0 0 
0 0 0 
0 0 0 
0 0 0 
0 0 0 
0 0 0 
0 0 0 
0 0 0 
0 0 0 
0 0 0 
0 0 0 
0 0 0 
0 0 0 
0 0 0 
0 0 0 
0 0 0 
0 0 0 
0 0 0 
0 0 0 
0 0 0 
0 0 0 
0 0 0 
0 0 0 
0 0 0 
0 0 0 
0 0 0 
0 0 0 
0 0 0 
0 0 0 
0 0 0 
0 0 0 
0 0 0 
0 0 0 
0 0 0 
0 0 0 
0 0 0 
0 0 0 
0 0 0 
0 0 0 
0 0 0 
0 0 0 
0 0 0 
0 0 0 
0 0 0 
0 0 0 
0 0 0 
0 0 0 
0 0 0 
0 0 0 
0 0 0 
0 0 0 
0 0 0 
0 0 0 
0 0 0 
0 0 0 
0 0 0 
0 0 0 
0 0 0 
0 0 0 
0 0 0 
0 0 0 
0 0 0 
0 0 0 
0 0 0 
0 0 0 
0 0 0 
0 0 0 
0 0 0 
0 0 0 
0 0 0 
0 0 0 
0 0 0 
0 0 0 
0 0 0 
0 0 0 
0 0 0 
0 0 0 
0 0 0 
0 0 0 
0 0 0 
0 0 0 
0 0 0 
0 0 0 
0 0 0 
0 0 0 
0 0 0 
0 0 0 
0 0 0 
0 0 0 
0 0 0 
0 0 0 
0 0 0 
0 0 0 
0 0 0 
0 0 0 
0 0 0 
0 0 0 
0 0 0 
0 0 0 
0 0 0 
0 0 0 
0 0 0 
0 0 0 
0 0 0 
0 0 0 
0 0 0 
0 0 0 
0 0 0 
0 0 0 
0 0 0 
0 0 0 
0 0 0 
0 0 0 
0 0 0 
0 0 0 
0 0 0 
0 0 0 
0 0 0 
0 0 0 
0 0 0 
0 0 0 
0 0 0 
0 0 0 
0 0 0 
0 0 0 
0 0 0 
0 0 0 
0 0 0 
0 0 0 
0 0 0 
0 0 0 
0 0 0 
0 0 0 
0 0 0 
0 0 0 
0 0 0 
0 0 0 
0 0 0 
0 0 0 
0 0 0 
0 0 0 
0 0 0 
0 0 0 
0 0 0 
0 0 0 
0 0 0 
0 0 0 
0 0 0 
0 0 0 
0 0 0 
0 0 0 
0 0 0 
0 0 0 
0 0 0 
0 0 0 
0 0 0 
0 0 0 
0 0 0 
0 0 0 
0 0 0 
0 0 0 
0 0 0 
0 0 0 
0 0 0 
0 0 0 
0 0 0 
0 0 0 
0 0 0 
0 0 0 
0 0 0 
0 0 0 
0 0 0 
0 0 0 
0 0 0 
0 0 0 
0 0 0 
0 0 0 
0 0 0 
0 0 0 
0 0 0 
0 0 0 
0 0 0 
0 0 0 
0 0 0 
0 0 0 
0 0 0 
0 0 0 
0 0 0 
0 0 0 
0 0 0 
0 0 0 
0 0 0 
0 0 0 
0 0 0 
0 0 0 
0 0 0 
0 0 0 
0 0 0 
0 0 0 
0 0 0 
0 0 0 
0 0 0 
0 0 0 
0 0 0 
0 0 0 
0 0 0 
0 0 0 
0 0 0 
0 0 0 
0 0 0 
0 0 0 
0 0 0 
0 0 0 
0 0 0 
0 0 0 
0 0 0 
0 0 0 
0 0 0 
0 0 0 
0 0 0 
0 0 0 
0 0 0 
0 0 0 
0 0 0 
0 0 0 
0 0 0 
0 0 0 
0 0 0 
0 0 0 
0 0 0 
0 0 0 
0 0 0 
0 0 0 
0 0 0 
0 0 0 
0 0 0 
0 0 0 
0 0 0 
0 0 0 
0 0 0 
0 0 0 
0 0 0 
0 0 0 
0 0 0 
0 0 0 
0 0 0 
0 0 0 
0 0 0 
0 0 0 
0 0 0 
0 0 0 
0 0 0 
0 0 0 
0 0 0 
0 0 0 
0 0 0 
0 0 0 
0 0 0 
0 0 0 
0 0 0 
0 0 0 
0 0 0 
0 0 0 
0 0 0 
0 0 0 
0 0 0 
0 0 0 
0 0 0 
0 0 0 
0 0 0 
0 0 0 
0 0 0 
0 0 0 
0 0 0 
0 0 0 
0 0 0 
0 0 0 
0 0 0 
0 0 0 
0 0 0 
0 0 0 
0 0 0 
0 0 0 
0 0 0 
0 0 0 
0 0 0 
0 0 0 
0 0 0 
0 0 0 
0 0 0 
0 0 0 
0 0 0 
0 0 0 
0 0 0 
0 0 0 
0 0 0 
0 0 0 
0 0 0 
0 0 0 
0 0 0 
0 0 0 
0 0 0 
0 0 0 
0 0 0 
0 0 0 
0 0 0 
0 0 0 
0 0 0 
0 0 0 
0 0 0 
0 0 0 
0 0 0 
0 0 0 
0 0 0 
0 0 0 
0 0 0 
0 0 0 
0 0 0 
0 0 0 
0 0 0 
0 0 0 
0 0 0 
0 0 0 
0 0 0 
0 0 0 
0 0 0 
0 0 0 
0 0 0 
0 0 0 
0 0 0 
0 0 0 
0 0 0 
0 0 0 
0 0 0 
0 0 0 
0 0 0 
0 0 0 
0 0 0 
0 0 0 
0 0 0 
0 0 0 
0 0 0 
0 0 0 
0 0 0 
0 0 0 
0 0 0 
0 0 0 
0 0 0 
0 0 0 
0 0 0 
0 0 0 
0 0 0 
0 0 0 
0 0 0 
0 0 0 
0 0 0 
0 0 0 
0 0 0 
0 0 0 
0 0 0 
0 0 0 
0 0 0 
0 0 0 
0 0 0 
0 0 0 
0 0 0 
0 0 0 
0 0 0 
0 0 0 
0 0 0 
0 0 0 
0 0 0 
0 0 0 
0 0 0 
0 0 0 
0 0 0 
0 0 0 
0 0 0 
0 0 0 
0 0 0 
0 0 0 
0 0 0 
0 0 0 
0 0 0 
0 0 0 
0 0 0 
0 0 0 
0 0 0 
0 0 0 
0 0 0 
0 0 0 
0 0 0 
0 0 0 
0 0 0 
0 0 0 
0 0 0 
0 0 0 
0 0 0 
0 0 0 
0 0 0 
0 0 0 
0 0 0 
0 0 0 
0 0 0 
0 0 0 
0 0 0 
0 0 0 
0 0 0 
0 0 0 
0 0 0 
0 0 0 
0 0 0 
0 0 0 
0 0 0 
0 0 0 
0 0 0 
0 0 0 
0 0 0 
0 0 0 
0 0 0 
0 0 0 
0 0 0 
0 0 0 
0 0 0 
0 0 0 
0 0 0 
0 0 0 
0 0 0 
0 0 0 
0 0 0 
0 0 0 
0 0 0 
0 0 0 
0 0 0 
0 0 0 
0 0 0 
0 0 0 
0 0 0 
0 0 0 
0 0 0 
0 0 0 
0 0 0 
0 0 0 
0 0 0 
0 0 0 
0 0 0 
0 0 0 
0 0 0 
0 0 0 
0 0 0 
0 0 0 
0 0 0 
0 0 0 
0 0 0 
0 0 0 
0 0 0 
0 0 0 
0 0 0 
0 0 0 
0 0 0 
0 0 0 
0 0 0 
0 0 0 
0 0 0 
0 0 0 
0 0 0 
0 0 0 
0 0 0 
0 0 0 
0 0 0 
0 0 0 
0 0 0 
0 0 0 
0 0 0 
0 0 0 
0 0 0 
0 0 0 
0 0 0 
0 0 0 
0 0 0 
0 0 0 
0 0 0 
0 0 0 
0 0 0 
0 0 0 
0 0 0 
0 0 0 
0 0 0 
0 0 0 
0 0 0 
0 0 0 
0 0 0 
0 0 0 
0 0 0 
0 0 0 
0 0 0 
0 0 0 
0 0 0 
0 0 0 
0 0 0 
0 0 0 
0 0 0 
0 0 0 
0 0 0 
0 0 0 
0 0 0 
0 0 0 
0 0 0 
0 0 0 
0 0 0 
0 0 0 
0 0 0 
0 0 0 
0 0 0 
0 0 0 
0 0 0 
0 0 0 
0 0 0 
0 0 0 
0 0 0 
0 0 0 
0 0 0 
0 0 0 
0 0 0 
0 0 0 
0 0 0 
0 0 0 
0 0 0 
0 0 0 
0 0 0 
0 0 0 
0 0 0 
0 0 0 
0 0 0 
0 0 0 
0 0 0 
0 0 0 
0 0 0 
0 0 0 
0 0 0 
0 0 0 
0 0 0 
0 0 0 
0 0 0 
0 0 0 
0 0 0 
0 0 0 
0 0 0 
0 0 0 
0 0 0 
0 0 0 
0 0 0 
0 0 0 
0 0 0 
0 0 0 
0 0 0 
0 0 0 
0 0 0 
0 0 0 
0 0 0 
0 0 0 
0 0 0 
0 0 0 
0 0 0 
0 0 0 
0 0 0 
0 0 0 
0 0 0 
0 0 0 
0 0 0 
0 0 0 
0 0 0 
0 0 0 
0 0 0 
0 0 0 
0 0 0 
0 0 0 
0 0 0 
0 0 0 
0 0 0 
0 0 0 
0 0 0 
0 0 0 
0 0 0 
0 0 0 
0 0 0 
0 0 0 
0 0 0 
0 0 0 
0 0 0 
0 0 0 
0 0 0 
0 0 0 
0 0 0 
0 0 0 
0 0 0 
0 0 0 
0 0 0 
0 0 0 
0 0 0 
0 0 0 
0 0 0 
0 0 0 
0 0 0 
0 0 0 
0 0 0 
0 0 0 
0 0 0 
0 0 0 
0 0 0 
0 0 0 
0 0 0 
0 0 0 
0 0 0 
0 0 0 
0 0 0 
0 0 0 
0 0 0 
0 0 0 
0 0 0 
0 0 0 
0 0 0 
0 0 0 
0 0 0 
0 0 0 
0 0 0 
0 0 0 
0 0 0 
0 0 0 
0 0 0 
0 0 0 
0 0 0 
0 0 0 
0 0 0 
0 0 0 
0 0 0 
0 0 0 
0 0 0 
0 0 0 
0 0 0 
0 0 0 
0 0 0 
0 0 0 
0 0 0 
0 0 0 
0 0 0 
0 0 0 
0 0 0 
0 0 0 
0 0 0 
0 0 0 
0 0 0 
0 0 0 
0 0 0 
0 0 0 
0 0 0 
0 0 0 
0 0 0 
0 0 0 
0 0 0 
0 0 0 
0 0 0 
0 0 0 
0 0 0 
0 0 0 
0 0 0 
0 0 0 
0 0 0 
0 0 0 
0 0 0 
0 0 0 
0 0 0 
0 0 0 
0 0 0 
0 0 0 
0 0 0 
0 0 0 
0 0 0 
0 0 0 
0 0 0 
0 0 0 
0 0 0 
0 0 0 
0 0 0 
0 0 0 
0 0 0 
0 0 0 
0 0 0 
0 0 0 
0 0 0 
0 0 0 
0 0 0 
0 0 0 
0 0 0 
0 0 0 
0 0 0 
0 0 0 
0 0 0 
0 0 0 
0 0 0 
0 0 0 
0 0 0 
0 0 0 
0 0 0 
0 0 0 
0 0 0 
0 0 0 
0 0 0 
0 0 0 
0 0 0 
0 0 0 
0 0 0 
0 0 0 
0 0 0 
0 0 0 
0 0 0 
0 0 0 
0 0 0 
0 0 0 
0 0 0 
0 0 0 
0 0 0 
0 0 0 
0 0 0 
0 0 0 
0 0 0 
0 0 0 
0 0 0 
0 0 0 
0 0 0 
0 0 0 
0 0 0 
0 0 0 
0 0 0 
0 0 0 
0 0 0 
0 0 0 
0 0 0 
0 0 0 
0 0 0 
0 0 0 
0 0 0 
0 0 0 
0 0 0 
0 0 0 
0 0 0 
0 0 0 
0 0 0 
0 0 0 
0 0 0 
0 0 0 
0 0 0 
0 0 0 
0 0 0 
0 0 0 
0 0 0 
0 0 0 
0 0 0 
0 0 0 
0 0 0 
0 0 0 
0 0 0 
0 0 0 
0 0 0 
0 0 0 
0 0 0 
0 0 0 
0 0 0 
0 0 0 
0 0 0 
0 0 0 
0 0 0 
0 0 0 
0 0 0 
0 0 0 
0 0 0 
0 0 0 
0 0 0 
0 0 0 
0 0 0 
0 0 0 
0 0 0 
0 0 0 
0 0 0 
0 0 0 
0 0 0 
0 0 0 
0 0 0 
0 0 0 
0 0 0 
0 0 0 
0 0 0 
0 0 0 
0 0 0 
0 0 0 
0 0 0 
0 0 0 
0 0 0 
0 0 0 
0 0 0 
0 0 0 
0 0 0 
0 0 0 
0 0 0 
0 0 0 
0 0 0 
0 0 0 
0 0 0 
0 0 0 
0 0 0 
0 0 0 
0 0 0 
0 0 0 
0 0 0 
0 0 0 
0 0 0 
0 0 0 
0 0 0 
0 0 0 
0 0 0 
0 0 0 
0 0 0 
0 0 0 
0 0 0 
0 0 0 
0 0 0 
0 0 0 
0 0 0 
0 0 0 
0 0 0 
0 0 0 
0 0 0 
0 0 0 
0 0 0 
0 0 0 
0 0 0 
0 0 0 
0 0 0 
0 0 0 
0 0 0 
0 0 0 
0 0 0 
0 0 0 
0 0 0 
0 0 0 
0 0 0 
0 0 0 
0 0 0 
0 0 0 
0 0 0 
0 0 0 
0 0 0 
0 0 0 
0 0 0 
0 0 0 
0 0 0 
0 0 0 
0 0 0 
0 0 0 
0 0 0 
0 0 0 
0 0 0 
0 0 0 
0 0 0 
0 0 0 
0 0 0 
0 0 0 
0 0 0 
0 0 0 
0 0 0 
0 0 0 
0 0 0 
0 0 0 
0 0 0 
0 0 0 
0 0 0 
0 0 0 
0 0 0 
0 0 0 
0 0 0 
0 0 0 
0 0 0 
0 0 0 
0 0 0 
0 0 0 
0 0 0 
0 0 0 
0 0 0 
0 0 0 
0 0 0 
0 0 0 
0 0 0 
0 0 0 
0 0 0 
0 0 0 
0 0 0 
0 0 0 
0 0 0 
0 0 0 
0 0 0 
0 0 0 
0 0 0 
0 0 0 
0 0 0 
0 0 0 
0 0 0 
0 0 0 
0 0 0 
0 0 0 
0 0 0 
0 0 0 
0 0 0 
0 0 0 
0 0 0 
0 0 0 
0 0 0 
0 0 0 
0 0 0 
0 0 0 
0 0 0 
0 0 0 
0 0 0 
0 0 0 
0 0 0 
0 0 0 
0 0 0 
0 0 0 
0 0 0 
0 0 0 
0 0 0 
0 0 0 
0 0 0 
0 0 0 
0 0 0 
0 0 0 
0 0 0 
0 0 0 
0 0 0 
0 0 0 
0 0 0 
0 0 0 
0 0 0 
0 0 0 
0 0 0 
0 0 0 
0 0 0 
0 0 0 
0 0 0 
0 0 0 
0 0 0 
0 0 0 
0 0 0 
0 0 0 
0 0 0 
0 0 0 
0 0 0 
0 0 0 
0 0 0 
0 0 0 
0 0 0 
0 0 0 
0 0 0 
0 0 0 
0 0 0 
0 0 0 
0 0 0 
0 0 0 
0 0 0 
0 0 0 
0 0 0 
0 0 0 
0 0 0 
0 0 0 
0 0 0 
0 0 0 
0 0 0 
0 0 0 
0 0 0 
0 0 0 
0 0 0 
0 0 0 
0 0 0 
0 0 0 
0 0 0 
0 0 0 
0 0 0 
0 0 0 
0 0 0 
0 0 0 
0 0 0 
0 0 0 
0 0 0 
0 0 0 
0 0 0 
0 0 0 
0 0 0 
0 0 0 
0 0 0 
0 0 0 
0 0 0 
0 0 0 
0 0 0 
0 0 0 
0 0 0 
0 0 0 
0 0 0 
0 0 0 
0 0 0 
0 0 0 
0 0 0 
0 0 0 
0 0 0 
0 0 0 
0 0 0 
0 0 0 
0 0 0 
0 0 0 
0 0 0 
0 0 0 
0 0 0 
0 0 0 
0 0 0 
0 0 0 
0 0 0 
0 0 0 
0 0 0 
0 0 0 
0 0 0 
0 0 0 
0 0 0 
0 0 0 
0 0 0 
0 0 0 
0 0 0 
0 0 0 
0 0 0 
0 0 0 
0 0 0 
0 0 0 
0 0 0 
0 0 0 
0 0 0 
0 0 0 
0 0 0 
0 0 0 
0 0 0 
0 0 0 
0 0 0 
0 0 0 
0 0 0 
0 0 0 
0 0 0 
0 0 0 
0 0 0 
0 0 0 
0 0 0 
0 0 0 
0 0 0 
0 0 0 
0 0 0 
0 0 0 
0 0 0 
0 0 0 
0 0 0 
0 0 0 
0 0 0 
0 0 0 
0 0 0 
0 0 0 
0 0 0 
0 0 0 
0 0 0 
0 0 0 
0 0 0 
0 0 0 
0 0 0 
0 0 0 
0 0 0 
0 0 0 
0 0 0 
0 0 0 
0 0 0 
0 0 0 
0 0 0 
0 0 0 
0 0 0 
0 0 0 
0 0 0 
0 0 0 
0 0 0 
0 0 0 
0 0 0 
0 0 0 
0 0 0 
0 0 0 
0 0 0 
0 0 0 
0 0 0 
0 0 0 
0 0 0 
0 0 0 
0 0 0 
0 0 0 
0 0 0 
0 0 0 
0 0 0 
0 0 0 
0 0 0 
0 0 0 
0 0 0 
0 0 0 
0 0 0 
0 0 0 
0 0 0 
0 0 0 
0 0 0 
0 0 0 
0 0 0 
0 0 0 
0 0 0 
0 0 0 
0 0 0 
0 0 0 
0 0 0 
0 0 0 
0 0 0 
0 0 0 
0 0 0 
0 0 0 
0 0 0 
0 0 0 
0 0 0 
0 0 0 
0 0 0 
0 0 0 
0 0 0 
0 0 0 
0 0 0 
0 0 0 
0 0 0 
0 0 0 
0 0 0 
0 0 0 
0 0 0 
0 0 0 
0 0 0 
0 0 0 
0 0 0 
0 0 0 
0 0 0 
0 0 0 
0 0 0 
0 0 0 
0 0 0 
0 0 0 
0 0 0 
0 0 0 
0 0 0 
0 0 0 
0 0 0 
0 0 0 
0 0 0 
0 0 0 
0 0 0 
0 0 0 
0 0 0 
0 0 0 
0 0 0 
0 0 0 
0 0 0 
0 0 0 
0 0 0 
0 0 0 
0 0 0 
0 0 0 
0 0 0 
0 0 0 
0 0 0 
0 0 0 
0 0 0 
0 0 0 
0 0 0 
0 0 0 
0 0 0 
0 0 0 
0 0 0 
0 0 0 
0 0 0 
0 0 0 
0 0 0 
0 0 0 
0 0 0 
0 0 0 
0 0 0 
0 0 0 
0 0 0 
0 0 0 
0 0 0 
0 0 0 
0 0 0 
0 0 0 
0 0 0 
0 0 0 
0 0 0 
0 0 0 
0 0 0 
0 0 0 
0 0 0 
0 0 0 
0 0 0 
0 0 0 
0 0 0 
0 0 0 
0 0 0 
0 0 0 
0 0 0 
0 0 0 
0 0 0 
0 0 0 
0 0 0 
0 0 0 
0 0 0 
0 0 0 
0 0 0 
0 0 0 
0 0 0 
0 0 0 
0 0 0 
0 0 0 
0 0 0 
0 0 0 
0 0 0 
0 0 0 
0 0 0 
0 0 0 
0 0 0 
0 0 0 
0 0 0 
0 0 0 
0 0 0 
0 0 0 
0 0 0 
0 0 0 
0 0 0 
0 0 0 
0 0 0 
0 0 0 
0 0 0 
0 0 0 
0 0 0 
0 0 0 
0 0 0 
0 0 0 
0 0 0 
0 0 0 
0 0 0 
0 0 0 
0 0 0 
0 0 0 
0 0 0 
0 0 0 
0 0 0 
0 0 0 
0 0 0 
0 0 0 
0 0 0 
0 0 0 
0 0 0 
0 0 0 
0 0 0 
0 0 0 
0 0 0 
0 0 0 
0 0 0 
0 0 0 
0 0 0 
0 0 0 
0 0 0 
0 0 0 
0 0 0 
0 0 0 
0 0 0 
0 0 0 
0 0 0 
0 0 0 
0 0 0 
0 0 0 
0 0 0 
0 0 0 
0 0 0 
0 0 0 
0 0 0 
0 0 0 
0 0 0 
0 0 0 
0 0 0 
0 0 0 
0 0 0 
0 0 0 
0 0 0 
0 0 0 
0 0 0 
0 0 0 
0 0 0 
0 0 0 
0 0 0 
0 0 0 
0 0 0 
0 0 0 
0 0 0 
0 0 0 
0 0 0 
0 0 0 
0 0 0 
0 0 0 
0 0 0 
0 0 0 
0 0 0 
0 0 0 
0 0 0 
0 0 0 
0 0 0 
0 0 0 
0 0 0 
0 0 0 
0 0 0 
0 0 0 
0 0 0 
0 0 0 
0 0 0 
0 0 0 
0 0 0 
0 0 0 
0 0 0 
0 0 0 
0 0 0 
0 0 0 
0 0 0 
0 0 0 
0 0 0 
0 0 0 
0 0 0 
0 0 0 
0 0 0 
0 0 0 
0 0 0 
0 0 0 
0 0 0 
0 0 0 
0 0 0 
0 0 0 
0 0 0 
0 0 0 
0 0 0 
0 0 0 
0 0 0 
0 0 0 
0 0 0 
0 0 0 
0 0 0 
0 0 0 
0 0 0 
0 0 0 
0 0 0 
0 0 0 
0 0 0 
0 0 0 
0 0 0 
0 0 0 
0 0 0 
0 0 0 
0 0 0 
0 0 0 
0 0 0 
0 0 0 
0 0 0 
0 0 0 
0 0 0 
0 0 0 
0 0 0 
0 0 0 
0 0 0 
0 0 0 
0 0 0 
0 0 0 
0 0 0 
0 0 0 
0 0 0 
0 0 0 
0 0 0 
0 0 0 
0 0 0 
0 0 0 
0 0 0 
0 0 0 
0 0 0 
0 0 0 
0 0 0 
0 0 0 
0 0 0 
0 0 0 
0 0 0 
0 0 0 
0 0 0 
0 0 0 
0 0 0 
0 0 0 
0 0 0 
0 0 0 
0 0 0 
0 0 0 
0 0 0 
0 0 0 
0 0 0 
0 0 0 
0 0 0 
0 0 0 
0 0 0 
0 0 0 
0 0 0 
0 0 0 
0 0 0 
0 0 0 
0 0 0 
0 0 0 
0 0 0 
0 0 0 
0 0 0 
0 0 0 
0 0 0 
0 0 0 
0 0 0 
0 0 0 
0 0 0 
0 0 0 
0 0 0 
0 0 0 
0 0 0 
0 0 0 
0 0 0 
0 0 0 
0 0 0 
0 0 0 
0 0 0 
0 0 0 
0 0 0 
0 0 0 
0 0 0 
0 0 0 
0 0 0 
0 0 0 
0 0 0 
0 0 0 
0 0 0 
0 0 0 
0 0 0 
0 0 0 
0 0 0 
0 0 0 
0 0 0 
0 0 0 
0 0 0 
0 0 0 
0 0 0 
0 0 0 
0 0 0 
0 0 0 
0 0 0 
0 0 0 
0 0 0 
0 0 0 
0 0 0 
0 0 0 
0 0 0 
0 0 0 
0 0 0 
0 0 0 
0 0 0 
0 0 0 
0 0 0 
0 0 0 
0 0 0 
0 0 0 
0 0 0 
0 0 0 
0 0 0 
0 0 0 
0 0 0 
0 0 0 
0 0 0 
0 0 0 
0 0 0 
0 0 0 
0 0 0 
0 0 0 
0 0 0 
0 0 0 
0 0 0 
0 0 0 
0 0 0 
0 0 0 
0 0 0 
0 0 0 
0 0 0 
0 0 0 
0 0 0 
0 0 0 
0 0 0 
0 0 0 
0 0 0 
0 0 0 
0 0 0 
0 0 0 
0 0 0 
0 0 0 
0 0 0 
0 0 0 
0 0 0 
0 0 0 
0 0 0 
0 0 0 
0 0 0 
0 0 0 
0 0 0 
0 0 0 
0 0 0 
0 0 0 
0 0 0 
0 0 0 
0 0 0 
0 0 0 
0 0 0 
0 0 0 
0 0 0 
0 0 0 
0 0 0 
0 0 0 
0 0 0 
0 0 0 
0 0 0 
0 0 0 
0 0 0 
0 0 0 
0 0 0 
0 0 0 
0 0 0 
0 0 0 
0 0 0 
0 0 0 
0 0 0 
0 0 0 
0 0 0 
0 0 0 
0 0 0 
0 0 0 
0 0 0 
0 0 0 
0 0 0 
0 0 0 
0 0 0 
0 0 0 
0 0 0 
0 0 0 
0 0 0 
0 0 0 
0 0 0 
0 0 0 
0 0 0 
0 0 0 
0 0 0 
0 0 0 
0 0 0 
0 0 0 
0 0 0 
0 0 0 
0 0 0 
0 0 0 
0 0 0 
0 0 0 
0 0 0 
0 0 0 
0 0 0 
0 0 0 
0 0 0 
0 0 0 
0 0 0 
0 0 0 
0 0 0 
0 0 0 
0 0 0 
0 0 0 
0 0 0 
0 0 0 
0 0 0 
0 0 0 
0 0 0 
0 0 0 
0 0 0 
0 0 0 
0 0 0 
0 0 0 
0 0 0 
0 0 0 
0 0 0 
0 0 0 
0 0 0 
0 0 0 
0 0 0 
0 0 0 
0 0 0 
0 0 0 
0 0 0 
0 0 0 
0 0 0 
0 0 0 
0 0 0 
0 0 0 
0 0 0 
0 0 0 
0 0 0 
0 0 0 
0 0 0 
0 0 0 
0 0 0 
0 0 0 
0 0 0 
0 0 0 
0 0 0 
0 0 0 
0 0 0 
0 0 0 
0 0 0 
0 0 0 
0 0 0 
0 0 0 
0 0 0 
0 0 0 
0 0 0 
0 0 0 
0 0 0 
0 0 0 
0 0 0 
0 0 0 
0 0 0 
0 0 0 
0 0 0 
0 0 0 
0 0 0 
0 0 0 
0 0 0 
0 0 0 
0 0 0 
0 0 0 
0 0 0 
0 0 0 
0 0 0 
0 0 0 
0 0 0 
0 0 0 
0 0 0 
0 0 0 
0 0 0 
0 0 0 
0 0 0 
0 0 0 
0 0 0 
0 0 0 
0 0 0 
0 0 0 
0 0 0 
0 0 0 
0 0 0 
0 0 0 
0 0 0 
0 0 0 
0 0 0 
0 0 0 
0 0 0 
0 0 0 
0 0 0 
0 0 0 
0 0 0 
0 0 0 
0 0 0 
0 0 0 
0 0 0 
0 0 0 
0 0 0 
0 0 0 
0 0 0 
0 0 0 
0 0 0 
0 0 0 
0 0 0 
0 0 0 
0 0 0 
0 0 0 
0 0 0 
0 0 0 
0 0 0 
0 0 0 
0 0 0 
0 0 0 
0 0 0 
0 0 0 
0 0 0 
0 0 0 
0 0 0 
0 0 0 
0 0 0 
0 0 0 
0 0 0 
0 0 0 
0 0 0 
0 0 0 
0 0 0 
0 0 0 
0 0 0 
0 0 0 
0 0 0 
0 0 0 
0 0 0 
0 0 0 
0 0 0 
0 0 0 
0 0 0 
0 0 0 
0 0 0 
0 0 0 
0 0 0 
0 0 0 
0 0 0 
0 0 0 
0 0 0 
0 0 0 
0 0 0 
0 0 0 
0 0 0 
0 0 0 
0 0 0 
0 0 0 
0 0 0 
0 0 0 
0 0 0 
0 0 0 
0 0 0 
0 0 0 
0 0 0 
0 0 0 
0 0 0 
0 0 0 
0 0 0 
0 0 0 
0 0 0 
0 0 0 
0 0 0 
0 0 0 
0 0 0 
0 0 0 
0 0 0 
0 0 0 
0 0 0 
0 0 0 
0 0 0 
0 0 0 
0 0 0 
0 0 0 
0 0 0 
0 0 0 
0 0 0 
0 0 0 
0 0 0 
0 0 0 
0 0 0 
0 0 0 
0 0 0 
0 0 0 
0 0 0 
0 0 0 
0 0 0 
0 0 0 
0 0 0 
0 0 0 
0 0 0 
0 0 0 
0 0 0 
0 0 0 
0 0 0 
0 0 0 
0 0 0 
0 0 0 
0 0 0 
0 0 0 
0 0 0 
0 0 0 
0 0 0 
0 0 0 
0 0 0 
0 0 0 
0 0 0 
0 0 0 
0 0 0 
0 0 0 
0 0 0 
0 0 0 
0 0 0 
0 0 0 
0 0 0 
0 0 0 
0 0 0 
0 0 0 
0 0 0 
0 0 0 
0 0 0 
0 0 0 
0 0 0 
0 0 0 
0 0 0 
0 0 0 
0 0 0 
0 0 0 
0 0 0 
0 0 0 
0 0 0 
0 0 0 
0 0 0 
0 0 0 
0 0 0 
0 0 0 
0 0 0 
0 0 0 
0 0 0 
0 0 0 
0 0 0 
0 0 0 
0 0 0 
0 0 0 
0 0 0 
0 0 0 
0 0 0 
0 0 0 
0 0 0 
0 0 0 
0 0 0 
0 0 0 
0 0 0 
0 0 0 
0 0 0 
0 0 0 
0 0 0 
0 0 0 
0 0 0 
0 0 0 
0 0 0 
0 0 0 
0 0 0 
0 0 0 
0 0 0 
0 0 0 
0 0 0 
0 0 0 
0 0 0 
0 0 0 
0 0 0 
0 0 0 
0 0 0 
0 0 0 
0 0 0 
0 0 0 
0 0 0 
0 0 0 
0 0 0 
0 0 0 
0 0 0 
0 0 0 
0 0 0 
0 0 0 
0 0 0 
0 0 0 
0 0 0 
0 0 0 
0 0 0 
0 0 0 
0 0 0 
0 0 0 
0 0 0 
0 0 0 
0 0 0 
0 0 0 
0 0 0 
0 0 0 
0 0 0 
0 0 0 
0 0 0 
0 0 0 
0 0 0 
0 0 0 
0 0 0 
0 0 0 
0 0 0 
0 0 0 
0 0 0 
0 0 0 
0 0 0 
0 0 0 
0 0 0 
0 0 0 
0 0 0 
0 0 0 
0 0 0 
0 0 0 
0 0 0 
0 0 0 
0 0 0 
0 0 0 
0 0 0 
0 0 0 
0 0 0 
0 0 0 
0 0 0 
0 0 0 
0 0 0 
0 0 0 
0 0 0 
0 0 0 
0 0 0 
0 0 0 
0 0 0 
0 0 0 
0 0 0 
0 0 0 
0 0 0 
0 0 0 
0 0 0 
0 0 0 
0 0 0 
0 0 0 
0 0 0 
0 0 0 
0 0 0 
0 0 0 
0 0 0 
0 0 0 
0 0 0 
0 0 0 
0 0 0 
0 0 0 
0 0 0 
0 0 0 
0 0 0 
0 0 0 
0 0 0 
0 0 0 
0 0 0 
0 0 0 
0 0 0 
0 0 0 
0 0 0 
0 0 0 
0 0 0 
0 0 0 
0 0 0 
0 0 0 
0 0 0 
0 0 0 
0 0 0 
0 0 0 
0 0 0 
0 0 0 
0 0 0 
0 0 0 
0 0 0 
0 0 0 
0 0 0 
0 0 0 
0 0 0 
0 0 0 
0 0 0 
0 0 0 
0 0 0 
0 0 0 
0 0 0 
0 0 0 
0 0 0 
0 0 0 
0 0 0 
0 0 0 
0 0 0 
0 0 0 
0 0 0 
0 0 0 
0 0 0 
0 0 0 
0 0 0 
0 0 0 
0 0 0 
0 0 0 
0 0 0 
0 0 0 
0 0 0 
0 0 0 
0 0 0 
0 0 0 
0 0 0 
0 0 0 
0 0 0 
0 0 0 
0 0 0 
0 0 0 
0 0 0 
0 0 0 
0 0 0 
0 0 0 
0 0 0 
0 0 0 
0 0 0 
0 0 0 
0 0 0 
0 0 0 
0 0 0 
0 0 0 
0 0 0 
0 0 0 
0 0 0 
0 0 0 
0 0 0 
0 0 0 
0 0 0 
0 0 0 
0 0 0 
0 0 0 
0 0 0 
0 0 0 
0 0 0 
0 0 0 
0 0 0 
0 0 0 
0 0 0 
0 0 0 
0 0 0 
0 0 0 
0 0 0 
0 0 0 
0 0 0 
0 0 0 
0 0 0 
0 0 0 
0 0 0 
0 0 0 
0 0 0 
0 0 0 
0 0 0 
0 0 0 
0 0 0 
0 0 0 
0 0 0 
0 0 0 
0 0 0 
0 0 0 
0 0 0 
0 0 0 
0 0 0 
0 0 0 
0 0 0 
0 0 0 
0 0 0 
0 0 0 
0 0 0 
0 0 0 
0 0 0 
0 0 0 
0 0 0 
0 0 0 
0 0 0 
0 0 0 
0 0 0 
0 0 0 
0 0 0 
0 0 0 
0 0 0 
0 0 0 
0 0 0 
0 0 0 
0 0 0 
0 0 0 
0 0 0 
0 0 0 
0 0 0 
0 0 0 
0 0 0 
0 0 0 
0 0 0 
0 0 0 
0 0 0 
0 0 0 
0 0 0 
0 0 0 
0 0 0 
0 0 0 
0 0 0 
0 0 0 
0 0 0 
0 0 0 
0 0 0 
0 0 0 
0 0 0 
0 0 0 
0 0 0 
0 0 0 
0 0 0 
0 0 0 
0 0 0 
0 0 0 
0 0 0 
0 0 0 
0 0 0 
0 0 0 
0 0 0 
0 0 0 
0 0 0 
0 0 0 
0 0 0 
0 0 0 
0 0 0 
0 0 0 
0 0 0 
0 0 0 
0 0 0 
0 0 0 
0 0 0 
0 0 0 
0 0 0 
0 0 0 
0 0 0 
0 0 0 
0 0 0 
0 0 0 
0 0 0 
0 0 0 
0 0 0 
0 0 0 
0 0 0 
0 0 0 
0 0 0 
0 0 0 
0 0 0 
0 0 0 
0 0 0 
0 0 0 
0 0 0 
0 0 0 
0 0 0 
0 0 0 
0 0 0 
0 0 0 
0 0 0 
0 0 0 
0 0 0 
0 0 0 
0 0 0 
0 0 0 
0 0 0 
0 0 0 
0 0 0 
0 0 0 
0 0 0 
0 0 0 
0 0 0 
0 0 0 
0 0 0 
0 0 0 
0 0 0 
0 0 0 
0 0 0 
0 0 0 
0 0 0 
0 0 0 
0 0 0 
0 0 0 
0 0 0 
0 0 0 
0 0 0 
0 0 0 
0 0 0 
0 0 0 
0 0 0 
0 0 0 
0 0 0 
0 0 0 
0 0 0 
0 0 0 
0 0 0 
0 0 0 
0 0 0 
0 0 0 
0 0 0 
0 0 0 
0 0 0 
0 0 0 
0 0 0 
0 0 0 
0 0 0 
0 0 0 
0 0 0 
0 0 0 
0 0 0 
0 0 0 
0 0 0 
0 0 0 
0 0 0 
0 0 0 
0 0 0 
0 0 0 
0 0 0 
0 0 0 
0 0 0 
0 0 0 
0 0 0 
0 0 0 
0 0 0 
0 0 0 
0 0 0 
0 0 0 
0 0 0 
0 0 0 
0 0 0 
0 0 0 
0 0 0 
0 0 0 
0 0 0 
0 0 0 
0 0 0 
0 0 0 
0 0 0 
0 0 0 
0 0 0 
0 0 0 
0 0 0 
0 0 0 
0 0 0 
0 0 0 
0 0 0 
0 0 0 
0 0 0 
0 0 0 
0 0 0 
0 0 0 
0 0 0 
0 0 0 
0 0 0 
0 0 0 
0 0 0 
0 0 0 
0 0 0 
0 0 0 
0 0 0 
0 0 0 
0 0 0 
0 0 0 
0 0 0 
0 0 0 
0 0 0 
0 0 0 
0 0 0 
0 0 0 
0 0 0 
0 0 0 
0 0 0 
0 0 0 
0 0 0 
0 0 0 
0 0 0 
0 0 0 
0 0 0 
0 0 0 
0 0 0 
0 0 0 
0 0 0 
0 0 0 
0 0 0 
0 0 0 
0 0 0 
0 0 0 
0 0 0 
0 0 0 
0 0 0 
0 0 0 
0 0 0 
0 0 0 
0 0 0 
0 0 0 
0 0 0 
0 0 0 
0 0 0 
0 0 0 
0 0 0 
0 0 0 
0 0 0 
0 0 0 
0 0 0 
0 0 0 
0 0 0 
0 0 0 
0 0 0 
0 0 0 
0 0 0 
0 0 0 
0 0 0 
0 0 0 
0 0 0 
0 0 0 
0 0 0 
0 0 0 
0 0 0 
0 0 0 
0 0 0 
0 0 0 
0 0 0 
0 0 0 
0 0 0 
0 0 0 
0 0 0 
0 0 0 
0 0 0 
0 0 0 
0 0 0 
0 0 0 
0 0 0 
0 0 0 
0 0 0 
0 0 0 
0 0 0 
0 0 0 
0 0 0 
0 0 0 
0 0 0 
0 0 0 
0 0 0 
0 0 0 
0 0 0 
0 0 0 
0 0 0 
0 0 0 
0 0 0 
0 0 0 
0 0 0 
0 0 0 
0 0 0 
0 0 0 
0 0 0 
0 0 0 
0 0 0 
0 0 0 
0 0 0 
0 0 0 
0 0 0 
0 0 0 
0 0 0 
0 0 0 
0 0 0 
0 0 0 
0 0 0 
0 0 0 
0 0 0 
0 0 0 
0 0 0 
0 0 0 
0 0 0 
0 0 0 
0 0 0 
0 0 0 
0 0 0 
0 0 0 
0 0 0 
0 0 0 
0 0 0 
0 0 0 
0 0 0 
0 0 0 
0 0 0 
0 0 0 
0 0 0 
0 0 0 
0 0 0 
0 0 0 
0 0 0 
0 0 0 
0 0 0 
0 0 0 
0 0 0 
0 0 0 
0 0 0 
0 0 0 
0 0 0 
0 0 0 
0 0 0 
0 0 0 
0 0 0 
0 0 0 
0 0 0 
0 0 0 
0 0 0 
0 0 0 
0 0 0 
0 0 0 
0 0 0 
0 0 0 
0 0 0 
0 0 0 
0 0 0 
0 0 0 
0 0 0 
0 0 0 
0 0 0 
0 0 0 
0 0 0 
0 0 0 
0 0 0 
0 0 0 
0 0 0 
0 0 0 
0 0 0 
0 0 0 
0 0 0 
0 0 0 
0 0 0 
0 0 0 
0 0 0 
0 0 0 
0 0 0 
0 0 0 
0 0 0 
0 0 0 
0 0 0 
0 0 0 
0 0 0 
0 0 0 
0 0 0 
0 0 0 
0 0 0 
0 0 0 
0 0 0 
0 0 0 
0 0 0 
0 0 0 
0 0 0 
0 0 0 
0 0 0 
0 0 0 
0 0 0 
0 0 0 
0 0 0 
0 0 0 
0 0 0 
0 0 0 
0 0 0 
0 0 0 
0 0 0 
0 0 0 
0 0 0 
0 0 0 
0 0 0 
0 0 0 
0 0 0 
0 0 0 
0 0 0 
0 0 0 
0 0 0 
0 0 0 
0 0 0 
0 0 0 
0 0 0 
0 0 0 
0 0 0 
0 0 0 
0 0 0 
0 0 0 
0 0 0 
0 0 0 
0 0 0 
0 0 0 
0 0 0 
0 0 0 
0 0 0 
0 0 0 
0 0 0 
0 0 0 
0 0 0 
0 0 0 
0 0 0 
0 0 0 
0 0 0 
0 0 0 
0 0 0 
0 0 0 
0 0 0 
0 0 0 
0 0 0 
0 0 0 
0 0 0 
0 0 0 
0 0 0 
0 0 0 
0 0 0 
0 0 0 
0 0 0 
0 0 0 
0 0 0 
0 0 0 
0 0 0 
0 0 0 
0 0 0 
0 0 0 
0 0 0 
0 0 0 
0 0 0 
0 0 0 
0 0 0 
0 0 0 
0 0 0 
0 0 0 
0 0 0 
0 0 0 
0 0 0 
0 0 0 
0 0 0 
0 0 0 
0 0 0 
0 0 0 
0 0 0 
0 0 0 
0 0 0 
0 0 0 
0 0 0 
0 0 0 
0 0 0 
0 0 0 
0 0 0 
0 0 0 
0 0 0 
0 0 0 
0 0 0 
0 0 0 
0 0 0 
0 0 0 
0 0 0 
0 0 0 
0 0 0 
0 0 0 
0 0 0 
0 0 0 
0 0 0 
0 0 0 
0 0 0 
0 0 0 
0 0 0 
0 0 0 
0 0 0 
0 0 0 
0 0 0 
0 0 0 
0 0 0 
0 0 0 
0 0 0 
0 0 0 
0 0 0 
0 0 0 
0 0 0 
0 0 0 
0 0 0 
0 0 0 
0 0 0 
0 0 0 
0 0 0 
0 0 0 
0 0 0 
0 0 0 
0 0 0 
0 0 0 
0 0 0 
0 0 0 
0 0 0 
0 0 0 
0 0 0 
0 0 0 
0 0 0 
0 0 0 
0 0 0 
0 0 0 
0 0 0 
0 0 0 
0 0 0 
0 0 0 
0 0 0 
0 0 0 
0 0 0 
0 0 0 
0 0 0 
0 0 0 
0 0 0 
0 0 0 
0 0 0 
0 0 0 
0 0 0 
0 0 0 
0 0 0 
0 0 0 
0 0 0 
0 0 0 
0 0 0 
0 0 0 
0 0 0 
0 0 0 
0 0 0 
0 0 0 
0 0 0 
0 0 0 
0 0 0 
0 0 0 
0 0 0 
0 0 0 
0 0 0 
0 0 0 
0 0 0 
0 0 0 
0 0 0 
0 0 0 
0 0 0 
0 0 0 
0 0 0 
0 0 0 
0 0 0 
0 0 0 
0 0 0 
0 0 0 
0 0 0 
0 0 0 
0 0 0 
0 0 0 
0 0 0 
0 0 0 
0 0 0 
0 0 0 
0 0 0 
0 0 0 
0 0 0 
0 0 0 
0 0 0 
0 0 0 
0 0 0 
0 0 0 
0 0 0 
0 0 0 
0 0 0 
0 0 0 
0 0 0 
0 0 0 
0 0 0 
0 0 0 
0 0 0 
0 0 0 
0 0 0 
0 0 0 
0 0 0 
0 0 0 
0 0 0 
0 0 0 
0 0 0 
0 0 0 
0 0 0 
0 0 0 
0 0 0 
0 0 0 
0 0 0 
0 0 0 
0 0 0 
0 0 0 
0 0 0 
0 0 0 
0 0 0 
0 0 0 
0 0 0 
0 0 0 
0 0 0 
0 0 0 
0 0 0 
0 0 0 
0 0 0 
0 0 0 
0 0 0 
0 0 0 
0 0 0 
0 0 0 
0 0 0 
0 0 0 
0 0 0 
0 0 0 
0 0 0 
0 0 0 
0 0 0 
0 0 0 
0 0 0 
0 0 0 
0 0 0 
0 0 0 
0 0 0 
0 0 0 
0 0 0 
0 0 0 
0 0 0 
0 0 0 
0 0 0 
0 0 0 
0 0 0 
0 0 0 
0 0 0 
0 0 0 
0 0 0 
0 0 0 
0 0 0 
0 0 0 
0 0 0 
0 0 0 
0 0 0 
0 0 0 
0 0 0 
0 0 0 
0 0 0 
0 0 0 
0 0 0 
0 0 0 
0 0 0 
0 0 0 
0 0 0 
0 0 0 
0 0 0 
0 0 0 
0 0 0 
0 0 0 
0 0 0 
0 0 0 
0 0 0 
0 0 0 
0 0 0 
0 0 0 
0 0 0 
0 0 0 
0 0 0 
0 0 0 
0 0 0 
0 0 0 
0 0 0 
0 0 0 
0 0 0 
0 0 0 
0 0 0 
0 0 0 
0 0 0 
0 0 0 
0 0 0 
0 0 0 
0 0 0 
0 0 0 
0 0 0 
0 0 0 
0 0 0 
0 0 0 
0 0 0 
0 0 0 
0 0 0 
0 0 0 
0 0 0 
0 0 0 
0 0 0 
0 0 0 
0 0 0 
0 0 0 
0 0 0 
0 0 0 
0 0 0 
0 0 0 
0 0 0 
0 0 0 
0 0 0 
0 0 0 
0 0 0 
0 0 0 
0 0 0 
0 0 0 
0 0 0 
0 0 0 
0 0 0 
0 0 0 
0 0 0 
0 0 0 
0 0 0 
0 0 0 
0 0 0 
0 0 0 
0 0 0 
0 0 0 
0 0 0 
0 0 0 
0 0 0 
0 0 0 
0 0 0 
0 0 0 
0 0 0 
0 0 0 
0 0 0 
0 0 0 
0 0 0 
0 0 0 
0 0 0 
0 0 0 
0 0 0 
0 0 0 
0 0 0 
0 0 0 
0 0 0 
0 0 0 
0 0 0 
0 0 0 
0 0 0 
0 0 0 
0 0 0 
0 0 0 
0 0 0 
0 0 0 
0 0 0 
0 0 0 
0 0 0 
0 0 0 
0 0 0 
0 0 0 
0 0 0 
0 0 0 
0 0 0 
0 0 0 
0 0 0 
0 0 0 
0 0 0 
0 0 0 
0 0 0 
0 0 0 
0 0 0 
0 0 0 
0 0 0 
0 0 0 
0 0 0 
0 0 0 
0 0 0 
0 0 0 
0 0 0 
0 0 0 
0 0 0 
0 0 0 
0 0 0 
0 0 0 
0 0 0 
0 0 0 
0 0 0 
0 0 0 
0 0 0 
0 0 0 
0 0 0 
0 0 0 
0 0 0 
0 0 0 
0 0 0 
0 0 0 
0 0 0 
0 0 0 
0 0 0 
0 0 0 
0 0 0 
0 0 0 
0 0 0 
0 0 0 
0 0 0 
0 0 0 
0 0 0 
0 0 0 
0 0 0 
0 0 0 
0 0 0 
0 0 0 
0 0 0 
0 0 0 
0 0 0 
0 0 0 
0 0 0 
0 0 0 
0 0 0 
0 0 0 
0 0 0 
0 0 0 
0 0 0 
0 0 0 
0 0 0 
0 0 0 
0 0 0 
0 0 0 
0 0 0 
0 0 0 
0 0 0 
0 0 0 
0 0 0 
0 0 0 
0 0 0 
0 0 0 
0 0 0 
0 0 0 
0 0 0 
0 0 0 
0 0 0 
0 0 0 
0 0 0 
0 0 0 
0 0 0 
0 0 0 
0 0 0 
0 0 0 
0 0 0 
0 0 0 
0 0 0 
0 0 0 
0 0 0 
0 0 0 
0 0 0 
0 0 0 
0 0 0 
0 0 0 
0 0 0 
0 0 0 
0 0 0 
0 0 0 
0 0 0 
0 0 0 
0 0 0 
0 0 0 
0 0 0 
0 0 0 
0 0 0 
0 0 0 
0 0 0 
0 0 0 
0 0 0 
0 0 0 
0 0 0 
0 0 0 
0 0 0 
0 0 0 
0 0 0 
0 0 0 
0 0 0 
0 0 0 
0 0 0 
0 0 0 
0 0 0 
0 0 0 
0 0 0 
0 0 0 
0 0 0 
0 0 0 
0 0 0 
0 0 0 
0 0 0 
0 0 0 
0 0 0 
0 0 0 
0 0 0 
0 0 0 
0 0 0 
0 0 0 
0 0 0 
0 0 0 
0 0 0 
0 0 0 
0 0 0 
0 0 0 
0 0 0 
0 0 0 
0 0 0 
0 0 0 
0 0 0 
0 0 0 
0 0 0 
0 0 0 
0 0 0 
0 0 0 
0 0 0 
0 0 0 
0 0 0 
0 0 0 
0 0 0 
0 0 0 
0 0 0 
0 0 0 
0 0 0 
0 0 0 
0 0 0 
0 0 0 
0 0 0 
0 0 0 
0 0 0 
0 0 0 
0 0 0 
0 0 0 
0 0 0 
0 0 0 
0 0 0 
0 0 0 
0 0 0 
0 0 0 
0 0 0 
0 0 0 
0 0 0 
0 0 0 
0 0 0 
0 0 0 
0 0 0 
0 0 0 
0 0 0 
0 0 0 
0 0 0 
0 0 0 
0 0 0 
0 0 0 
0 0 0 
0 0 0 
0 0 0 
0 0 0 
0 0 0 
0 0 0 
0 0 0 
0 0 0 
0 0 0 
0 0 0 
0 0 0 
0 0 0 
0 0 0 
0 0 0 
0 0 0 
0 0 0 
0 0 0 
0 0 0 
0 0 0 
0 0 0 
0 0 0 
0 0 0 
0 0 0 
0 0 0 
0 0 0 
0 0 0 
0 0 0 
0 0 0 
0 0 0 
0 0 0 
0 0 0 
0 0 0 
0 0 0 
0 0 0 
0 0 0 
0 0 0 
0 0 0 
0 0 0 
0 0 0 
0 0 0 
0 0 0 
0 0 0 
0 0 0 
0 0 0 
0 0 0 
0 0 0 
0 0 0 
0 0 0 
0 0 0 
0 0 0 
0 0 0 
0 0 0 
0 0 0 
0 0 0 
0 0 0 
0 0 0 
0 0 0 
0 0 0 
0 0 0 
0 0 0 
0 0 0 
0 0 0 
0 0 0 
0 0 0 
0 0 0 
0 0 0 
0 0 0 
0 0 0 
0 0 0 
0 0 0 
0 0 0 
0 0 0 
0 0 0 
0 0 0 
0 0 0 
0 0 0 
0 0 0 
0 0 0 
0 0 0 
0 0 0 
0 0 0 
0 0 0 
0 0 0 
0 0 0 
0 0 0 
0 0 0 
0 0 0 
0 0 0 
0 0 0 
0 0 0 
0 0 0 
0 0 0 
0 0 0 
0 0 0 
0 0 0 
0 0 0 
0 0 0 
0 0 0 
0 0 0 
0 0 0 
0 0 0 
0 0 0 
0 0 0 
0 0 0 
0 0 0 
0 0 0 
0 0 0 
0 0 0 
0 0 0 
0 0 0 
0 0 0 
0 0 0 
0 0 0 
0 0 0 
0 0 0 
0 0 0 
0 0 0 
0 0 0 
0 0 0 
0 0 0 
0 0 0 
0 0 0 
0 0 0 
0 0 0 
0 0 0 
0 0 0 
0 0 0 
0 0 0 
0 0 0 
0 0 0 
0 0 0 
0 0 0 
0 0 0 
0 0 0 
0 0 0 
0 0 0 
0 0 0 
0 0 0 
0 0 0 
0 0 0 
0 0 0 
0 0 0 
0 0 0 
0 0 0 
0 0 0 
0 0 0 
0 0 0 
0 0 0 
0 0 0 
0 0 0 
0 0 0 
0 0 0 
0 0 0 
0 0 0 
0 0 0 
0 0 0 
0 0 0 
0 0 0 
0 0 0 
0 0 0 
0 0 0 
0 0 0 
0 0 0 
0 0 0 
0 0 0 
0 0 0 
0 0 0 
0 0 0 
0 0 0 
0 0 0 
0 0 0 
0 0 0 
0 0 0 
0 0 0 
0 0 0 
0 0 0 
0 0 0 
0 0 0 
0 0 0 
0 0 0 
0 0 0 
0 0 0 
0 0 0 
0 0 0 
0 0 0 
0 0 0 
0 0 0 
0 0 0 
0 0 0 
0 0 0 
0 0 0 
0 0 0 
0 0 0 
0 0 0 
0 0 0 
0 0 0 
0 0 0 
0 0 0 
0 0 0 
0 0 0 
0 0 0 
0 0 0 
0 0 0 
0 0 0 
0 0 0 
0 0 0 
0 0 0 
0 0 0 
0 0 0 
0 0 0 
0 0 0 
0 0 0 
0 0 0 
0 0 0 
0 0 0 
0 0 0 
0 0 0 
0 0 0 
0 0 0 
0 0 0 
0 0 0 
0 0 0 
0 0 0 
0 0 0 
0 0 0 
0 0 0 
0 0 0 
0 0 0 
0 0 0 
0 0 0 
0 0 0 
0 0 0 
0 0 0 
0 0 0 
0 0 0 
0 0 0 
0 0 0 
0 0 0 
0 0 0 
0 0 0 
0 0 0 
0 0 0 
0 0 0 
0 0 0 
0 0 0 
0 0 0 
0 0 0 
0 0 0 
0 0 0 
0 0 0 
0 0 0 
0 0 0 
0 0 0 
0 0 0 
0 0 0 
0 0 0 
0 0 0 
0 0 0 
0 0 0 
0 0 0 
0 0 0 
0 0 0 
0 0 0 
0 0 0 
0 0 0 
0 0 0 
0 0 0 
0 0 0 
0 0 0 
0 0 0 
0 0 0 
0 0 0 
0 0 0 
0 0 0 
0 0 0 
0 0 0 
0 0 0 
0 0 0 
0 0 0 
0 0 0 
0 0 0 
0 0 0 
0 0 0 
0 0 0 
0 0 0 
0 0 0 
0 0 0 
0 0 0 
0 0 0 
0 0 0 
0 0 0 
0 0 0 
0 0 0 
0 0 0 
0 0 0 
0 0 0 
0 0 0 
0 0 0 
0 0 0 
0 0 0 
0 0 0 
0 0 0 
0 0 0 
0 0 0 
0 0 0 
0 0 0 
0 0 0 
0 0 0 
0 0 0 
0 0 0 
0 0 0 
0 0 0 
0 0 0 
0 0 0 
0 0 0 
0 0 0 
0 0 0 
0 0 0 
0 0 0 
0 0 0 
0 0 0 
0 0 0 
0 0 0 
0 0 0 
0 0 0 
0 0 0 
0 0 0 
0 0 0 
0 0 0 
0 0 0 
0 0 0 
0 0 0 
0 0 0 
0 0 0 
0 0 0 
0 0 0 
0 0 0 
0 0 0 
0 0 0 
0 0 0 
0 0 0 
0 0 0 
0 0 0 
0 0 0 
0 0 0 
0 0 0 
0 0 0 
0 0 0 
0 0 0 
0 0 0 
0 0 0 
0 0 0 
0 0 0 
0 0 0 
0 0 0 
0 0 0 
0 0 0 
0 0 0 
0 0 0 
0 0 0 
0 0 0 
0 0 0 
0 0 0 
0 0 0 
0 0 0 
0 0 0 
0 0 0 
0 0 0 
0 0 0 
0 0 0 
0 0 0 
0 0 0 
0 0 0 
0 0 0 
0 0 0 
0 0 0 
0 0 0 
0 0 0 
0 0 0 
0 0 0 
0 0 0 
0 0 0 
0 0 0 
0 0 0 
0 0 0 
0 0 0 
0 0 0 
0 0 0 
0 0 0 
0 0 0 
0 0 0 
0 0 0 
0 0 0 
0 0 0 
0 0 0 
0 0 0 
0 0 0 
0 0 0 
0 0 0 
0 0 0 
0 0 0 
0 0 0 
0 0 0 
0 0 0 
0 0 0 
0 0 0 
0 0 0 
0 0 0 
0 0 0 
0 0 0 
0 0 0 
0 0 0 
0 0 0 
0 0 0 
0 0 0 
0 0 0 
0 0 0 
0 0 0 
0 0 0 
0 0 0 
0 0 0 
0 0 0 
0 0 0 
0 0 0 
0 0 0 
0 0 0 
0 0 0 
0 0 0 
0 0 0 
0 0 0 
0 0 0 
0 0 0 
0 0 0 
0 0 0 
0 0 0 
0 0 0 
0 0 0 
0 0 0 
0 0 0 
0 0 0 
0 0 0 
0 0 0 
0 0 0 
0 0 0 
0 0 0 
0 0 0 
0 0 0 
0 0 0 
0 0 0 
0 0 0 
0 0 0 
0 0 0 
0 0 0 
0 0 0 
0 0 0 
0 0 0 
0 0 0 
0 0 0 
0 0 0 
0 0 0 
0 0 0 
0 0 0 
0 0 0 
0 0 0 
0 0 0 
0 0 0 
0 0 0 
0 0 0 
0 0 0 
0 0 0 
0 0 0 
0 0 0 
0 0 0 
0 0 0 
0 0 0 
0 0 0 
0 0 0 
0 0 0 
0 0 0 
0 0 0 
0 0 0 
0 0 0 
0 0 0 
0 0 0 
0 0 0 
0 0 0 
0 0 0 
0 0 0 
0 0 0 
0 0 0 
0 0 0 
0 0 0 
0 0 0 
0 0 0 
0 0 0 
0 0 0 
0 0 0 
0 0 0 
0 0 0 
0 0 0 
0 0 0 
0 0 0 
0 0 0 
0 0 0 
0 0 0 
0 0 0 
0 0 0 
0 0 0 
0 0 0 
0 0 0 
0 0 0 
0 0 0 
0 0 0 
0 0 0 
0 0 0 
0 0 0 
0 0 0 
0 0 0 
0 0 0 
0 0 0 
0 0 0 
0 0 0 
0 0 0 
0 0 0 
0 0 0 
0 0 0 
0 0 0 
0 0 0 
0 0 0 
0 0 0 
0 0 0 
0 0 0 
0 0 0 
0 0 0 
0 0 0 
0 0 0 
0 0 0 
0 0 0 
0 0 0 
0 0 0 
0 0 0 
0 0 0 
0 0 0 
0 0 0 
0 0 0 
0 0 0 
0 0 0 
0 0 0 
0 0 0 
0 0 0 
0 0 0 
0 0 0 
0 0 0 
0 0 0 
0 0 0 
0 0 0 
0 0 0 
0 0 0 
0 0 0 
0 0 0 
0 0 0 
0 0 0 
0 0 0 
0 0 0 
0 0 0 
0 0 0 
0 0 0 
0 0 0 
0 0 0 
0 0 0 
0 0 0 
0 0 0 
0 0 0 
0 0 0 
0 0 0 
0 0 0 
0 0 0 
0 0 0 
0 0 0 
0 0 0 
0 0 0 
0 0 0 
0 0 0 
0 0 0 
0 0 0 
0 0 0 
0 0 0 
0 0 0 
0 0 0 
0 0 0 
0 0 0 
0 0 0 
0 0 0 
0 0 0 
0 0 0 
0 0 0 
0 0 0 
0 0 0 
0 0 0 
0 0 0 
0 0 0 
0 0 0 
0 0 0 
0 0 0 
0 0 0 
0 0 0 
0 0 0 
0 0 0 
0 0 0 
0 0 0 
0 0 0 
0 0 0 
0 0 0 
0 0 0 
0 0 0 
0 0 0 
0 0 0 
0 0 0 
0 0 0 
0 0 0 
0 0 0 
0 0 0 
0 0 0 
0 0 0 
0 0 0 
0 0 0 
0 0 0 
0 0 0 
0 0 0 
0 0 0 
0 0 0 
0 0 0 
0 0 0 
0 0 0 
0 0 0 
0 0 0 
0 0 0 
0 0 0 
0 0 0 
0 0 0 
0 0 0 
0 0 0 
0 0 0 
0 0 0 
0 0 0 
0 0 0 
0 0 0 
0 0 0 
0 0 0 
0 0 0 
0 0 0 
0 0 0 
0 0 0 
0 0 0 
0 0 0 
0 0 0 
0 0 0 
0 0 0 
0 0 0 
0 0 0 
0 0 0 
0 0 0 
0 0 0 
0 0 0 
0 0 0 
0 0 0 
0 0 0 
0 0 0 
0 0 0 
0 0 0 
0 0 0 
0 0 0 
0 0 0 
0 0 0 
0 0 0 
0 0 0 
0 0 0 
0 0 0 
0 0 0 
0 0 0 
0 0 0 
0 0 0 
0 0 0 
0 0 0 
0 0 0 
0 0 0 
0 0 0 
0 0 0 
0 0 0 
0 0 0 
0 0 0 
0 0 0 
0 0 0 
0 0 0 
0 0 0 
0 0 0 
0 0 0 
0 0 0 
0 0 0 
0 0 0 
0 0 0 
0 0 0 
0 0 0 
0 0 0 
0 0 0 
0 0 0 
0 0 0 
0 0 0 
0 0 0 
0 0 0 
0 0 0 
0 0 0 
0 0 0 
0 0 0 
0 0 0 
0 0 0 
0 0 0 
0 0 0 
0 0 0 
0 0 0 
0 0 0 
0 0 0 
0 0 0 
0 0 0 
0 0 0 
0 0 0 
0 0 0 
0 0 0 
0 0 0 
0 0 0 
0 0 0 
0 0 0 
0 0 0 
0 0 0 
0 0 0 
0 0 0 
0 0 0 
0 0 0 
0 0 0 
0 0 0 
0 0 0 
0 0 0 
0 0 0 
0 0 0 
0 0 0 
0 0 0 
0 0 0 
0 0 0 
0 0 0 
0 0 0 
0 0 0 
0 0 0 
0 0 0 
0 0 0 
0 0 0 
0 0 0 
0 0 0 
0 0 0 
0 0 0 
0 0 0 
0 0 0 
0 0 0 
0 0 0 
0 0 0 
0 0 0 
0 0 0 
0 0 0 
0 0 0 
0 0 0 
0 0 0 
0 0 0 
0 0 0 
0 0 0 
0 0 0 
0 0 0 
0 0 0 
0 0 0 
0 0 0 
0 0 0 
0 0 0 
0 0 0 
0 0 0 
0 0 0 
0 0 0 
0 0 0 
0 0 0 
0 0 0 
0 0 0 
0 0 0 
0 0 0 
0 0 0 
0 0 0 
0 0 0 
0 0 0 
0 0 0 
0 0 0 
0 0 0 
0 0 0 
0 0 0 
0 0 0 
0 0 0 
0 0 0 
0 0 0 
0 0 0 
0 0 0 
0 0 0 
0 0 0 
0 0 0 
0 0 0 
0 0 0 
0 0 0 
0 0 0 
0 0 0 
0 0 0 
0 0 0 
0 0 0 
0 0 0 
0 0 0 
0 0 0 
0 0 0 
0 0 0 
0 0 0 
0 0 0 
0 0 0 
0 0 0 
0 0 0 
0 0 0 
0 0 0 
0 0 0 
0 0 0 
0 0 0 
0 0 0 
0 0 0 
0 0 0 
0 0 0 
0 0 0 
0 0 0 
0 0 0 
0 0 0 
0 0 0 
0 0 0 
0 0 0 
0 0 0 
0 0 0 
0 0 0 
0 0 0 
0 0 0 
0 0 0 
0 0 0 
0 0 0 
0 0 0 
0 0 0 
0 0 0 
0 0 0 
0 0 0 
0 0 0 
0 0 0 
0 0 0 
0 0 0 
0 0 0 
0 0 0 
0 0 0 
0 0 0 
0 0 0 
0 0 0 
0 0 0 
0 0 0 
0 0 0 
0 0 0 
0 0 0 
0 0 0 
0 0 0 
0 0 0 
0 0 0 
0 0 0 
0 0 0 
0 0 0 
0 0 0 
0 0 0 
0 0 0 
0 0 0 
0 0 0 
0 0 0 
0 0 0 
0 0 0 
0 0 0 
0 0 0 
0 0 0 
0 0 0 
0 0 0 
0 0 0 
0 0 0 
0 0 0 
0 0 0 
0 0 0 
0 0 0 
0 0 0 
0 0 0 
0 0 0 
0 0 0 
0 0 0 
0 0 0 
0 0 0 
0 0 0 
0 0 0 
0 0 0 
0 0 0 
0 0 0 
0 0 0 
0 0 0 
0 0 0 
0 0 0 
0 0 0 
0 0 0 
0 0 0 
0 0 0 
0 0 0 
0 0 0 
0 0 0 
0 0 0 
0 0 0 
0 0 0 
0 0 0 
0 0 0 
0 0 0 
0 0 0 
0 0 0 
0 0 0 
0 0 0 
0 0 0 
0 0 0 
0 0 0 
0 0 0 
0 0 0 
0 0 0 
0 0 0 
0 0 0 
0 0 0 
0 0 0 
0 0 0 
0 0 0 
0 0 0 
0 0 0 
0 0 0 
0 0 0 
0 0 0 
0 0 0 
0 0 0 
0 0 0 
0 0 0 
0 0 0 
0 0 0 
0 0 0 
0 0 0 
0 0 0 
0 0 0 
0 0 0 
0 0 0 
0 0 0 
0 0 0 
0 0 0 
0 0 0 
0 0 0 
0 0 0 
0 0 0 
0 0 0 
0 0 0 
0 0 0 
0 0 0 
0 0 0 
0 0 0 
0 0 0 
0 0 0 
0 0 0 
0 0 0 
0 0 0 
0 0 0 
0 0 0 
0 0 0 
0 0 0 
0 0 0 
0 0 0 
0 0 0 
0 0 0 
0 0 0 
0 0 0 
0 0 0 
0 0 0 
0 0 0 
0 0 0 
0 0 0 
0 0 0 
0 0 0 
0 0 0 
0 0 0 
0 0 0 
0 0 0 
0 0 0 
0 0 0 
0 0 0 
0 0 0 
0 0 0 
0 0 0 
0 0 0 
0 0 0 
0 0 0 
0 0 0 
0 0 0 
0 0 0 
0 0 0 
0 0 0 
0 0 0 
0 0 0 
0 0 0 
0 0 0 
0 0 0 
0 0 0 
0 0 0 
0 0 0 
0 0 0 
0 0 0 
0 0 0 
0 0 0 
0 0 0 
0 0 0 
0 0 0 
0 0 0 
0 0 0 
0 0 0 
0 0 0 
0 0 0 
0 0 0 
0 0 0 
0 0 0 
0 0 0 
0 0 0 
0 0 0 
0 0 0 
0 0 0 
0 0 0 
0 0 0 
0 0 0 
0 0 0 
0 0 0 
0 0 0 
0 0 0 
0 0 0 
0 0 0 
0 0 0 
0 0 0 
0 0 0 
0 0 0 
0 0 0 
0 0 0 
0 0 0 
0 0 0 
0 0 0 
0 0 0 
0 0 0 
0 0 0 
0 0 0 
0 0 0 
0 0 0 
0 0 0 
0 0 0 
0 0 0 
0 0 0 
0 0 0 
0 0 0 
0 0 0 
0 0 0 
0 0 0 
0 0 0 
0 0 0 
0 0 0 
0 0 0 
0 0 0 
0 0 0 
0 0 0 
0 0 0 
0 0 0 
0 0 0 
0 0 0 
0 0 0 
0 0 0 
0 0 0 
0 0 0 
0 0 0 
0 0 0 
0 0 0 
0 0 0 
0 0 0 
0 0 0 
0 0 0 
0 0 0 
0 0 0 
0 0 0 
0 0 0 
0 0 0 
0 0 0 
0 0 0 
0 0 0 
0 0 0 
0 0 0 
0 0 0 
0 0 0 
0 0 0 
0 0 0 
0 0 0 
0 0 0 
0 0 0 
0 0 0 
0 0 0 
0 0 0 
0 0 0 
0 0 0 
0 0 0 
0 0 0 
0 0 0 
0 0 0 
0 0 0 
0 0 0 
0 0 0 
0 0 0 
0 0 0 
0 0 0 
0 0 0 
0 0 0 
0 0 0 
0 0 0 
0 0 0 
0 0 0 
0 0 0 
0 0 0 
0 0 0 
0 0 0 
0 0 0 
0 0 0 
0 0 0 
0 0 0 
0 0 0 
0 0 0 
0 0 0 
0 0 0 
0 0 0 
0 0 0 
0 0 0 
0 0 0 
0 0 0 
0 0 0 
0 0 0 
0 0 0 
0 0 0 
0 0 0 
0 0 0 
0 0 0 
0 0 0 
0 0 0 
0 0 0 
0 0 0 
0 0 0 
0 0 0 
0 0 0 
0 0 0 
0 0 0 
0 0 0 
0 0 0 
0 0 0 
0 0 0 
0 0 0 
0 0 0 
0 0 0 
0 0 0 
0 0 0 
0 0 0 
0 0 0 
0 0 0 
0 0 0 
0 0 0 
0 0 0 
0 0 0 
0 0 0 
0 0 0 
0 0 0 
0 0 0 
0 0 0 
0 0 0 
0 0 0 
0 0 0 
0 0 0 
0 0 0 
0 0 0 
0 0 0 
0 0 0 
0 0 0 
0 0 0 
0 0 0 
0 0 0 
0 0 0 
0 0 0 
0 0 0 
0 0 0 
0 0 0 
0 0 0 
0 0 0 
0 0 0 
0 0 0 
0 0 0 
0 0 0 
0 0 0 
0 0 0 
0 0 0 
0 0 0 
0 0 0 
0 0 0 
0 0 0 
0 0 0 
0 0 0 
0 0 0 
0 0 0 
0 0 0 
0 0 0 
0 0 0 
0 0 0 
0 0 0 
0 0 0 
0 0 0 
0 0 0 
0 0 0 
0 0 0 
0 0 0 
0 0 0 
0 0 0 
0 0 0 
0 0 0 
0 0 0 
0 0 0 
0 0 0 
0 0 0 
0 0 0 
0 0 0 
0 0 0 
0 0 0 
0 0 0 
0 0 0 
0 0 0 
0 0 0 
0 0 0 
0 0 0 
0 0 0 
0 0 0 
0 0 0 
0 0 0 
0 0 0 
0 0 0 
0 0 0 
0 0 0 
0 0 0 
0 0 0 
0 0 0 
0 0 0 
0 0 0 
0 0 0 
0 0 0 
0 0 0 
0 0 0 
0 0 0 
0 0 0 
0 0 0 
0 0 0 
0 0 0 
0 0 0 
0 0 0 
0 0 0 
0 0 0 
0 0 0 
0 0 0 
0 0 0 
0 0 0 
0 0 0 
0 0 0 
0 0 0 
0 0 0 
0 0 0 
0 0 0 
0 0 0 
0 0 0 
0 0 0 
0 0 0 
0 0 0 
0 0 0 
0 0 0 
0 0 0 
0 0 0 
0 0 0 
0 0 0 
0 0 0 
0 0 0 
0 0 0 
0 0 0 
0 0 0 
0 0 0 
0 0 0 
0 0 0 
0 0 0 
0 0 0 
0 0 0 
0 0 0 
0 0 0 
0 0 0 
0 0 0 
0 0 0 
0 0 0 
0 0 0 
0 0 0 
0 0 0 
0 0 0 
0 0 0 
0 0 0 
0 0 0 
0 0 0 
0 0 0 
0 0 0 
0 0 0 
0 0 0 
0 0 0 
0 0 0 
0 0 0 
0 0 0 
0 0 0 
0 0 0 
0 0 0 
0 0 0 
0 0 0 
0 0 0 
0 0 0 
0 0 0 
0 0 0 
0 0 0 
0 0 0 
0 0 0 
0 0 0 
0 0 0 
0 0 0 
0 0 0 
0 0 0 
0 0 0 
0 0 0 
0 0 0 
0 0 0 
0 0 0 
0 0 0 
0 0 0 
0 0 0 
0 0 0 
0 0 0 
0 0 0 
0 0 0 
0 0 0 
0 0 0 
0 0 0 
0 0 0 
0 0 0 
0 0 0 
0 0 0 
0 0 0 
0 0 0 
0 0 0 
0 0 0 
0 0 0 
0 0 0 
0 0 0 
0 0 0 
0 0 0 
0 0 0 
0 0 0 
0 0 0 
0 0 0 
0 0 0 
0 0 0 
0 0 0 
0 0 0 
0 0 0 
0 0 0 
0 0 0 
0 0 0 
0 0 0 
0 0 0 
0 0 0 
0 0 0 
0 0 0 
0 0 0 
0 0 0 
0 0 0 
0 0 0 
0 0 0 
0 0 0 
0 0 0 
0 0 0 
0 0 0 
0 0 0 
0 0 0 
0 0 0 
0 0 0 
0 0 0 
0 0 0 
0 0 0 
0 0 0 
0 0 0 
0 0 0 
0 0 0 
0 0 0 
0 0 0 
0 0 0 
0 0 0 
0 0 0 
0 0 0 
0 0 0 
0 0 0 
0 0 0 
0 0 0 
0 0 0 
0 0 0 
0 0 0 
0 0 0 
0 0 0 
0 0 0 
0 0 0 
0 0 0 
0 0 0 
0 0 0 
0 0 0 
0 0 0 
0 0 0 
0 0 0 
0 0 0 
0 0 0 
0 0 0 
0 0 0 
0 0 0 
0 0 0 
0 0 0 
0 0 0 
0 0 0 
0 0 0 
0 0 0 
0 0 0 
0 0 0 
0 0 0 
0 0 0 
0 0 0 
0 0 0 
0 0 0 
0 0 0 
0 0 0 
0 0 0 
0 0 0 
0 0 0 
0 0 0 
0 0 0 
0 0 0 
0 0 0 
0 0 0 
0 0 0 
0 0 0 
0 0 0 
0 0 0 
0 0 0 
0 0 0 
0 0 0 
0 0 0 
0 0 0 
0 0 0 
0 0 0 
0 0 0 
0 0 0 
0 0 0 
0 0 0 
0 0 0 
0 0 0 
0 0 0 
0 0 0 
0 0 0 
0 0 0 
0 0 0 
0 0 0 
0 0 0 
0 0 0 
0 0 0 
0 0 0 
0 0 0 
0 0 0 
0 0 0 
0 0 0 
0 0 0 
0 0 0 
0 0 0 
0 0 0 
0 0 0 
0 0 0 
0 0 0 
0 0 0 
0 0 0 
0 0 0 
0 0 0 
0 0 0 
0 0 0 
0 0 0 
0 0 0 
0 0 0 
0 0 0 
0 0 0 
0 0 0 
0 0 0 
0 0 0 
0 0 0 
0 0 0 
0 0 0 
0 0 0 
0 0 0 
0 0 0 
0 0 0 
0 0 0 
0 0 0 
0 0 0 
0 0 0 
0 0 0 
0 0 0 
0 0 0 
0 0 0 
0 0 0 
0 0 0 
0 0 0 
0 0 0 
0 0 0 
0 0 0 
0 0 0 
0 0 0 
0 0 0 
0 0 0 
0 0 0 
0 0 0 
0 0 0 
0 0 0 
0 0 0 
0 0 0 
0 0 0 
0 0 0 
0 0 0 
0 0 0 
0 0 0 
0 0 0 
0 0 0 
0 0 0 
0 0 0 
0 0 0 
0 0 0 
0 0 0 
0 0 0 
0 0 0 
0 0 0 
0 0 0 
0 0 0 
0 0 0 
0 0 0 
0 0 0 
0 0 0 
0 0 0 
0 0 0 
0 0 0 
0 0 0 
0 0 0 
0 0 0 
0 0 0 
0 0 0 
0 0 0 
0 0 0 
0 0 0 
0 0 0 
0 0 0 
0 0 0 
0 0 0 
0 0 0 
0 0 0 
0 0 0 
0 0 0 
0 0 0 
0 0 0 
0 0 0 
0 0 0 
0 0 0 
0 0 0 
0 0 0 
0 0 0 
0 0 0 
0 0 0 
0 0 0 
0 0 0 
0 0 0 
0 0 0 
0 0 0 
0 0 0 
0 0 0 
0 0 0 
0 0 0 
0 0 0 
0 0 0 
0 0 0 
0 0 0 
0 0 0 
0 0 0 
0 0 0 
0 0 0 
0 0 0 
0 0 0 
0 0 0 
0 0 0 
0 0 0 
0 0 0 
0 0 0 
0 0 0 
0 0 0 
0 0 0 
0 0 0 
0 0 0 
0 0 0 
0 0 0 
0 0 0 
0 0 0 
0 0 0 
0 0 0 
0 0 0 
0 0 0 
0 0 0 
0 0 0 
0 0 0 
0 0 0 
0 0 0 
0 0 0 
0 0 0 
0 0 0 
0 0 0 
0 0 0 
0 0 0 
0 0 0 
0 0 0 
0 0 0 
0 0 0 
0 0 0 
0 0 0 
0 0 0 
0 0 0 
0 0 0 
0 0 0 
0 0 0 
0 0 0 
0 0 0 
0 0 0 
0 0 0 
0 0 0 
0 0 0 
0 0 0 
0 0 0 
0 0 0 
0 0 0 
0 0 0 
0 0 0 
0 0 0 
0 0 0 
0 0 0 
0 0 0 
0 0 0 
0 0 0 
0 0 0 
0 0 0 
0 0 0 
0 0 0 
0 0 0 
0 0 0 
0 0 0 
0 0 0 
0 0 0 
0 0 0 
0 0 0 
0 0 0 
0 0 0 
0 0 0 
0 0 0 
0 0 0 
0 0 0 
0 0 0 
0 0 0 
0 0 0 
0 0 0 
0 0 0 
0 0 0 
0 0 0 
0 0 0 
0 0 0 
0 0 0 
0 0 0 
0 0 0 
0 0 0 
0 0 0 
0 0 0 
0 0 0 
0 0 0 
0 0 0 
0 0 0 
0 0 0 
0 0 0 
0 0 0 
0 0 0 
0 0 0 
0 0 0 
0 0 0 
0 0 0 
0 0 0 
0 0 0 
0 0 0 
0 0 0 
0 0 0 
0 0 0 
0 0 0 
0 0 0 
0 0 0 
0 0 0 
0 0 0 
0 0 0 
0 0 0 
0 0 0 
0 0 0 
0 0 0 
0 0 0 
0 0 0 
0 0 0 
0 0 0 
0 0 0 
0 0 0 
0 0 0 
0 0 0 
0 0 0 
0 0 0 
0 0 0 
0 0 0 
0 0 0 
0 0 0 
0 0 0 
0 0 0 
0 0 0 
0 0 0 
0 0 0 
0 0 0 
0 0 0 
0 0 0 
0 0 0 
0 0 0 
0 0 0 
0 0 0 
0 0 0 
0 0 0 
0 0 0 
0 0 0 
0 0 0 
0 0 0 
0 0 0 
0 0 0 
0 0 0 
0 0 0 
0 0 0 
0 0 0 
0 0 0 
0 0 0 
0 0 0 
0 0 0 
0 0 0 
0 0 0 
0 0 0 
0 0 0 
0 0 0 
0 0 0 
0 0 0 
0 0 0 
0 0 0 
0 0 0 
0 0 0 
0 0 0 
0 0 0 
0 0 0 
0 0 0 
0 0 0 
0 0 0 
0 0 0 
0 0 0 
0 0 0 
0 0 0 
0 0 0 
0 0 0 
0 0 0 
0 0 0 
0 0 0 
0 0 0 
0 0 0 
0 0 0 
0 0 0 
0 0 0 
0 0 0 
0 0 0 
0 0 0 
0 0 0 
0 0 0 
0 0 0 
0 0 0 
0 0 0 
0 0 0 
0 0 0 
0 0 0 
0 0 0 
0 0 0 
0 0 0 
0 0 0 
0 0 0 
0 0 0 
0 0 0 
0 0 0 
0 0 0 
0 0 0 
0 0 0 
0 0 0 
0 0 0 
0 0 0 
0 0 0 
0 0 0 
0 0 0 
0 0 0 
0 0 0 
0 0 0 
0 0 0 
0 0 0 
0 0 0 
0 0 0 
0 0 0 
0 0 0 
0 0 0 
0 0 0 
0 0 0 
0 0 0 
0 0 0 
0 0 0 
0 0 0 
0 0 0 
0 0 0 
0 0 0 
0 0 0 
0 0 0 
0 0 0 
0 0 0 
0 0 0 
0 0 0 
0 0 0 
0 0 0 
0 0 0 
0 0 0 
0 0 0 
0 0 0 
0 0 0 
0 0 0 
0 0 0 
0 0 0 
0 0 0 
0 0 0 
0 0 0 
0 0 0 
0 0 0 
0 0 0 
0 0 0 
0 0 0 
0 0 0 
0 0 0 
0 0 0 
0 0 0 
0 0 0 
0 0 0 
0 0 0 
0 0 0 
0 0 0 
0 0 0 
0 0 0 
0 0 0 
0 0 0 
0 0 0 
0 0 0 
0 0 0 
0 0 0 
0 0 0 
0 0 0 
0 0 0 
0 0 0 
0 0 0 
0 0 0 
0 0 0 
0 0 0 
0 0 0 
0 0 0 
0 0 0 
0 0 0 
0 0 0 
0 0 0 
0 0 0 
0 0 0 
0 0 0 
0 0 0 
0 0 0 
0 0 0 
0 0 0 
0 0 0 
0 0 0 
0 0 0 
0 0 0 
0 0 0 
0 0 0 
0 0 0 
0 0 0 
0 0 0 
0 0 0 
0 0 0 
0 0 0 
0 0 0 
0 0 0 
0 0 0 
0 0 0 
0 0 0 
0 0 0 
0 0 0 
0 0 0 
0 0 0 
0 0 0 
0 0 0 
0 0 0 
0 0 0 
0 0 0 
0 0 0 
0 0 0 
0 0 0 
0 0 0 
0 0 0 
0 0 0 
0 0 0 
0 0 0 
0 0 0 
0 0 0 
0 0 0 
0 0 0 
0 0 0 
0 0 0 
0 0 0 
0 0 0 
0 0 0 
0 0 0 
0 0 0 
0 0 0 
0 0 0 
0 0 0 
0 0 0 
0 0 0 
0 0 0 
0 0 0 
0 0 0 
0 0 0 
0 0 0 
0 0 0 
0 0 0 
0 0 0 
0 0 0 
0 0 0 
0 0 0 
0 0 0 
0 0 0 
0 0 0 
0 0 0 
0 0 0 
0 0 0 
0 0 0 
0 0 0 
0 0 0 
0 0 0 
0 0 0 
0 0 0 
0 0 0 
0 0 0 
0 0 0 
0 0 0 
0 0 0 
0 0 0 
0 0 0 
0 0 0 
0 0 0 
0 0 0 
0 0 0 
0 0 0 
0 0 0 
0 0 0 
0 0 0 
0 0 0 
0 0 0 
0 0 0 
0 0 0 
0 0 0 
0 0 0 
0 0 0 
0 0 0 
0 0 0 
0 0 0 
0 0 0 
0 0 0 
0 0 0 
0 0 0 
0 0 0 
0 0 0 
0 0 0 
0 0 0 
0 0 0 
0 0 0 
0 0 0 
0 0 0 
0 0 0 
0 0 0 
0 0 0 
0 0 0 
0 0 0 
0 0 0 
0 0 0 
0 0 0 
0 0 0 
0 0 0 
0 0 0 
0 0 0 
0 0 0 
0 0 0 
0 0 0 
0 0 0 
0 0 0 
0 0 0 
0 0 0 
0 0 0 
0 0 0 
0 0 0 
0 0 0 
0 0 0 
0 0 0 
0 0 0 
0 0 0 
0 0 0 
0 0 0 
0 0 0 
0 0 0 
0 0 0 
0 0 0 
0 0 0 
0 0 0 
0 0 0 
0 0 0 
0 0 0 
0 0 0 
0 0 0 
0 0 0 
0 0 0 
0 0 0 
0 0 0 
0 0 0 
0 0 0 
0 0 0 
0 0 0 
0 0 0 
0 0 0 
0 0 0 
0 0 0 
0 0 0 
0 0 0 
0 0 0 
0 0 0 
0 0 0 
0 0 0 
0 0 0 
0 0 0 
0 0 0 
0 0 0 
0 0 0 
0 0 0 
0 0 0 
0 0 0 
0 0 0 
0 0 0 
0 0 0 
0 0 0 
0 0 0 
0 0 0 
0 0 0 
0 0 0 
0 0 0 
0 0 0 
0 0 0 
0 0 0 
0 0 0 
0 0 0 
0 0 0 
0 0 0 
0 0 0 
0 0 0 
0 0 0 
0 0 0 
0 0 0 
0 0 0 
0 0 0 
0 0 0 
0 0 0 
0 0 0 
0 0 0 
0 0 0 
0 0 0 
0 0 0 
0 0 0 
0 0 0 
0 0 0 
0 0 0 
0 0 0 
0 0 0 
0 0 0 
0 0 0 
0 0 0 
0 0 0 
0 0 0 
0 0 0 
0 0 0 
0 0 0 
0 0 0 
0 0 0 
0 0 0 
0 0 0 
0 0 0 
0 0 0 
0 0 0 
0 0 0 
0 0 0 
0 0 0 
0 0 0 
0 0 0 
0 0 0 
0 0 0 
0 0 0 
0 0 0 
0 0 0 
0 0 0 
0 0 0 
0 0 0 
0 0 0 
0 0 0 
0 0 0 
0 0 0 
0 0 0 
0 0 0 
0 0 0 
0 0 0 
0 0 0 
0 0 0 
0 0 0 
0 0 0 
0 0 0 
0 0 0 
0 0 0 
0 0 0 
0 0 0 
0 0 0 
0 0 0 
0 0 0 
0 0 0 
0 0 0 
0 0 0 
0 0 0 
0 0 0 
0 0 0 
0 0 0 
0 0 0 
0 0 0 
0 0 0 
0 0 0 
0 0 0 
0 0 0 
0 0 0 
0 0 0 
0 0 0 
0 0 0 
0 0 0 
0 0 0 
0 0 0 
0 0 0 
0 0 0 
0 0 0 
0 0 0 
0 0 0 
0 0 0 
0 0 0 
0 0 0 
0 0 0 
0 0 0 
0 0 0 
0 0 0 
0 0 0 
0 0 0 
0 0 0 
0 0 0 
0 0 0 
0 0 0 
0 0 0 
0 0 0 
0 0 0 
0 0 0 
0 0 0 
0 0 0 
0 0 0 
0 0 0 
0 0 0 
0 0 0 
0 0 0 
0 0 0 
0 0 0 
0 0 0 
0 0 0 
0 0 0 
0 0 0 
0 0 0 
0 0 0 
0 0 0 
0 0 0 
0 0 0 
0 0 0 
0 0 0 
0 0 0 
0 0 0 
0 0 0 
0 0 0 
0 0 0 
0 0 0 
0 0 0 
0 0 0 
0 0 0 
0 0 0 
0 0 0 
0 0 0 
0 0 0 
0 0 0 
0 0 0 
0 0 0 
0 0 0 
0 0 0 
0 0 0 
0 0 0 
0 0 0 
0 0 0 
0 0 0 
0 0 0 
0 0 0 
0 0 0 
0 0 0 
0 0 0 
0 0 0 
0 0 0 
0 0 0 
0 0 0 
0 0 0 
0 0 0 
0 0 0 
0 0 0 
0 0 0 
0 0 0 
0 0 0 
0 0 0 
0 0 0 
0 0 0 
0 0 0 
0 0 0 
0 0 0 
0 0 0 
0 0 0 
0 0 0 
0 0 0 
0 0 0 
0 0 0 
0 0 0 
0 0 0 
0 0 0 
0 0 0 
0 0 0 
0 0 0 
0 0 0 
0 0 0 
0 0 0 
0 0 0 
0 0 0 
0 0 0 
0 0 0 
0 0 0 
0 0 0 
0 0 0 
0 0 0 
0 0 0 
0 0 0 
0 0 0 
0 0 0 
0 0 0 
0 0 0 
0 0 0 
0 0 0 
0 0 0 
0 0 0 
0 0 0 
0 0 0 
0 0 0 
0 0 0 
0 0 0 
0 0 0 
0 0 0 
0 0 0 
0 0 0 
0 0 0 
0 0 0 
0 0 0 
0 0 0 
0 0 0 
0 0 0 
0 0 0 
0 0 0 
0 0 0 
0 0 0 
0 0 0 
0 0 0 
0 0 0 
0 0 0 
0 0 0 
0 0 0 
0 0 0 
0 0 0 
0 0 0 
0 0 0 
0 0 0 
0 0 0 
0 0 0 
0 0 0 
0 0 0 
0 0 0 
0 0 0 
0 0 0 
0 0 0 
0 0 0 
0 0 0 
0 0 0 
0 0 0 
0 0 0 
0 0 0 
0 0 0 
0 0 0 
0 0 0 
0 0 0 
0 0 0 
0 0 0 
0 0 0 
0 0 0 
0 0 0 
0 0 0 
0 0 0 
0 0 0 
0 0 0 
0 0 0 
0 0 0 
0 0 0 
0 0 0 
0 0 0 
0 0 0 
0 0 0 
0 0 0 
0 0 0 
0 0 0 
0 0 0 
0 0 0 
0 0 0 
0 0 0 
0 0 0 
0 0 0 
0 0 0 
0 0 0 
0 0 0 
0 0 0 
0 0 0 
0 0 0 
0 0 0 
0 0 0 
0 0 0 
0 0 0 
0 0 0 
0 0 0 
0 0 0 
0 0 0 
0 0 0 
0 0 0 
0 0 0 
0 0 0 
0 0 0 
0 0 0 
0 0 0 
0 0 0 
0 0 0 
0 0 0 
0 0 0 
0 0 0 
0 0 0 
0 0 0 
0 0 0 
0 0 0 
0 0 0 
0 0 0 
0 0 0 
0 0 0 
0 0 0 
0 0 0 
0 0 0 
0 0 0 
0 0 0 
0 0 0 
0 0 0 
0 0 0 
0 0 0 
0 0 0 
0 0 0 
0 0 0 
0 0 0 
0 0 0 
0 0 0 
0 0 0 
0 0 0 
0 0 0 
0 0 0 
0 0 0 
0 0 0 
0 0 0 
0 0 0 
0 0 0 
0 0 0 
0 0 0 
0 0 0 
0 0 0 
0 0 0 
0 0 0 
0 0 0 
0 0 0 
0 0 0 
0 0 0 
0 0 0 
0 0 0 
0 0 0 
0 0 0 
0 0 0 
0 0 0 
0 0 0 
0 0 0 
0 0 0 
0 0 0 
0 0 0 
0 0 0 
0 0 0 
0 0 0 
0 0 0 
0 0 0 
0 0 0 
0 0 0 
0 0 0 
0 0 0 
0 0 0 
0 0 0 
0 0 0 
0 0 0 
0 0 0 
0 0 0 
0 0 0 
0 0 0 
0 0 0 
0 0 0 
0 0 0 
0 0 0 
0 0 0 
0 0 0 
0 0 0 
0 0 0 
0 0 0 
0 0 0 
0 0 0 
0 0 0 
0 0 0 
0 0 0 
0 0 0 
0 0 0 
0 0 0 
0 0 0 
0 0 0 
0 0 0 
0 0 0 
0 0 0 
0 0 0 
0 0 0 
0 0 0 
0 0 0 
0 0 0 
0 0 0 
0 0 0 
0 0 0 
0 0 0 
0 0 0 
0 0 0 
0 0 0 
0 0 0 
0 0 0 
0 0 0 
0 0 0 
0 0 0 
0 0 0 
0 0 0 
0 0 0 
0 0 0 
0 0 0 
0 0 0 
0 0 0 
0 0 0 
0 0 0 
0 0 0 
0 0 0 
0 0 0 
0 0 0 
0 0 0 
0 0 0 
0 0 0 
0 0 0 
0 0 0 
0 0 0 
0 0 0 
0 0 0 
0 0 0 
0 0 0 
0 0 0 
0 0 0 
0 0 0 
0 0 0 
0 0 0 
0 0 0 
0 0 0 
0 0 0 
0 0 0 
0 0 0 
0 0 0 
0 0 0 
0 0 0 
0 0 0 
0 0 0 
0 0 0 
0 0 0 
0 0 0 
0 0 0 
0 0 0 
0 0 0 
0 0 0 
0 0 0 
0 0 0 
0 0 0 
0 0 0 
0 0 0 
0 0 0 
0 0 0 
0 0 0 
0 0 0 
0 0 0 
0 0 0 
0 0 0 
0 0 0 
0 0 0 
0 0 0 
0 0 0 
0 0 0 
0 0 0 
0 0 0 
0 0 0 
0 0 0 
0 0 0 
0 0 0 
0 0 0 
0 0 0 
0 0 0 
0 0 0 
0 0 0 
0 0 0 
0 0 0 
0 0 0 
0 0 0 
0 0 0 
0 0 0 
0 0 0 
0 0 0 
0 0 0 
0 0 0 
0 0 0 
0 0 0 
0 0 0 
0 0 0 
0 0 0 
0 0 0 
0 0 0 
0 0 0 
0 0 0 
0 0 0 
0 0 0 
0 0 0 
0 0 0 
0 0 0 
0 0 0 
0 0 0 
0 0 0 
0 0 0 
0 0 0 
0 0 0 
0 0 0 
0 0 0 
0 0 0 
0 0 0 
0 0 0 
0 0 0 
0 0 0 
0 0 0 
0 0 0 
0 0 0 
0 0 0 
0 0 0 
0 0 0 
0 0 0 
0 0 0 
0 0 0 
0 0 0 
0 0 0 
0 0 0 
0 0 0 
0 0 0 
0 0 0 
0 0 0 
0 0 0 
0 0 0 
0 0 0 
0 0 0 
0 0 0 
0 0 0 
0 0 0 
0 0 0 
0 0 0 
0 0 0 
0 0 0 
0 0 0 
0 0 0 
0 0 0 
0 0 0 
0 0 0 
0 0 0 
0 0 0 
0 0 0 
0 0 0 
0 0 0 
0 0 0 
0 0 0 
0 0 0 
0 0 0 
0 0 0 
0 0 0 
0 0 0 
0 0 0 
0 0 0 
0 0 0 
0 0 0 
0 0 0 
0 0 0 
0 0 0 
0 0 0 
0 0 0 
0 0 0 
0 0 0 
0 0 0 
0 0 0 
0 0 0 
0 0 0 
0 0 0 
0 0 0 
0 0 0 
0 0 0 
0 0 0 
0 0 0 
0 0 0 
0 0 0 
0 0 0 
0 0 0 
0 0 0 
0 0 0 
0 0 0 
0 0 0 
0 0 0 
0 0 0 
0 0 0 
0 0 0 
0 0 0 
0 0 0 
0 0 0 
0 0 0 
0 0 0 
0 0 0 
0 0 0 
0 0 0 
0 0 0 
0 0 0 
0 0 0 
0 0 0 
0 0 0 
0 0 0 
0 0 0 
0 0 0 
0 0 0 
0 0 0 
0 0 0 
0 0 0 
0 0 0 
0 0 0 
0 0 0 
0 0 0 
0 0 0 
0 0 0 
0 0 0 
0 0 0 
0 0 0 
0 0 0 
0 0 0 
0 0 0 
0 0 0 
0 0 0 
0 0 0 
0 0 0 
0 0 0 
0 0 0 
0 0 0 
0 0 0 
0 0 0 
0 0 0 
0 0 0 
0 0 0 
0 0 0 
0 0 0 
0 0 0 
0 0 0 
0 0 0 
0 0 0 
0 0 0 
0 0 0 
0 0 0 
0 0 0 
0 0 0 
0 0 0 
0 0 0 
0 0 0 
0 0 0 
0 0 0 
0 0 0 
0 0 0 
0 0 0 
0 0 0 
0 0 0 
0 0 0 
0 0 0 
0 0 0 
0 0 0 
0 0 0 
0 0 0 
0 0 0 
0 0 0 
0 0 0 
0 0 0 
0 0 0 
0 0 0 
0 0 0 
0 0 0 
0 0 0 
0 0 0 
0 0 0 
0 0 0 
0 0 0 
0 0 0 
0 0 0 
0 0 0 
0 0 0 
0 0 0 
0 0 0 
0 0 0 
0 0 0 
0 0 0 
0 0 0 
0 0 0 
0 0 0 
0 0 0 
0 0 0 
0 0 0 
0 0 0 
0 0 0 
0 0 0 
0 0 0 
0 0 0 
0 0 0 
0 0 0 
0 0 0 
0 0 0 
0 0 0 
0 0 0 
0 0 0 
0 0 0 
0 0 0 
0 0 0 
0 0 0 
0 0 0 
0 0 0 
0 0 0 
0 0 0 
0 0 0 
0 0 0 
0 0 0 
0 0 0 
0 0 0 
0 0 0 
0 0 0 
0 0 0 
0 0 0 
0 0 0 
0 0 0 
0 0 0 
0 0 0 
0 0 0 
0 0 0 
0 0 0 
0 0 0 
0 0 0 
0 0 0 
0 0 0 
0 0 0 
0 0 0 
0 0 0 
0 0 0 
0 0 0 
0 0 0 
0 0 0 
0 0 0 
0 0 0 
0 0 0 
0 0 0 
0 0 0 
0 0 0 
0 0 0 
0 0 0 
0 0 0 
0 0 0 
0 0 0 
0 0 0 
0 0 0 
0 0 0 
0 0 0 
0 0 0 
0 0 0 
0 0 0 
0 0 0 
0 0 0 
0 0 0 
0 0 0 
0 0 0 
0 0 0 
0 0 0 
0 0 0 
0 0 0 
0 0 0 
0 0 0 
0 0 0 
0 0 0 
0 0 0 
0 0 0 
0 0 0 
0 0 0 
0 0 0 
0 0 0 
0 0 0 
0 0 0 
0 0 0 
0 0 0 
0 0 0 
0 0 0 
0 0 0 
0 0 0 
0 0 0 
0 0 0 
0 0 0 
0 0 0 
0 0 0 
0 0 0 
0 0 0 
0 0 0 
0 0 0 
0 0 0 
0 0 0 
0 0 0 
0 0 0 
0 0 0 
0 0 0 
0 0 0 
0 0 0 
0 0 0 
0 0 0 
0 0 0 
0 0 0 
0 0 0 
0 0 0 
0 0 0 
0 0 0 
0 0 0 
0 0 0 
0 0 0 
0 0 0 
0 0 0 
0 0 0 
0 0 0 
0 0 0 
0 0 0 
0 0 0 
0 0 0 
0 0 0 
0 0 0 
0 0 0 
0 0 0 
0 0 0 
0 0 0 
0 0 0 
0 0 0 
0 0 0 
0 0 0 
0 0 0 
0 0 0 
0 0 0 
0 0 0 
0 0 0 
0 0 0 
0 0 0 
0 0 0 
0 0 0 
0 0 0 
0 0 0 
0 0 0 
0 0 0 
0 0 0 
0 0 0 
0 0 0 
0 0 0 
0 0 0 
0 0 0 
0 0 0 
0 0 0 
0 0 0 
0 0 0 
0 0 0 
0 0 0 
0 0 0 
0 0 0 
0 0 0 
0 0 0 
0 0 0 
0 0 0 
0 0 0 
0 0 0 
0 0 0 
0 0 0 
0 0 0 
0 0 0 
0 0 0 
0 0 0 
0 0 0 
0 0 0 
0 0 0 
0 0 0 
0 0 0 
0 0 0 
0 0 0 
0 0 0 
0 0 0 
0 0 0 
0 0 0 
0 0 0 
0 0 0 
0 0 0 
0 0 0 
0 0 0 
0 0 0 
0 0 0 
0 0 0 
0 0 0 
0 0 0 
0 0 0 
0 0 0 
0 0 0 
0 0 0 
0 0 0 
0 0 0 
0 0 0 
0 0 0 
0 0 0 
0 0 0 
0 0 0 
0 0 0 
0 0 0 
0 0 0 
0 0 0 
0 0 0 
0 0 0 
0 0 0 
0 0 0 
0 0 0 
0 0 0 
0 0 0 
0 0 0 
0 0 0 
0 0 0 
0 0 0 
0 0 0 
0 0 0 
0 0 0 
0 0 0 
0 0 0 
0 0 0 
0 0 0 
0 0 0 
0 0 0 
0 0 0 
0 0 0 
0 0 0 
0 0 0 
0 0 0 
0 0 0 
0 0 0 
0 0 0 
0 0 0 
0 0 0 
0 0 0 
0 0 0 
0 0 0 
0 0 0 
0 0 0 
0 0 0 
0 0 0 
0 0 0 
0 0 0 
0 0 0 
0 0 0 
0 0 0 
0 0 0 
0 0 0 
0 0 0 
0 0 0 
0 0 0 
0 0 0 
0 0 0 
0 0 0 
0 0 0 
0 0 0 
0 0 0 
0 0 0 
0 0 0 
0 0 0 
0 0 0 
0 0 0 
0 0 0 
0 0 0 
0 0 0 
0 0 0 
0 0 0 
0 0 0 
0 0 0 
0 0 0 
0 0 0 
0 0 0 
0 0 0 
0 0 0 
0 0 0 
0 0 0 
0 0 0 
0 0 0 
0 0 0 
0 0 0 
0 0 0 
0 0 0 
0 0 0 
0 0 0 
0 0 0 
0 0 0 
0 0 0 
0 0 0 
0 0 0 
0 0 0 
0 0 0 
0 0 0 
0 0 0 
0 0 0 
0 0 0 
0 0 0 
0 0 0 
0 0 0 
0 0 0 
0 0 0 
0 0 0 
0 0 0 
0 0 0 
0 0 0 
0 0 0 
0 0 0 
0 0 0 
0 0 0 
0 0 0 
0 0 0 
0 0 0 
0 0 0 
0 0 0 
0 0 0 
0 0 0 
0 0 0 
0 0 0 
0 0 0 
0 0 0 
0 0 0 
0 0 0 
0 0 0 
0 0 0 
0 0 0 
0 0 0 
0 0 0 
0 0 0 
0 0 0 
0 0 0 
0 0 0 
0 0 0 
0 0 0 
0 0 0 
0 0 0 
0 0 0 
0 0 0 
0 0 0 
0 0 0 
0 0 0 
0 0 0 
0 0 0 
0 0 0 
0 0 0 
0 0 0 
0 0 0 
0 0 0 
0 0 0 
0 0 0 
0 0 0 
0 0 0 
0 0 0 
0 0 0 
0 0 0 
0 0 0 
0 0 0 
0 0 0 
0 0 0 
0 0 0 
0 0 0 
0 0 0 
0 0 0 
0 0 0 
0 0 0 
0 0 0 
0 0 0 
0 0 0 
0 0 0 
0 0 0 
0 0 0 
0 0 0 
0 0 0 
0 0 0 
0 0 0 
0 0 0 
0 0 0 
0 0 0 
0 0 0 
0 0 0 
0 0 0 
0 0 0 
0 0 0 
0 0 0 
0 0 0 
0 0 0 
0 0 0 
0 0 0 
0 0 0 
0 0 0 
0 0 0 
0 0 0 
0 0 0 
0 0 0 
0 0 0 
0 0 0 
0 0 0 
0 0 0 
0 0 0 
0 0 0 
0 0 0 
0 0 0 
0 0 0 
0 0 0 
0 0 0 
0 0 0 
0 0 0 
0 0 0 
0 0 0 
0 0 0 
0 0 0 
0 0 0 
0 0 0 
0 0 0 
0 0 0 
0 0 0 
0 0 0 
0 0 0 
0 0 0 
0 0 0 
0 0 0 
0 0 0 
0 0 0 
0 0 0 
0 0 0 
0 0 0 
0 0 0 
0 0 0 
0 0 0 
0 0 0 
0 0 0 
0 0 0 
0 0 0 
0 0 0 
0 0 0 
0 0 0 
0 0 0 
0 0 0 
0 0 0 
0 0 0 
0 0 0 
0 0 0 
0 0 0 
0 0 0 
0 0 0 
0 0 0 
0 0 0 
0 0 0 
0 0 0 
0 0 0 
0 0 0 
0 0 0 
0 0 0 
0 0 0 
0 0 0 
0 0 0 
0 0 0 
0 0 0 
0 0 0 
0 0 0 
0 0 0 
0 0 0 
0 0 0 
0 0 0 
0 0 0 
0 0 0 
0 0 0 
0 0 0 
0 0 0 
0 0 0 
0 0 0 
0 0 0 
0 0 0 
0 0 0 
0 0 0 
0 0 0 
0 0 0 
0 0 0 
0 0 0 
0 0 0 
0 0 0 
0 0 0 
0 0 0 
0 0 0 
0 0 0 
0 0 0 
0 0 0 
0 0 0 
0 0 0 
0 0 0 
0 0 0 
0 0 0 
0 0 0 
0 0 0 
0 0 0 
0 0 0 
0 0 0 
0 0 0 
0 0 0 
0 0 0 
0 0 0 
0 0 0 
0 0 0 
0 0 0 
0 0 0 
0 0 0 
0 0 0 
0 0 0 
0 0 0 
0 0 0 
0 0 0 
0 0 0 
0 0 0 
0 0 0 
0 0 0 
0 0 0 
0 0 0 
0 0 0 
0 0 0 
0 0 0 
0 0 0 
0 0 0 
0 0 0 
0 0 0 
0 0 0 
0 0 0 
0 0 0 
0 0 0 
0 0 0 
0 0 0 
0 0 0 
0 0 0 
0 0 0 
0 0 0 
0 0 0 
0 0 0 
0 0 0 
0 0 0 
0 0 0 
0 0 0 
0 0 0 
0 0 0 
0 0 0 
0 0 0 
0 0 0 
0 0 0 
0 0 0 
0 0 0 
0 0 0 
0 0 0 
0 0 0 
0 0 0 
0 0 0 
0 0 0 
0 0 0 
0 0 0 
0 0 0 
0 0 0 
0 0 0 
0 0 0 
0 0 0 
0 0 0 
0 0 0 
0 0 0 
0 0 0 
0 0 0 
0 0 0 
0 0 0 
0 0 0 
0 0 0 
0 0 0 
0 0 0 
0 0 0 
0 0 0 
0 0 0 
0 0 0 
0 0 0 
0 0 0 
0 0 0 
0 0 0 
0 0 0 
0 0 0 
0 0 0 
0 0 0 
0 0 0 
0 0 0 
0 0 0 
0 0 0 
0 0 0 
0 0 0 
0 0 0 
0 0 0 
0 0 0 
0 0 0 
0 0 0 
0 0 0 
0 0 0 
0 0 0 
0 0 0 
0 0 0 
0 0 0 
0 0 0 
0 0 0 
0 0 0 
0 0 0 
0 0 0 
0 0 0 
0 0 0 
0 0 0 
0 0 0 
0 0 0 
0 0 0 
0 0 0 
0 0 0 
0 0 0 
0 0 0 
0 0 0 
0 0 0 
0 0 0 
0 0 0 
0 0 0 
0 0 0 
0 0 0 
0 0 0 
0 0 0 
0 0 0 
0 0 0 
0 0 0 
0 0 0 
0 0 0 
0 0 0 
0 0 0 
0 0 0 
0 0 0 
0 0 0 
0 0 0 
0 0 0 
0 0 0 
0 0 0 
0 0 0 
0 0 0 
0 0 0 
0 0 0 
0 0 0 
0 0 0 
0 0 0 
0 0 0 
0 0 0 
0 0 0 
0 0 0 
0 0 0 
0 0 0 
0 0 0 
0 0 0 
0 0 0 
0 0 0 
0 0 0 
0 0 0 
0 0 0 
0 0 0 
0 0 0 
0 0 0 
0 0 0 
0 0 0 
0 0 0 
0 0 0 
0 0 0 
0 0 0 
0 0 0 
0 0 0 
0 0 0 
0 0 0 
0 0 0 
0 0 0 
0 0 0 
0 0 0 
0 0 0 
0 0 0 
0 0 0 
0 0 0 
0 0 0 
0 0 0 
0 0 0 
0 0 0 
0 0 0 
0 0 0 
0 0 0 
0 0 0 
0 0 0 
0 0 0 
0 0 0 
0 0 0 
0 0 0 
0 0 0 
0 0 0 
0 0 0 
0 0 0 
0 0 0 
0 0 0 
0 0 0 
0 0 0 
0 0 0 
0 0 0 
0 0 0 
0 0 0 
0 0 0 
0 0 0 
0 0 0 
0 0 0 
0 0 0 
0 0 0 
0 0 0 
0 0 0 
0 0 0 
0 0 0 
0 0 0 
0 0 0 
0 0 0 
0 0 0 
0 0 0 
0 0 0 
0 0 0 
0 0 0 
0 0 0 
0 0 0 
0 0 0 
0 0 0 
0 0 0 
0 0 0 
0 0 0 
0 0 0 
0 0 0 
0 0 0 
0 0 0 
0 0 0 
0 0 0 
0 0 0 
0 0 0 
0 0 0 
0 0 0 
0 0 0 
0 0 0 
0 0 0 
0 0 0 
0 0 0 
0 0 0 
0 0 0 
0 0 0 
0 0 0 
0 0 0 
0 0 0 
0 0 0 
0 0 0 
0 0 0 
0 0 0 
0 0 0 
0 0 0 
0 0 0 
0 0 0 
0 0 0 
0 0 0 
0 0 0 
0 0 0 
0 0 0 
0 0 0 
0 0 0 
0 0 0 
0 0 0 
0 0 0 
0 0 0 
0 0 0 
0 0 0 
0 0 0 
0 0 0 
0 0 0 
0 0 0 
0 0 0 
0 0 0 
0 0 0 
0 0 0 
0 0 0 
0 0 0 
0 0 0 
0 0 0 
0 0 0 
0 0 0 
0 0 0 
0 0 0 
0 0 0 
0 0 0 
0 0 0 
0 0 0 
0 0 0 
0 0 0 
0 0 0 
0 0 0 
0 0 0 
0 0 0 
0 0 0 
0 0 0 
0 0 0 
0 0 0 
0 0 0 
0 0 0 
0 0 0 
0 0 0 
0 0 0 
0 0 0 
0 0 0 
0 0 0 
0 0 0 
0 0 0 
0 0 0 
0 0 0 
0 0 0 
0 0 0 
0 0 0 
0 0 0 
0 0 0 
0 0 0 
0 0 0 
0 0 0 
0 0 0 
0 0 0 
0 0 0 
0 0 0 
0 0 0 
0 0 0 
0 0 0 
0 0 0 
0 0 0 
0 0 0 
0 0 0 
0 0 0 
0 0 0 
0 0 0 
0 0 0 
0 0 0 
0 0 0 
0 0 0 
0 0 0 
0 0 0 
0 0 0 
0 0 0 
0 0 0 
0 0 0 
0 0 0 
0 0 0 
0 0 0 
0 0 0 
0 0 0 
0 0 0 
0 0 0 
0 0 0 
0 0 0 
0 0 0 
0 0 0 
0 0 0 
0 0 0 
0 0 0 
0 0 0 
0 0 0 
0 0 0 
0 0 0 
0 0 0 
0 0 0 
0 0 0 
0 0 0 
0 0 0 
0 0 0 
0 0 0 
0 0 0 
0 0 0 
0 0 0 
0 0 0 
0 0 0 
0 0 0 
0 0 0 
0 0 0 
0 0 0 
0 0 0 
0 0 0 
0 0 0 
0 0 0 
0 0 0 
0 0 0 
0 0 0 
0 0 0 
0 0 0 
0 0 0 
0 0 0 
0 0 0 
0 0 0 
0 0 0 
0 0 0 
0 0 0 
0 0 0 
0 0 0 
0 0 0 
0 0 0 
0 0 0 
0 0 0 
0 0 0 
0 0 0 
0 0 0 
0 0 0 
0 0 0 
0 0 0 
0 0 0 
0 0 0 
0 0 0 
0 0 0 
0 0 0 
0 0 0 
0 0 0 
0 0 0 
0 0 0 
0 0 0 
0 0 0 
0 0 0 
0 0 0 
0 0 0 
0 0 0 
0 0 0 
0 0 0 
0 0 0 
0 0 0 
0 0 0 
0 0 0 
0 0 0 
0 0 0 
0 0 0 
0 0 0 
0 0 0 
0 0 0 
0 0 0 
0 0 0 
0 0 0 
0 0 0 
0 0 0 
0 0 0 
0 0 0 
0 0 0 
0 0 0 
0 0 0 
0 0 0 
0 0 0 
0 0 0 
0 0 0 
0 0 0 
0 0 0 
0 0 0 
0 0 0 
0 0 0 
0 0 0 
0 0 0 
0 0 0 
0 0 0 
0 0 0 
0 0 0 
0 0 0 
0 0 0 
0 0 0 
0 0 0 
0 0 0 
0 0 0 
0 0 0 
0 0 0 
0 0 0 
0 0 0 
0 0 0 
0 0 0 
0 0 0 
0 0 0 
0 0 0 
0 0 0 
0 0 0 
0 0 0 
0 0 0 
0 0 0 
0 0 0 
0 0 0 
0 0 0 
0 0 0 
0 0 0 
0 0 0 
0 0 0 
0 0 0 
0 0 0 
0 0 0 
0 0 0 
0 0 0 
0 0 0 
0 0 0 
0 0 0 
0 0 0 
0 0 0 
0 0 0 
0 0 0 
0 0 0 
0 0 0 
0 0 0 
0 0 0 
0 0 0 
0 0 0 
0 0 0 
0 0 0 
0 0 0 
0 0 0 
0 0 0 
0 0 0 
0 0 0 
0 0 0 
0 0 0 
0 0 0 
0 0 0 
0 0 0 
0 0 0 
0 0 0 
0 0 0 
0 0 0 
0 0 0 
0 0 0 
0 0 0 
0 0 0 
0 0 0 
0 0 0 
0 0 0 
0 0 0 
0 0 0 
0 0 0 
0 0 0 
0 0 0 
0 0 0 
0 0 0 
0 0 0 
0 0 0 
0 0 0 
0 0 0 
0 0 0 
0 0 0 
0 0 0 
0 0 0 
0 0 0 
0 0 0 
0 0 0 
0 0 0 
0 0 0 
0 0 0 
0 0 0 
0 0 0 
0 0 0 
0 0 0 
0 0 0 
0 0 0 
0 0 0 
0 0 0 
0 0 0 
0 0 0 
0 0 0 
0 0 0 
0 0 0 
0 0 0 
0 0 0 
0 0 0 
0 0 0 
0 0 0 
0 0 0 
0 0 0 
0 0 0 
0 0 0 
0 0 0 
0 0 0 
0 0 0 
0 0 0 
0 0 0 
0 0 0 
0 0 0 
0 0 0 
0 0 0 
0 0 0 
0 0 0 
0 0 0 
0 0 0 
0 0 0 
0 0 0 
0 0 0 
0 0 0 
0 0 0 
0 0 0 
0 0 0 
0 0 0 
0 0 0 
0 0 0 
0 0 0 
0 0 0 
0 0 0 
0 0 0 
0 0 0 
0 0 0 
0 0 0 
0 0 0 
0 0 0 
0 0 0 
0 0 0 
0 0 0 
0 0 0 
0 0 0 
0 0 0 
0 0 0 
0 0 0 
0 0 0 
0 0 0 
0 0 0 
0 0 0 
0 0 0 
0 0 0 
0 0 0 
0 0 0 
0 0 0 
0 0 0 
0 0 0 
0 0 0 
0 0 0 
0 0 0 
0 0 0 
0 0 0 
0 0 0 
0 0 0 
0 0 0 
0 0 0 
0 0 0 
0 0 0 
0 0 0 
0 0 0 
0 0 0 
0 0 0 
0 0 0 
0 0 0 
0 0 0 
0 0 0 
0 0 0 
0 0 0 
0 0 0 
0 0 0 
0 0 0 
0 0 0 
0 0 0 
0 0 0 
0 0 0 
0 0 0 
0 0 0 
0 0 0 
0 0 0 
0 0 0 
0 0 0 
0 0 0 
0 0 0 
0 0 0 
0 0 0 
0 0 0 
0 0 0 
0 0 0 
0 0 0 
0 0 0 
0 0 0 
0 0 0 
0 0 0 
0 0 0 
0 0 0 
0 0 0 
0 0 0 
0 0 0 
0 0 0 
0 0 0 
0 0 0 
0 0 0 
0 0 0 
0 0 0 
0 0 0 
0 0 0 
0 0 0 
0 0 0 
0 0 0 
0 0 0 
0 0 0 
0 0 0 
0 0 0 
0 0 0 
0 0 0 
0 0 0 
0 0 0 
0 0 0 
0 0 0 
0 0 0 
0 0 0 
0 0 0 
0 0 0 
0 0 0 
0 0 0 
0 0 0 
0 0 0 
0 0 0 
0 0 0 
0 0 0 
0 0 0 
0 0 0 
0 0 0 
0 0 0 
0 0 0 
0 0 0 
0 0 0 
0 0 0 
0 0 0 
0 0 0 
0 0 0 
0 0 0 
0 0 0 
0 0 0 
0 0 0 
0 0 0 
0 0 0 
0 0 0 
0 0 0 
0 0 0 
0 0 0 
0 0 0 
0 0 0 
0 0 0 
0 0 0 
0 0 0 
0 0 0 
0 0 0 
0 0 0 
0 0 0 
0 0 0 
0 0 0 
0 0 0 
0 0 0 
0 0 0 
0 0 0 
0 0 0 
0 0 0 
0 0 0 
0 0 0 
0 0 0 
0 0 0 
0 0 0 
0 0 0 
0 0 0 
0 0 0 
0 0 0 
0 0 0 
0 0 0 
0 0 0 
0 0 0 
0 0 0 
0 0 0 
0 0 0 
0 0 0 
0 0 0 
0 0 0 
0 0 0 
0 0 0 
0 0 0 
0 0 0 
0 0 0 
0 0 0 
0 0 0 
0 0 0 
0 0 0 
0 0 0 
0 0 0 
0 0 0 
0 0 0 
0 0 0 
0 0 0 
0 0 0 
0 0 0 
0 0 0 
0 0 0 
0 0 0 
0 0 0 
0 0 0 
0 0 0 
0 0 0 
0 0 0 
0 0 0 
0 0 0 
0 0 0 
0 0 0 
0 0 0 
0 0 0 
0 0 0 
0 0 0 
0 0 0 
0 0 0 
0 0 0 
0 0 0 
0 0 0 
0 0 0 
0 0 0 
0 0 0 
0 0 0 
0 0 0 
0 0 0 
0 0 0 
0 0 0 
0 0 0 
0 0 0 
0 0 0 
0 0 0 
0 0 0 
0 0 0 
0 0 0 
0 0 0 
0 0 0 
0 0 0 
0 0 0 
0 0 0 
0 0 0 
0 0 0 
0 0 0 
0 0 0 
0 0 0 
0 0 0 
0 0 0 
0 0 0 
0 0 0 
0 0 0 
0 0 0 
0 0 0 
0 0 0 
0 0 0 
0 0 0 
0 0 0 
0 0 0 
0 0 0 
0 0 0 
0 0 0 
0 0 0 
0 0 0 
0 0 0 
0 0 0 
0 0 0 
0 0 0 
0 0 0 
0 0 0 
0 0 0 
0 0 0 
0 0 0 
0 0 0 
0 0 0 
0 0 0 
0 0 0 
0 0 0 
0 0 0 
0 0 0 
0 0 0 
0 0 0 
0 0 0 
0 0 0 
0 0 0 
0 0 0 
0 0 0 
0 0 0 
0 0 0 
0 0 0 
0 0 0 
0 0 0 
0 0 0 
0 0 0 
0 0 0 
0 0 0 
0 0 0 
0 0 0 
0 0 0 
0 0 0 
0 0 0 
0 0 0 
0 0 0 
0 0 0 
0 0 0 
0 0 0 
0 0 0 
0 0 0 
0 0 0 
0 0 0 
0 0 0 
0 0 0 
0 0 0 
0 0 0 
0 0 0 
0 0 0 
0 0 0 
0 0 0 
0 0 0 
0 0 0 
0 0 0 
0 0 0 
0 0 0 
0 0 0 
0 0 0 
0 0 0 
0 0 0 
0 0 0 
0 0 0 
0 0 0 
0 0 0 
0 0 0 
0 0 0 
0 0 0 
0 0 0 
0 0 0 
0 0 0 
0 0 0 
0 0 0 
0 0 0 
0 0 0 
0 0 0 
0 0 0 
0 0 0 
0 0 0 
0 0 0 
0 0 0 
0 0 0 
0 0 0 
0 0 0 
0 0 0 
0 0 0 
0 0 0 
0 0 0 
0 0 0 
0 0 0 
0 0 0 
0 0 0 
0 0 0 
0 0 0 
0 0 0 
0 0 0 
0 0 0 
0 0 0 
0 0 0 
0 0 0 
0 0 0 
0 0 0 
0 0 0 
0 0 0 
0 0 0 
0 0 0 
0 0 0 
0 0 0 
0 0 0 
0 0 0 
0 0 0 
0 0 0 
0 0 0 
0 0 0 
0 0 0 
0 0 0 
0 0 0 
0 0 0 
0 0 0 
0 0 0 
0 0 0 
0 0 0 
0 0 0 
0 0 0 
0 0 0 
0 0 0 
0 0 0 
0 0 0 
0 0 0 
0 0 0 
0 0 0 
0 0 0 
0 0 0 
0 0 0 
0 0 0 
0 0 0 
0 0 0 
0 0 0 
0 0 0 
0 0 0 
0 0 0 
0 0 0 
0 0 0 
0 0 0 
0 0 0 
0 0 0 
0 0 0 
0 0 0 
0 0 0 
0 0 0 
0 0 0 
0 0 0 
0 0 0 
0 0 0 
0 0 0 
0 0 0 
0 0 0 
0 0 0 
0 0 0 
0 0 0 
0 0 0 
0 0 0 
0 0 0 
0 0 0 
0 0 0 
0 0 0 
0 0 0 
0 0 0 
0 0 0 
0 0 0 
0 0 0 
0 0 0 
0 0 0 
0 0 0 
0 0 0 
0 0 0 
0 0 0 
0 0 0 
0 0 0 
0 0 0 
0 0 0 
0 0 0 
0 0 0 
0 0 0 
0 0 0 
0 0 0 
0 0 0 
0 0 0 
0 0 0 
0 0 0 
0 0 0 
0 0 0 
0 0 0 
0 0 0 
0 0 0 
0 0 0 
0 0 0 
0 0 0 
0 0 0 
0 0 0 
0 0 0 
0 0 0 
0 0 0 
0 0 0 
0 0 0 
0 0 0 
0 0 0 
0 0 0 
0 0 0 
0 0 0 
0 0 0 
0 0 0 
0 0 0 
0 0 0 
0 0 0 
0 0 0 
0 0 0 
0 0 0 
0 0 0 
0 0 0 
0 0 0 
0 0 0 
0 0 0 
0 0 0 
0 0 0 
0 0 0 
0 0 0 
0 0 0 
0 0 0 
0 0 0 
0 0 0 
0 0 0 
0 0 0 
0 0 0 
0 0 0 
0 0 0 
0 0 0 
0 0 0 
0 0 0 
0 0 0 
0 0 0 
0 0 0 
0 0 0 
0 0 0 
0 0 0 
0 0 0 
0 0 0 
0 0 0 
0 0 0 
0 0 0 
0 0 0 
0 0 0 
0 0 0 
0 0 0 
0 0 0 
0 0 0 
0 0 0 
0 0 0 
0 0 0 
0 0 0 
0 0 0 
0 0 0 
0 0 0 
0 0 0 
0 0 0 
0 0 0 
0 0 0 
0 0 0 
0 0 0 
0 0 0 
0 0 0 
0 0 0 
0 0 0 
0 0 0 
0 0 0 
0 0 0 
0 0 0 
0 0 0 
0 0 0 
0 0 0 
0 0 0 
0 0 0 
0 0 0 
0 0 0 
0 0 0 
0 0 0 
0 0 0 
0 0 0 
0 0 0 
0 0 0 
0 0 0 
0 0 0 
0 0 0 
0 0 0 
0 0 0 
0 0 0 
0 0 0 
0 0 0 
0 0 0 
0 0 0 
0 0 0 
0 0 0 
0 0 0 
0 0 0 
0 0 0 
0 0 0 
0 0 0 
0 0 0 
0 0 0 
0 0 0 
0 0 0 
0 0 0 
0 0 0 
0 0 0 
0 0 0 
0 0 0 
0 0 0 
0 0 0 
0 0 0 
0 0 0 
0 0 0 
0 0 0 
0 0 0 
0 0 0 
0 0 0 
0 0 0 
0 0 0 
0 0 0 
0 0 0 
0 0 0 
0 0 0 
0 0 0 
0 0 0 
0 0 0 
0 0 0 
0 0 0 
0 0 0 
0 0 0 
0 0 0 
0 0 0 
0 0 0 
0 0 0 
0 0 0 
0 0 0 
0 0 0 
0 0 0 
0 0 0 
0 0 0 
0 0 0 
0 0 0 
0 0 0 
0 0 0 
0 0 0 
0 0 0 
0 0 0 
0 0 0 
0 0 0 
0 0 0 
0 0 0 
0 0 0 
0 0 0 
0 0 0 
0 0 0 
0 0 0 
0 0 0 
0 0 0 
0 0 0 
0 0 0 
0 0 0 
0 0 0 
0 0 0 
0 0 0 
0 0 0 
0 0 0 
0 0 0 
0 0 0 
0 0 0 
0 0 0 
0 0 0 
0 0 0 
0 0 0 
0 0 0 
0 0 0 
0 0 0 
0 0 0 
0 0 0 
0 0 0 
0 0 0 
0 0 0 
0 0 0 
0 0 0 
0 0 0 
0 0 0 
0 0 0 
0 0 0 
0 0 0 
0 0 0 
0 0 0 
0 0 0 
0 0 0 
0 0 0 
0 0 0 
0 0 0 
0 0 0 
0 0 0 
0 0 0 
0 0 0 
0 0 0 
0 0 0 
0 0 0 
0 0 0 
0 0 0 
0 0 0 
0 0 0 
0 0 0 
0 0 0 
0 0 0 
0 0 0 
0 0 0 
0 0 0 
0 0 0 
0 0 0 
0 0 0 
0 0 0 
0 0 0 
0 0 0 
0 0 0 
0 0 0 
0 0 0 
0 0 0 
0 0 0 
0 0 0 
0 0 0 
0 0 0 
0 0 0 
0 0 0 
0 0 0 
0 0 0 
0 0 0 
0 0 0 
0 0 0 
0 0 0 
0 0 0 
0 0 0 
0 0 0 
0 0 0 
0 0 0 
0 0 0 
0 0 0 
0 0 0 
0 0 0 
0 0 0 
0 0 0 
0 0 0 
0 0 0 
0 0 0 
0 0 0 
0 0 0 
0 0 0 
0 0 0 
0 0 0 
0 0 0 
0 0 0 
0 0 0 
0 0 0 
0 0 0 
0 0 0 
0 0 0 
0 0 0 
0 0 0 
0 0 0 
0 0 0 
0 0 0 
0 0 0 
0 0 0 
0 0 0 
0 0 0 
0 0 0 
0 0 0 
0 0 0 
0 0 0 
0 0 0 
0 0 0 
0 0 0 
0 0 0 
0 0 0 
0 0 0 
0 0 0 
0 0 0 
0 0 0 
0 0 0 
0 0 0 
0 0 0 
0 0 0 
0 0 0 
0 0 0 
0 0 0 
0 0 0 
0 0 0 
0 0 0 
0 0 0 
0 0 0 
0 0 0 
0 0 0 
0 0 0 
0 0 0 
0 0 0 
0 0 0 
0 0 0 
0 0 0 
0 0 0 
0 0 0 
0 0 0 
0 0 0 
0 0 0 
0 0 0 
0 0 0 
0 0 0 
0 0 0 
0 0 0 
0 0 0 
0 0 0 
0 0 0 
0 0 0 
0 0 0 
0 0 0 
0 0 0 
0 0 0 
0 0 0 
0 0 0 
0 0 0 
0 0 0 
0 0 0 
0 0 0 
0 0 0 
0 0 0 
0 0 0 
0 0 0 
0 0 0 
0 0 0 
0 0 0 
0 0 0 
0 0 0 
0 0 0 
0 0 0 
0 0 0 
0 0 0 
0 0 0 
0 0 0 
0 0 0 
0 0 0 
0 0 0 
0 0 0 
0 0 0 
0 0 0 
0 0 0 
0 0 0 
0 0 0 
0 0 0 
0 0 0 
0 0 0 
0 0 0 
0 0 0 
0 0 0 
0 0 0 
0 0 0 
0 0 0 
0 0 0 
0 0 0 
0 0 0 
0 0 0 
0 0 0 
0 0 0 
0 0 0 
0 0 0 
0 0 0 
0 0 0 
0 0 0 
0 0 0 
0 0 0 
0 0 0 
0 0 0 
0 0 0 
0 0 0 
0 0 0 
0 0 0 
0 0 0 
0 0 0 
0 0 0 
0 0 0 
0 0 0 
0 0 0 
0 0 0 
0 0 0 
0 0 0 
0 0 0 
0 0 0 
0 0 0 
0 0 0 
0 0 0 
0 0 0 
0 0 0 
0 0 0 
0 0 0 
0 0 0 
0 0 0 
0 0 0 
0 0 0 
0 0 0 
0 0 0 
0 0 0 
0 0 0 
0 0 0 
0 0 0 
0 0 0 
0 0 0 
0 0 0 
0 0 0 
0 0 0 
0 0 0 
0 0 0 
0 0 0 
0 0 0 
0 0 0 
0 0 0 
0 0 0 
0 0 0 
0 0 0 
0 0 0 
0 0 0 
0 0 0 
0 0 0 
0 0 0 
0 0 0 
0 0 0 
0 0 0 
0 0 0 
0 0 0 
0 0 0 
0 0 0 
0 0 0 
0 0 0 
0 0 0 
0 0 0 
0 0 0 
0 0 0 
0 0 0 
0 0 0 
0 0 0 
0 0 0 
0 0 0 
0 0 0 
0 0 0 
0 0 0 
0 0 0 
0 0 0 
0 0 0 
0 0 0 
0 0 0 
0 0 0 
0 0 0 
0 0 0 
0 0 0 
0 0 0 
0 0 0 
0 0 0 
0 0 0 
0 0 0 
0 0 0 
0 0 0 
0 0 0 
0 0 0 
0 0 0 
0 0 0 
0 0 0 
0 0 0 
0 0 0 
0 0 0 
0 0 0 
0 0 0 
0 0 0 
0 0 0 
0 0 0 
0 0 0 
0 0 0 
0 0 0 
0 0 0 
0 0 0 
0 0 0 
0 0 0 
0 0 0 
0 0 0 
0 0 0 
0 0 0 
0 0 0 
0 0 0 
0 0 0 
0 0 0 
0 0 0 
0 0 0 
0 0 0 
0 0 0 
0 0 0 
0 0 0 
0 0 0 
0 0 0 
0 0 0 
0 0 0 
0 0 0 
0 0 0 
0 0 0 
0 0 0 
0 0 0 
0 0 0 
0 0 0 
0 0 0 
0 0 0 
0 0 0 
0 0 0 
0 0 0 
0 0 0 
0 0 0 
0 0 0 
0 0 0 
0 0 0 
0 0 0 
0 0 0 
0 0 0 
0 0 0 
0 0 0 
0 0 0 
0 0 0 
0 0 0 
0 0 0 
0 0 0 
0 0 0 
0 0 0 
0 0 0 
0 0 0 
0 0 0 
0 0 0 
0 0 0 
0 0 0 
0 0 0 
0 0 0 
0 0 0 
0 0 0 
0 0 0 
0 0 0 
0 0 0 
0 0 0 
0 0 0 
0 0 0 
0 0 0 
0 0 0 
0 0 0 
0 0 0 
0 0 0 
0 0 0 
0 0 0 
0 0 0 
0 0 0 
0 0 0 
0 0 0 
0 0 0 
0 0 0 
0 0 0 
0 0 0 
0 0 0 
0 0 0 
0 0 0 
0 0 0 
0 0 0 
0 0 0 
0 0 0 
0 0 0 
0 0 0 
0 0 0 
0 0 0 
0 0 0 
0 0 0 
0 0 0 
0 0 0 
0 0 0 
0 0 0 
0 0 0 
0 0 0 
0 0 0 
0 0 0 
0 0 0 
0 0 0 
0 0 0 
0 0 0 
0 0 0 
0 0 0 
0 0 0 
0 0 0 
0 0 0 
0 0 0 
0 0 0 
0 0 0 
0 0 0 
0 0 0 
0 0 0 
0 0 0 
0 0 0 
0 0 0 
0 0 0 
0 0 0 
0 0 0 
0 0 0 
0 0 0 
0 0 0 
0 0 0 
0 0 0 
0 0 0 
0 0 0 
0 0 0 
0 0 0 
0 0 0 
0 0 0 
0 0 0 
0 0 0 
0 0 0 
0 0 0 
0 0 0 
0 0 0 
0 0 0 
0 0 0 
0 0 0 
0 0 0 
0 0 0 
0 0 0 
0 0 0 
0 0 0 
0 0 0 
0 0 0 
0 0 0 
0 0 0 
0 0 0 
0 0 0 
0 0 0 
0 0 0 
0 0 0 
0 0 0 
0 0 0 
0 0 0 
0 0 0 
0 0 0 
0 0 0 
0 0 0 
0 0 0 
0 0 0 
0 0 0 
0 0 0 
0 0 0 
0 0 0 
0 0 0 
0 0 0 
0 0 0 
0 0 0 
0 0 0 
0 0 0 
0 0 0 
0 0 0 
0 0 0 
0 0 0 
0 0 0 
0 0 0 
0 0 0 
0 0 0 
0 0 0 
0 0 0 
0 0 0 
0 0 0 
0 0 0 
0 0 0 
0 0 0 
0 0 0 
0 0 0 
0 0 0 
0 0 0 
0 0 0 
0 0 0 
0 0 0 
0 0 0 
0 0 0 
0 0 0 
0 0 0 
0 0 0 
0 0 0 
0 0 0 
0 0 0 
0 0 0 
0 0 0 
0 0 0 
0 0 0 
0 0 0 
0 0 0 
0 0 0 
0 0 0 
0 0 0 
0 0 0 
0 0 0 
0 0 0 
0 0 0 
0 0 0 
0 0 0 
0 0 0 
0 0 0 
0 0 0 
0 0 0 
0 0 0 
0 0 0 
0 0 0 
0 0 0 
0 0 0 
0 0 0 
0 0 0 
0 0 0 
0 0 0 
0 0 0 
0 0 0 
0 0 0 
0 0 0 
0 0 0 
0 0 0 
0 0 0 
0 0 0 
0 0 0 
0 0 0 
0 0 0 
0 0 0 
0 0 0 
0 0 0 
0 0 0 
0 0 0 
0 0 0 
0 0 0 
0 0 0 
0 0 0 
0 0 0 
0 0 0 
0 0 0 
0 0 0 
0 0 0 
0 0 0 
0 0 0 
0 0 0 
0 0 0 
0 0 0 
0 0 0 
0 0 0 
0 0 0 
0 0 0 
0 0 0 
0 0 0 
0 0 0 
0 0 0 
0 0 0 
0 0 0 
0 0 0 
0 0 0 
0 0 0 
0 0 0 
0 0 0 
0 0 0 
0 0 0 
0 0 0 
0 0 0 
0 0 0 
0 0 0 
0 0 0 
0 0 0 
0 0 0 
0 0 0 
0 0 0 
0 0 0 
0 0 0 
0 0 0 
0 0 0 
0 0 0 
0 0 0 
0 0 0 
0 0 0 
0 0 0 
0 0 0 
0 0 0 
0 0 0 
0 0 0 
0 0 0 
0 0 0 
0 0 0 
0 0 0 
0 0 0 
0 0 0 
0 0 0 
0 0 0 
0 0 0 
0 0 0 
0 0 0 
0 0 0 
0 0 0 
0 0 0 
0 0 0 
0 0 0 
0 0 0 
0 0 0 
0 0 0 
0 0 0 
0 0 0 
0 0 0 
0 0 0 
0 0 0 
0 0 0 
0 0 0 
0 0 0 
0 0 0 
0 0 0 
0 0 0 
0 0 0 
0 0 0 
0 0 0 
0 0 0 
0 0 0 
0 0 0 
0 0 0 
0 0 0 
0 0 0 
0 0 0 
0 0 0 
0 0 0 
0 0 0 
0 0 0 
0 0 0 
0 0 0 
0 0 0 
0 0 0 
0 0 0 
0 0 0 
0 0 0 
0 0 0 
0 0 0 
0 0 0 
0 0 0 
0 0 0 
0 0 0 
0 0 0 
0 0 0 
0 0 0 
0 0 0 
0 0 0 
0 0 0 
0 0 0 
0 0 0 
0 0 0 
0 0 0 
0 0 0 
0 0 0 
0 0 0 
0 0 0 
0 0 0 
0 0 0 
0 0 0 
0 0 0 
0 0 0 
0 0 0 
0 0 0 
0 0 0 
0 0 0 
0 0 0 
0 0 0 
0 0 0 
0 0 0 
0 0 0 
0 0 0 
0 0 0 
0 0 0 
0 0 0 
0 0 0 
0 0 0 
0 0 0 
0 0 0 
0 0 0 
0 0 0 
0 0 0 
0 0 0 
0 0 0 
0 0 0 
0 0 0 
0 0 0 
0 0 0 
0 0 0 
0 0 0 
0 0 0 
0 0 0 
0 0 0 
0 0 0 
0 0 0 
0 0 0 
0 0 0 
0 0 0 
0 0 0 
0 0 0 
0 0 0 
0 0 0 
0 0 0 
0 0 0 
0 0 0 
0 0 0 
0 0 0 
0 0 0 
0 0 0 
0 0 0 
0 0 0 
0 0 0 
0 0 0 
0 0 0 
0 0 0 
0 0 0 
0 0 0 
0 0 0 
0 0 0 
0 0 0 
0 0 0 
0 0 0 
0 0 0 
0 0 0 
0 0 0 
0 0 0 
0 0 0 
0 0 0 
0 0 0 
0 0 0 
0 0 0 
0 0 0 
0 0 0 
0 0 0 
0 0 0 
0 0 0 
0 0 0 
0 0 0 
0 0 0 
0 0 0 
0 0 0 
0 0 0 
0 0 0 
0 0 0 
0 0 0 
0 0 0 
0 0 0 
0 0 0 
0 0 0 
0 0 0 
0 0 0 
0 0 0 
0 0 0 
0 0 0 
0 0 0 
0 0 0 
0 0 0 
0 0 0 
0 0 0 
0 0 0 
0 0 0 
0 0 0 
0 0 0 
0 0 0 
0 0 0 
0 0 0 
0 0 0 
0 0 0 
0 0 0 
0 0 0 
0 0 0 
0 0 0 
0 0 0 
0 0 0 
0 0 0 
0 0 0 
0 0 0 
0 0 0 
0 0 0 
0 0 0 
0 0 0 
0 0 0 
0 0 0 
0 0 0 
0 0 0 
0 0 0 
0 0 0 
0 0 0 
0 0 0 
0 0 0 
0 0 0 
0 0 0 
0 0 0 
0 0 0 
0 0 0 
0 0 0 
0 0 0 
0 0 0 
0 0 0 
0 0 0 
0 0 0 
0 0 0 
0 0 0 
0 0 0 
0 0 0 
0 0 0 
0 0 0 
0 0 0 
0 0 0 
0 0 0 
0 0 0 
0 0 0 
0 0 0 
0 0 0 
0 0 0 
0 0 0 
0 0 0 
0 0 0 
0 0 0 
0 0 0 
0 0 0 
0 0 0 
0 0 0 
0 0 0 
0 0 0 
0 0 0 
0 0 0 
0 0 0 
0 0 0 
0 0 0 
0 0 0 
0 0 0 
0 0 0 
0 0 0 
0 0 0 
0 0 0 
0 0 0 
0 0 0 
0 0 0 
0 0 0 
0 0 0 
0 0 0 
0 0 0 
0 0 0 
0 0 0 
0 0 0 
0 0 0 
0 0 0 
0 0 0 
0 0 0 
0 0 0 
0 0 0 
0 0 0 
0 0 0 
0 0 0 
0 0 0 
0 0 0 
0 0 0 
0 0 0 
0 0 0 
0 0 0 
0 0 0 
0 0 0 
0 0 0 
0 0 0 
0 0 0 
0 0 0 
0 0 0 
0 0 0 
0 0 0 
0 0 0 
0 0 0 
0 0 0 
0 0 0 
0 0 0 
0 0 0 
0 0 0 
0 0 0 
0 0 0 
0 0 0 
0 0 0 
0 0 0 
0 0 0 
0 0 0 
0 0 0 
0 0 0 
0 0 0 
0 0 0 
0 0 0 
0 0 0 
0 0 0 
0 0 0 
0 0 0 
0 0 0 
0 0 0 
0 0 0 
0 0 0 
0 0 0 
0 0 0 
0 0 0 
0 0 0 
0 0 0 
0 0 0 
0 0 0 
0 0 0 
0 0 0 
0 0 0 
0 0 0 
0 0 0 
0 0 0 
0 0 0 
0 0 0 
0 0 0 
0 0 0 
0 0 0 
0 0 0 
0 0 0 
0 0 0 
0 0 0 
0 0 0 
0 0 0 
0 0 0 
0 0 0 
0 0 0 
0 0 0 
0 0 0 
0 0 0 
0 0 0 
0 0 0 
0 0 0 
0 0 0 
0 0 0 
0 0 0 
0 0 0 
0 0 0 
0 0 0 
0 0 0 
0 0 0 
0 0 0 
0 0 0 
0 0 0 
0 0 0 
0 0 0 
0 0 0 
0 0 0 
0 0 0 
0 0 0 
0 0 0 
0 0 0 
0 0 0 
0 0 0 
0 0 0 
0 0 0 
0 0 0 
0 0 0 
0 0 0 
0 0 0 
0 0 0 
0 0 0 
0 0 0 
0 0 0 
0 0 0 
0 0 0 
0 0 0 
0 0 0 
0 0 0 
0 0 0 
0 0 0 
0 0 0 
0 0 0 
0 0 0 
0 0 0 
0 0 0 
0 0 0 
0 0 0 
0 0 0 
0 0 0 
0 0 0 
0 0 0 
0 0 0 
0 0 0 
0 0 0 
0 0 0 
0 0 0 
0 0 0 
0 0 0 
0 0 0 
0 0 0 
0 0 0 
0 0 0 
0 0 0 
0 0 0 
0 0 0 
0 0 0 
0 0 0 
0 0 0 
0 0 0 
0 0 0 
0 0 0 
0 0 0 
0 0 0 
0 0 0 
0 0 0 
0 0 0 
0 0 0 
0 0 0 
0 0 0 
0 0 0 
0 0 0 
0 0 0 
0 0 0 
0 0 0 
0 0 0 
0 0 0 
0 0 0 
0 0 0 
0 0 0 
0 0 0 
0 0 0 
0 0 0 
0 0 0 
0 0 0 
0 0 0 
0 0 0 
0 0 0 
0 0 0 
0 0 0 
0 0 0 
0 0 0 
0 0 0 
0 0 0 
0 0 0 
0 0 0 
0 0 0 
0 0 0 
0 0 0 
0 0 0 
0 0 0 
0 0 0 
0 0 0 
0 0 0 
0 0 0 
0 0 0 
0 0 0 
0 0 0 
0 0 0 
0 0 0 
0 0 0 
0 0 0 
0 0 0 
0 0 0 
0 0 0 
0 0 0 
0 0 0 
0 0 0 
0 0 0 
0 0 0 
0 0 0 
0 0 0 
0 0 0 
0 0 0 
0 0 0 
0 0 0 
0 0 0 
0 0 0 
0 0 0 
0 0 0 
0 0 0 
0 0 0 
0 0 0 
0 0 0 
0 0 0 
0 0 0 
0 0 0 
0 0 0 
0 0 0 
0 0 0 
0 0 0 
0 0 0 
0 0 0 
0 0 0 
0 0 0 
0 0 0 
0 0 0 
0 0 0 
0 0 0 
0 0 0 
0 0 0 
0 0 0 
0 0 0 
0 0 0 
0 0 0 
0 0 0 
0 0 0 
0 0 0 
0 0 0 
0 0 0 
0 0 0 
0 0 0 
0 0 0 
0 0 0 
0 0 0 
0 0 0 
0 0 0 
0 0 0 
0 0 0 
0 0 0 
0 0 0 
0 0 0 
0 0 0 
0 0 0 
0 0 0 
0 0 0 
0 0 0 
0 0 0 
0 0 0 
0 0 0 
0 0 0 
0 0 0 
0 0 0 
0 0 0 
0 0 0 
0 0 0 
0 0 0 
0 0 0 
0 0 0 
0 0 0 
0 0 0 
0 0 0 
0 0 0 
0 0 0 
0 0 0 
0 0 0 
0 0 0 
0 0 0 
0 0 0 
0 0 0 
0 0 0 
0 0 0 
0 0 0 
0 0 0 
0 0 0 
0 0 0 
0 0 0 
0 0 0 
0 0 0 
0 0 0 
0 0 0 
0 0 0 
0 0 0 
0 0 0 
0 0 0 
0 0 0 
0 0 0 
0 0 0 
0 0 0 
0 0 0 
0 0 0 
0 0 0 
0 0 0 
0 0 0 
0 0 0 
0 0 0 
0 0 0 
0 0 0 
0 0 0 
0 0 0 
0 0 0 
0 0 0 
0 0 0 
0 0 0 
0 0 0 
0 0 0 
0 0 0 
0 0 0 
0 0 0 
0 0 0 
0 0 0 
0 0 0 
0 0 0 
0 0 0 
0 0 0 
0 0 0 
0 0 0 
0 0 0 
0 0 0 
0 0 0 
0 0 0 
0 0 0 
0 0 0 
0 0 0 
0 0 0 
0 0 0 
0 0 0 
0 0 0 
0 0 0 
0 0 0 
0 0 0 
0 0 0 
0 0 0 
0 0 0 
0 0 0 
0 0 0 
0 0 0 
0 0 0 
0 0 0 
0 0 0 
0 0 0 
0 0 0 
0 0 0 
0 0 0 
0 0 0 
0 0 0 
0 0 0 
0 0 0 
0 0 0 
0 0 0 
0 0 0 
0 0 0 
0 0 0 
0 0 0 
0 0 0 
0 0 0 
0 0 0 
0 0 0 
0 0 0 
0 0 0 
0 0 0 
0 0 0 
0 0 0 
0 0 0 
0 0 0 
0 0 0 
0 0 0 
0 0 0 
0 0 0 
0 0 0 
0 0 0 
0 0 0 
0 0 0 
0 0 0 
0 0 0 
0 0 0 
0 0 0 
0 0 0 
0 0 0 
0 0 0 
0 0 0 
0 0 0 
0 0 0 
0 0 0 
0 0 0 
0 0 0 
0 0 0 
0 0 0 
0 0 0 
0 0 0 
0 0 0 
0 0 0 
0 0 0 
0 0 0 
0 0 0 
0 0 0 
0 0 0 
0 0 0 
0 0 0 
0 0 0 
0 0 0 
0 0 0 
0 0 0 
0 0 0 
0 0 0 
0 0 0 
0 0 0 
0 0 0 
0 0 0 
0 0 0 
0 0 0 
0 0 0 
0 0 0 
0 0 0 
0 0 0 
0 0 0 
0 0 0 
0 0 0 
0 0 0 
0 0 0 
0 0 0 
0 0 0 
0 0 0 
0 0 0 
0 0 0 
0 0 0 
0 0 0 
0 0 0 
0 0 0 
0 0 0 
0 0 0 
0 0 0 
0 0 0 
0 0 0 
0 0 0 
0 0 0 
0 0 0 
0 0 0 
0 0 0 
0 0 0 
0 0 0 
0 0 0 
0 0 0 
0 0 0 
0 0 0 
0 0 0 
0 0 0 
0 0 0 
0 0 0 
0 0 0 
0 0 0 
0 0 0 
0 0 0 
0 0 0 
0 0 0 
0 0 0 
0 0 0 
0 0 0 
0 0 0 
0 0 0 
0 0 0 
0 0 0 
0 0 0 
0 0 0 
0 0 0 
0 0 0 
0 0 0 
0 0 0 
0 0 0 
0 0 0 
0 0 0 
0 0 0 
0 0 0 
0 0 0 
0 0 0 
0 0 0 
0 0 0 
0 0 0 
0 0 0 
0 0 0 
0 0 0 
0 0 0 
0 0 0 
0 0 0 
0 0 0 
0 0 0 
0 0 0 
0 0 0 
0 0 0 
0 0 0 
0 0 0 
0 0 0 
0 0 0 
0 0 0 
0 0 0 
0 0 0 
0 0 0 
0 0 0 
0 0 0 
0 0 0 
0 0 0 
0 0 0 
0 0 0 
0 0 0 
0 0 0 
0 0 0 
0 0 0 
0 0 0 
0 0 0 
0 0 0 
0 0 0 
0 0 0 
0 0 0 
0 0 0 
0 0 0 
0 0 0 
0 0 0 
0 0 0 
0 0 0 
0 0 0 
0 0 0 
0 0 0 
0 0 0 
0 0 0 
0 0 0 
0 0 0 
0 0 0 
0 0 0 
0 0 0 
0 0 0 
0 0 0 
0 0 0 
0 0 0 
0 0 0 
0 0 0 
0 0 0 
0 0 0 
0 0 0 
0 0 0 
0 0 0 
0 0 0 
0 0 0 
0 0 0 
0 0 0 
0 0 0 
0 0 0 
0 0 0 
0 0 0 
0 0 0 
0 0 0 
0 0 0 
0 0 0 
0 0 0 
0 0 0 
0 0 0 
0 0 0 
0 0 0 
0 0 0 
0 0 0 
0 0 0 
0 0 0 
0 0 0 
0 0 0 
0 0 0 
0 0 0 
0 0 0 
0 0 0 
0 0 0 
0 0 0 
0 0 0 
0 0 0 
0 0 0 
0 0 0 
0 0 0 
0 0 0 
0 0 0 
0 0 0 
0 0 0 
0 0 0 
0 0 0 
0 0 0 
0 0 0 
0 0 0 
0 0 0 
0 0 0 
0 0 0 
0 0 0 
0 0 0 
0 0 0 
0 0 0 
0 0 0 
0 0 0 
0 0 0 
0 0 0 
0 0 0 
0 0 0 
0 0 0 
0 0 0 
0 0 0 
0 0 0 
0 0 0 
0 0 0 
0 0 0 
0 0 0 
0 0 0 
0 0 0 
0 0 0 
0 0 0 
0 0 0 
0 0 0 
0 0 0 
0 0 0 
0 0 0 
0 0 0 
0 0 0 
0 0 0 
0 0 0 
0 0 0 
0 0 0 
0 0 0 
0 0 0 
0 0 0 
0 0 0 
0 0 0 
0 0 0 
0 0 0 
0 0 0 
0 0 0 
0 0 0 
0 0 0 
0 0 0 
0 0 0 
0 0 0 
0 0 0 
0 0 0 
0 0 0 
0 0 0 
0 0 0 
0 0 0 
0 0 0 
0 0 0 
0 0 0 
0 0 0 
0 0 0 
0 0 0 
0 0 0 
0 0 0 
0 0 0 
0 0 0 
0 0 0 
0 0 0 
0 0 0 
0 0 0 
0 0 0 
0 0 0 
0 0 0 
0 0 0 
0 0 0 
0 0 0 
0 0 0 
0 0 0 
0 0 0 
0 0 0 
0 0 0 
0 0 0 
0 0 0 
0 0 0 
0 0 0 
0 0 0 
0 0 0 
0 0 0 
0 0 0 
0 0 0 
0 0 0 
0 0 0 
0 0 0 
0 0 0 
0 0 0 
0 0 0 
0 0 0 
0 0 0 
0 0 0 
0 0 0 
0 0 0 
0 0 0 
0 0 0 
0 0 0 
0 0 0 
0 0 0 
0 0 0 
0 0 0 
0 0 0 
0 0 0 
0 0 0 
0 0 0 
0 0 0 
0 0 0 
0 0 0 
0 0 0 
0 0 0 
0 0 0 
0 0 0 
0 0 0 
0 0 0 
0 0 0 
0 0 0 
0 0 0 
0 0 0 
0 0 0 
0 0 0 
0 0 0 
0 0 0 
0 0 0 
0 0 0 
0 0 0 
0 0 0 
0 0 0 
0 0 0 
0 0 0 
0 0 0 
0 0 0 
0 0 0 
0 0 0 
0 0 0 
0 0 0 
0 0 0 
0 0 0 
0 0 0 
0 0 0 
0 0 0 
0 0 0 
0 0 0 
0 0 0 
0 0 0 
0 0 0 
0 0 0 
0 0 0 
0 0 0 
0 0 0 
0 0 0 
0 0 0 
0 0 0 
0 0 0 
0 0 0 
0 0 0 
0 0 0 
0 0 0 
0 0 0 
0 0 0 
0 0 0 
0 0 0 
0 0 0 
0 0 0 
0 0 0 
0 0 0 
0 0 0 
0 0 0 
0 0 0 
0 0 0 
0 0 0 
0 0 0 
0 0 0 
0 0 0 
0 0 0 
0 0 0 
0 0 0 
0 0 0 
0 0 0 
0 0 0 
0 0 0 
0 0 0 
0 0 0 
0 0 0 
0 0 0 
0 0 0 
0 0 0 
0 0 0 
0 0 0 
0 0 0 
0 0 0 
0 0 0 
0 0 0 
0 0 0 
0 0 0 
0 0 0 
0 0 0 
0 0 0 
0 0 0 
0 0 0 
0 0 0 
0 0 0 
0 0 0 
0 0 0 
0 0 0 
0 0 0 
0 0 0 
0 0 0 
0 0 0 
0 0 0 
0 0 0 
0 0 0 
0 0 0 
0 0 0 
0 0 0 
0 0 0 
0 0 0 
0 0 0 
0 0 0 
0 0 0 
0 0 0 
0 0 0 
0 0 0 
0 0 0 
0 0 0 
0 0 0 
0 0 0 
0 0 0 
0 0 0 
0 0 0 
0 0 0 
0 0 0 
0 0 0 
0 0 0 
0 0 0 
0 0 0 
0 0 0 
0 0 0 
0 0 0 
0 0 0 
0 0 0 
0 0 0 
0 0 0 
0 0 0 
0 0 0 
0 0 0 
0 0 0 
0 0 0 
0 0 0 
0 0 0 
0 0 0 
0 0 0 
0 0 0 
0 0 0 
0 0 0 
0 0 0 
0 0 0 
0 0 0 
0 0 0 
0 0 0 
0 0 0 
0 0 0 
0 0 0 
0 0 0 
0 0 0 
0 0 0 
0 0 0 
0 0 0 
0 0 0 
0 0 0 
0 0 0 
0 0 0 
0 0 0 
0 0 0 
0 0 0 
0 0 0 
0 0 0 
0 0 0 
0 0 0 
0 0 0 
0 0 0 
0 0 0 
0 0 0 
0 0 0 
0 0 0 
0 0 0 
0 0 0 
0 0 0 
0 0 0 
0 0 0 
0 0 0 
0 0 0 
0 0 0 
0 0 0 
0 0 0 
0 0 0 
0 0 0 
0 0 0 
0 0 0 
0 0 0 
0 0 0 
0 0 0 
0 0 0 
0 0 0 
0 0 0 
0 0 0 
0 0 0 
0 0 0 
0 0 0 
0 0 0 
0 0 0 
0 0 0 
0 0 0 
0 0 0 
0 0 0 
0 0 0 
0 0 0 
0 0 0 
0 0 0 
0 0 0 
0 0 0 
0 0 0 
0 0 0 
0 0 0 
0 0 0 
0 0 0 
0 0 0 
0 0 0 
0 0 0 
0 0 0 
0 0 0 
0 0 0 
0 0 0 
0 0 0 
0 0 0 
0 0 0 
0 0 0 
0 0 0 
0 0 0 
0 0 0 
0 0 0 
0 0 0 
0 0 0 
0 0 0 
0 0 0 
0 0 0 
0 0 0 
0 0 0 
0 0 0 
0 0 0 
0 0 0 
0 0 0 
0 0 0 
0 0 0 
0 0 0 
0 0 0 
0 0 0 
0 0 0 
0 0 0 
0 0 0 
0 0 0 
0 0 0 
0 0 0 
0 0 0 
0 0 0 
0 0 0 
0 0 0 
0 0 0 
0 0 0 
0 0 0 
0 0 0 
0 0 0 
0 0 0 
0 0 0 
0 0 0 
0 0 0 
0 0 0 
0 0 0 
0 0 0 
0 0 0 
0 0 0 
0 0 0 
0 0 0 
0 0 0 
0 0 0 
0 0 0 
0 0 0 
0 0 0 
0 0 0 
0 0 0 
0 0 0 
0 0 0 
0 0 0 
0 0 0 
0 0 0 
0 0 0 
0 0 0 
0 0 0 
0 0 0 
0 0 0 
0 0 0 
0 0 0 
0 0 0 
0 0 0 
0 0 0 
0 0 0 
0 0 0 
0 0 0 
0 0 0 
0 0 0 
0 0 0 
0 0 0 
0 0 0 
0 0 0 
0 0 0 
0 0 0 
0 0 0 
0 0 0 
0 0 0 
0 0 0 
0 0 0 
0 0 0 
0 0 0 
0 0 0 
0 0 0 
0 0 0 
0 0 0 
0 0 0 
0 0 0 
0 0 0 
0 0 0 
0 0 0 
0 0 0 
0 0 0 
0 0 0 
0 0 0 
0 0 0 
0 0 0 
0 0 0 
0 0 0 
0 0 0 
0 0 0 
0 0 0 
0 0 0 
0 0 0 
0 0 0 
0 0 0 
0 0 0 
0 0 0 
0 0 0 
0 0 0 
0 0 0 
0 0 0 
0 0 0 
0 0 0 
0 0 0 
0 0 0 
0 0 0 
0 0 0 
0 0 0 
0 0 0 
0 0 0 
0 0 0 
0 0 0 
0 0 0 
0 0 0 
0 0 0 
0 0 0 
0 0 0 
0 0 0 
0 0 0 
0 0 0 
0 0 0 
0 0 0 
0 0 0 
0 0 0 
0 0 0 
0 0 0 
0 0 0 
0 0 0 
0 0 0 
0 0 0 
0 0 0 
0 0 0 
0 0 0 
0 0 0 
0 0 0 
0 0 0 
0 0 0 
0 0 0 
0 0 0 
0 0 0 
0 0 0 
0 0 0 
0 0 0 
0 0 0 
0 0 0 
0 0 0 
0 0 0 
0 0 0 
0 0 0 
0 0 0 
0 0 0 
0 0 0 
0 0 0 
0 0 0 
0 0 0 
0 0 0 
0 0 0 
0 0 0 
0 0 0 
0 0 0 
0 0 0 
0 0 0 
0 0 0 
0 0 0 
0 0 0 
0 0 0 
0 0 0 
0 0 0 
0 0 0 
0 0 0 
0 0 0 
0 0 0 
0 0 0 
0 0 0 
0 0 0 
0 0 0 
0 0 0 
0 0 0 
0 0 0 
0 0 0 
0 0 0 
0 0 0 
0 0 0 
0 0 0 
0 0 0 
0 0 0 
0 0 0 
0 0 0 
0 0 0 
0 0 0 
0 0 0 
0 0 0 
0 0 0 
0 0 0 
0 0 0 
0 0 0 
0 0 0 
0 0 0 
0 0 0 
0 0 0 
0 0 0 
0 0 0 
0 0 0 
0 0 0 
0 0 0 
0 0 0 
0 0 0 
0 0 0 
0 0 0 
0 0 0 
0 0 0 
0 0 0 
0 0 0 
0 0 0 
0 0 0 
0 0 0 
0 0 0 
0 0 0 
0 0 0 
0 0 0 
0 0 0 
0 0 0 
0 0 0 
0 0 0 
0 0 0 
0 0 0 
0 0 0 
0 0 0 
0 0 0 
0 0 0 
0 0 0 
0 0 0 
0 0 0 
0 0 0 
0 0 0 
0 0 0 
0 0 0 
0 0 0 
0 0 0 
0 0 0 
0 0 0 
0 0 0 
0 0 0 
0 0 0 
0 0 0 
0 0 0 
0 0 0 
0 0 0 
0 0 0 
0 0 0 
0 0 0 
0 0 0 
0 0 0 
0 0 0 
0 0 0 
0 0 0 
0 0 0 
0 0 0 
0 0 0 
0 0 0 
0 0 0 
0 0 0 
0 0 0 
0 0 0 
0 0 0 
0 0 0 
0 0 0 
0 0 0 
0 0 0 
0 0 0 
0 0 0 
0 0 0 
0 0 0 
0 0 0 
0 0 0 
0 0 0 
0 0 0 
0 0 0 
0 0 0 
0 0 0 
0 0 0 
0 0 0 
0 0 0 
0 0 0 
0 0 0 
0 0 0 
0 0 0 
0 0 0 
0 0 0 
0 0 0 
0 0 0 
0 0 0 
0 0 0 
0 0 0 
0 0 0 
0 0 0 
0 0 0 
0 0 0 
0 0 0 
0 0 0 
0 0 0 
0 0 0 
0 0 0 
0 0 0 
0 0 0 
0 0 0 
0 0 0 
0 0 0 
0 0 0 
0 0 0 
0 0 0 
0 0 0 
0 0 0 
0 0 0 
0 0 0 
0 0 0 
0 0 0 
0 0 0 
0 0 0 
0 0 0 
0 0 0 
0 0 0 
0 0 0 
0 0 0 
0 0 0 
0 0 0 
0 0 0 
0 0 0 
0 0 0 
0 0 0 
0 0 0 
0 0 0 
0 0 0 
0 0 0 
0 0 0 
0 0 0 
0 0 0 
0 0 0 
0 0 0 
0 0 0 
0 0 0 
0 0 0 
0 0 0 
0 0 0 
0 0 0 
0 0 0 
0 0 0 
0 0 0 
0 0 0 
0 0 0 
0 0 0 
0 0 0 
0 0 0 
0 0 0 
0 0 0 
0 0 0 
0 0 0 
0 0 0 
0 0 0 
0 0 0 
0 0 0 
0 0 0 
0 0 0 
0 0 0 
0 0 0 
0 0 0 
0 0 0 
0 0 0 
0 0 0 
0 0 0 
0 0 0 
0 0 0 
0 0 0 
0 0 0 
0 0 0 
0 0 0 
0 0 0 
0 0 0 
0 0 0 
0 0 0 
0 0 0 
0 0 0 
0 0 0 
0 0 0 
0 0 0 
0 0 0 
0 0 0 
0 0 0 
0 0 0 
0 0 0 
0 0 0 
0 0 0 
0 0 0 
0 0 0 
0 0 0 
0 0 0 
0 0 0 
0 0 0 
0 0 0 
0 0 0 
0 0 0 
0 0 0 
0 0 0 
0 0 0 
0 0 0 
0 0 0 
0 0 0 
0 0 0 
0 0 0 
0 0 0 
0 0 0 
0 0 0 
0 0 0 
0 0 0 
0 0 0 
0 0 0 
0 0 0 
0 0 0 
0 0 0 
0 0 0 
0 0 0 
0 0 0 
0 0 0 
0 0 0 
0 0 0 
0 0 0 
0 0 0 
0 0 0 
0 0 0 
0 0 0 
0 0 0 
0 0 0 
0 0 0 
0 0 0 
0 0 0 
0 0 0 
0 0 0 
0 0 0 
0 0 0 
0 0 0 
0 0 0 
0 0 0 
0 0 0 
0 0 0 
0 0 0 
0 0 0 
0 0 0 
0 0 0 
0 0 0 
0 0 0 
0 0 0 
0 0 0 
0 0 0 
0 0 0 
0 0 0 
0 0 0 
0 0 0 
0 0 0 
0 0 0 
0 0 0 
0 0 0 
0 0 0 
0 0 0 
0 0 0 
0 0 0 
0 0 0 
0 0 0 
0 0 0 
0 0 0 
0 0 0 
0 0 0 
0 0 0 
0 0 0 
0 0 0 
0 0 0 
0 0 0 
0 0 0 
0 0 0 
0 0 0 
0 0 0 
0 0 0 
0 0 0 
0 0 0 
0 0 0 
0 0 0 
0 0 0 
0 0 0 
0 0 0 
0 0 0 
0 0 0 
0 0 0 
0 0 0 
0 0 0 
0 0 0 
0 0 0 
0 0 0 
0 0 0 
0 0 0 
0 0 0 
0 0 0 
0 0 0 
0 0 0 
0 0 0 
0 0 0 
0 0 0 
0 0 0 
0 0 0 
0 0 0 
0 0 0 
0 0 0 
0 0 0 
0 0 0 
0 0 0 
0 0 0 
0 0 0 
0 0 0 
0 0 0 
0 0 0 
0 0 0 
0 0 0 
0 0 0 
0 0 0 
0 0 0 
0 0 0 
0 0 0 
0 0 0 
0 0 0 
0 0 0 
0 0 0 
0 0 0 
0 0 0 
0 0 0 
0 0 0 
0 0 0 
0 0 0 
0 0 0 
0 0 0 
0 0 0 
0 0 0 
0 0 0 
0 0 0 
0 0 0 
0 0 0 
0 0 0 
0 0 0 
0 0 0 
0 0 0 
0 0 0 
0 0 0 
0 0 0 
0 0 0 
0 0 0 
0 0 0 
0 0 0 
0 0 0 
0 0 0 
0 0 0 
0 0 0 
0 0 0 
0 0 0 
0 0 0 
0 0 0 
0 0 0 
0 0 0 
0 0 0 
0 0 0 
0 0 0 
0 0 0 
0 0 0 
0 0 0 
0 0 0 
0 0 0 
0 0 0 
0 0 0 
0 0 0 
0 0 0 
0 0 0 
0 0 0 
0 0 0 
0 0 0 
0 0 0 
0 0 0 
0 0 0 
0 0 0 
0 0 0 
0 0 0 
0 0 0 
0 0 0 
0 0 0 
0 0 0 
0 0 0 
0 0 0 
0 0 0 
0 0 0 
0 0 0 
0 0 0 
0 0 0 
0 0 0 
0 0 0 
0 0 0 
0 0 0 
0 0 0 
0 0 0 
0 0 0 
0 0 0 
0 0 0 
0 0 0 
0 0 0 
0 0 0 
0 0 0 
0 0 0 
0 0 0 
0 0 0 
0 0 0 
0 0 0 
0 0 0 
0 0 0 
0 0 0 
0 0 0 
0 0 0 
0 0 0 
0 0 0 
0 0 0 
0 0 0 
0 0 0 
0 0 0 
0 0 0 
0 0 0 
0 0 0 
0 0 0 
0 0 0 
0 0 0 
0 0 0 
0 0 0 
0 0 0 
0 0 0 
0 0 0 
0 0 0 
0 0 0 
0 0 0 
0 0 0 
0 0 0 
0 0 0 
0 0 0 
0 0 0 
0 0 0 
0 0 0 
0 0 0 
0 0 0 
0 0 0 
0 0 0 
0 0 0 
0 0 0 
0 0 0 
0 0 0 
0 0 0 
0 0 0 
0 0 0 
0 0 0 
0 0 0 
0 0 0 
0 0 0 
0 0 0 
0 0 0 
0 0 0 
0 0 0 
0 0 0 
0 0 0 
0 0 0 
0 0 0 
0 0 0 
0 0 0 
0 0 0 
0 0 0 
0 0 0 
0 0 0 
0 0 0 
0 0 0 
0 0 0 
0 0 0 
0 0 0 
0 0 0 
0 0 0 
0 0 0 
0 0 0 
0 0 0 
0 0 0 
0 0 0 
0 0 0 
0 0 0 
0 0 0 
0 0 0 
0 0 0 
0 0 0 
0 0 0 
0 0 0 
0 0 0 
0 0 0 
0 0 0 
0 0 0 
0 0 0 
0 0 0 
0 0 0 
0 0 0 
0 0 0 
0 0 0 
0 0 0 
0 0 0 
0 0 0 
0 0 0 
0 0 0 
0 0 0 
0 0 0 
0 0 0 
0 0 0 
0 0 0 
0 0 0 
0 0 0 
0 0 0 
0 0 0 
0 0 0 
0 0 0 
0 0 0 
0 0 0 
0 0 0 
0 0 0 
0 0 0 
0 0 0 
0 0 0 
0 0 0 
0 0 0 
0 0 0 
0 0 0 
0 0 0 
0 0 0 
0 0 0 
0 0 0 
0 0 0 
0 0 0 
0 0 0 
0 0 0 
0 0 0 
0 0 0 
0 0 0 
0 0 0 
0 0 0 
0 0 0 
0 0 0 
0 0 0 
0 0 0 
0 0 0 
0 0 0 
0 0 0 
0 0 0 
0 0 0 
0 0 0 
0 0 0 
0 0 0 
0 0 0 
0 0 0 
0 0 0 
0 0 0 
0 0 0 
0 0 0 
0 0 0 
0 0 0 
0 0 0 
0 0 0 
0 0 0 
0 0 0 
0 0 0 
0 0 0 
0 0 0 
0 0 0 
0 0 0 
0 0 0 
0 0 0 
0 0 0 
0 0 0 
0 0 0 
0 0 0 
0 0 0 
0 0 0 
0 0 0 
0 0 0 
0 0 0 
0 0 0 
0 0 0 
0 0 0 
0 0 0 
0 0 0 
0 0 0 
0 0 0 
0 0 0 
0 0 0 
0 0 0 
0 0 0 
0 0 0 
0 0 0 
0 0 0 
0 0 0 
0 0 0 
0 0 0 
0 0 0 
0 0 0 
0 0 0 
0 0 0 
0 0 0 
0 0 0 
0 0 0 
0 0 0 
0 0 0 
0 0 0 
0 0 0 
0 0 0 
0 0 0 
0 0 0 
0 0 0 
0 0 0 
0 0 0 
0 0 0 
0 0 0 
0 0 0 
0 0 0 
0 0 0 
0 0 0 
0 0 0 
0 0 0 
0 0 0 
0 0 0 
0 0 0 
0 0 0 
0 0 0 
0 0 0 
0 0 0 
0 0 0 
0 0 0 
0 0 0 
0 0 0 
0 0 0 
0 0 0 
0 0 0 
0 0 0 
0 0 0 
0 0 0 
0 0 0 
0 0 0 
0 0 0 
0 0 0 
0 0 0 
0 0 0 
0 0 0 
0 0 0 
0 0 0 
0 0 0 
0 0 0 
0 0 0 
0 0 0 
0 0 0 
0 0 0 
0 0 0 
0 0 0 
0 0 0 
0 0 0 
0 0 0 
0 0 0 
0 0 0 
0 0 0 
0 0 0 
0 0 0 
0 0 0 
0 0 0 
0 0 0 
0 0 0 
0 0 0 
0 0 0 
0 0 0 
0 0 0 
0 0 0 
0 0 0 
0 0 0 
0 0 0 
0 0 0 
0 0 0 
0 0 0 
0 0 0 
0 0 0 
0 0 0 
0 0 0 
0 0 0 
0 0 0 
0 0 0 
0 0 0 
0 0 0 
0 0 0 
0 0 0 
0 0 0 
0 0 0 
0 0 0 
0 0 0 
0 0 0 
0 0 0 
0 0 0 
0 0 0 
0 0 0 
0 0 0 
0 0 0 
0 0 0 
0 0 0 
0 0 0 
0 0 0 
0 0 0 
0 0 0 
0 0 0 
0 0 0 
0 0 0 
0 0 0 
0 0 0 
0 0 0 
0 0 0 
0 0 0 
0 0 0 
0 0 0 
0 0 0 
0 0 0 
0 0 0 
0 0 0 
0 0 0 
0 0 0 
0 0 0 
0 0 0 
0 0 0 
0 0 0 
0 0 0 
0 0 0 
0 0 0 
0 0 0 
0 0 0 
0 0 0 
0 0 0 
0 0 0 
0 0 0 
0 0 0 
0 0 0 
0 0 0 
0 0 0 
0 0 0 
0 0 0 
0 0 0 
0 0 0 
0 0 0 
0 0 0 
0 0 0 
0 0 0 
0 0 0 
0 0 0 
0 0 0 
0 0 0 
0 0 0 
0 0 0 
0 0 0 
0 0 0 
0 0 0 
0 0 0 
0 0 0 
0 0 0 
0 0 0 
0 0 0 
0 0 0 
0 0 0 
0 0 0 
0 0 0 
0 0 0 
0 0 0 
0 0 0 
0 0 0 
0 0 0 
0 0 0 
0 0 0 
0 0 0 
0 0 0 
0 0 0 
0 0 0 
0 0 0 
0 0 0 
0 0 0 
0 0 0 
0 0 0 
0 0 0 
0 0 0 
0 0 0 
0 0 0 
0 0 0 
0 0 0 
0 0 0 
0 0 0 
0 0 0 
0 0 0 
0 0 0 
0 0 0 
0 0 0 
0 0 0 
0 0 0 
0 0 0 
0 0 0 
0 0 0 
0 0 0 
0 0 0 
0 0 0 
0 0 0 
0 0 0 
0 0 0 
0 0 0 
0 0 0 
0 0 0 
0 0 0 
0 0 0 
0 0 0 
0 0 0 
0 0 0 
0 0 0 
0 0 0 
0 0 0 
0 0 0 
0 0 0 
0 0 0 
0 0 0 
0 0 0 
0 0 0 
0 0 0 
0 0 0 
0 0 0 
0 0 0 
0 0 0 
0 0 0 
0 0 0 
0 0 0 
0 0 0 
0 0 0 
0 0 0 
0 0 0 
0 0 0 
0 0 0 
0 0 0 
0 0 0 
0 0 0 
0 0 0 
0 0 0 
0 0 0 
0 0 0 
0 0 0 
0 0 0 
0 0 0 
0 0 0 
0 0 0 
0 0 0 
0 0 0 
0 0 0 
0 0 0 
0 0 0 
0 0 0 
0 0 0 
0 0 0 
0 0 0 
0 0 0 
0 0 0 
0 0 0 
0 0 0 
0 0 0 
0 0 0 
0 0 0 
0 0 0 
0 0 0 
0 0 0 
0 0 0 
0 0 0 
0 0 0 
0 0 0 
0 0 0 
0 0 0 
0 0 0 
0 0 0 
0 0 0 
0 0 0 
0 0 0 
0 0 0 
0 0 0 
0 0 0 
0 0 0 
0 0 0 
0 0 0 
0 0 0 
0 0 0 
0 0 0 
0 0 0 
0 0 0 
0 0 0 
0 0 0 
0 0 0 
0 0 0 
0 0 0 
0 0 0 
0 0 0 
0 0 0 
0 0 0 
0 0 0 
0 0 0 
0 0 0 
0 0 0 
0 0 0 
0 0 0 
0 0 0 
0 0 0 
0 0 0 
0 0 0 
0 0 0 
0 0 0 
0 0 0 
0 0 0 
0 0 0 
0 0 0 
0 0 0 
0 0 0 
0 0 0 
0 0 0 
0 0 0 
0 0 0 
0 0 0 
0 0 0 
0 0 0 
0 0 0 
0 0 0 
0 0 0 
0 0 0 
0 0 0 
0 0 0 
0 0 0 
0 0 0 
0 0 0 
0 0 0 
0 0 0 
0 0 0 
0 0 0 
0 0 0 
0 0 0 
0 0 0 
0 0 0 
0 0 0 
0 0 0 
0 0 0 
0 0 0 
0 0 0 
0 0 0 
0 0 0 
0 0 0 
0 0 0 
0 0 0 
0 0 0 
0 0 0 
0 0 0 
0 0 0 
0 0 0 
0 0 0 
0 0 0 
0 0 0 
0 0 0 
0 0 0 
0 0 0 
0 0 0 
0 0 0 
0 0 0 
0 0 0 
0 0 0 
0 0 0 
0 0 0 
0 0 0 
0 0 0 
0 0 0 
0 0 0 
0 0 0 
0 0 0 
0 0 0 
0 0 0 
0 0 0 
0 0 0 
0 0 0 
0 0 0 
0 0 0 
0 0 0 
0 0 0 
0 0 0 
0 0 0 
0 0 0 
0 0 0 
0 0 0 
0 0 0 
0 0 0 
0 0 0 
0 0 0 
0 0 0 
0 0 0 
0 0 0 
0 0 0 
0 0 0 
0 0 0 
0 0 0 
0 0 0 
0 0 0 
0 0 0 
0 0 0 
0 0 0 
0 0 0 
0 0 0 
0 0 0 
0 0 0 
0 0 0 
0 0 0 
0 0 0 
0 0 0 
0 0 0 
0 0 0 
0 0 0 
0 0 0 
0 0 0 
0 0 0 
0 0 0 
0 0 0 
0 0 0 
0 0 0 
0 0 0 
0 0 0 
0 0 0 
0 0 0 
0 0 0 
0 0 0 
0 0 0 
0 0 0 
0 0 0 
0 0 0 
0 0 0 
0 0 0 
0 0 0 
0 0 0 
0 0 0 
0 0 0 
0 0 0 
0 0 0 
0 0 0 
0 0 0 
0 0 0 
0 0 0 
0 0 0 
0 0 0 
0 0 0 
0 0 0 
0 0 0 
0 0 0 
0 0 0 
0 0 0 
0 0 0 
0 0 0 
0 0 0 
0 0 0 
0 0 0 
0 0 0 
0 0 0 
0 0 0 
0 0 0 
0 0 0 
0 0 0 
0 0 0 
0 0 0 
0 0 0 
0 0 0 
0 0 0 
0 0 0 
0 0 0 
0 0 0 
0 0 0 
0 0 0 
0 0 0 
0 0 0 
0 0 0 
0 0 0 
0 0 0 
0 0 0 
0 0 0 
0 0 0 
0 0 0 
0 0 0 
0 0 0 
0 0 0 
0 0 0 
0 0 0 
0 0 0 
0 0 0 
0 0 0 
0 0 0 
0 0 0 
0 0 0 
0 0 0 
0 0 0 
0 0 0 
0 0 0 
0 0 0 
0 0 0 
0 0 0 
0 0 0 
0 0 0 
0 0 0 
0 0 0 
0 0 0 
0 0 0 
0 0 0 
0 0 0 
0 0 0 
0 0 0 
0 0 0 
0 0 0 
0 0 0 
0 0 0 
0 0 0 
0 0 0 
0 0 0 
0 0 0 
0 0 0 
0 0 0 
0 0 0 
0 0 0 
0 0 0 
0 0 0 
0 0 0 
0 0 0 
0 0 0 
0 0 0 
0 0 0 
0 0 0 
0 0 0 
0 0 0 
0 0 0 
0 0 0 
0 0 0 
0 0 0 
0 0 0 
0 0 0 
0 0 0 
0 0 0 
0 0 0 
0 0 0 
0 0 0 
0 0 0 
0 0 0 
0 0 0 
0 0 0 
0 0 0 
0 0 0 
0 0 0 
0 0 0 
0 0 0 
0 0 0 
0 0 0 
0 0 0 
0 0 0 
0 0 0 
0 0 0 
0 0 0 
0 0 0 
0 0 0 
0 0 0 
0 0 0 
0 0 0 
0 0 0 
0 0 0 
0 0 0 
0 0 0 
0 0 0 
0 0 0 
0 0 0 
0 0 0 
0 0 0 
0 0 0 
0 0 0 
0 0 0 
0 0 0 
0 0 0 
0 0 0 
0 0 0 
0 0 0 
0 0 0 
0 0 0 
0 0 0 
0 0 0 
0 0 0 
0 0 0 
0 0 0 
0 0 0 
0 0 0 
0 0 0 
0 0 0 
0 0 0 
0 0 0 
0 0 0 
0 0 0 
0 0 0 
0 0 0 
0 0 0 
0 0 0 
0 0 0 
0 0 0 
0 0 0 
0 0 0 
0 0 0 
0 0 0 
0 0 0 
0 0 0 
0 0 0 
0 0 0 
0 0 0 
0 0 0 
0 0 0 
0 0 0 
0 0 0 
0 0 0 
0 0 0 
0 0 0 
0 0 0 
0 0 0 
0 0 0 
0 0 0 
0 0 0 
0 0 0 
0 0 0 
0 0 0 
0 0 0 
0 0 0 
0 0 0 
0 0 0 
0 0 0 
0 0 0 
0 0 0 
0 0 0 
0 0 0 
0 0 0 
0 0 0 
0 0 0 
0 0 0 
0 0 0 
0 0 0 
0 0 0 
0 0 0 
0 0 0 
0 0 0 
0 0 0 
0 0 0 
0 0 0 
0 0 0 
0 0 0 
0 0 0 
0 0 0 
0 0 0 
0 0 0 
0 0 0 
0 0 0 
0 0 0 
0 0 0 
0 0 0 
0 0 0 
0 0 0 
0 0 0 
0 0 0 
0 0 0 
0 0 0 
0 0 0 
0 0 0 
0 0 0 
0 0 0 
0 0 0 
0 0 0 
0 0 0 
0 0 0 
0 0 0 
0 0 0 
0 0 0 
0 0 0 
0 0 0 
0 0 0 
0 0 0 
0 0 0 
0 0 0 
0 0 0 
0 0 0 
0 0 0 
0 0 0 
0 0 0 
0 0 0 
0 0 0 
0 0 0 
0 0 0 
0 0 0 
0 0 0 
0 0 0 
0 0 0 
0 0 0 
0 0 0 
0 0 0 
0 0 0 
0 0 0 
0 0 0 
0 0 0 
0 0 0 
0 0 0 
0 0 0 
0 0 0 
0 0 0 
0 0 0 
0 0 0 
0 0 0 
0 0 0 
0 0 0 
0 0 0 
0 0 0 
0 0 0 
0 0 0 
0 0 0 
0 0 0 
0 0 0 
0 0 0 
0 0 0 
0 0 0 
0 0 0 
0 0 0 
0 0 0 
0 0 0 
0 0 0 
0 0 0 
0 0 0 
0 0 0 
0 0 0 
0 0 0 
0 0 0 
0 0 0 
0 0 0 
0 0 0 
0 0 0 
0 0 0 
0 0 0 
0 0 0 
0 0 0 
0 0 0 
0 0 0 
0 0 0 
0 0 0 
0 0 0 
0 0 0 
0 0 0 
0 0 0 
0 0 0 
0 0 0 
0 0 0 
0 0 0 
0 0 0 
0 0 0 
0 0 0 
0 0 0 
0 0 0 
0 0 0 
0 0 0 
0 0 0 
0 0 0 
0 0 0 
0 0 0 
0 0 0 
0 0 0 
0 0 0 
0 0 0 
0 0 0 
0 0 0 
0 0 0 
0 0 0 
0 0 0 
0 0 0 
0 0 0 
0 0 0 
0 0 0 
0 0 0 
0 0 0 
0 0 0 
0 0 0 
0 0 0 
0 0 0 
0 0 0 
0 0 0 
0 0 0 
0 0 0 
0 0 0 
0 0 0 
0 0 0 
0 0 0 
0 0 0 
0 0 0 
0 0 0 
0 0 0 
0 0 0 
0 0 0 
0 0 0 
0 0 0 
0 0 0 
0 0 0 
0 0 0 
0 0 0 
0 0 0 
0 0 0 
0 0 0 
0 0 0 
0 0 0 
0 0 0 
0 0 0 
0 0 0 
0 0 0 
0 0 0 
0 0 0 
0 0 0 
0 0 0 
0 0 0 
0 0 0 
0 0 0 
0 0 0 
0 0 0 
0 0 0 
0 0 0 
0 0 0 
0 0 0 
0 0 0 
0 0 0 
0 0 0 
0 0 0 
0 0 0 
0 0 0 
0 0 0 
0 0 0 
0 0 0 
0 0 0 
0 0 0 
0 0 0 
0 0 0 
0 0 0 
0 0 0 
0 0 0 
0 0 0 
0 0 0 
0 0 0 
0 0 0 
0 0 0 
0 0 0 
0 0 0 
0 0 0 
0 0 0 
0 0 0 
0 0 0 
0 0 0 
0 0 0 
0 0 0 
0 0 0 
0 0 0 
0 0 0 
0 0 0 
0 0 0 
0 0 0 
0 0 0 
0 0 0 
0 0 0 
0 0 0 
0 0 0 
0 0 0 
0 0 0 
0 0 0 
0 0 0 
0 0 0 
0 0 0 
0 0 0 
0 0 0 
0 0 0 
0 0 0 
0 0 0 
0 0 0 
0 0 0 
0 0 0 
0 0 0 
0 0 0 
0 0 0 
0 0 0 
0 0 0 
0 0 0 
0 0 0 
0 0 0 
0 0 0 
0 0 0 
0 0 0 
0 0 0 
0 0 0 
0 0 0 
0 0 0 
0 0 0 
0 0 0 
0 0 0 
0 0 0 
0 0 0 
0 0 0 
0 0 0 
0 0 0 
0 0 0 
0 0 0 
0 0 0 
0 0 0 
0 0 0 
0 0 0 
0 0 0 
0 0 0 
0 0 0 
0 0 0 
0 0 0 
0 0 0 
0 0 0 
0 0 0 
0 0 0 
0 0 0 
0 0 0 
0 0 0 
0 0 0 
0 0 0 
0 0 0 
0 0 0 
0 0 0 
0 0 0 
0 0 0 
0 0 0 
0 0 0 
0 0 0 
0 0 0 
0 0 0 
0 0 0 
0 0 0 
0 0 0 
0 0 0 
0 0 0 
0 0 0 
0 0 0 
0 0 0 
0 0 0 
0 0 0 
0 0 0 
0 0 0 
0 0 0 
0 0 0 
0 0 0 
0 0 0 
0 0 0 
0 0 0 
0 0 0 
0 0 0 
0 0 0 
0 0 0 
0 0 0 
0 0 0 
0 0 0 
0 0 0 
0 0 0 
0 0 0 
0 0 0 
0 0 0 
0 0 0 
0 0 0 
0 0 0 
0 0 0 
0 0 0 
0 0 0 
0 0 0 
0 0 0 
0 0 0 
0 0 0 
0 0 0 
0 0 0 
0 0 0 
0 0 0 
0 0 0 
0 0 0 
0 0 0 
0 0 0 
0 0 0 
0 0 0 
0 0 0 
0 0 0 
0 0 0 
0 0 0 
0 0 0 
0 0 0 
0 0 0 
0 0 0 
0 0 0 
0 0 0 
0 0 0 
0 0 0 
0 0 0 
0 0 0 
0 0 0 
0 0 0 
0 0 0 
0 0 0 
0 0 0 
0 0 0 
0 0 0 
0 0 0 
0 0 0 
0 0 0 
0 0 0 
0 0 0 
0 0 0 
0 0 0 
0 0 0 
0 0 0 
0 0 0 
0 0 0 
0 0 0 
0 0 0 
0 0 0 
0 0 0 
0 0 0 
0 0 0 
0 0 0 
0 0 0 
0 0 0 
0 0 0 
0 0 0 
0 0 0 
0 0 0 
0 0 0 
0 0 0 
0 0 0 
0 0 0 
0 0 0 
0 0 0 
0 0 0 
0 0 0 
0 0 0 
0 0 0 
0 0 0 
0 0 0 
0 0 0 
0 0 0 
0 0 0 
0 0 0 
0 0 0 
0 0 0 
0 0 0 
0 0 0 
0 0 0 
0 0 0 
0 0 0 
0 0 0 
0 0 0 
0 0 0 
0 0 0 
0 0 0 
0 0 0 
0 0 0 
0 0 0 
0 0 0 
0 0 0 
0 0 0 
0 0 0 
0 0 0 
0 0 0 
0 0 0 
0 0 0 
0 0 0 
0 0 0 
0 0 0 
0 0 0 
0 0 0 
0 0 0 
0 0 0 
0 0 0 
0 0 0 
0 0 0 
0 0 0 
0 0 0 
0 0 0 
0 0 0 
0 0 0 
0 0 0 
0 0 0 
0 0 0 
0 0 0 
0 0 0 
0 0 0 
0 0 0 
0 0 0 
0 0 0 
0 0 0 
0 0 0 
0 0 0 
0 0 0 
0 0 0 
0 0 0 
0 0 0 
0 0 0 
0 0 0 
0 0 0 
0 0 0 
0 0 0 
0 0 0 
0 0 0 
0 0 0 
0 0 0 
0 0 0 
0 0 0 
0 0 0 
0 0 0 
0 0 0 
0 0 0 
0 0 0 
0 0 0 
0 0 0 
0 0 0 
0 0 0 
0 0 0 
0 0 0 
0 0 0 
0 0 0 
0 0 0 
0 0 0 
0 0 0 
0 0 0 
0 0 0 
0 0 0 
0 0 0 
0 0 0 
0 0 0 
0 0 0 
0 0 0 
0 0 0 
0 0 0 
0 0 0 
0 0 0 
0 0 0 
0 0 0 
0 0 0 
0 0 0 
0 0 0 
0 0 0 
0 0 0 
0 0 0 
0 0 0 
0 0 0 
0 0 0 
0 0 0 
0 0 0 
0 0 0 
0 0 0 
0 0 0 
0 0 0 
0 0 0 
0 0 0 
0 0 0 
0 0 0 
0 0 0 
0 0 0 
0 0 0 
0 0 0 
0 0 0 
0 0 0 
0 0 0 
0 0 0 
0 0 0 
0 0 0 
0 0 0 
0 0 0 
0 0 0 
0 0 0 
0 0 0 
0 0 0 
0 0 0 
0 0 0 
0 0 0 
0 0 0 
0 0 0 
0 0 0 
0 0 0 
0 0 0 
0 0 0 
0 0 0 
0 0 0 
0 0 0 
0 0 0 
0 0 0 
0 0 0 
0 0 0 
0 0 0 
0 0 0 
0 0 0 
0 0 0 
0 0 0 
0 0 0 
0 0 0 
0 0 0 
0 0 0 
0 0 0 
0 0 0 
0 0 0 
0 0 0 
0 0 0 
0 0 0 
0 0 0 
0 0 0 
0 0 0 
0 0 0 
0 0 0 
0 0 0 
0 0 0 
0 0 0 
0 0 0 
0 0 0 
0 0 0 
0 0 0 
0 0 0 
0 0 0 
0 0 0 
0 0 0 
0 0 0 
0 0 0 
0 0 0 
0 0 0 
0 0 0 
0 0 0 
0 0 0 
0 0 0 
0 0 0 
0 0 0 
0 0 0 
0 0 0 
0 0 0 
0 0 0 
0 0 0 
0 0 0 
0 0 0 
0 0 0 
0 0 0 
0 0 0 
0 0 0 
0 0 0 
0 0 0 
0 0 0 
0 0 0 
0 0 0 
0 0 0 
0 0 0 
0 0 0 
0 0 0 
0 0 0 
0 0 0 
0 0 0 
0 0 0 
0 0 0 
0 0 0 
0 0 0 
0 0 0 
0 0 0 
0 0 0 
0 0 0 
0 0 0 
0 0 0 
0 0 0 
0 0 0 
0 0 0 
0 0 0 
0 0 0 
0 0 0 
0 0 0 
0 0 0 
0 0 0 
0 0 0 
0 0 0 
0 0 0 
0 0 0 
0 0 0 
0 0 0 
0 0 0 
0 0 0 
0 0 0 
0 0 0 
0 0 0 
0 0 0 
0 0 0 
0 0 0 
0 0 0 
0 0 0 
0 0 0 
0 0 0 
0 0 0 
0 0 0 
0 0 0 
0 0 0 
0 0 0 
0 0 0 
0 0 0 
0 0 0 
0 0 0 
0 0 0 
0 0 0 
0 0 0 
0 0 0 
0 0 0 
0 0 0 
0 0 0 
0 0 0 
0 0 0 
0 0 0 
0 0 0 
0 0 0 
0 0 0 
0 0 0 
0 0 0 
0 0 0 
0 0 0 
0 0 0 
0 0 0 
0 0 0 
0 0 0 
0 0 0 
0 0 0 
0 0 0 
0 0 0 
0 0 0 
0 0 0 
0 0 0 
0 0 0 
0 0 0 
0 0 0 
0 0 0 
0 0 0 
0 0 0 
0 0 0 
0 0 0 
0 0 0 
0 0 0 
0 0 0 
0 0 0 
0 0 0 
0 0 0 
0 0 0 
0 0 0 
0 0 0 
0 0 0 
0 0 0 
0 0 0 
0 0 0 
0 0 0 
0 0 0 
0 0 0 
0 0 0 
0 0 0 
0 0 0 
0 0 0 
0 0 0 
0 0 0 
0 0 0 
0 0 0 
0 0 0 
0 0 0 
0 0 0 
0 0 0 
0 0 0 
0 0 0 
0 0 0 
0 0 0 
0 0 0 
0 0 0 
0 0 0 
0 0 0 
0 0 0 
0 0 0 
0 0 0 
0 0 0 
0 0 0 
0 0 0 
0 0 0 
0 0 0 
0 0 0 
0 0 0 
0 0 0 
0 0 0 
0 0 0 
0 0 0 
0 0 0 
0 0 0 
0 0 0 
0 0 0 
0 0 0 
0 0 0 
0 0 0 
0 0 0 
0 0 0 
0 0 0 
0 0 0 
0 0 0 
0 0 0 
0 0 0 
0 0 0 
0 0 0 
0 0 0 
0 0 0 
0 0 0 
0 0 0 
0 0 0 
0 0 0 
0 0 0 
0 0 0 
0 0 0 
0 0 0 
0 0 0 
0 0 0 
0 0 0 
0 0 0 
0 0 0 
0 0 0 
0 0 0 
0 0 0 
0 0 0 
0 0 0 
0 0 0 
0 0 0 
0 0 0 
0 0 0 
0 0 0 
0 0 0 
0 0 0 
0 0 0 
0 0 0 
0 0 0 
0 0 0 
0 0 0 
0 0 0 
0 0 0 
0 0 0 
0 0 0 
0 0 0 
0 0 0 
0 0 0 
0 0 0 
0 0 0 
0 0 0 
0 0 0 
0 0 0 
0 0 0 
0 0 0 
0 0 0 
0 0 0 
0 0 0 
0 0 0 
0 0 0 
0 0 0 
0 0 0 
0 0 0 
0 0 0 
0 0 0 
0 0 0 
0 0 0 
0 0 0 
0 0 0 
0 0 0 
0 0 0 
0 0 0 
0 0 0 
0 0 0 
0 0 0 
0 0 0 
0 0 0 
0 0 0 
0 0 0 
0 0 0 
0 0 0 
0 0 0 
0 0 0 
0 0 0 
0 0 0 
0 0 0 
0 0 0 
0 0 0 
0 0 0 
0 0 0 
0 0 0 
0 0 0 
0 0 0 
0 0 0 
0 0 0 
0 0 0 
0 0 0 
0 0 0 
0 0 0 
0 0 0 
0 0 0 
0 0 0 
0 0 0 
0 0 0 
0 0 0 
0 0 0 
0 0 0 
0 0 0 
0 0 0 
0 0 0 
0 0 0 
0 0 0 
0 0 0 
0 0 0 
0 0 0 
0 0 0 
0 0 0 
0 0 0 
0 0 0 
0 0 0 
0 0 0 
0 0 0 
0 0 0 
0 0 0 
0 0 0 
0 0 0 
0 0 0 
0 0 0 
0 0 0 
0 0 0 
0 0 0 
0 0 0 
0 0 0 
0 0 0 
0 0 0 
0 0 0 
0 0 0 
0 0 0 
0 0 0 
0 0 0 
0 0 0 
0 0 0 
0 0 0 
0 0 0 
0 0 0 
0 0 0 
0 0 0 
0 0 0 
0 0 0 
0 0 0 
0 0 0 
0 0 0 
0 0 0 
0 0 0 
0 0 0 
0 0 0 
0 0 0 
0 0 0 
0 0 0 
0 0 0 
0 0 0 
0 0 0 
0 0 0 
0 0 0 
0 0 0 
0 0 0 
0 0 0 
0 0 0 
0 0 0 
0 0 0 
0 0 0 
0 0 0 
0 0 0 
0 0 0 
0 0 0 
0 0 0 
0 0 0 
0 0 0 
0 0 0 
0 0 0 
0 0 0 
0 0 0 
0 0 0 
0 0 0 
0 0 0 
0 0 0 
0 0 0 
0 0 0 
0 0 0 
0 0 0 
0 0 0 
0 0 0 
0 0 0 
0 0 0 
0 0 0 
0 0 0 
0 0 0 
0 0 0 
0 0 0 
0 0 0 
0 0 0 
0 0 0 
0 0 0 
0 0 0 
0 0 0 
0 0 0 
0 0 0 
0 0 0 
0 0 0 
0 0 0 
0 0 0 
0 0 0 
0 0 0 
0 0 0 
0 0 0 
0 0 0 
0 0 0 
0 0 0 
0 0 0 
0 0 0 
0 0 0 
0 0 0 
0 0 0 
0 0 0 
0 0 0 
0 0 0 
0 0 0 
0 0 0 
0 0 0 
0 0 0 
0 0 0 
0 0 0 
0 0 0 
0 0 0 
0 0 0 
0 0 0 
0 0 0 
0 0 0 
0 0 0 
0 0 0 
0 0 0 
0 0 0 
0 0 0 
0 0 0 
0 0 0 
0 0 0 
0 0 0 
0 0 0 
0 0 0 
0 0 0 
0 0 0 
0 0 0 
0 0 0 
0 0 0 
0 0 0 
0 0 0 
0 0 0 
0 0 0 
0 0 0 
0 0 0 
0 0 0 
0 0 0 
0 0 0 
0 0 0 
0 0 0 
0 0 0 
0 0 0 
0 0 0 
0 0 0 
0 0 0 
0 0 0 
0 0 0 
0 0 0 
0 0 0 
0 0 0 
0 0 0 
0 0 0 
0 0 0 
0 0 0 
0 0 0 
0 0 0 
0 0 0 
0 0 0 
0 0 0 
0 0 0 
0 0 0 
0 0 0 
0 0 0 
0 0 0 
0 0 0 
0 0 0 
0 0 0 
0 0 0 
0 0 0 
0 0 0 
0 0 0 
0 0 0 
0 0 0 
0 0 0 
0 0 0 
0 0 0 
0 0 0 
0 0 0 
0 0 0 
0 0 0 
0 0 0 
0 0 0 
0 0 0 
0 0 0 
0 0 0 
0 0 0 
0 0 0 
0 0 0 
0 0 0 
0 0 0 
0 0 0 
0 0 0 
0 0 0 
0 0 0 
0 0 0 
0 0 0 
0 0 0 
0 0 0 
0 0 0 
0 0 0 
0 0 0 
0 0 0 
0 0 0 
0 0 0 
0 0 0 
0 0 0 
0 0 0 
0 0 0 
0 0 0 
0 0 0 
0 0 0 
0 0 0 
0 0 0 
0 0 0 
0 0 0 
0 0 0 
0 0 0 
0 0 0 
0 0 0 
0 0 0 
0 0 0 
0 0 0 
0 0 0 
0 0 0 
0 0 0 
0 0 0 
0 0 0 
0 0 0 
0 0 0 
0 0 0 
0 0 0 
0 0 0 
0 0 0 
0 0 0 
0 0 0 
0 0 0 
0 0 0 
0 0 0 
0 0 0 
0 0 0 
0 0 0 
0 0 0 
0 0 0 
0 0 0 
0 0 0 
0 0 0 
0 0 0 
0 0 0 
0 0 0 
0 0 0 
0 0 0 
0 0 0 
0 0 0 
0 0 0 
0 0 0 
0 0 0 
0 0 0 
0 0 0 
0 0 0 
0 0 0 
0 0 0 
0 0 0 
0 0 0 
0 0 0 
0 0 0 
0 0 0 
0 0 0 
0 0 0 
0 0 0 
0 0 0 
0 0 0 
0 0 0 
0 0 0 
0 0 0 
0 0 0 
0 0 0 
0 0 0 
0 0 0 
0 0 0 
0 0 0 
0 0 0 
0 0 0 
0 0 0 
0 0 0 
0 0 0 
0 0 0 
0 0 0 
0 0 0 
0 0 0 
0 0 0 
0 0 0 
0 0 0 
0 0 0 
0 0 0 
0 0 0 
0 0 0 
0 0 0 
0 0 0 
0 0 0 
0 0 0 
0 0 0 
0 0 0 
0 0 0 
0 0 0 
0 0 0 
0 0 0 
0 0 0 
0 0 0 
0 0 0 
0 0 0 
0 0 0 
0 0 0 
0 0 0 
0 0 0 
0 0 0 
0 0 0 
0 0 0 
0 0 0 
0 0 0 
0 0 0 
0 0 0 
0 0 0 
0 0 0 
0 0 0 
0 0 0 
0 0 0 
0 0 0 
0 0 0 
0 0 0 
0 0 0 
0 0 0 
0 0 0 
0 0 0 
0 0 0 
0 0 0 
0 0 0 
0 0 0 
0 0 0 
0 0 0 
0 0 0 
0 0 0 
0 0 0 
0 0 0 
0 0 0 
0 0 0 
0 0 0 
0 0 0 
0 0 0 
0 0 0 
0 0 0 
0 0 0 
0 0 0 
0 0 0 
0 0 0 
0 0 0 
0 0 0 
0 0 0 
0 0 0 
0 0 0 
0 0 0 
0 0 0 
0 0 0 
0 0 0 
0 0 0 
0 0 0 
0 0 0 
0 0 0 
0 0 0 
0 0 0 
0 0 0 
0 0 0 
0 0 0 
0 0 0 
0 0 0 
0 0 0 
0 0 0 
0 0 0 
0 0 0 
0 0 0 
0 0 0 
0 0 0 
0 0 0 
0 0 0 
0 0 0 
0 0 0 
0 0 0 
0 0 0 
0 0 0 
0 0 0 
0 0 0 
0 0 0 
0 0 0 
0 0 0 
0 0 0 
0 0 0 
0 0 0 
0 0 0 
0 0 0 
0 0 0 
0 0 0 
0 0 0 
0 0 0 
0 0 0 
0 0 0 
0 0 0 
0 0 0 
0 0 0 
0 0 0 
0 0 0 
0 0 0 
0 0 0 
0 0 0 
0 0 0 
0 0 0 
0 0 0 
0 0 0 
0 0 0 
0 0 0 
0 0 0 
0 0 0 
0 0 0 
0 0 0 
0 0 0 
0 0 0 
0 0 0 
0 0 0 
0 0 0 
0 0 0 
0 0 0 
0 0 0 
0 0 0 
0 0 0 
0 0 0 
0 0 0 
0 0 0 
0 0 0 
0 0 0 
0 0 0 
0 0 0 
0 0 0 
0 0 0 
0 0 0 
0 0 0 
0 0 0 
0 0 0 
0 0 0 
0 0 0 
0 0 0 
0 0 0 
0 0 0 
0 0 0 
0 0 0 
0 0 0 
0 0 0 
0 0 0 
0 0 0 
0 0 0 
0 0 0 
0 0 0 
0 0 0 
0 0 0 
0 0 0 
0 0 0 
0 0 0 
0 0 0 
0 0 0 
0 0 0 
0 0 0 
0 0 0 
0 0 0 
0 0 0 
0 0 0 
0 0 0 
0 0 0 
0 0 0 
0 0 0 
0 0 0 
0 0 0 
0 0 0 
0 0 0 
0 0 0 
0 0 0 
0 0 0 
0 0 0 
0 0 0 
0 0 0 
0 0 0 
0 0 0 
0 0 0 
0 0 0 
0 0 0 
0 0 0 
0 0 0 
0 0 0 
0 0 0 
0 0 0 
0 0 0 
0 0 0 
0 0 0 
0 0 0 
0 0 0 
0 0 0 
0 0 0 
0 0 0 
0 0 0 
0 0 0 
0 0 0 
0 0 0 
0 0 0 
0 0 0 
0 0 0 
0 0 0 
0 0 0 
0 0 0 
0 0 0 
0 0 0 
0 0 0 
0 0 0 
0 0 0 
0 0 0 
0 0 0 
0 0 0 
0 0 0 
0 0 0 
0 0 0 
0 0 0 
0 0 0 
0 0 0 
0 0 0 
0 0 0 
0 0 0 
0 0 0 
0 0 0 
0 0 0 
0 0 0 
0 0 0 
0 0 0 
0 0 0 
0 0 0 
0 0 0 
0 0 0 
0 0 0 
0 0 0 
0 0 0 
0 0 0 
0 0 0 
0 0 0 
0 0 0 
0 0 0 
0 0 0 
0 0 0 
0 0 0 
0 0 0 
0 0 0 
0 0 0 
0 0 0 
0 0 0 
0 0 0 
0 0 0 
0 0 0 
0 0 0 
0 0 0 
0 0 0 
0 0 0 
0 0 0 
0 0 0 
0 0 0 
0 0 0 
0 0 0 
0 0 0 
0 0 0 
0 0 0 
0 0 0 
0 0 0 
0 0 0 
0 0 0 
0 0 0 
0 0 0 
0 0 0 
0 0 0 
0 0 0 
0 0 0 
0 0 0 
0 0 0 
0 0 0 
0 0 0 
0 0 0 
0 0 0 
0 0 0 
0 0 0 
0 0 0 
0 0 0 
0 0 0 
0 0 0 
0 0 0 
0 0 0 
0 0 0 
0 0 0 
0 0 0 
0 0 0 
0 0 0 
0 0 0 
0 0 0 
0 0 0 
0 0 0 
0 0 0 
0 0 0 
0 0 0 
0 0 0 
0 0 0 
0 0 0 
0 0 0 
0 0 0 
0 0 0 
0 0 0 
0 0 0 
0 0 0 
0 0 0 
0 0 0 
0 0 0 
0 0 0 
0 0 0 
0 0 0 
0 0 0 
0 0 0 
0 0 0 
0 0 0 
0 0 0 
0 0 0 
0 0 0 
0 0 0 
0 0 0 
0 0 0 
0 0 0 
0 0 0 
0 0 0 
0 0 0 
0 0 0 
0 0 0 
0 0 0 
0 0 0 
0 0 0 
0 0 0 
0 0 0 
0 0 0 
0 0 0 
0 0 0 
0 0 0 
0 0 0 
0 0 0 
0 0 0 
0 0 0 
0 0 0 
0 0 0 
0 0 0 
0 0 0 
0 0 0 
0 0 0 
0 0 0 
0 0 0 
0 0 0 
0 0 0 
0 0 0 
0 0 0 
0 0 0 
0 0 0 
0 0 0 
0 0 0 
0 0 0 
0 0 0 
0 0 0 
0 0 0 
0 0 0 
0 0 0 
0 0 0 
0 0 0 
0 0 0 
0 0 0 
0 0 0 
0 0 0 
0 0 0 
0 0 0 
0 0 0 
0 0 0 
0 0 0 
0 0 0 
0 0 0 
0 0 0 
0 0 0 
0 0 0 
0 0 0 
0 0 0 
0 0 0 
0 0 0 
0 0 0 
0 0 0 
0 0 0 
0 0 0 
0 0 0 
0 0 0 
0 0 0 
0 0 0 
0 0 0 
0 0 0 
0 0 0 
0 0 0 
0 0 0 
0 0 0 
0 0 0 
0 0 0 
0 0 0 
0 0 0 
0 0 0 
0 0 0 
0 0 0 
0 0 0 
0 0 0 
0 0 0 
0 0 0 
0 0 0 
0 0 0 
0 0 0 
0 0 0 
0 0 0 
0 0 0 
0 0 0 
0 0 0 
0 0 0 
0 0 0 
0 0 0 
0 0 0 
0 0 0 
0 0 0 
0 0 0 
0 0 0 
0 0 0 
0 0 0 
0 0 0 
0 0 0 
0 0 0 
0 0 0 
0 0 0 
0 0 0 
0 0 0 
0 0 0 
0 0 0 
0 0 0 
0 0 0 
0 0 0 
0 0 0 
0 0 0 
0 0 0 
0 0 0 
0 0 0 
0 0 0 
0 0 0 
0 0 0 
0 0 0 
0 0 0 
0 0 0 
0 0 0 
0 0 0 
0 0 0 
0 0 0 
0 0 0 
0 0 0 
0 0 0 
0 0 0 
0 0 0 
0 0 0 
0 0 0 
0 0 0 
0 0 0 
0 0 0 
0 0 0 
0 0 0 
0 0 0 
0 0 0 
0 0 0 
0 0 0 
0 0 0 
0 0 0 
0 0 0 
0 0 0 
0 0 0 
0 0 0 
0 0 0 
0 0 0 
0 0 0 
0 0 0 
0 0 0 
0 0 0 
0 0 0 
0 0 0 
0 0 0 
0 0 0 
0 0 0 
0 0 0 
0 0 0 
0 0 0 
0 0 0 
0 0 0 
0 0 0 
0 0 0 
0 0 0 
0 0 0 
0 0 0 
0 0 0 
0 0 0 
0 0 0 
0 0 0 
0 0 0 
0 0 0 
0 0 0 
0 0 0 
0 0 0 
0 0 0 
0 0 0 
0 0 0 
0 0 0 
0 0 0 
0 0 0 
0 0 0 
0 0 0 
0 0 0 
0 0 0 
0 0 0 
0 0 0 
0 0 0 
0 0 0 
0 0 0 
0 0 0 
0 0 0 
0 0 0 
0 0 0 
0 0 0 
0 0 0 
0 0 0 
0 0 0 
0 0 0 
0 0 0 
0 0 0 
0 0 0 
0 0 0 
0 0 0 
0 0 0 
0 0 0 
0 0 0 
0 0 0 
0 0 0 
0 0 0 
0 0 0 
0 0 0 
0 0 0 
0 0 0 
0 0 0 
0 0 0 
0 0 0 
0 0 0 
0 0 0 
0 0 0 
0 0 0 
0 0 0 
0 0 0 
0 0 0 
0 0 0 
0 0 0 
0 0 0 
0 0 0 
0 0 0 
0 0 0 
0 0 0 
0 0 0 
0 0 0 
0 0 0 
0 0 0 
0 0 0 
0 0 0 
0 0 0 
0 0 0 
0 0 0 
0 0 0 
0 0 0 
0 0 0 
0 0 0 
0 0 0 
0 0 0 
0 0 0 
0 0 0 
0 0 0 
0 0 0 
0 0 0 
0 0 0 
0 0 0 
0 0 0 
0 0 0 
0 0 0 
0 0 0 
0 0 0 
0 0 0 
0 0 0 
0 0 0 
0 0 0 
0 0 0 
0 0 0 
0 0 0 
0 0 0 
0 0 0 
0 0 0 
0 0 0 
0 0 0 
0 0 0 
0 0 0 
0 0 0 
0 0 0 
0 0 0 
0 0 0 
0 0 0 
0 0 0 
0 0 0 
0 0 0 
0 0 0 
0 0 0 
0 0 0 
0 0 0 
0 0 0 
0 0 0 
0 0 0 
0 0 0 
0 0 0 
0 0 0 
0 0 0 
0 0 0 
0 0 0 
0 0 0 
0 0 0 
0 0 0 
0 0 0 
0 0 0 
0 0 0 
0 0 0 
0 0 0 
0 0 0 
0 0 0 
0 0 0 
0 0 0 
0 0 0 
0 0 0 
0 0 0 
0 0 0 
0 0 0 
0 0 0 
0 0 0 
0 0 0 
0 0 0 
0 0 0 
0 0 0 
0 0 0 
0 0 0 
0 0 0 
0 0 0 
0 0 0 
0 0 0 
0 0 0 
0 0 0 
0 0 0 
0 0 0 
0 0 0 
0 0 0 
0 0 0 
0 0 0 
0 0 0 
0 0 0 
0 0 0 
0 0 0 
0 0 0 
0 0 0 
0 0 0 
0 0 0 
0 0 0 
0 0 0 
0 0 0 
0 0 0 
0 0 0 
0 0 0 
0 0 0 
0 0 0 
0 0 0 
0 0 0 
0 0 0 
0 0 0 
0 0 0 
0 0 0 
0 0 0 
0 0 0 
0 0 0 
0 0 0 
0 0 0 
0 0 0 
0 0 0 
0 0 0 
0 0 0 
0 0 0 
0 0 0 
0 0 0 
0 0 0 
0 0 0 
0 0 0 
0 0 0 
0 0 0 
0 0 0 
0 0 0 
0 0 0 
0 0 0 
0 0 0 
0 0 0 
0 0 0 
0 0 0 
0 0 0 
0 0 0 
0 0 0 
0 0 0 
0 0 0 
0 0 0 
0 0 0 
0 0 0 
0 0 0 
0 0 0 
0 0 0 
0 0 0 
0 0 0 
0 0 0 
0 0 0 
0 0 0 
0 0 0 
0 0 0 
0 0 0 
0 0 0 
0 0 0 
0 0 0 
0 0 0 
0 0 0 
0 0 0 
0 0 0 
0 0 0 
0 0 0 
0 0 0 
0 0 0 
0 0 0 
0 0 0 
0 0 0 
0 0 0 
0 0 0 
0 0 0 
0 0 0 
0 0 0 
0 0 0 
0 0 0 
0 0 0 
0 0 0 
0 0 0 
0 0 0 
0 0 0 
0 0 0 
0 0 0 
0 0 0 
0 0 0 
0 0 0 
0 0 0 
0 0 0 
0 0 0 
0 0 0 
0 0 0 
0 0 0 
0 0 0 
0 0 0 
0 0 0 
0 0 0 
0 0 0 
0 0 0 
0 0 0 
0 0 0 
0 0 0 
0 0 0 
0 0 0 
0 0 0 
0 0 0 
0 0 0 
0 0 0 
0 0 0 
0 0 0 
0 0 0 
0 0 0 
0 0 0 
0 0 0 
0 0 0 
0 0 0 
0 0 0 
0 0 0 
0 0 0 
0 0 0 
0 0 0 
0 0 0 
0 0 0 
0 0 0 
0 0 0 
0 0 0 
0 0 0 
0 0 0 
0 0 0 
0 0 0 
0 0 0 
0 0 0 
0 0 0 
0 0 0 
0 0 0 
0 0 0 
0 0 0 
0 0 0 
0 0 0 
0 0 0 
0 0 0 
0 0 0 
0 0 0 
0 0 0 
0 0 0 
0 0 0 
0 0 0 
0 0 0 
0 0 0 
0 0 0 
0 0 0 
0 0 0 
0 0 0 
0 0 0 
0 0 0 
0 0 0 
0 0 0 
0 0 0 
0 0 0 
0 0 0 
0 0 0 
0 0 0 
0 0 0 
0 0 0 
0 0 0 
0 0 0 
0 0 0 
0 0 0 
0 0 0 
0 0 0 
0 0 0 
0 0 0 
0 0 0 
0 0 0 
0 0 0 
0 0 0 
0 0 0 
0 0 0 
0 0 0 
0 0 0 
0 0 0 
0 0 0 
0 0 0 
0 0 0 
0 0 0 
0 0 0 
0 0 0 
0 0 0 
0 0 0 
0 0 0 
0 0 0 
0 0 0 
0 0 0 
0 0 0 
0 0 0 
0 0 0 
0 0 0 
0 0 0 
0 0 0 
0 0 0 
0 0 0 
0 0 0 
0 0 0 
0 0 0 
0 0 0 
0 0 0 
0 0 0 
0 0 0 
0 0 0 
0 0 0 
0 0 0 
0 0 0 
0 0 0 
0 0 0 
0 0 0 
0 0 0 
0 0 0 
0 0 0 
0 0 0 
0 0 0 
0 0 0 
0 0 0 
0 0 0 
0 0 0 
0 0 0 
0 0 0 
0 0 0 
0 0 0 
0 0 0 
0 0 0 
0 0 0 
0 0 0 
0 0 0 
0 0 0 
0 0 0 
0 0 0 
0 0 0 
0 0 0 
0 0 0 
0 0 0 
0 0 0 
0 0 0 
0 0 0 
0 0 0 
0 0 0 
0 0 0 
0 0 0 
0 0 0 
0 0 0 
0 0 0 
0 0 0 
0 0 0 
0 0 0 
0 0 0 
0 0 0 
0 0 0 
0 0 0 
0 0 0 
0 0 0 
0 0 0 
0 0 0 
0 0 0 
0 0 0 
0 0 0 
0 0 0 
0 0 0 
0 0 0 
0 0 0 
0 0 0 
0 0 0 
0 0 0 
0 0 0 
0 0 0 
0 0 0 
0 0 0 
0 0 0 
0 0 0 
0 0 0 
0 0 0 
0 0 0 
0 0 0 
0 0 0 
0 0 0 
0 0 0 
0 0 0 
0 0 0 
0 0 0 
0 0 0 
0 0 0 
0 0 0 
0 0 0 
0 0 0 
0 0 0 
0 0 0 
0 0 0 
0 0 0 
0 0 0 
0 0 0 
0 0 0 
0 0 0 
0 0 0 
0 0 0 
0 0 0 
0 0 0 
0 0 0 
0 0 0 
0 0 0 
0 0 0 
0 0 0 
0 0 0 
0 0 0 
0 0 0 
0 0 0 
0 0 0 
0 0 0 
0 0 0 
0 0 0 
0 0 0 
0 0 0 
0 0 0 
0 0 0 
0 0 0 
0 0 0 
0 0 0 
0 0 0 
0 0 0 
0 0 0 
0 0 0 
0 0 0 
0 0 0 
0 0 0 
0 0 0 
0 0 0 
0 0 0 
0 0 0 
0 0 0 
0 0 0 
0 0 0 
0 0 0 
0 0 0 
0 0 0 
0 0 0 
0 0 0 
0 0 0 
0 0 0 
0 0 0 
0 0 0 
0 0 0 
0 0 0 
0 0 0 
0 0 0 
0 0 0 
0 0 0 
0 0 0 
0 0 0 
0 0 0 
0 0 0 
0 0 0 
0 0 0 
0 0 0 
0 0 0 
0 0 0 
0 0 0 
0 0 0 
0 0 0 
0 0 0 
0 0 0 
0 0 0 
0 0 0 
0 0 0 
0 0 0 
0 0 0 
0 0 0 
0 0 0 
0 0 0 
0 0 0 
0 0 0 
0 0 0 
0 0 0 
0 0 0 
0 0 0 
0 0 0 
0 0 0 
0 0 0 
0 0 0 
0 0 0 
0 0 0 
0 0 0 
0 0 0 
0 0 0 
0 0 0 
0 0 0 
0 0 0 
0 0 0 
0 0 0 
0 0 0 
0 0 0 
0 0 0 
0 0 0 
0 0 0 
0 0 0 
0 0 0 
0 0 0 
0 0 0 
0 0 0 
0 0 0 
0 0 0 
0 0 0 
0 0 0 
0 0 0 
0 0 0 
0 0 0 
0 0 0 
0 0 0 
0 0 0 
0 0 0 
0 0 0 
0 0 0 
0 0 0 
0 0 0 
0 0 0 
0 0 0 
0 0 0 
0 0 0 
0 0 0 
0 0 0 
0 0 0 
0 0 0 
0 0 0 
0 0 0 
0 0 0 
0 0 0 
0 0 0 
0 0 0 
0 0 0 
0 0 0 
0 0 0 
0 0 0 
0 0 0 
0 0 0 
0 0 0 
0 0 0 
0 0 0 
0 0 0 
0 0 0 
0 0 0 
0 0 0 
0 0 0 
0 0 0 
0 0 0 
0 0 0 
0 0 0 
0 0 0 
0 0 0 
0 0 0 
0 0 0 
0 0 0 
0 0 0 
0 0 0 
0 0 0 
0 0 0 
0 0 0 
0 0 0 
0 0 0 
0 0 0 
0 0 0 
0 0 0 
0 0 0 
0 0 0 
0 0 0 
0 0 0 
0 0 0 
0 0 0 
0 0 0 
0 0 0 
0 0 0 
0 0 0 
0 0 0 
0 0 0 
0 0 0 
0 0 0 
0 0 0 
0 0 0 
0 0 0 
0 0 0 
0 0 0 
0 0 0 
0 0 0 
0 0 0 
0 0 0 
0 0 0 
0 0 0 
0 0 0 
0 0 0 
0 0 0 
0 0 0 
0 0 0 
0 0 0 
0 0 0 
0 0 0 
0 0 0 
0 0 0 
0 0 0 
0 0 0 
0 0 0 
0 0 0 
0 0 0 
0 0 0 
0 0 0 
0 0 0 
0 0 0 
0 0 0 
0 0 0 
0 0 0 
0 0 0 
0 0 0 
0 0 0 
0 0 0 
0 0 0 
0 0 0 
0 0 0 
0 0 0 
0 0 0 
0 0 0 
0 0 0 
0 0 0 
0 0 0 
0 0 0 
0 0 0 
0 0 0 
0 0 0 
0 0 0 
0 0 0 
0 0 0 
0 0 0 
0 0 0 
0 0 0 
0 0 0 
0 0 0 
0 0 0 
0 0 0 
0 0 0 
0 0 0 
0 0 0 
0 0 0 
0 0 0 
0 0 0 
0 0 0 
0 0 0 
0 0 0 
0 0 0 
0 0 0 
0 0 0 
0 0 0 
0 0 0 
0 0 0 
0 0 0 
0 0 0 
0 0 0 
0 0 0 
0 0 0 
0 0 0 
0 0 0 
0 0 0 
0 0 0 
0 0 0 
0 0 0 
0 0 0 
0 0 0 
0 0 0 
0 0 0 
0 0 0 
0 0 0 
0 0 0 
0 0 0 
0 0 0 
0 0 0 
0 0 0 
0 0 0 
0 0 0 
0 0 0 
0 0 0 
0 0 0 
0 0 0 
0 0 0 
0 0 0 
0 0 0 
0 0 0 
0 0 0 
0 0 0 
0 0 0 
0 0 0 
0 0 0 
0 0 0 
0 0 0 
0 0 0 
0 0 0 
0 0 0 
0 0 0 
0 0 0 
0 0 0 
0 0 0 
0 0 0 
0 0 0 
0 0 0 
0 0 0 
0 0 0 
0 0 0 
0 0 0 
0 0 0 
0 0 0 
0 0 0 
0 0 0 
0 0 0 
0 0 0 
0 0 0 
0 0 0 
0 0 0 
0 0 0 
0 0 0 
0 0 0 
0 0 0 
0 0 0 
0 0 0 
0 0 0 
0 0 0 
0 0 0 
0 0 0 
0 0 0 
0 0 0 
0 0 0 
0 0 0 
0 0 0 
0 0 0 
0 0 0 
0 0 0 
0 0 0 
0 0 0 
0 0 0 
0 0 0 
0 0 0 
0 0 0 
0 0 0 
0 0 0 
0 0 0 
0 0 0 
0 0 0 
0 0 0 
0 0 0 
0 0 0 
0 0 0 
0 0 0 
0 0 0 
0 0 0 
0 0 0 
0 0 0 
0 0 0 
0 0 0 
0 0 0 
0 0 0 
0 0 0 
0 0 0 
0 0 0 
0 0 0 
0 0 0 
0 0 0 
0 0 0 
0 0 0 
0 0 0 
0 0 0 
0 0 0 
0 0 0 
0 0 0 
0 0 0 
0 0 0 
0 0 0 
0 0 0 
0 0 0 
0 0 0 
0 0 0 
0 0 0 
0 0 0 
0 0 0 
0 0 0 
0 0 0 
0 0 0 
0 0 0 
0 0 0 
0 0 0 
0 0 0 
0 0 0 
0 0 0 
0 0 0 
0 0 0 
0 0 0 
0 0 0 
0 0 0 
0 0 0 
0 0 0 
0 0 0 
0 0 0 
0 0 0 
0 0 0 
0 0 0 
0 0 0 
0 0 0 
0 0 0 
0 0 0 
0 0 0 
0 0 0 
0 0 0 
0 0 0 
0 0 0 
0 0 0 
0 0 0 
0 0 0 
0 0 0 
0 0 0 
0 0 0 
0 0 0 
0 0 0 
0 0 0 
0 0 0 
0 0 0 
0 0 0 
0 0 0 
0 0 0 
0 0 0 
0 0 0 
0 0 0 
0 0 0 
0 0 0 
0 0 0 
0 0 0 
0 0 0 
0 0 0 
0 0 0 
0 0 0 
0 0 0 
0 0 0 
0 0 0 
0 0 0 
0 0 0 
0 0 0 
0 0 0 
0 0 0 
0 0 0 
0 0 0 
0 0 0 
0 0 0 
0 0 0 
0 0 0 
0 0 0 
0 0 0 
0 0 0 
0 0 0 
0 0 0 
0 0 0 
0 0 0 
0 0 0 
0 0 0 
0 0 0 
0 0 0 
0 0 0 
0 0 0 
0 0 0 
0 0 0 
0 0 0 
0 0 0 
0 0 0 
0 0 0 
0 0 0 
0 0 0 
0 0 0 
0 0 0 
0 0 0 
0 0 0 
0 0 0 
0 0 0 
0 0 0 
0 0 0 
0 0 0 
0 0 0 
0 0 0 
0 0 0 
0 0 0 
0 0 0 
0 0 0 
0 0 0 
0 0 0 
0 0 0 
0 0 0 
0 0 0 
0 0 0 
0 0 0 
0 0 0 
0 0 0 
0 0 0 
0 0 0 
0 0 0 
0 0 0 
0 0 0 
0 0 0 
0 0 0 
0 0 0 
0 0 0 
0 0 0 
0 0 0 
0 0 0 
0 0 0 
0 0 0 
0 0 0 
0 0 0 
0 0 0 
0 0 0 
0 0 0 
0 0 0 
0 0 0 
0 0 0 
0 0 0 
0 0 0 
0 0 0 
0 0 0 
0 0 0 
0 0 0 
0 0 0 
0 0 0 
0 0 0 
0 0 0 
0 0 0 
0 0 0 
0 0 0 
0 0 0 
0 0 0 
0 0 0 
0 0 0 
0 0 0 
0 0 0 
0 0 0 
0 0 0 
0 0 0 
0 0 0 
0 0 0 
0 0 0 
0 0 0 
0 0 0 
0 0 0 
0 0 0 
0 0 0 
0 0 0 
0 0 0 
0 0 0 
0 0 0 
0 0 0 
0 0 0 
0 0 0 
0 0 0 
0 0 0 
0 0 0 
0 0 0 
0 0 0 
0 0 0 
0 0 0 
0 0 0 
0 0 0 
0 0 0 
0 0 0 
0 0 0 
0 0 0 
0 0 0 
0 0 0 
0 0 0 
0 0 0 
0 0 0 
0 0 0 
0 0 0 
0 0 0 
0 0 0 
0 0 0 
0 0 0 
0 0 0 
0 0 0 
0 0 0 
0 0 0 
0 0 0 
0 0 0 
0 0 0 
0 0 0 
0 0 0 
0 0 0 
0 0 0 
0 0 0 
0 0 0 
0 0 0 
0 0 0 
0 0 0 
0 0 0 
0 0 0 
0 0 0 
0 0 0 
0 0 0 
0 0 0 
0 0 0 
0 0 0 
0 0 0 
0 0 0 
0 0 0 
0 0 0 
0 0 0 
0 0 0 
0 0 0 
0 0 0 
0 0 0 
0 0 0 
0 0 0 
0 0 0 
0 0 0 
0 0 0 
0 0 0 
0 0 0 
0 0 0 
0 0 0 
0 0 0 
0 0 0 
0 0 0 
0 0 0 
0 0 0 
0 0 0 
0 0 0 
0 0 0 
0 0 0 
0 0 0 
0 0 0 
0 0 0 
0 0 0 
0 0 0 
0 0 0 
0 0 0 
0 0 0 
0 0 0 
0 0 0 
0 0 0 
0 0 0 
0 0 0 
0 0 0 
0 0 0 
0 0 0 
0 0 0 
0 0 0 
0 0 0 
0 0 0 
0 0 0 
0 0 0 
0 0 0 
0 0 0 
0 0 0 
0 0 0 
0 0 0 
0 0 0 
0 0 0 
0 0 0 
0 0 0 
0 0 0 
0 0 0 
0 0 0 
0 0 0 
0 0 0 
0 0 0 
0 0 0 
0 0 0 
0 0 0 
0 0 0 
0 0 0 
0 0 0 
0 0 0 
0 0 0 
0 0 0 
0 0 0 
0 0 0 
0 0 0 
0 0 0 
0 0 0 
0 0 0 
0 0 0 
0 0 0 
0 0 0 
0 0 0 
0 0 0 
0 0 0 
0 0 0 
0 0 0 
0 0 0 
0 0 0 
0 0 0 
0 0 0 
0 0 0 
0 0 0 
0 0 0 
0 0 0 
0 0 0 
0 0 0 
0 0 0 
0 0 0 
0 0 0 
0 0 0 
0 0 0 
0 0 0 
0 0 0 
0 0 0 
0 0 0 
0 0 0 
0 0 0 
0 0 0 
0 0 0 
0 0 0 
0 0 0 
0 0 0 
0 0 0 
0 0 0 
0 0 0 
0 0 0 
0 0 0 
0 0 0 
0 0 0 
0 0 0 
0 0 0 
0 0 0 
0 0 0 
0 0 0 
0 0 0 
0 0 0 
0 0 0 
0 0 0 
0 0 0 
0 0 0 
0 0 0 
0 0 0 
0 0 0 
0 0 0 
0 0 0 
0 0 0 
0 0 0 
0 0 0 
0 0 0 
0 0 0 
0 0 0 
0 0 0 
0 0 0 
0 0 0 
0 0 0 
0 0 0 
0 0 0 
0 0 0 
0 0 0 
0 0 0 
0 0 0 
0 0 0 
0 0 0 
0 0 0 
0 0 0 
0 0 0 
0 0 0 
0 0 0 
0 0 0 
0 0 0 
0 0 0 
0 0 0 
0 0 0 
0 0 0 
0 0 0 
0 0 0 
0 0 0 
0 0 0 
0 0 0 
0 0 0 
0 0 0 
0 0 0 
0 0 0 
0 0 0 
0 0 0 
0 0 0 
0 0 0 
0 0 0 
0 0 0 
0 0 0 
0 0 0 
0 0 0 
0 0 0 
0 0 0 
0 0 0 
0 0 0 
0 0 0 
0 0 0 
0 0 0 
0 0 0 
0 0 0 
0 0 0 
0 0 0 
0 0 0 
0 0 0 
0 0 0 
0 0 0 
0 0 0 
0 0 0 
0 0 0 
0 0 0 
0 0 0 
0 0 0 
0 0 0 
0 0 0 
0 0 0 
0 0 0 
0 0 0 
0 0 0 
0 0 0 
0 0 0 
0 0 0 
0 0 0 
0 0 0 
0 0 0 
0 0 0 
0 0 0 
0 0 0 
0 0 0 
0 0 0 
0 0 0 
0 0 0 
0 0 0 
0 0 0 
0 0 0 
0 0 0 
0 0 0 
0 0 0 
0 0 0 
0 0 0 
0 0 0 
0 0 0 
0 0 0 
0 0 0 
0 0 0 
0 0 0 
0 0 0 
0 0 0 
0 0 0 
0 0 0 
0 0 0 
0 0 0 
0 0 0 
0 0 0 
0 0 0 
0 0 0 
0 0 0 
0 0 0 
0 0 0 
0 0 0 
0 0 0 
0 0 0 
0 0 0 
0 0 0 
0 0 0 
0 0 0 
0 0 0 
0 0 0 
0 0 0 
0 0 0 
0 0 0 
0 0 0 
0 0 0 
0 0 0 
0 0 0 
0 0 0 
0 0 0 
0 0 0 
0 0 0 
0 0 0 
0 0 0 
0 0 0 
0 0 0 
0 0 0 
0 0 0 
0 0 0 
0 0 0 
0 0 0 
0 0 0 
0 0 0 
0 0 0 
0 0 0 
0 0 0 
0 0 0 
0 0 0 
0 0 0 
0 0 0 
0 0 0 
0 0 0 
0 0 0 
0 0 0 
0 0 0 
0 0 0 
0 0 0 
0 0 0 
0 0 0 
0 0 0 
0 0 0 
0 0 0 
0 0 0 
0 0 0 
0 0 0 
0 0 0 
0 0 0 
0 0 0 
0 0 0 
0 0 0 
0 0 0 
0 0 0 
0 0 0 
0 0 0 
0 0 0 
0 0 0 
0 0 0 
0 0 0 
0 0 0 
0 0 0 
0 0 0 
0 0 0 
0 0 0 
0 0 0 
0 0 0 
0 0 0 
0 0 0 
0 0 0 
0 0 0 
0 0 0 
0 0 0 
0 0 0 
0 0 0 
0 0 0 
0 0 0 
0 0 0 
0 0 0 
0 0 0 
0 0 0 
0 0 0 
0 0 0 
0 0 0 
0 0 0 
0 0 0 
0 0 0 
0 0 0 
0 0 0 
0 0 0 
0 0 0 
0 0 0 
0 0 0 
0 0 0 
0 0 0 
0 0 0 
0 0 0 
0 0 0 
0 0 0 
0 0 0 
0 0 0 
0 0 0 
0 0 0 
0 0 0 
0 0 0 
0 0 0 
0 0 0 
0 0 0 
0 0 0 
0 0 0 
0 0 0 
0 0 0 
0 0 0 
0 0 0 
0 0 0 
0 0 0 
0 0 0 
0 0 0 
0 0 0 
0 0 0 
0 0 0 
0 0 0 
0 0 0 
0 0 0 
0 0 0 
0 0 0 
0 0 0 
0 0 0 
0 0 0 
0 0 0 
0 0 0 
0 0 0 
0 0 0 
0 0 0 
0 0 0 
0 0 0 
0 0 0 
0 0 0 
0 0 0 
0 0 0 
0 0 0 
0 0 0 
0 0 0 
0 0 0 
0 0 0 
0 0 0 
0 0 0 
0 0 0 
0 0 0 
0 0 0 
0 0 0 
0 0 0 
0 0 0 
0 0 0 
0 0 0 
0 0 0 
0 0 0 
0 0 0 
0 0 0 
0 0 0 
0 0 0 
0 0 0 
0 0 0 
0 0 0 
0 0 0 
0 0 0 
0 0 0 
0 0 0 
0 0 0 
0 0 0 
0 0 0 
0 0 0 
0 0 0 
0 0 0 
0 0 0 
0 0 0 
0 0 0 
0 0 0 
0 0 0 
0 0 0 
0 0 0 
0 0 0 
0 0 0 
0 0 0 
0 0 0 
0 0 0 
0 0 0 
0 0 0 
0 0 0 
0 0 0 
0 0 0 
0 0 0 
0 0 0 
0 0 0 
0 0 0 
0 0 0 
0 0 0 
0 0 0 
0 0 0 
0 0 0 
0 0 0 
0 0 0 
0 0 0 
0 0 0 
0 0 0 
0 0 0 
0 0 0 
0 0 0 
0 0 0 
0 0 0 
0 0 0 
0 0 0 
0 0 0 
0 0 0 
0 0 0 
0 0 0 
0 0 0 
0 0 0 
0 0 0 
0 0 0 
0 0 0 
0 0 0 
0 0 0 
0 0 0 
0 0 0 
0 0 0 
0 0 0 
0 0 0 
0 0 0 
0 0 0 
0 0 0 
0 0 0 
0 0 0 
0 0 0 
0 0 0 
0 0 0 
0 0 0 
0 0 0 
0 0 0 
0 0 0 
0 0 0 
0 0 0 
0 0 0 
0 0 0 
0 0 0 
0 0 0 
0 0 0 
0 0 0 
0 0 0 
0 0 0 
0 0 0 
0 0 0 
0 0 0 
0 0 0 
0 0 0 
0 0 0 
0 0 0 
0 0 0 
0 0 0 
0 0 0 
0 0 0 
0 0 0 
0 0 0 
0 0 0 
0 0 0 
0 0 0 
0 0 0 
0 0 0 
0 0 0 
0 0 0 
0 0 0 
0 0 0 
0 0 0 
0 0 0 
0 0 0 
0 0 0 
0 0 0 
0 0 0 
0 0 0 
0 0 0 
0 0 0 
0 0 0 
0 0 0 
0 0 0 
0 0 0 
0 0 0 
0 0 0 
0 0 0 
0 0 0 
0 0 0 
0 0 0 
0 0 0 
0 0 0 
0 0 0 
0 0 0 
0 0 0 
0 0 0 
0 0 0 
0 0 0 
0 0 0 
0 0 0 
0 0 0 
0 0 0 
0 0 0 
0 0 0 
0 0 0 
0 0 0 
0 0 0 
0 0 0 
0 0 0 
0 0 0 
0 0 0 
0 0 0 
0 0 0 
0 0 0 
0 0 0 
0 0 0 
0 0 0 
0 0 0 
0 0 0 
0 0 0 
0 0 0 
0 0 0 
0 0 0 
0 0 0 
0 0 0 
0 0 0 
0 0 0 
0 0 0 
0 0 0 
0 0 0 
0 0 0 
0 0 0 
0 0 0 
0 0 0 
0 0 0 
0 0 0 
0 0 0 
0 0 0 
0 0 0 
0 0 0 
0 0 0 
0 0 0 
0 0 0 
0 0 0 
0 0 0 
0 0 0 
0 0 0 
0 0 0 
0 0 0 
0 0 0 
0 0 0 
0 0 0 
0 0 0 
0 0 0 
0 0 0 
0 0 0 
0 0 0 
0 0 0 
0 0 0 
0 0 0 
0 0 0 
0 0 0 
0 0 0 
0 0 0 
0 0 0 
0 0 0 
0 0 0 
0 0 0 
0 0 0 
0 0 0 
0 0 0 
0 0 0 
0 0 0 
0 0 0 
0 0 0 
0 0 0 
0 0 0 
0 0 0 
0 0 0 
0 0 0 
0 0 0 
0 0 0 
0 0 0 
0 0 0 
0 0 0 
0 0 0 
0 0 0 
0 0 0 
0 0 0 
0 0 0 
0 0 0 
0 0 0 
0 0 0 
0 0 0 
0 0 0 
0 0 0 
0 0 0 
0 0 0 
0 0 0 
0 0 0 
0 0 0 
0 0 0 
0 0 0 
0 0 0 
0 0 0 
0 0 0 
0 0 0 
0 0 0 
0 0 0 
0 0 0 
0 0 0 
0 0 0 
0 0 0 
0 0 0 
0 0 0 
0 0 0 
0 0 0 
0 0 0 
0 0 0 
0 0 0 
0 0 0 
0 0 0 
0 0 0 
0 0 0 
0 0 0 
0 0 0 
0 0 0 
0 0 0 
0 0 0 
0 0 0 
0 0 0 
0 0 0 
0 0 0 
0 0 0 
0 0 0 
0 0 0 
0 0 0 
0 0 0 
0 0 0 
0 0 0 
0 0 0 
0 0 0 
0 0 0 
0 0 0 
0 0 0 
0 0 0 
0 0 0 
0 0 0 
0 0 0 
0 0 0 
0 0 0 
0 0 0 
0 0 0 
0 0 0 
0 0 0 
0 0 0 
0 0 0 
0 0 0 
0 0 0 
0 0 0 
0 0 0 
0 0 0 
0 0 0 
0 0 0 
0 0 0 
0 0 0 
0 0 0 
0 0 0 
0 0 0 
0 0 0 
0 0 0 
0 0 0 
0 0 0 
0 0 0 
0 0 0 
0 0 0 
0 0 0 
0 0 0 
0 0 0 
0 0 0 
0 0 0 
0 0 0 
0 0 0 
0 0 0 
0 0 0 
0 0 0 
0 0 0 
0 0 0 
0 0 0 
0 0 0 
0 0 0 
0 0 0 
0 0 0 
0 0 0 
0 0 0 
0 0 0 
0 0 0 
0 0 0 
0 0 0 
0 0 0 
0 0 0 
0 0 0 
0 0 0 
0 0 0 
0 0 0 
0 0 0 
0 0 0 
0 0 0 
0 0 0 
0 0 0 
0 0 0 
0 0 0 
0 0 0 
0 0 0 
0 0 0 
0 0 0 
0 0 0 
0 0 0 
0 0 0 
0 0 0 
0 0 0 
0 0 0 
0 0 0 
0 0 0 
0 0 0 
0 0 0 
0 0 0 
0 0 0 
0 0 0 
0 0 0 
0 0 0 
0 0 0 
0 0 0 
0 0 0 
0 0 0 
0 0 0 
0 0 0 
0 0 0 
0 0 0 
0 0 0 
0 0 0 
0 0 0 
0 0 0 
0 0 0 
0 0 0 
0 0 0 
0 0 0 
0 0 0 
0 0 0 
0 0 0 
0 0 0 
0 0 0 
0 0 0 
0 0 0 
0 0 0 
0 0 0 
0 0 0 
0 0 0 
0 0 0 
0 0 0 
0 0 0 
0 0 0 
0 0 0 
0 0 0 
0 0 0 
0 0 0 
0 0 0 
0 0 0 
0 0 0 
0 0 0 
0 0 0 
0 0 0 
0 0 0 
0 0 0 
0 0 0 
0 0 0 
0 0 0 
0 0 0 
0 0 0 
0 0 0 
0 0 0 
0 0 0 
0 0 0 
0 0 0 
0 0 0 
0 0 0 
0 0 0 
0 0 0 
0 0 0 
0 0 0 
0 0 0 
0 0 0 
0 0 0 
0 0 0 
0 0 0 
0 0 0 
0 0 0 
0 0 0 
0 0 0 
0 0 0 
0 0 0 
0 0 0 
0 0 0 
0 0 0 
0 0 0 
0 0 0 
0 0 0 
0 0 0 
0 0 0 
0 0 0 
0 0 0 
0 0 0 
0 0 0 
0 0 0 
0 0 0 
0 0 0 
0 0 0 
0 0 0 
0 0 0 
0 0 0 
0 0 0 
0 0 0 
0 0 0 
0 0 0 
0 0 0 
0 0 0 
0 0 0 
0 0 0 
0 0 0 
0 0 0 
0 0 0 
0 0 0 
0 0 0 
0 0 0 
0 0 0 
0 0 0 
0 0 0 
0 0 0 
0 0 0 
0 0 0 
0 0 0 
0 0 0 
0 0 0 
0 0 0 
0 0 0 
0 0 0 
0 0 0 
0 0 0 
0 0 0 
0 0 0 
0 0 0 
0 0 0 
0 0 0 
0 0 0 
0 0 0 
0 0 0 
0 0 0 
0 0 0 
0 0 0 
0 0 0 
0 0 0 
0 0 0 
0 0 0 
0 0 0 
0 0 0 
0 0 0 
0 0 0 
0 0 0 
0 0 0 
0 0 0 
0 0 0 
0 0 0 
0 0 0 
0 0 0 
0 0 0 
0 0 0 
0 0 0 
0 0 0 
0 0 0 
0 0 0 
0 0 0 
0 0 0 
0 0 0 
0 0 0 
0 0 0 
0 0 0 
0 0 0 
0 0 0 
0 0 0 
0 0 0 
0 0 0 
0 0 0 
0 0 0 
0 0 0 
0 0 0 
0 0 0 
0 0 0 
0 0 0 
0 0 0 
0 0 0 
0 0 0 
0 0 0 
0 0 0 
0 0 0 
0 0 0 
0 0 0 
0 0 0 
0 0 0 
0 0 0 
0 0 0 
0 0 0 
0 0 0 
0 0 0 
0 0 0 
0 0 0 
0 0 0 
0 0 0 
0 0 0 
0 0 0 
0 0 0 
0 0 0 
0 0 0 
0 0 0 
0 0 0 
0 0 0 
0 0 0 
0 0 0 
0 0 0 
0 0 0 
0 0 0 
0 0 0 
0 0 0 
0 0 0 
0 0 0 
0 0 0 
0 0 0 
0 0 0 
0 0 0 
0 0 0 
0 0 0 
0 0 0 
0 0 0 
0 0 0 
0 0 0 
0 0 0 
0 0 0 
0 0 0 
0 0 0 
0 0 0 
0 0 0 
0 0 0 
0 0 0 
0 0 0 
0 0 0 
0 0 0 
0 0 0 
0 0 0 
0 0 0 
0 0 0 
0 0 0 
0 0 0 
0 0 0 
0 0 0 
0 0 0 
0 0 0 
0 0 0 
0 0 0 
0 0 0 
0 0 0 
0 0 0 
0 0 0 
0 0 0 
0 0 0 
0 0 0 
0 0 0 
0 0 0 
0 0 0 
0 0 0 
0 0 0 
0 0 0 
0 0 0 
0 0 0 
0 0 0 
0 0 0 
0 0 0 
0 0 0 
0 0 0 
0 0 0 
0 0 0 
0 0 0 
0 0 0 
0 0 0 
0 0 0 
0 0 0 
0 0 0 
0 0 0 
0 0 0 
0 0 0 
0 0 0 
0 0 0 
0 0 0 
0 0 0 
0 0 0 
0 0 0 
0 0 0 
0 0 0 
0 0 0 
0 0 0 
0 0 0 
0 0 0 
0 0 0 
0 0 0 
0 0 0 
0 0 0 
0 0 0 
0 0 0 
0 0 0 
0 0 0 
0 0 0 
0 0 0 
0 0 0 
0 0 0 
0 0 0 
0 0 0 
0 0 0 
0 0 0 
0 0 0 
0 0 0 
0 0 0 
0 0 0 
0 0 0 
0 0 0 
0 0 0 
0 0 0 
0 0 0 
0 0 0 
0 0 0 
0 0 0 
0 0 0 
0 0 0 
0 0 0 
0 0 0 
0 0 0 
0 0 0 
0 0 0 
0 0 0 
0 0 0 
0 0 0 
0 0 0 
0 0 0 
0 0 0 
0 0 0 
0 0 0 
0 0 0 
0 0 0 
0 0 0 
0 0 0 
0 0 0 
0 0 0 
0 0 0 
0 0 0 
0 0 0 
0 0 0 
0 0 0 
0 0 0 
0 0 0 
0 0 0 
0 0 0 
0 0 0 
0 0 0 
0 0 0 
0 0 0 
0 0 0 
0 0 0 
0 0 0 
0 0 0 
0 0 0 
0 0 0 
0 0 0 
0 0 0 
0 0 0 
0 0 0 
0 0 0 
0 0 0 
0 0 0 
0 0 0 
0 0 0 
0 0 0 
0 0 0 
0 0 0 
0 0 0 
0 0 0 
0 0 0 
0 0 0 
0 0 0 
0 0 0 
0 0 0 
0 0 0 
0 0 0 
0 0 0 
0 0 0 
0 0 0 
0 0 0 
0 0 0 
0 0 0 
0 0 0 
0 0 0 
0 0 0 
0 0 0 
0 0 0 
0 0 0 
0 0 0 
0 0 0 
0 0 0 
0 0 0 
0 0 0 
0 0 0 
0 0 0 
0 0 0 
0 0 0 
0 0 0 
0 0 0 
0 0 0 
0 0 0 
0 0 0 
0 0 0 
0 0 0 
0 0 0 
0 0 0 
0 0 0 
0 0 0 
0 0 0 
0 0 0 
0 0 0 
0 0 0 
0 0 0 
0 0 0 
0 0 0 
0 0 0 
0 0 0 
0 0 0 
0 0 0 
0 0 0 
0 0 0 
0 0 0 
0 0 0 
0 0 0 
0 0 0 
0 0 0 
0 0 0 
0 0 0 
0 0 0 
0 0 0 
0 0 0 
0 0 0 
0 0 0 
0 0 0 
0 0 0 
0 0 0 
0 0 0 
0 0 0 
0 0 0 
0 0 0 
0 0 0 
0 0 0 
0 0 0 
0 0 0 
0 0 0 
0 0 0 
0 0 0 
0 0 0 
0 0 0 
0 0 0 
0 0 0 
0 0 0 
0 0 0 
0 0 0 
0 0 0 
0 0 0 
0 0 0 
0 0 0 
0 0 0 
0 0 0 
0 0 0 
0 0 0 
0 0 0 
0 0 0 
0 0 0 
0 0 0 
0 0 0 
0 0 0 
0 0 0 
0 0 0 
0 0 0 
0 0 0 
0 0 0 
0 0 0 
0 0 0 
0 0 0 
0 0 0 
0 0 0 
0 0 0 
0 0 0 
0 0 0 
0 0 0 
0 0 0 
0 0 0 
0 0 0 
0 0 0 
0 0 0 
0 0 0 
0 0 0 
0 0 0 
0 0 0 
0 0 0 
0 0 0 
0 0 0 
0 0 0 
0 0 0 
0 0 0 
0 0 0 
0 0 0 
0 0 0 
0 0 0 
0 0 0 
0 0 0 
0 0 0 
0 0 0 
0 0 0 
0 0 0 
0 0 0 
0 0 0 
0 0 0 
0 0 0 
0 0 0 
0 0 0 
0 0 0 
0 0 0 
0 0 0 
0 0 0 
0 0 0 
0 0 0 
0 0 0 
0 0 0 
0 0 0 
0 0 0 
0 0 0 
0 0 0 
0 0 0 
0 0 0 
0 0 0 
0 0 0 
0 0 0 
0 0 0 
0 0 0 
0 0 0 
0 0 0 
0 0 0 
0 0 0 
0 0 0 
0 0 0 
0 0 0 
0 0 0 
0 0 0 
0 0 0 
0 0 0 
0 0 0 
0 0 0 
0 0 0 
0 0 0 
0 0 0 
0 0 0 
0 0 0 
0 0 0 
0 0 0 
0 0 0 
0 0 0 
0 0 0 
0 0 0 
0 0 0 
0 0 0 
0 0 0 
0 0 0 
0 0 0 
0 0 0 
0 0 0 
0 0 0 
0 0 0 
0 0 0 
0 0 0 
0 0 0 
0 0 0 
0 0 0 
0 0 0 
0 0 0 
0 0 0 
0 0 0 
0 0 0 
0 0 0 
0 0 0 
0 0 0 
0 0 0 
0 0 0 
0 0 0 
0 0 0 
0 0 0 
0 0 0 
0 0 0 
0 0 0 
0 0 0 
0 0 0 
0 0 0 
0 0 0 
0 0 0 
0 0 0 
0 0 0 
0 0 0 
0 0 0 
0 0 0 
0 0 0 
0 0 0 
0 0 0 
0 0 0 
0 0 0 
0 0 0 
0 0 0 
0 0 0 
0 0 0 
0 0 0 
0 0 0 
0 0 0 
0 0 0 
0 0 0 
0 0 0 
0 0 0 
0 0 0 
0 0 0 
0 0 0 
0 0 0 
0 0 0 
0 0 0 
0 0 0 
0 0 0 
0 0 0 
0 0 0 
0 0 0 
0 0 0 
0 0 0 
0 0 0 
0 0 0 
0 0 0 
0 0 0 
0 0 0 
0 0 0 
0 0 0 
0 0 0 
0 0 0 
0 0 0 
0 0 0 
0 0 0 
0 0 0 
0 0 0 
0 0 0 
0 0 0 
0 0 0 
0 0 0 
0 0 0 
0 0 0 
0 0 0 
0 0 0 
0 0 0 
0 0 0 
0 0 0 
0 0 0 
0 0 0 
0 0 0 
0 0 0 
0 0 0 
0 0 0 
0 0 0 
0 0 0 
0 0 0 
0 0 0 
0 0 0 
0 0 0 
0 0 0 
0 0 0 
0 0 0 
0 0 0 
0 0 0 
0 0 0 
0 0 0 
0 0 0 
0 0 0 
0 0 0 
0 0 0 
0 0 0 
0 0 0 
0 0 0 
0 0 0 
0 0 0 
0 0 0 
0 0 0 
0 0 0 
0 0 0 
0 0 0 
0 0 0 
0 0 0 
0 0 0 
0 0 0 
0 0 0 
0 0 0 
0 0 0 
0 0 0 
0 0 0 
0 0 0 
0 0 0 
0 0 0 
0 0 0 
0 0 0 
0 0 0 
0 0 0 
0 0 0 
0 0 0 
0 0 0 
0 0 0 
0 0 0 
0 0 0 
0 0 0 
0 0 0 
0 0 0 
0 0 0 
0 0 0 
0 0 0 
0 0 0 
0 0 0 
0 0 0 
0 0 0 
0 0 0 
0 0 0 
0 0 0 
0 0 0 
0 0 0 
0 0 0 
0 0 0 
0 0 0 
0 0 0 
0 0 0 
0 0 0 
0 0 0 
0 0 0 
0 0 0 
0 0 0 
0 0 0 
0 0 0 
0 0 0 
0 0 0 
0 0 0 
0 0 0 
0 0 0 
0 0 0 
0 0 0 
0 0 0 
0 0 0 
0 0 0 
0 0 0 
0 0 0 
0 0 0 
0 0 0 
0 0 0 
0 0 0 
0 0 0 
0 0 0 
0 0 0 
0 0 0 
0 0 0 
0 0 0 
0 0 0 
0 0 0 
0 0 0 
0 0 0 
0 0 0 
0 0 0 
0 0 0 
0 0 0 
0 0 0 
0 0 0 
0 0 0 
0 0 0 
0 0 0 
0 0 0 
0 0 0 
0 0 0 
0 0 0 
0 0 0 
0 0 0 
0 0 0 
0 0 0 
0 0 0 
0 0 0 
0 0 0 
0 0 0 
0 0 0 
0 0 0 
0 0 0 
0 0 0 
0 0 0 
0 0 0 
0 0 0 
0 0 0 
0 0 0 
0 0 0 
0 0 0 
0 0 0 
0 0 0 
0 0 0 
0 0 0 
0 0 0 
0 0 0 
0 0 0 
0 0 0 
0 0 0 
0 0 0 
0 0 0 
0 0 0 
0 0 0 
0 0 0 
0 0 0 
0 0 0 
0 0 0 
0 0 0 
0 0 0 
0 0 0 
0 0 0 
0 0 0 
0 0 0 
0 0 0 
0 0 0 
0 0 0 
0 0 0 
0 0 0 
0 0 0 
0 0 0 
0 0 0 
0 0 0 
0 0 0 
0 0 0 
0 0 0 
0 0 0 
0 0 0 
0 0 0 
0 0 0 
0 0 0 
0 0 0 
0 0 0 
0 0 0 
0 0 0 
0 0 0 
0 0 0 
0 0 0 
0 0 0 
0 0 0 
0 0 0 
0 0 0 
0 0 0 
0 0 0 
0 0 0 
0 0 0 
0 0 0 
0 0 0 
0 0 0 
0 0 0 
0 0 0 
0 0 0 
0 0 0 
0 0 0 
0 0 0 
0 0 0 
0 0 0 
0 0 0 
0 0 0 
0 0 0 
0 0 0 
0 0 0 
0 0 0 
0 0 0 
0 0 0 
0 0 0 
0 0 0 
0 0 0 
0 0 0 
0 0 0 
0 0 0 
0 0 0 
0 0 0 
0 0 0 
0 0 0 
0 0 0 
0 0 0 
0 0 0 
0 0 0 
0 0 0 
0 0 0 
0 0 0 
0 0 0 
0 0 0 
0 0 0 
0 0 0 
0 0 0 
0 0 0 
0 0 0 
0 0 0 
0 0 0 
0 0 0 
0 0 0 
0 0 0 
0 0 0 
0 0 0 
0 0 0 
0 0 0 
0 0 0 
0 0 0 
0 0 0 
0 0 0 
0 0 0 
0 0 0 
0 0 0 
0 0 0 
0 0 0 
0 0 0 
0 0 0 
0 0 0 
0 0 0 
0 0 0 
0 0 0 
0 0 0 
0 0 0 
0 0 0 
0 0 0 
0 0 0 
0 0 0 
0 0 0 
0 0 0 
0 0 0 
0 0 0 
0 0 0 
0 0 0 
0 0 0 
0 0 0 
0 0 0 
0 0 0 
0 0 0 
0 0 0 
0 0 0 
0 0 0 
0 0 0 
0 0 0 
0 0 0 
0 0 0 
0 0 0 
0 0 0 
0 0 0 
0 0 0 
0 0 0 
0 0 0 
0 0 0 
0 0 0 
0 0 0 
0 0 0 
0 0 0 
0 0 0 
0 0 0 
0 0 0 
0 0 0 
0 0 0 
0 0 0 
0 0 0 
0 0 0 
0 0 0 
0 0 0 
0 0 0 
0 0 0 
0 0 0 
0 0 0 
0 0 0 
0 0 0 
0 0 0 
0 0 0 
0 0 0 
0 0 0 
0 0 0 
0 0 0 
0 0 0 
0 0 0 
0 0 0 
0 0 0 
0 0 0 
0 0 0 
0 0 0 
0 0 0 
0 0 0 
0 0 0 
0 0 0 
0 0 0 
0 0 0 
0 0 0 
0 0 0 
0 0 0 
0 0 0 
0 0 0 
0 0 0 
0 0 0 
0 0 0 
0 0 0 
0 0 0 
0 0 0 
0 0 0 
0 0 0 
0 0 0 
0 0 0 
0 0 0 
0 0 0 
0 0 0 
0 0 0 
0 0 0 
0 0 0 
0 0 0 
0 0 0 
0 0 0 
0 0 0 
0 0 0 
0 0 0 
0 0 0 
0 0 0 
0 0 0 
0 0 0 
0 0 0 
0 0 0 
0 0 0 
0 0 0 
0 0 0 
0 0 0 
0 0 0 
0 0 0 
0 0 0 
0 0 0 
0 0 0 
0 0 0 
0 0 0 
0 0 0 
0 0 0 
0 0 0 
0 0 0 
0 0 0 
0 0 0 
0 0 0 
0 0 0 
0 0 0 
0 0 0 
0 0 0 
0 0 0 
0 0 0 
0 0 0 
0 0 0 
0 0 0 
0 0 0 
0 0 0 
0 0 0 
0 0 0 
0 0 0 
0 0 0 
0 0 0 
0 0 0 
0 0 0 
0 0 0 
0 0 0 
0 0 0 
0 0 0 
0 0 0 
0 0 0 
0 0 0 
0 0 0 
0 0 0 
0 0 0 
0 0 0 
0 0 0 
0 0 0 
0 0 0 
0 0 0 
0 0 0 
0 0 0 
0 0 0 
0 0 0 
0 0 0 
0 0 0 
0 0 0 
0 0 0 
0 0 0 
0 0 0 
0 0 0 
0 0 0 
0 0 0 
0 0 0 
0 0 0 
0 0 0 
0 0 0 
0 0 0 
0 0 0 
0 0 0 
0 0 0 
0 0 0 
0 0 0 
0 0 0 
0 0 0 
0 0 0 
0 0 0 
0 0 0 
0 0 0 
0 0 0 
0 0 0 
0 0 0 
0 0 0 
0 0 0 
0 0 0 
0 0 0 
0 0 0 
0 0 0 
0 0 0 
0 0 0 
0 0 0 
0 0 0 
0 0 0 
0 0 0 
0 0 0 
0 0 0 
0 0 0 
0 0 0 
0 0 0 
0 0 0 
0 0 0 
0 0 0 
0 0 0 
0 0 0 
0 0 0 
0 0 0 
0 0 0 
0 0 0 
0 0 0 
0 0 0 
0 0 0 
0 0 0 
0 0 0 
0 0 0 
0 0 0 
0 0 0 
0 0 0 
0 0 0 
0 0 0 
0 0 0 
0 0 0 
0 0 0 
0 0 0 
0 0 0 
0 0 0 
0 0 0 
0 0 0 
0 0 0 
0 0 0 
0 0 0 
0 0 0 
0 0 0 
0 0 0 
0 0 0 
0 0 0 
0 0 0 
0 0 0 
0 0 0 
0 0 0 
0 0 0 
0 0 0 
0 0 0 
0 0 0 
0 0 0 
0 0 0 
0 0 0 
0 0 0 
0 0 0 
0 0 0 
0 0 0 
0 0 0 
0 0 0 
0 0 0 
0 0 0 
0 0 0 
0 0 0 
0 0 0 
0 0 0 
0 0 0 
0 0 0 
0 0 0 
0 0 0 
0 0 0 
0 0 0 
0 0 0 
0 0 0 
0 0 0 
0 0 0 
0 0 0 
0 0 0 
0 0 0 
0 0 0 
0 0 0 
0 0 0 
0 0 0 
0 0 0 
0 0 0 
0 0 0 
0 0 0 
0 0 0 
0 0 0 
0 0 0 
0 0 0 
0 0 0 
0 0 0 
0 0 0 
0 0 0 
0 0 0 
0 0 0 
0 0 0 
0 0 0 
0 0 0 
0 0 0 
0 0 0 
0 0 0 
0 0 0 
0 0 0 
0 0 0 
0 0 0 
0 0 0 
0 0 0 
0 0 0 
0 0 0 
0 0 0 
0 0 0 
0 0 0 
0 0 0 
0 0 0 
0 0 0 
0 0 0 
0 0 0 
0 0 0 
0 0 0 
0 0 0 
0 0 0 
0 0 0 
0 0 0 
0 0 0 
0 0 0 
0 0 0 
0 0 0 
0 0 0 
0 0 0 
0 0 0 
0 0 0 
0 0 0 
0 0 0 
0 0 0 
0 0 0 
0 0 0 
0 0 0 
0 0 0 
0 0 0 
0 0 0 
0 0 0 
0 0 0 
0 0 0 
0 0 0 
0 0 0 
0 0 0 
0 0 0 
0 0 0 
0 0 0 
0 0 0 
0 0 0 
0 0 0 
0 0 0 
0 0 0 
0 0 0 
0 0 0 
0 0 0 
0 0 0 
0 0 0 
0 0 0 
0 0 0 
0 0 0 
0 0 0 
0 0 0 
0 0 0 
0 0 0 
0 0 0 
0 0 0 
0 0 0 
0 0 0 
0 0 0 
0 0 0 
0 0 0 
0 0 0 
0 0 0 
0 0 0 
0 0 0 
0 0 0 
0 0 0 
0 0 0 
0 0 0 
0 0 0 
0 0 0 
0 0 0 
0 0 0 
0 0 0 
0 0 0 
0 0 0 
0 0 0 
0 0 0 
0 0 0 
0 0 0 
0 0 0 
0 0 0 
0 0 0 
0 0 0 
0 0 0 
0 0 0 
0 0 0 
0 0 0 
0 0 0 
0 0 0 
0 0 0 
0 0 0 
0 0 0 
0 0 0 
0 0 0 
0 0 0 
0 0 0 
0 0 0 
0 0 0 
0 0 0 
0 0 0 
0 0 0 
0 0 0 
0 0 0 
0 0 0 
0 0 0 
0 0 0 
0 0 0 
0 0 0 
0 0 0 
0 0 0 
0 0 0 
0 0 0 
0 0 0 
0 0 0 
0 0 0 
0 0 0 
0 0 0 
0 0 0 
0 0 0 
0 0 0 
0 0 0 
0 0 0 
0 0 0 
0 0 0 
0 0 0 
0 0 0 
0 0 0 
0 0 0 
0 0 0 
0 0 0 
0 0 0 
0 0 0 
0 0 0 
0 0 0 
0 0 0 
0 0 0 
0 0 0 
0 0 0 
0 0 0 
0 0 0 
0 0 0 
0 0 0 
0 0 0 
0 0 0 
0 0 0 
0 0 0 
0 0 0 
0 0 0 
0 0 0 
0 0 0 
0 0 0 
0 0 0 
0 0 0 
0 0 0 
0 0 0 
0 0 0 
0 0 0 
0 0 0 
0 0 0 
0 0 0 
0 0 0 
0 0 0 
0 0 0 
0 0 0 
0 0 0 
0 0 0 
0 0 0 
0 0 0 
0 0 0 
0 0 0 
0 0 0 
0 0 0 
0 0 0 
0 0 0 
0 0 0 
0 0 0 
0 0 0 
0 0 0 
0 0 0 
0 0 0 
0 0 0 
0 0 0 
0 0 0 
0 0 0 
0 0 0 
0 0 0 
0 0 0 
0 0 0 
0 0 0 
0 0 0 
0 0 0 
0 0 0 
0 0 0 
0 0 0 
0 0 0 
0 0 0 
0 0 0 
0 0 0 
0 0 0 
0 0 0 
0 0 0 
0 0 0 
0 0 0 
0 0 0 
0 0 0 
0 0 0 
0 0 0 
0 0 0 
0 0 0 
0 0 0 
0 0 0 
0 0 0 
0 0 0 
0 0 0 
0 0 0 
0 0 0 
0 0 0 
0 0 0 
0 0 0 
0 0 0 
0 0 0 
0 0 0 
0 0 0 
0 0 0 
0 0 0 
0 0 0 
0 0 0 
0 0 0 
0 0 0 
0 0 0 
0 0 0 
0 0 0 
0 0 0 
0 0 0 
0 0 0 
0 0 0 
0 0 0 
0 0 0 
0 0 0 
0 0 0 
0 0 0 
0 0 0 
0 0 0 
0 0 0 
0 0 0 
0 0 0 
0 0 0 
0 0 0 
0 0 0 
0 0 0 
0 0 0 
0 0 0 
0 0 0 
0 0 0 
0 0 0 
0 0 0 
0 0 0 
0 0 0 
0 0 0 
0 0 0 
0 0 0 
0 0 0 
0 0 0 
0 0 0 
0 0 0 
0 0 0 
0 0 0 
0 0 0 
0 0 0 
0 0 0 
0 0 0 
0 0 0 
0 0 0 
0 0 0 
0 0 0 
0 0 0 
0 0 0 
0 0 0 
0 0 0 
0 0 0 
0 0 0 
0 0 0 
0 0 0 
0 0 0 
0 0 0 
0 0 0 
0 0 0 
0 0 0 
0 0 0 
0 0 0 
0 0 0 
0 0 0 
0 0 0 
0 0 0 
0 0 0 
0 0 0 
0 0 0 
0 0 0 
0 0 0 
0 0 0 
0 0 0 
0 0 0 
0 0 0 
0 0 0 
0 0 0 
0 0 0 
0 0 0 
0 0 0 
0 0 0 
0 0 0 
0 0 0 
0 0 0 
0 0 0 
0 0 0 
0 0 0 
0 0 0 
0 0 0 
0 0 0 
0 0 0 
0 0 0 
0 0 0 
0 0 0 
0 0 0 
0 0 0 
0 0 0 
0 0 0 
0 0 0 
0 0 0 
0 0 0 
0 0 0 
0 0 0 
0 0 0 
0 0 0 
0 0 0 
0 0 0 
0 0 0 
0 0 0 
0 0 0 
0 0 0 
0 0 0 
0 0 0 
0 0 0 
0 0 0 
0 0 0 
0 0 0 
0 0 0 
0 0 0 
0 0 0 
0 0 0 
0 0 0 
0 0 0 
0 0 0 
0 0 0 
0 0 0 
0 0 0 
0 0 0 
0 0 0 
0 0 0 
0 0 0 
0 0 0 
0 0 0 
0 0 0 
0 0 0 
0 0 0 
0 0 0 
0 0 0 
0 0 0 
0 0 0 
0 0 0 
0 0 0 
0 0 0 
0 0 0 
0 0 0 
0 0 0 
0 0 0 
0 0 0 
0 0 0 
0 0 0 
0 0 0 
0 0 0 
0 0 0 
0 0 0 
0 0 0 
0 0 0 
0 0 0 
0 0 0 
0 0 0 
0 0 0 
0 0 0 
0 0 0 
0 0 0 
0 0 0 
0 0 0 
0 0 0 
0 0 0 
0 0 0 
0 0 0 
0 0 0 
0 0 0 
0 0 0 
0 0 0 
0 0 0 
0 0 0 
0 0 0 
0 0 0 
0 0 0 
0 0 0 
0 0 0 
0 0 0 
0 0 0 
0 0 0 
0 0 0 
0 0 0 
0 0 0 
0 0 0 
0 0 0 
0 0 0 
0 0 0 
0 0 0 
0 0 0 
0 0 0 
0 0 0 
0 0 0 
0 0 0 
0 0 0 
0 0 0 
0 0 0 
0 0 0 
0 0 0 
0 0 0 
0 0 0 
0 0 0 
0 0 0 
0 0 0 
0 0 0 
0 0 0 
0 0 0 
0 0 0 
0 0 0 
0 0 0 
0 0 0 
0 0 0 
0 0 0 
0 0 0 
0 0 0 
0 0 0 
0 0 0 
0 0 0 
0 0 0 
0 0 0 
0 0 0 
0 0 0 
0 0 0 
0 0 0 
0 0 0 
0 0 0 
0 0 0 
0 0 0 
0 0 0 
0 0 0 
0 0 0 
0 0 0 
0 0 0 
0 0 0 
0 0 0 
0 0 0 
0 0 0 
0 0 0 
0 0 0 
0 0 0 
0 0 0 
0 0 0 
0 0 0 
0 0 0 
0 0 0 
0 0 0 
0 0 0 
0 0 0 
0 0 0 
0 0 0 
0 0 0 
0 0 0 
0 0 0 
0 0 0 
0 0 0 
0 0 0 
0 0 0 
0 0 0 
0 0 0 
0 0 0 
0 0 0 
0 0 0 
0 0 0 
0 0 0 
0 0 0 
0 0 0 
0 0 0 
0 0 0 
0 0 0 
0 0 0 
0 0 0 
0 0 0 
0 0 0 
0 0 0 
0 0 0 
0 0 0 
0 0 0 
0 0 0 
0 0 0 
0 0 0 
0 0 0 
0 0 0 
0 0 0 
0 0 0 
0 0 0 
0 0 0 
0 0 0 
0 0 0 
0 0 0 
0 0 0 
0 0 0 
0 0 0 
0 0 0 
0 0 0 
0 0 0 
0 0 0 
0 0 0 
0 0 0 
0 0 0 
0 0 0 
0 0 0 
0 0 0 
0 0 0 
0 0 0 
0 0 0 
0 0 0 
0 0 0 
0 0 0 
0 0 0 
0 0 0 
0 0 0 
0 0 0 
0 0 0 
0 0 0 
0 0 0 
0 0 0 
0 0 0 
0 0 0 
0 0 0 
0 0 0 
0 0 0 
0 0 0 
0 0 0 
0 0 0 
0 0 0 
0 0 0 
0 0 0 
0 0 0 
0 0 0 
0 0 0 
0 0 0 
0 0 0 
0 0 0 
0 0 0 
0 0 0 
0 0 0 
0 0 0 
0 0 0 
0 0 0 
0 0 0 
0 0 0 
0 0 0 
0 0 0 
0 0 0 
0 0 0 
0 0 0 
0 0 0 
0 0 0 
0 0 0 
0 0 0 
0 0 0 
0 0 0 
0 0 0 
0 0 0 
0 0 0 
0 0 0 
0 0 0 
0 0 0 
0 0 0 
0 0 0 
0 0 0 
0 0 0 
0 0 0 
0 0 0 
0 0 0 
0 0 0 
0 0 0 
0 0 0 
0 0 0 
0 0 0 
0 0 0 
0 0 0 
0 0 0 
0 0 0 
0 0 0 
0 0 0 
0 0 0 
0 0 0 
0 0 0 
0 0 0 
0 0 0 
0 0 0 
0 0 0 
0 0 0 
0 0 0 
0 0 0 
0 0 0 
0 0 0 
0 0 0 
0 0 0 
0 0 0 
0 0 0 
0 0 0 
0 0 0 
0 0 0 
0 0 0 
0 0 0 
0 0 0 
0 0 0 
0 0 0 
0 0 0 
0 0 0 
0 0 0 
0 0 0 
0 0 0 
0 0 0 
0 0 0 
0 0 0 
0 0 0 
0 0 0 
0 0 0 
0 0 0 
0 0 0 
0 0 0 
0 0 0 
0 0 0 
0 0 0 
0 0 0 
0 0 0 
0 0 0 
0 0 0 
0 0 0 
0 0 0 
0 0 0 
0 0 0 
0 0 0 
0 0 0 
0 0 0 
0 0 0 
0 0 0 
0 0 0 
0 0 0 
0 0 0 
0 0 0 
0 0 0 
0 0 0 
0 0 0 
0 0 0 
0 0 0 
0 0 0 
0 0 0 
0 0 0 
0 0 0 
0 0 0 
0 0 0 
0 0 0 
0 0 0 
0 0 0 
0 0 0 
0 0 0 
0 0 0 
0 0 0 
0 0 0 
0 0 0 
0 0 0 
0 0 0 
0 0 0 
0 0 0 
0 0 0 
0 0 0 
0 0 0 
0 0 0 
0 0 0 
0 0 0 
0 0 0 
0 0 0 
0 0 0 
0 0 0 
0 0 0 
0 0 0 
0 0 0 
0 0 0 
0 0 0 
0 0 0 
0 0 0 
0 0 0 
0 0 0 
0 0 0 
0 0 0 
0 0 0 
0 0 0 
0 0 0 
0 0 0 
0 0 0 
0 0 0 
0 0 0 
0 0 0 
0 0 0 
0 0 0 
0 0 0 
0 0 0 
0 0 0 
0 0 0 
0 0 0 
0 0 0 
0 0 0 
0 0 0 
0 0 0 
0 0 0 
0 0 0 
0 0 0 
0 0 0 
0 0 0 
0 0 0 
0 0 0 
0 0 0 
0 0 0 
0 0 0 
0 0 0 
0 0 0 
0 0 0 
0 0 0 
0 0 0 
0 0 0 
0 0 0 
0 0 0 
0 0 0 
0 0 0 
0 0 0 
0 0 0 
0 0 0 
0 0 0 
0 0 0 
0 0 0 
0 0 0 
0 0 0 
0 0 0 
0 0 0 
0 0 0 
0 0 0 
0 0 0 
0 0 0 
0 0 0 
0 0 0 
0 0 0 
0 0 0 
0 0 0 
0 0 0 
0 0 0 
0 0 0 
0 0 0 
0 0 0 
0 0 0 
0 0 0 
0 0 0 
0 0 0 
0 0 0 
0 0 0 
0 0 0 
0 0 0 
0 0 0 
0 0 0 
0 0 0 
0 0 0 
0 0 0 
0 0 0 
0 0 0 
0 0 0 
0 0 0 
0 0 0 
0 0 0 
0 0 0 
0 0 0 
0 0 0 
0 0 0 
0 0 0 
0 0 0 
0 0 0 
0 0 0 
0 0 0 
0 0 0 
0 0 0 
0 0 0 
0 0 0 
0 0 0 
0 0 0 
0 0 0 
0 0 0 
0 0 0 
0 0 0 
0 0 0 
0 0 0 
0 0 0 
0 0 0 
0 0 0 
0 0 0 
0 0 0 
0 0 0 
0 0 0 
0 0 0 
0 0 0 
0 0 0 
0 0 0 
0 0 0 
0 0 0 
0 0 0 
0 0 0 
0 0 0 
0 0 0 
0 0 0 
0 0 0 
0 0 0 
0 0 0 
0 0 0 
0 0 0 
0 0 0 
0 0 0 
0 0 0 
0 0 0 
0 0 0 
0 0 0 
0 0 0 
0 0 0 
0 0 0 
0 0 0 
0 0 0 
0 0 0 
0 0 0 
0 0 0 
0 0 0 
0 0 0 
0 0 0 
0 0 0 
0 0 0 
0 0 0 
0 0 0 
0 0 0 
0 0 0 
0 0 0 
0 0 0 
0 0 0 
0 0 0 
0 0 0 
0 0 0 
0 0 0 
0 0 0 
0 0 0 
0 0 0 
0 0 0 
0 0 0 
0 0 0 
0 0 0 
0 0 0 
0 0 0 
0 0 0 
0 0 0 
0 0 0 
0 0 0 
0 0 0 
0 0 0 
0 0 0 
0 0 0 
0 0 0 
0 0 0 
0 0 0 
0 0 0 
0 0 0 
0 0 0 
0 0 0 
0 0 0 
0 0 0 
0 0 0 
0 0 0 
0 0 0 
0 0 0 
0 0 0 
0 0 0 
0 0 0 
0 0 0 
0 0 0 
0 0 0 
0 0 0 
0 0 0 
0 0 0 
0 0 0 
0 0 0 
0 0 0 
0 0 0 
0 0 0 
0 0 0 
0 0 0 
0 0 0 
0 0 0 
0 0 0 
0 0 0 
0 0 0 
0 0 0 
0 0 0 
0 0 0 
0 0 0 
0 0 0 
0 0 0 
0 0 0 
0 0 0 
0 0 0 
0 0 0 
0 0 0 
0 0 0 
0 0 0 
0 0 0 
0 0 0 
0 0 0 
0 0 0 
0 0 0 
0 0 0 
0 0 0 
0 0 0 
0 0 0 
0 0 0 
0 0 0 
0 0 0 
0 0 0 
0 0 0 
0 0 0 
0 0 0 
0 0 0 
0 0 0 
0 0 0 
0 0 0 
0 0 0 
0 0 0 
0 0 0 
0 0 0 
0 0 0 
0 0 0 
0 0 0 
0 0 0 
0 0 0 
0 0 0 
0 0 0 
0 0 0 
0 0 0 
0 0 0 
0 0 0 
0 0 0 
0 0 0 
0 0 0 
0 0 0 
0 0 0 
0 0 0 
0 0 0 
0 0 0 
0 0 0 
0 0 0 
0 0 0 
0 0 0 
0 0 0 
0 0 0 
0 0 0 
0 0 0 
0 0 0 
0 0 0 
0 0 0 
0 0 0 
0 0 0 
0 0 0 
0 0 0 
0 0 0 
0 0 0 
0 0 0 
0 0 0 
0 0 0 
0 0 0 
0 0 0 
0 0 0 
0 0 0 
0 0 0 
0 0 0 
0 0 0 
0 0 0 
0 0 0 
0 0 0 
0 0 0 
0 0 0 
0 0 0 
0 0 0 
0 0 0 
0 0 0 
0 0 0 
0 0 0 
0 0 0 
0 0 0 
0 0 0 
0 0 0 
0 0 0 
0 0 0 
0 0 0 
0 0 0 
0 0 0 
0 0 0 
0 0 0 
0 0 0 
0 0 0 
0 0 0 
0 0 0 
0 0 0 
0 0 0 
0 0 0 
0 0 0 
0 0 0 
0 0 0 
0 0 0 
0 0 0 
0 0 0 
0 0 0 
0 0 0 
0 0 0 
0 0 0 
0 0 0 
0 0 0 
0 0 0 
0 0 0 
0 0 0 
0 0 0 
0 0 0 
0 0 0 
0 0 0 
0 0 0 
0 0 0 
0 0 0 
0 0 0 
0 0 0 
0 0 0 
0 0 0 
0 0 0 
0 0 0 
0 0 0 
0 0 0 
0 0 0 
0 0 0 
0 0 0 
0 0 0 
0 0 0 
0 0 0 
0 0 0 
0 0 0 
0 0 0 
0 0 0 
0 0 0 
0 0 0 
0 0 0 
0 0 0 
0 0 0 
0 0 0 
0 0 0 
0 0 0 
0 0 0 
0 0 0 
0 0 0 
0 0 0 
0 0 0 
0 0 0 
0 0 0 
0 0 0 
0 0 0 
0 0 0 
0 0 0 
0 0 0 
0 0 0 
0 0 0 
0 0 0 
0 0 0 
0 0 0 
0 0 0 
0 0 0 
0 0 0 
0 0 0 
0 0 0 
0 0 0 
0 0 0 
0 0 0 
0 0 0 
0 0 0 
0 0 0 
0 0 0 
0 0 0 
0 0 0 
0 0 0 
0 0 0 
0 0 0 
0 0 0 
0 0 0 
0 0 0 
0 0 0 
0 0 0 
0 0 0 
0 0 0 
0 0 0 
0 0 0 
0 0 0 
0 0 0 
0 0 0 
0 0 0 
0 0 0 
0 0 0 
0 0 0 
0 0 0 
0 0 0 
0 0 0 
0 0 0 
0 0 0 
0 0 0 
0 0 0 
0 0 0 
0 0 0 
0 0 0 
0 0 0 
0 0 0 
0 0 0 
0 0 0 
0 0 0 
0 0 0 
0 0 0 
0 0 0 
0 0 0 
0 0 0 
0 0 0 
0 0 0 
0 0 0 
0 0 0 
0 0 0 
0 0 0 
0 0 0 
0 0 0 
0 0 0 
0 0 0 
0 0 0 
0 0 0 
0 0 0 
0 0 0 
0 0 0 
0 0 0 
0 0 0 
0 0 0 
0 0 0 
0 0 0 
0 0 0 
0 0 0 
0 0 0 
0 0 0 
0 0 0 
0 0 0 
0 0 0 
0 0 0 
0 0 0 
0 0 0 
0 0 0 
0 0 0 
0 0 0 
0 0 0 
0 0 0 
0 0 0 
0 0 0 
0 0 0 
0 0 0 
0 0 0 
0 0 0 
0 0 0 
0 0 0 
0 0 0 
0 0 0 
0 0 0 
0 0 0 
0 0 0 
0 0 0 
0 0 0 
0 0 0 
0 0 0 
0 0 0 
0 0 0 
0 0 0 
0 0 0 
0 0 0 
0 0 0 
0 0 0 
0 0 0 
0 0 0 
0 0 0 
0 0 0 
0 0 0 
0 0 0 
0 0 0 
0 0 0 
0 0 0 
0 0 0 
0 0 0 
0 0 0 
0 0 0 
0 0 0 
0 0 0 
0 0 0 
0 0 0 
0 0 0 
0 0 0 
0 0 0 
0 0 0 
0 0 0 
0 0 0 
0 0 0 
0 0 0 
0 0 0 
0 0 0 
0 0 0 
0 0 0 
0 0 0 
0 0 0 
0 0 0 
0 0 0 
0 0 0 
0 0 0 
0 0 0 
0 0 0 
0 0 0 
0 0 0 
0 0 0 
0 0 0 
0 0 0 
0 0 0 
0 0 0 
0 0 0 
0 0 0 
0 0 0 
0 0 0 
0 0 0 
0 0 0 
0 0 0 
0 0 0 
0 0 0 
0 0 0 
0 0 0 
0 0 0 
0 0 0 
0 0 0 
0 0 0 
0 0 0 
0 0 0 
0 0 0 
0 0 0 
0 0 0 
0 0 0 
0 0 0 
0 0 0 
0 0 0 
0 0 0 
0 0 0 
0 0 0 
0 0 0 
0 0 0 
0 0 0 
0 0 0 
0 0 0 
0 0 0 
0 0 0 
0 0 0 
0 0 0 
0 0 0 
0 0 0 
0 0 0 
0 0 0 
0 0 0 
0 0 0 
0 0 0 
0 0 0 
0 0 0 
0 0 0 
0 0 0 
0 0 0 
0 0 0 
0 0 0 
0 0 0 
0 0 0 
0 0 0 
0 0 0 
0 0 0 
0 0 0 
0 0 0 
0 0 0 
0 0 0 
0 0 0 
0 0 0 
0 0 0 
0 0 0 
0 0 0 
0 0 0 
0 0 0 
0 0 0 
0 0 0 
0 0 0 
0 0 0 
0 0 0 
0 0 0 
0 0 0 
0 0 0 
0 0 0 
0 0 0 
0 0 0 
0 0 0 
0 0 0 
0 0 0 
0 0 0 
0 0 0 
0 0 0 
0 0 0 
0 0 0 
0 0 0 
0 0 0 
0 0 0 
0 0 0 
0 0 0 
0 0 0 
0 0 0 
0 0 0 
0 0 0 
0 0 0 
0 0 0 
0 0 0 
0 0 0 
0 0 0 
0 0 0 
0 0 0 
0 0 0 
0 0 0 
0 0 0 
0 0 0 
0 0 0 
0 0 0 
0 0 0 
0 0 0 
0 0 0 
0 0 0 
0 0 0 
0 0 0 
0 0 0 
0 0 0 
0 0 0 
0 0 0 
0 0 0 
0 0 0 
0 0 0 
0 0 0 
0 0 0 
0 0 0 
0 0 0 
0 0 0 
0 0 0 
0 0 0 
0 0 0 
0 0 0 
0 0 0 
0 0 0 
0 0 0 
0 0 0 
0 0 0 
0 0 0 
0 0 0 
0 0 0 
0 0 0 
0 0 0 
0 0 0 
0 0 0 
0 0 0 
0 0 0 
0 0 0 
0 0 0 
0 0 0 
0 0 0 
0 0 0 
0 0 0 
0 0 0 
0 0 0 
0 0 0 
0 0 0 
0 0 0 
0 0 0 
0 0 0 
0 0 0 
0 0 0 
0 0 0 
0 0 0 
0 0 0 
0 0 0 
0 0 0 
0 0 0 
0 0 0 
0 0 0 
0 0 0 
0 0 0 
0 0 0 
0 0 0 
0 0 0 
0 0 0 
0 0 0 
0 0 0 
0 0 0 
0 0 0 
0 0 0 
0 0 0 
0 0 0 
0 0 0 
0 0 0 
0 0 0 
0 0 0 
0 0 0 
0 0 0 
0 0 0 
0 0 0 
0 0 0 
0 0 0 
0 0 0 
0 0 0 
0 0 0 
0 0 0 
0 0 0 
0 0 0 
0 0 0 
0 0 0 
0 0 0 
0 0 0 
0 0 0 
0 0 0 
0 0 0 
0 0 0 
0 0 0 
0 0 0 
0 0 0 
0 0 0 
0 0 0 
0 0 0 
0 0 0 
0 0 0 
0 0 0 
0 0 0 
0 0 0 
0 0 0 
0 0 0 
0 0 0 
0 0 0 
0 0 0 
0 0 0 
0 0 0 
0 0 0 
0 0 0 
0 0 0 
0 0 0 
0 0 0 
0 0 0 
0 0 0 
0 0 0 
0 0 0 
0 0 0 
0 0 0 
0 0 0 
0 0 0 
0 0 0 
0 0 0 
0 0 0 
0 0 0 
0 0 0 
0 0 0 
0 0 0 
0 0 0 
0 0 0 
0 0 0 
0 0 0 
0 0 0 
0 0 0 
0 0 0 
0 0 0 
0 0 0 
0 0 0 
0 0 0 
0 0 0 
0 0 0 
0 0 0 
0 0 0 
0 0 0 
0 0 0 
0 0 0 
0 0 0 
0 0 0 
0 0 0 
0 0 0 
0 0 0 
0 0 0 
0 0 0 
0 0 0 
0 0 0 
0 0 0 
0 0 0 
0 0 0 
0 0 0 
0 0 0 
0 0 0 
0 0 0 
0 0 0 
0 0 0 
0 0 0 
0 0 0 
0 0 0 
0 0 0 
0 0 0 
0 0 0 
0 0 0 
0 0 0 
0 0 0 
0 0 0 
0 0 0 
0 0 0 
0 0 0 
0 0 0 
0 0 0 
0 0 0 
0 0 0 
0 0 0 
0 0 0 
0 0 0 
0 0 0 
0 0 0 
0 0 0 
0 0 0 
0 0 0 
TENSORS STRAIN double
0 0 0 0 0 0 0 0 0 
0 0 0 0 0 0 0 0 0 
0 0 0 0 0 0 0 0 0 
0 0 0 0 0 0 0 0 0 
0 0 0 0 0 0 0 0 0 
0 0 0 0 0 0 0 0 0 
0 0 0 0 0 0 0 0 0 
0 0 0 0 0 0 0 0 0 
0 0 0 0 0 0 0 0 0 
0 0 0 0 0 0 0 0 0 
0 0 0 0 0 0 0 0 0 
0 0 0 0 0 0 0 0 0 
0 0 0 0 0 0 0 0 0 
0 0 0 0 0 0 0 0 0 
0 0 0 0 0 0 0 0 0 
0 0 0 0 0 0 0 0 0 
0 0 0 0 0 0 0 0 0 
0 0 0 0 0 0 0 0 0 
0 0 0 0 0 0 0 0 0 
0 0 0 0 0 0 0 0 0 
0 0 0 0 0 0 0 0 0 
0 0 0 0 0 0 0 0 0 
0 0 0 0 0 0 0 0 0 
0 0 0 0 0 0 0 0 0 
0 0 0 0 0 0 0 0 0 
0 0 0 0 0 0 0 0 0 
0 0 0 0 0 0 0 0 0 
0 0 0 0 0 0 0 0 0 
0 0 0 0 0 0 0 0 0 
0 0 0 0 0 0 0 0 0 
0 0 0 0 0 0 0 0 0 
0 0 0 0 0 0 0 0 0 
0 0 0 0 0 0 0 0 0 
0 0 0 0 0 0 0 0 0 
0 0 0 0 0 0 0 0 0 
0 0 0 0 0 0 0 0 0 
0 0 0 0 0 0 0 0 0 
0 0 0 0 0 0 0 0 0 
0 0 0 0 0 0 0 0 0 
0 0 0 0 0 0 0 0 0 
0 0 0 0 0 0 0 0 0 
0 0 0 0 0 0 0 0 0 
0 0 0 0 0 0 0 0 0 
0 0 0 0 0 0 0 0 0 
0 0 0 0 0 0 0 0 0 
0 0 0 0 0 0 0 0 0 
0 0 0 0 0 0 0 0 0 
0 0 0 0 0 0 0 0 0 
0 0 0 0 0 0 0 0 0 
0 0 0 0 0 0 0 0 0 
0 0 0 0 0 0 0 0 0 
0 0 0 0 0 0 0 0 0 
0 0 0 0 0 0 0 0 0 
0 0 0 0 0 0 0 0 0 
0 0 0 0 0 0 0 0 0 
0 0 0 0 0 0 0 0 0 
0 0 0 0 0 0 0 0 0 
0 0 0 0 0 0 0 0 0 
0 0 0 0 0 0 0 0 0 
0 0 0 0 0 0 0 0 0 
0 0 0 0 0 0 0 0 0 
0 0 0 0 0 0 0 0 0 
0 0 0 0 0 0 0 0 0 
0 0 0 0 0 0 0 0 0 
0 0 0 0 0 0 0 0 0 
0 0 0 0 0 0 0 0 0 
0 0 0 0 0 0 0 0 0 
0 0 0 0 0 0 0 0 0 
0 0 0 0 0 0 0 0 0 
0 0 0 0 0 0 0 0 0 
0 0 0 0 0 0 0 0 0 
0 0 0 0 0 0 0 0 0 
0 0 0 0 0 0 0 0 0 
0 0 0 0 0 0 0 0 0 
0 0 0 0 0 0 0 0 0 
0 0 0 0 0 0 0 0 0 
0 0 0 0 0 0 0 0 0 
0 0 0 0 0 0 0 0 0 
0 0 0 0 0 0 0 0 0 
0 0 0 0 0 0 0 0 0 
0 0 0 0 0 0 0 0 0 
0 0 0 0 0 0 0 0 0 
0 0 0 0 0 0 0 0 0 
0 0 0 0 0 0 0 0 0 
0 0 0 0 0 0 0 0 0 
0 0 0 0 0 0 0 0 0 
0 0 0 0 0 0 0 0 0 
0 0 0 0 0 0 0 0 0 
0 0 0 0 0 0 0 0 0 
0 0 0 0 0 0 0 0 0 
0 0 0 0 0 0 0 0 0 
0 0 0 0 0 0 0 0 0 
0 0 0 0 0 0 0 0 0 
0 0 0 0 0 0 0 0 0 
0 0 0 0 0 0 0 0 0 
0 0 0 0 0 0 0 0 0 
0 0 0 0 0 0 0 0 0 
0 0 0 0 0 0 0 0 0 
0 0 0 0 0 0 0 0 0 
0 0 0 0 0 0 0 0 0 
0 0 0 0 0 0 0 0 0 
0 0 0 0 0 0 0 0 0 
0 0 0 0 0 0 0 0 0 
0 0 0 0 0 0 0 0 0 
0 0 0 0 0 0 0 0 0 
0 0 0 0 0 0 0 0 0 
0 0 0 0 0 0 0 0 0 
0 0 0 0 0 0 0 0 0 
0 0 0 0 0 0 0 0 0 
0 0 0 0 0 0 0 0 0 
0 0 0 0 0 0 0 0 0 
0 0 0 0 0 0 0 0 0 
0 0 0 0 0 0 0 0 0 
0 0 0 0 0 0 0 0 0 
0 0 0 0 0 0 0 0 0 
0 0 0 0 0 0 0 0 0 
0 0 0 0 0 0 0 0 0 
0 0 0 0 0 0 0 0 0 
0 0 0 0 0 0 0 0 0 
0 0 0 0 0 0 0 0 0 
0 0 0 0 0 0 0 0 0 
0 0 0 0 0 0 0 0 0 
0 0 0 0 0 0 0 0 0 
0 0 0 0 0 0 0 0 0 
0 0 0 0 0 0 0 0 0 
0 0 0 0 0 0 0 0 0 
0 0 0 0 0 0 0 0 0 
0 0 0 0 0 0 0 0 0 
0 0 0 0 0 0 0 0 0 
0 0 0 0 0 0 0 0 0 
0 0 0 0 0 0 0 0 0 
0 0 0 0 0 0 0 0 0 
0 0 0 0 0 0 0 0 0 
0 0 0 0 0 0 0 0 0 
0 0 0 0 0 0 0 0 0 
0 0 0 0 0 0 0 0 0 
0 0 0 0 0 0 0 0 0 
0 0 0 0 0 0 0 0 0 
0 0 0 0 0 0 0 0 0 
0 0 0 0 0 0 0 0 0 
0 0 0 0 0 0 0 0 0 
0 0 0 0 0 0 0 0 0 
0 0 0 0 0 0 0 0 0 
0 0 0 0 0 0 0 0 0 
0 0 0 0 0 0 0 0 0 
0 0 0 0 0 0 0 0 0 
0 0 0 0 0 0 0 0 0 
0 0 0 0 0 0 0 0 0 
0 0 0 0 0 0 0 0 0 
0 0 0 0 0 0 0 0 0 
0 0 0 0 0 0 0 0 0 
0 0 0 0 0 0 0 0 0 
0 0 0 0 0 0 0 0 0 
0 0 0 0 0 0 0 0 0 
0 0 0 0 0 0 0 0 0 
0 0 0 0 0 0 0 0 0 
0 0 0 0 0 0 0 0 0 
0 0 0 0 0 0 0 0 0 
0 0 0 0 0 0 0 0 0 
0 0 0 0 0 0 0 0 0 
0 0 0 0 0 0 0 0 0 
0 0 0 0 0 0 0 0 0 
0 0 0 0 0 0 0 0 0 
0 0 0 0 0 0 0 0 0 
0 0 0 0 0 0 0 0 0 
0 0 0 0 0 0 0 0 0 
0 0 0 0 0 0 0 0 0 
0 0 0 0 0 0 0 0 0 
0 0 0 0 0 0 0 0 0 
0 0 0 0 0 0 0 0 0 
0 0 0 0 0 0 0 0 0 
0 0 0 0 0 0 0 0 0 
0 0 0 0 0 0 0 0 0 
0 0 0 0 0 0 0 0 0 
0 0 0 0 0 0 0 0 0 
0 0 0 0 0 0 0 0 0 
0 0 0 0 0 0 0 0 0 
0 0 0 0 0 0 0 0 0 
0 0 0 0 0 0 0 0 0 
0 0 0 0 0 0 0 0 0 
0 0 0 0 0 0 0 0 0 
0 0 0 0 0 0 0 0 0 
0 0 0 0 0 0 0 0 0 
0 0 0 0 0 0 0 0 0 
0 0 0 0 0 0 0 0 0 
0 0 0 0 0 0 0 0 0 
0 0 0 0 0 0 0 0 0 
0 0 0 0 0 0 0 0 0 
0 0 0 0 0 0 0 0 0 
0 0 0 0 0 0 0 0 0 
0 0 0 0 0 0 0 0 0 
0 0 0 0 0 0 0 0 0 
0 0 0 0 0 0 0 0 0 
0 0 0 0 0 0 0 0 0 
0 0 0 0 0 0 0 0 0 
0 0 0 0 0 0 0 0 0 
0 0 0 0 0 0 0 0 0 
0 0 0 0 0 0 0 0 0 
0 0 0 0 0 0 0 0 0 
0 0 0 0 0 0 0 0 0 
0 0 0 0 0 0 0 0 0 
0 0 0 0 0 0 0 0 0 
0 0 0 0 0 0 0 0 0 
0 0 0 0 0 0 0 0 0 
0 0 0 0 0 0 0 0 0 
0 0 0 0 0 0 0 0 0 
0 0 0 0 0 0 0 0 0 
0 0 0 0 0 0 0 0 0 
0 0 0 0 0 0 0 0 0 
0 0 0 0 0 0 0 0 0 
0 0 0 0 0 0 0 0 0 
0 0 0 0 0 0 0 0 0 
0 0 0 0 0 0 0 0 0 
0 0 0 0 0 0 0 0 0 
0 0 0 0 0 0 0 0 0 
0 0 0 0 0 0 0 0 0 
0 0 0 0 0 0 0 0 0 
0 0 0 0 0 0 0 0 0 
0 0 0 0 0 0 0 0 0 
0 0 0 0 0 0 0 0 0 
0 0 0 0 0 0 0 0 0 
0 0 0 0 0 0 0 0 0 
0 0 0 0 0 0 0 0 0 
0 0 0 0 0 0 0 0 0 
0 0 0 0 0 0 0 0 0 
0 0 0 0 0 0 0 0 0 
0 0 0 0 0 0 0 0 0 
0 0 0 0 0 0 0 0 0 
0 0 0 0 0 0 0 0 0 
0 0 0 0 0 0 0 0 0 
0 0 0 0 0 0 0 0 0 
0 0 0 0 0 0 0 0 0 
0 0 0 0 0 0 0 0 0 
0 0 0 0 0 0 0 0 0 
0 0 0 0 0 0 0 0 0 
0 0 0 0 0 0 0 0 0 
0 0 0 0 0 0 0 0 0 
0 0 0 0 0 0 0 0 0 
0 0 0 0 0 0 0 0 0 
0 0 0 0 0 0 0 0 0 
0 0 0 0 0 0 0 0 0 
0 0 0 0 0 0 0 0 0 
0 0 0 0 0 0 0 0 0 
0 0 0 0 0 0 0 0 0 
0 0 0 0 0 0 0 0 0 
0 0 0 0 0 0 0 0 0 
0 0 0 0 0 0 0 0 0 
0 0 0 0 0 0 0 0 0 
0 0 0 0 0 0 0 0 0 
0 0 0 0 0 0 0 0 0 
0 0 0 0 0 0 0 0 0 
0 0 0 0 0 0 0 0 0 
0 0 0 0 0 0 0 0 0 
0 0 0 0 0 0 0 0 0 
0 0 0 0 0 0 0 0 0 
0 0 0 0 0 0 0 0 0 
0 0 0 0 0 0 0 0 0 
0 0 0 0 0 0 0 0 0 
0 0 0 0 0 0 0 0 0 
0 0 0 0 0 0 0 0 0 
0 0 0 0 0 0 0 0 0 
0 0 0 0 0 0 0 0 0 
0 0 0 0 0 0 0 0 0 
0 0 0 0 0 0 0 0 0 
0 0 0 0 0 0 0 0 0 
0 0 0 0 0 0 0 0 0 
0 0 0 0 0 0 0 0 0 
0 0 0 0 0 0 0 0 0 
0 0 0 0 0 0 0 0 0 
0 0 0 0 0 0 0 0 0 
0 0 0 0 0 0 0 0 0 
0 0 0 0 0 0 0 0 0 
0 0 0 0 0 0 0 0 0 
0 0 0 0 0 0 0 0 0 
0 0 0 0 0 0 0 0 0 
0 0 0 0 0 0 0 0 0 
0 0 0 0 0 0 0 0 0 
0 0 0 0 0 0 0 0 0 
0 0 0 0 0 0 0 0 0 
0 0 0 0 0 0 0 0 0 
0 0 0 0 0 0 0 0 0 
0 0 0 0 0 0 0 0 0 
0 0 0 0 0 0 0 0 0 
0 0 0 0 0 0 0 0 0 
0 0 0 0 0 0 0 0 0 
0 0 0 0 0 0 0 0 0 
0 0 0 0 0 0 0 0 0 
0 0 0 0 0 0 0 0 0 
0 0 0 0 0 0 0 0 0 
0 0 0 0 0 0 0 0 0 
0 0 0 0 0 0 0 0 0 
0 0 0 0 0 0 0 0 0 
0 0 0 0 0 0 0 0 0 
0 0 0 0 0 0 0 0 0 
0 0 0 0 0 0 0 0 0 
0 0 0 0 0 0 0 0 0 
0 0 0 0 0 0 0 0 0 
0 0 0 0 0 0 0 0 0 
0 0 0 0 0 0 0 0 0 
0 0 0 0 0 0 0 0 0 
0 0 0 0 0 0 0 0 0 
0 0 0 0 0 0 0 0 0 
0 0 0 0 0 0 0 0 0 
0 0 0 0 0 0 0 0 0 
0 0 0 0 0 0 0 0 0 
0 0 0 0 0 0 0 0 0 
0 0 0 0 0 0 0 0 0 
0 0 0 0 0 0 0 0 0 
0 0 0 0 0 0 0 0 0 
0 0 0 0 0 0 0 0 0 
0 0 0 0 0 0 0 0 0 
0 0 0 0 0 0 0 0 0 
0 0 0 0 0 0 0 0 0 
0 0 0 0 0 0 0 0 0 
0 0 0 0 0 0 0 0 0 
0 0 0 0 0 0 0 0 0 
0 0 0 0 0 0 0 0 0 
0 0 0 0 0 0 0 0 0 
0 0 0 0 0 0 0 0 0 
0 0 0 0 0 0 0 0 0 
0 0 0 0 0 0 0 0 0 
0 0 0 0 0 0 0 0 0 
0 0 0 0 0 0 0 0 0 
0 0 0 0 0 0 0 0 0 
0 0 0 0 0 0 0 0 0 
0 0 0 0 0 0 0 0 0 
0 0 0 0 0 0 0 0 0 
0 0 0 0 0 0 0 0 0 
0 0 0 0 0 0 0 0 0 
0 0 0 0 0 0 0 0 0 
0 0 0 0 0 0 0 0 0 
0 0 0 0 0 0 0 0 0 
0 0 0 0 0 0 0 0 0 
0 0 0 0 0 0 0 0 0 
0 0 0 0 0 0 0 0 0 
0 0 0 0 0 0 0 0 0 
0 0 0 0 0 0 0 0 0 
0 0 0 0 0 0 0 0 0 
0 0 0 0 0 0 0 0 0 
0 0 0 0 0 0 0 0 0 
0 0 0 0 0 0 0 0 0 
0 0 0 0 0 0 0 0 0 
0 0 0 0 0 0 0 0 0 
0 0 0 0 0 0 0 0 0 
0 0 0 0 0 0 0 0 0 
0 0 0 0 0 0 0 0 0 
0 0 0 0 0 0 0 0 0 
0 0 0 0 0 0 0 0 0 
0 0 0 0 0 0 0 0 0 
0 0 0 0 0 0 0 0 0 
0 0 0 0 0 0 0 0 0 
0 0 0 0 0 0 0 0 0 
0 0 0 0 0 0 0 0 0 
0 0 0 0 0 0 0 0 0 
0 0 0 0 0 0 0 0 0 
0 0 0 0 0 0 0 0 0 
0 0 0 0 0 0 0 0 0 
0 0 0 0 0 0 0 0 0 
0 0 0 0 0 0 0 0 0 
0 0 0 0 0 0 0 0 0 
0 0 0 0 0 0 0 0 0 
0 0 0 0 0 0 0 0 0 
0 0 0 0 0 0 0 0 0 
0 0 0 0 0 0 0 0 0 
0 0 0 0 0 0 0 0 0 
0 0 0 0 0 0 0 0 0 
0 0 0 0 0 0 0 0 0 
0 0 0 0 0 0 0 0 0 
0 0 0 0 0 0 0 0 0 
0 0 0 0 0 0 0 0 0 
0 0 0 0 0 0 0 0 0 
0 0 0 0 0 0 0 0 0 
0 0 0 0 0 0 0 0 0 
0 0 0 0 0 0 0 0 0 
0 0 0 0 0 0 0 0 0 
0 0 0 0 0 0 0 0 0 
0 0 0 0 0 0 0 0 0 
0 0 0 0 0 0 0 0 0 
0 0 0 0 0 0 0 0 0 
0 0 0 0 0 0 0 0 0 
0 0 0 0 0 0 0 0 0 
0 0 0 0 0 0 0 0 0 
0 0 0 0 0 0 0 0 0 
0 0 0 0 0 0 0 0 0 
0 0 0 0 0 0 0 0 0 
0 0 0 0 0 0 0 0 0 
0 0 0 0 0 0 0 0 0 
0 0 0 0 0 0 0 0 0 
0 0 0 0 0 0 0 0 0 
0 0 0 0 0 0 0 0 0 
0 0 0 0 0 0 0 0 0 
0 0 0 0 0 0 0 0 0 
0 0 0 0 0 0 0 0 0 
0 0 0 0 0 0 0 0 0 
0 0 0 0 0 0 0 0 0 
0 0 0 0 0 0 0 0 0 
0 0 0 0 0 0 0 0 0 
0 0 0 0 0 0 0 0 0 
0 0 0 0 0 0 0 0 0 
0 0 0 0 0 0 0 0 0 
0 0 0 0 0 0 0 0 0 
0 0 0 0 0 0 0 0 0 
0 0 0 0 0 0 0 0 0 
0 0 0 0 0 0 0 0 0 
0 0 0 0 0 0 0 0 0 
0 0 0 0 0 0 0 0 0 
0 0 0 0 0 0 0 0 0 
0 0 0 0 0 0 0 0 0 
0 0 0 0 0 0 0 0 0 
0 0 0 0 0 0 0 0 0 
0 0 0 0 0 0 0 0 0 
0 0 0 0 0 0 0 0 0 
0 0 0 0 0 0 0 0 0 
0 0 0 0 0 0 0 0 0 
0 0 0 0 0 0 0 0 0 
0 0 0 0 0 0 0 0 0 
0 0 0 0 0 0 0 0 0 
0 0 0 0 0 0 0 0 0 
0 0 0 0 0 0 0 0 0 
0 0 0 0 0 0 0 0 0 
0 0 0 0 0 0 0 0 0 
0 0 0 0 0 0 0 0 0 
0 0 0 0 0 0 0 0 0 
0 0 0 0 0 0 0 0 0 
0 0 0 0 0 0 0 0 0 
0 0 0 0 0 0 0 0 0 
0 0 0 0 0 0 0 0 0 
0 0 0 0 0 0 0 0 0 
0 0 0 0 0 0 0 0 0 
0 0 0 0 0 0 0 0 0 
0 0 0 0 0 0 0 0 0 
0 0 0 0 0 0 0 0 0 
0 0 0 0 0 0 0 0 0 
0 0 0 0 0 0 0 0 0 
0 0 0 0 0 0 0 0 0 
0 0 0 0 0 0 0 0 0 
0 0 0 0 0 0 0 0 0 
0 0 0 0 0 0 0 0 0 
0 0 0 0 0 0 0 0 0 
0 0 0 0 0 0 0 0 0 
0 0 0 0 0 0 0 0 0 
0 0 0 0 0 0 0 0 0 
0 0 0 0 0 0 0 0 0 
0 0 0 0 0 0 0 0 0 
0 0 0 0 0 0 0 0 0 
0 0 0 0 0 0 0 0 0 
0 0 0 0 0 0 0 0 0 
0 0 0 0 0 0 0 0 0 
0 0 0 0 0 0 0 0 0 
0 0 0 0 0 0 0 0 0 
0 0 0 0 0 0 0 0 0 
0 0 0 0 0 0 0 0 0 
0 0 0 0 0 0 0 0 0 
0 0 0 0 0 0 0 0 0 
0 0 0 0 0 0 0 0 0 
0 0 0 0 0 0 0 0 0 
0 0 0 0 0 0 0 0 0 
0 0 0 0 0 0 0 0 0 
0 0 0 0 0 0 0 0 0 
0 0 0 0 0 0 0 0 0 
0 0 0 0 0 0 0 0 0 
0 0 0 0 0 0 0 0 0 
0 0 0 0 0 0 0 0 0 
0 0 0 0 0 0 0 0 0 
0 0 0 0 0 0 0 0 0 
0 0 0 0 0 0 0 0 0 
0 0 0 0 0 0 0 0 0 
0 0 0 0 0 0 0 0 0 
0 0 0 0 0 0 0 0 0 
0 0 0 0 0 0 0 0 0 
0 0 0 0 0 0 0 0 0 
0 0 0 0 0 0 0 0 0 
0 0 0 0 0 0 0 0 0 
0 0 0 0 0 0 0 0 0 
0 0 0 0 0 0 0 0 0 
0 0 0 0 0 0 0 0 0 
0 0 0 0 0 0 0 0 0 
0 0 0 0 0 0 0 0 0 
0 0 0 0 0 0 0 0 0 
0 0 0 0 0 0 0 0 0 
0 0 0 0 0 0 0 0 0 
0 0 0 0 0 0 0 0 0 
0 0 0 0 0 0 0 0 0 
0 0 0 0 0 0 0 0 0 
0 0 0 0 0 0 0 0 0 
0 0 0 0 0 0 0 0 0 
0 0 0 0 0 0 0 0 0 
0 0 0 0 0 0 0 0 0 
0 0 0 0 0 0 0 0 0 
0 0 0 0 0 0 0 0 0 
0 0 0 0 0 0 0 0 0 
0 0 0 0 0 0 0 0 0 
0 0 0 0 0 0 0 0 0 
0 0 0 0 0 0 0 0 0 
0 0 0 0 0 0 0 0 0 
0 0 0 0 0 0 0 0 0 
0 0 0 0 0 0 0 0 0 
0 0 0 0 0 0 0 0 0 
0 0 0 0 0 0 0 0 0 
0 0 0 0 0 0 0 0 0 
0 0 0 0 0 0 0 0 0 
0 0 0 0 0 0 0 0 0 
0 0 0 0 0 0 0 0 0 
0 0 0 0 0 0 0 0 0 
0 0 0 0 0 0 0 0 0 
0 0 0 0 0 0 0 0 0 
0 0 0 0 0 0 0 0 0 
0 0 0 0 0 0 0 0 0 
0 0 0 0 0 0 0 0 0 
0 0 0 0 0 0 0 0 0 
0 0 0 0 0 0 0 0 0 
0 0 0 0 0 0 0 0 0 
0 0 0 0 0 0 0 0 0 
0 0 0 0 0 0 0 0 0 
0 0 0 0 0 0 0 0 0 
0 0 0 0 0 0 0 0 0 
0 0 0 0 0 0 0 0 0 
0 0 0 0 0 0 0 0 0 
0 0 0 0 0 0 0 0 0 
0 0 0 0 0 0 0 0 0 
0 0 0 0 0 0 0 0 0 
0 0 0 0 0 0 0 0 0 
0 0 0 0 0 0 0 0 0 
0 0 0 0 0 0 0 0 0 
0 0 0 0 0 0 0 0 0 
0 0 0 0 0 0 0 0 0 
0 0 0 0 0 0 0 0 0 
0 0 0 0 0 0 0 0 0 
0 0 0 0 0 0 0 0 0 
0 0 0 0 0 0 0 0 0 
0 0 0 0 0 0 0 0 0 
0 0 0 0 0 0 0 0 0 
0 0 0 0 0 0 0 0 0 
0 0 0 0 0 0 0 0 0 
0 0 0 0 0 0 0 0 0 
0 0 0 0 0 0 0 0 0 
0 0 0 0 0 0 0 0 0 
0 0 0 0 0 0 0 0 0 
0 0 0 0 0 0 0 0 0 
0 0 0 0 0 0 0 0 0 
0 0 0 0 0 0 0 0 0 
0 0 0 0 0 0 0 0 0 
0 0 0 0 0 0 0 0 0 
0 0 0 0 0 0 0 0 0 
0 0 0 0 0 0 0 0 0 
0 0 0 0 0 0 0 0 0 
0 0 0 0 0 0 0 0 0 
0 0 0 0 0 0 0 0 0 
0 0 0 0 0 0 0 0 0 
0 0 0 0 0 0 0 0 0 
0 0 0 0 0 0 0 0 0 
0 0 0 0 0 0 0 0 0 
0 0 0 0 0 0 0 0 0 
0 0 0 0 0 0 0 0 0 
0 0 0 0 0 0 0 0 0 
0 0 0 0 0 0 0 0 0 
0 0 0 0 0 0 0 0 0 
0 0 0 0 0 0 0 0 0 
0 0 0 0 0 0 0 0 0 
0 0 0 0 0 0 0 0 0 
0 0 0 0 0 0 0 0 0 
0 0 0 0 0 0 0 0 0 
0 0 0 0 0 0 0 0 0 
0 0 0 0 0 0 0 0 0 
0 0 0 0 0 0 0 0 0 
0 0 0 0 0 0 0 0 0 
0 0 0 0 0 0 0 0 0 
0 0 0 0 0 0 0 0 0 
0 0 0 0 0 0 0 0 0 
0 0 0 0 0 0 0 0 0 
0 0 0 0 0 0 0 0 0 
0 0 0 0 0 0 0 0 0 
0 0 0 0 0 0 0 0 0 
0 0 0 0 0 0 0 0 0 
0 0 0 0 0 0 0 0 0 
0 0 0 0 0 0 0 0 0 
0 0 0 0 0 0 0 0 0 
0 0 0 0 0 0 0 0 0 
0 0 0 0 0 0 0 0 0 
0 0 0 0 0 0 0 0 0 
0 0 0 0 0 0 0 0 0 
0 0 0 0 0 0 0 0 0 
0 0 0 0 0 0 0 0 0 
0 0 0 0 0 0 0 0 0 
0 0 0 0 0 0 0 0 0 
0 0 0 0 0 0 0 0 0 
0 0 0 0 0 0 0 0 0 
0 0 0 0 0 0 0 0 0 
0 0 0 0 0 0 0 0 0 
0 0 0 0 0 0 0 0 0 
0 0 0 0 0 0 0 0 0 
0 0 0 0 0 0 0 0 0 
0 0 0 0 0 0 0 0 0 
0 0 0 0 0 0 0 0 0 
0 0 0 0 0 0 0 0 0 
0 0 0 0 0 0 0 0 0 
0 0 0 0 0 0 0 0 0 
0 0 0 0 0 0 0 0 0 
0 0 0 0 0 0 0 0 0 
0 0 0 0 0 0 0 0 0 
0 0 0 0 0 0 0 0 0 
0 0 0 0 0 0 0 0 0 
0 0 0 0 0 0 0 0 0 
0 0 0 0 0 0 0 0 0 
0 0 0 0 0 0 0 0 0 
0 0 0 0 0 0 0 0 0 
0 0 0 0 0 0 0 0 0 
0 0 0 0 0 0 0 0 0 
0 0 0 0 0 0 0 0 0 
0 0 0 0 0 0 0 0 0 
0 0 0 0 0 0 0 0 0 
0 0 0 0 0 0 0 0 0 
0 0 0 0 0 0 0 0 0 
0 0 0 0 0 0 0 0 0 
0 0 0 0 0 0 0 0 0 
0 0 0 0 0 0 0 0 0 
0 0 0 0 0 0 0 0 0 
0 0 0 0 0 0 0 0 0 
0 0 0 0 0 0 0 0 0 
0 0 0 0 0 0 0 0 0 
0 0 0 0 0 0 0 0 0 
0 0 0 0 0 0 0 0 0 
0 0 0 0 0 0 0 0 0 
0 0 0 0 0 0 0 0 0 
0 0 0 0 0 0 0 0 0 
0 0 0 0 0 0 0 0 0 
0 0 0 0 0 0 0 0 0 
0 0 0 0 0 0 0 0 0 
0 0 0 0 0 0 0 0 0 
0 0 0 0 0 0 0 0 0 
0 0 0 0 0 0 0 0 0 
0 0 0 0 0 0 0 0 0 
0 0 0 0 0 0 0 0 0 
0 0 0 0 0 0 0 0 0 
0 0 0 0 0 0 0 0 0 
0 0 0 0 0 0 0 0 0 
0 0 0 0 0 0 0 0 0 
0 0 0 0 0 0 0 0 0 
0 0 0 0 0 0 0 0 0 
0 0 0 0 0 0 0 0 0 
0 0 0 0 0 0 0 0 0 
0 0 0 0 0 0 0 0 0 
0 0 0 0 0 0 0 0 0 
0 0 0 0 0 0 0 0 0 
0 0 0 0 0 0 0 0 0 
0 0 0 0 0 0 0 0 0 
0 0 0 0 0 0 0 0 0 
0 0 0 0 0 0 0 0 0 
0 0 0 0 0 0 0 0 0 
0 0 0 0 0 0 0 0 0 
0 0 0 0 0 0 0 0 0 
0 0 0 0 0 0 0 0 0 
0 0 0 0 0 0 0 0 0 
0 0 0 0 0 0 0 0 0 
0 0 0 0 0 0 0 0 0 
0 0 0 0 0 0 0 0 0 
0 0 0 0 0 0 0 0 0 
0 0 0 0 0 0 0 0 0 
0 0 0 0 0 0 0 0 0 
0 0 0 0 0 0 0 0 0 
0 0 0 0 0 0 0 0 0 
0 0 0 0 0 0 0 0 0 
0 0 0 0 0 0 0 0 0 
0 0 0 0 0 0 0 0 0 
0 0 0 0 0 0 0 0 0 
0 0 0 0 0 0 0 0 0 
0 0 0 0 0 0 0 0 0 
0 0 0 0 0 0 0 0 0 
0 0 0 0 0 0 0 0 0 
0 0 0 0 0 0 0 0 0 
0 0 0 0 0 0 0 0 0 
0 0 0 0 0 0 0 0 0 
0 0 0 0 0 0 0 0 0 
0 0 0 0 0 0 0 0 0 
0 0 0 0 0 0 0 0 0 
0 0 0 0 0 0 0 0 0 
0 0 0 0 0 0 0 0 0 
0 0 0 0 0 0 0 0 0 
0 0 0 0 0 0 0 0 0 
0 0 0 0 0 0 0 0 0 
0 0 0 0 0 0 0 0 0 
0 0 0 0 0 0 0 0 0 
0 0 0 0 0 0 0 0 0 
0 0 0 0 0 0 0 0 0 
0 0 0 0 0 0 0 0 0 
0 0 0 0 0 0 0 0 0 
0 0 0 0 0 0 0 0 0 
0 0 0 0 0 0 0 0 0 
0 0 0 0 0 0 0 0 0 
0 0 0 0 0 0 0 0 0 
0 0 0 0 0 0 0 0 0 
0 0 0 0 0 0 0 0 0 
0 0 0 0 0 0 0 0 0 
0 0 0 0 0 0 0 0 0 
0 0 0 0 0 0 0 0 0 
0 0 0 0 0 0 0 0 0 
0 0 0 0 0 0 0 0 0 
0 0 0 0 0 0 0 0 0 
0 0 0 0 0 0 0 0 0 
0 0 0 0 0 0 0 0 0 
0 0 0 0 0 0 0 0 0 
0 0 0 0 0 0 0 0 0 
0 0 0 0 0 0 0 0 0 
0 0 0 0 0 0 0 0 0 
0 0 0 0 0 0 0 0 0 
0 0 0 0 0 0 0 0 0 
0 0 0 0 0 0 0 0 0 
0 0 0 0 0 0 0 0 0 
0 0 0 0 0 0 0 0 0 
0 0 0 0 0 0 0 0 0 
0 0 0 0 0 0 0 0 0 
0 0 0 0 0 0 0 0 0 
0 0 0 0 0 0 0 0 0 
0 0 0 0 0 0 0 0 0 
0 0 0 0 0 0 0 0 0 
0 0 0 0 0 0 0 0 0 
0 0 0 0 0 0 0 0 0 
0 0 0 0 0 0 0 0 0 
0 0 0 0 0 0 0 0 0 
0 0 0 0 0 0 0 0 0 
0 0 0 0 0 0 0 0 0 
0 0 0 0 0 0 0 0 0 
0 0 0 0 0 0 0 0 0 
0 0 0 0 0 0 0 0 0 
0 0 0 0 0 0 0 0 0 
0 0 0 0 0 0 0 0 0 
0 0 0 0 0 0 0 0 0 
0 0 0 0 0 0 0 0 0 
0 0 0 0 0 0 0 0 0 
0 0 0 0 0 0 0 0 0 
0 0 0 0 0 0 0 0 0 
0 0 0 0 0 0 0 0 0 
0 0 0 0 0 0 0 0 0 
0 0 0 0 0 0 0 0 0 
0 0 0 0 0 0 0 0 0 
0 0 0 0 0 0 0 0 0 
0 0 0 0 0 0 0 0 0 
0 0 0 0 0 0 0 0 0 
0 0 0 0 0 0 0 0 0 
0 0 0 0 0 0 0 0 0 
0 0 0 0 0 0 0 0 0 
0 0 0 0 0 0 0 0 0 
0 0 0 0 0 0 0 0 0 
0 0 0 0 0 0 0 0 0 
0 0 0 0 0 0 0 0 0 
0 0 0 0 0 0 0 0 0 
0 0 0 0 0 0 0 0 0 
0 0 0 0 0 0 0 0 0 
0 0 0 0 0 0 0 0 0 
0 0 0 0 0 0 0 0 0 
0 0 0 0 0 0 0 0 0 
0 0 0 0 0 0 0 0 0 
0 0 0 0 0 0 0 0 0 
0 0 0 0 0 0 0 0 0 
0 0 0 0 0 0 0 0 0 
0 0 0 0 0 0 0 0 0 
0 0 0 0 0 0 0 0 0 
0 0 0 0 0 0 0 0 0 
0 0 0 0 0 0 0 0 0 
0 0 0 0 0 0 0 0 0 
0 0 0 0 0 0 0 0 0 
0 0 0 0 0 0 0 0 0 
0 0 0 0 0 0 0 0 0 
0 0 0 0 0 0 0 0 0 
0 0 0 0 0 0 0 0 0 
0 0 0 0 0 0 0 0 0 
0 0 0 0 0 0 0 0 0 
0 0 0 0 0 0 0 0 0 
0 0 0 0 0 0 0 0 0 
0 0 0 0 0 0 0 0 0 
0 0 0 0 0 0 0 0 0 
0 0 0 0 0 0 0 0 0 
0 0 0 0 0 0 0 0 0 
0 0 0 0 0 0 0 0 0 
0 0 0 0 0 0 0 0 0 
0 0 0 0 0 0 0 0 0 
0 0 0 0 0 0 0 0 0 
0 0 0 0 0 0 0 0 0 
0 0 0 0 0 0 0 0 0 
0 0 0 0 0 0 0 0 0 
0 0 0 0 0 0 0 0 0 
0 0 0 0 0 0 0 0 0 
0 0 0 0 0 0 0 0 0 
0 0 0 0 0 0 0 0 0 
0 0 0 0 0 0 0 0 0 
0 0 0 0 0 0 0 0 0 
0 0 0 0 0 0 0 0 0 
0 0 0 0 0 0 0 0 0 
0 0 0 0 0 0 0 0 0 
0 0 0 0 0 0 0 0 0 
0 0 0 0 0 0 0 0 0 
0 0 0 0 0 0 0 0 0 
0 0 0 0 0 0 0 0 0 
0 0 0 0 0 0 0 0 0 
0 0 0 0 0 0 0 0 0 
0 0 0 0 0 0 0 0 0 
0 0 0 0 0 0 0 0 0 
0 0 0 0 0 0 0 0 0 
0 0 0 0 0 0 0 0 0 
0 0 0 0 0 0 0 0 0 
0 0 0 0 0 0 0 0 0 
0 0 0 0 0 0 0 0 0 
0 0 0 0 0 0 0 0 0 
0 0 0 0 0 0 0 0 0 
0 0 0 0 0 0 0 0 0 
0 0 0 0 0 0 0 0 0 
0 0 0 0 0 0 0 0 0 
0 0 0 0 0 0 0 0 0 
0 0 0 0 0 0 0 0 0 
0 0 0 0 0 0 0 0 0 
0 0 0 0 0 0 0 0 0 
0 0 0 0 0 0 0 0 0 
0 0 0 0 0 0 0 0 0 
0 0 0 0 0 0 0 0 0 
0 0 0 0 0 0 0 0 0 
0 0 0 0 0 0 0 0 0 
0 0 0 0 0 0 0 0 0 
0 0 0 0 0 0 0 0 0 
0 0 0 0 0 0 0 0 0 
0 0 0 0 0 0 0 0 0 
0 0 0 0 0 0 0 0 0 
0 0 0 0 0 0 0 0 0 
0 0 0 0 0 0 0 0 0 
0 0 0 0 0 0 0 0 0 
0 0 0 0 0 0 0 0 0 
0 0 0 0 0 0 0 0 0 
0 0 0 0 0 0 0 0 0 
0 0 0 0 0 0 0 0 0 
0 0 0 0 0 0 0 0 0 
0 0 0 0 0 0 0 0 0 
0 0 0 0 0 0 0 0 0 
0 0 0 0 0 0 0 0 0 
0 0 0 0 0 0 0 0 0 
0 0 0 0 0 0 0 0 0 
0 0 0 0 0 0 0 0 0 
0 0 0 0 0 0 0 0 0 
0 0 0 0 0 0 0 0 0 
0 0 0 0 0 0 0 0 0 
0 0 0 0 0 0 0 0 0 
0 0 0 0 0 0 0 0 0 
0 0 0 0 0 0 0 0 0 
0 0 0 0 0 0 0 0 0 
0 0 0 0 0 0 0 0 0 
0 0 0 0 0 0 0 0 0 
0 0 0 0 0 0 0 0 0 
0 0 0 0 0 0 0 0 0 
0 0 0 0 0 0 0 0 0 
0 0 0 0 0 0 0 0 0 
0 0 0 0 0 0 0 0 0 
0 0 0 0 0 0 0 0 0 
0 0 0 0 0 0 0 0 0 
0 0 0 0 0 0 0 0 0 
0 0 0 0 0 0 0 0 0 
0 0 0 0 0 0 0 0 0 
0 0 0 0 0 0 0 0 0 
0 0 0 0 0 0 0 0 0 
0 0 0 0 0 0 0 0 0 
0 0 0 0 0 0 0 0 0 
0 0 0 0 0 0 0 0 0 
0 0 0 0 0 0 0 0 0 
0 0 0 0 0 0 0 0 0 
0 0 0 0 0 0 0 0 0 
0 0 0 0 0 0 0 0 0 
0 0 0 0 0 0 0 0 0 
0 0 0 0 0 0 0 0 0 
0 0 0 0 0 0 0 0 0 
0 0 0 0 0 0 0 0 0 
0 0 0 0 0 0 0 0 0 
0 0 0 0 0 0 0 0 0 
0 0 0 0 0 0 0 0 0 
0 0 0 0 0 0 0 0 0 
0 0 0 0 0 0 0 0 0 
0 0 0 0 0 0 0 0 0 
0 0 0 0 0 0 0 0 0 
0 0 0 0 0 0 0 0 0 
0 0 0 0 0 0 0 0 0 
0 0 0 0 0 0 0 0 0 
0 0 0 0 0 0 0 0 0 
0 0 0 0 0 0 0 0 0 
0 0 0 0 0 0 0 0 0 
0 0 0 0 0 0 0 0 0 
0 0 0 0 0 0 0 0 0 
0 0 0 0 0 0 0 0 0 
0 0 0 0 0 0 0 0 0 
0 0 0 0 0 0 0 0 0 
0 0 0 0 0 0 0 0 0 
0 0 0 0 0 0 0 0 0 
0 0 0 0 0 0 0 0 0 
0 0 0 0 0 0 0 0 0 
0 0 0 0 0 0 0 0 0 
0 0 0 0 0 0 0 0 0 
0 0 0 0 0 0 0 0 0 
0 0 0 0 0 0 0 0 0 
0 0 0 0 0 0 0 0 0 
0 0 0 0 0 0 0 0 0 
0 0 0 0 0 0 0 0 0 
0 0 0 0 0 0 0 0 0 
0 0 0 0 0 0 0 0 0 
0 0 0 0 0 0 0 0 0 
0 0 0 0 0 0 0 0 0 
0 0 0 0 0 0 0 0 0 
0 0 0 0 0 0 0 0 0 
0 0 0 0 0 0 0 0 0 
0 0 0 0 0 0 0 0 0 
0 0 0 0 0 0 0 0 0 
0 0 0 0 0 0 0 0 0 
0 0 0 0 0 0 0 0 0 
0 0 0 0 0 0 0 0 0 
0 0 0 0 0 0 0 0 0 
0 0 0 0 0 0 0 0 0 
0 0 0 0 0 0 0 0 0 
0 0 0 0 0 0 0 0 0 
0 0 0 0 0 0 0 0 0 
0 0 0 0 0 0 0 0 0 
0 0 0 0 0 0 0 0 0 
0 0 0 0 0 0 0 0 0 
0 0 0 0 0 0 0 0 0 
0 0 0 0 0 0 0 0 0 
0 0 0 0 0 0 0 0 0 
0 0 0 0 0 0 0 0 0 
0 0 0 0 0 0 0 0 0 
0 0 0 0 0 0 0 0 0 
0 0 0 0 0 0 0 0 0 
0 0 0 0 0 0 0 0 0 
0 0 0 0 0 0 0 0 0 
0 0 0 0 0 0 0 0 0 
0 0 0 0 0 0 0 0 0 
0 0 0 0 0 0 0 0 0 
0 0 0 0 0 0 0 0 0 
0 0 0 0 0 0 0 0 0 
0 0 0 0 0 0 0 0 0 
0 0 0 0 0 0 0 0 0 
0 0 0 0 0 0 0 0 0 
0 0 0 0 0 0 0 0 0 
0 0 0 0 0 0 0 0 0 
0 0 0 0 0 0 0 0 0 
0 0 0 0 0 0 0 0 0 
0 0 0 0 0 0 0 0 0 
0 0 0 0 0 0 0 0 0 
0 0 0 0 0 0 0 0 0 
0 0 0 0 0 0 0 0 0 
0 0 0 0 0 0 0 0 0 
0 0 0 0 0 0 0 0 0 
0 0 0 0 0 0 0 0 0 
0 0 0 0 0 0 0 0 0 
0 0 0 0 0 0 0 0 0 
0 0 0 0 0 0 0 0 0 
0 0 0 0 0 0 0 0 0 
0 0 0 0 0 0 0 0 0 
0 0 0 0 0 0 0 0 0 
0 0 0 0 0 0 0 0 0 
0 0 0 0 0 0 0 0 0 
0 0 0 0 0 0 0 0 0 
0 0 0 0 0 0 0 0 0 
0 0 0 0 0 0 0 0 0 
0 0 0 0 0 0 0 0 0 
0 0 0 0 0 0 0 0 0 
0 0 0 0 0 0 0 0 0 
0 0 0 0 0 0 0 0 0 
0 0 0 0 0 0 0 0 0 
0 0 0 0 0 0 0 0 0 
0 0 0 0 0 0 0 0 0 
0 0 0 0 0 0 0 0 0 
0 0 0 0 0 0 0 0 0 
0 0 0 0 0 0 0 0 0 
0 0 0 0 0 0 0 0 0 
0 0 0 0 0 0 0 0 0 
0 0 0 0 0 0 0 0 0 
0 0 0 0 0 0 0 0 0 
0 0 0 0 0 0 0 0 0 
0 0 0 0 0 0 0 0 0 
0 0 0 0 0 0 0 0 0 
0 0 0 0 0 0 0 0 0 
0 0 0 0 0 0 0 0 0 
0 0 0 0 0 0 0 0 0 
0 0 0 0 0 0 0 0 0 
0 0 0 0 0 0 0 0 0 
0 0 0 0 0 0 0 0 0 
0 0 0 0 0 0 0 0 0 
0 0 0 0 0 0 0 0 0 
0 0 0 0 0 0 0 0 0 
0 0 0 0 0 0 0 0 0 
0 0 0 0 0 0 0 0 0 
0 0 0 0 0 0 0 0 0 
0 0 0 0 0 0 0 0 0 
0 0 0 0 0 0 0 0 0 
0 0 0 0 0 0 0 0 0 
0 0 0 0 0 0 0 0 0 
0 0 0 0 0 0 0 0 0 
0 0 0 0 0 0 0 0 0 
0 0 0 0 0 0 0 0 0 
0 0 0 0 0 0 0 0 0 
0 0 0 0 0 0 0 0 0 
0 0 0 0 0 0 0 0 0 
0 0 0 0 0 0 0 0 0 
0 0 0 0 0 0 0 0 0 
0 0 0 0 0 0 0 0 0 
0 0 0 0 0 0 0 0 0 
0 0 0 0 0 0 0 0 0 
0 0 0 0 0 0 0 0 0 
0 0 0 0 0 0 0 0 0 
0 0 0 0 0 0 0 0 0 
0 0 0 0 0 0 0 0 0 
0 0 0 0 0 0 0 0 0 
0 0 0 0 0 0 0 0 0 
0 0 0 0 0 0 0 0 0 
0 0 0 0 0 0 0 0 0 
0 0 0 0 0 0 0 0 0 
0 0 0 0 0 0 0 0 0 
0 0 0 0 0 0 0 0 0 
0 0 0 0 0 0 0 0 0 
0 0 0 0 0 0 0 0 0 
0 0 0 0 0 0 0 0 0 
0 0 0 0 0 0 0 0 0 
0 0 0 0 0 0 0 0 0 
0 0 0 0 0 0 0 0 0 
0 0 0 0 0 0 0 0 0 
0 0 0 0 0 0 0 0 0 
0 0 0 0 0 0 0 0 0 
0 0 0 0 0 0 0 0 0 
0 0 0 0 0 0 0 0 0 
0 0 0 0 0 0 0 0 0 
0 0 0 0 0 0 0 0 0 
0 0 0 0 0 0 0 0 0 
0 0 0 0 0 0 0 0 0 
0 0 0 0 0 0 0 0 0 
0 0 0 0 0 0 0 0 0 
0 0 0 0 0 0 0 0 0 
0 0 0 0 0 0 0 0 0 
0 0 0 0 0 0 0 0 0 
0 0 0 0 0 0 0 0 0 
0 0 0 0 0 0 0 0 0 
0 0 0 0 0 0 0 0 0 
0 0 0 0 0 0 0 0 0 
0 0 0 0 0 0 0 0 0 
0 0 0 0 0 0 0 0 0 
0 0 0 0 0 0 0 0 0 
0 0 0 0 0 0 0 0 0 
0 0 0 0 0 0 0 0 0 
0 0 0 0 0 0 0 0 0 
0 0 0 0 0 0 0 0 0 
0 0 0 0 0 0 0 0 0 
0 0 0 0 0 0 0 0 0 
0 0 0 0 0 0 0 0 0 
0 0 0 0 0 0 0 0 0 
0 0 0 0 0 0 0 0 0 
0 0 0 0 0 0 0 0 0 
0 0 0 0 0 0 0 0 0 
0 0 0 0 0 0 0 0 0 
0 0 0 0 0 0 0 0 0 
0 0 0 0 0 0 0 0 0 
0 0 0 0 0 0 0 0 0 
0 0 0 0 0 0 0 0 0 
0 0 0 0 0 0 0 0 0 
0 0 0 0 0 0 0 0 0 
0 0 0 0 0 0 0 0 0 
0 0 0 0 0 0 0 0 0 
0 0 0 0 0 0 0 0 0 
0 0 0 0 0 0 0 0 0 
0 0 0 0 0 0 0 0 0 
0 0 0 0 0 0 0 0 0 
0 0 0 0 0 0 0 0 0 
0 0 0 0 0 0 0 0 0 
0 0 0 0 0 0 0 0 0 
0 0 0 0 0 0 0 0 0 
0 0 0 0 0 0 0 0 0 
0 0 0 0 0 0 0 0 0 
0 0 0 0 0 0 0 0 0 
0 0 0 0 0 0 0 0 0 
0 0 0 0 0 0 0 0 0 
0 0 0 0 0 0 0 0 0 
0 0 0 0 0 0 0 0 0 
0 0 0 0 0 0 0 0 0 
0 0 0 0 0 0 0 0 0 
0 0 0 0 0 0 0 0 0 
0 0 0 0 0 0 0 0 0 
0 0 0 0 0 0 0 0 0 
0 0 0 0 0 0 0 0 0 
0 0 0 0 0 0 0 0 0 
0 0 0 0 0 0 0 0 0 
0 0 0 0 0 0 0 0 0 
0 0 0 0 0 0 0 0 0 
0 0 0 0 0 0 0 0 0 
0 0 0 0 0 0 0 0 0 
0 0 0 0 0 0 0 0 0 
0 0 0 0 0 0 0 0 0 
0 0 0 0 0 0 0 0 0 
0 0 0 0 0 0 0 0 0 
0 0 0 0 0 0 0 0 0 
0 0 0 0 0 0 0 0 0 
0 0 0 0 0 0 0 0 0 
0 0 0 0 0 0 0 0 0 
0 0 0 0 0 0 0 0 0 
0 0 0 0 0 0 0 0 0 
0 0 0 0 0 0 0 0 0 
0 0 0 0 0 0 0 0 0 
0 0 0 0 0 0 0 0 0 
0 0 0 0 0 0 0 0 0 
0 0 0 0 0 0 0 0 0 
0 0 0 0 0 0 0 0 0 
0 0 0 0 0 0 0 0 0 
0 0 0 0 0 0 0 0 0 
0 0 0 0 0 0 0 0 0 
0 0 0 0 0 0 0 0 0 
0 0 0 0 0 0 0 0 0 
0 0 0 0 0 0 0 0 0 
0 0 0 0 0 0 0 0 0 
0 0 0 0 0 0 0 0 0 
0 0 0 0 0 0 0 0 0 
0 0 0 0 0 0 0 0 0 
0 0 0 0 0 0 0 0 0 
0 0 0 0 0 0 0 0 0 
0 0 0 0 0 0 0 0 0 
0 0 0 0 0 0 0 0 0 
0 0 0 0 0 0 0 0 0 
0 0 0 0 0 0 0 0 0 
0 0 0 0 0 0 0 0 0 
0 0 0 0 0 0 0 0 0 
0 0 0 0 0 0 0 0 0 
0 0 0 0 0 0 0 0 0 
0 0 0 0 0 0 0 0 0 
0 0 0 0 0 0 0 0 0 
0 0 0 0 0 0 0 0 0 
0 0 0 0 0 0 0 0 0 
0 0 0 0 0 0 0 0 0 
0 0 0 0 0 0 0 0 0 
0 0 0 0 0 0 0 0 0 
0 0 0 0 0 0 0 0 0 
0 0 0 0 0 0 0 0 0 
0 0 0 0 0 0 0 0 0 
0 0 0 0 0 0 0 0 0 
0 0 0 0 0 0 0 0 0 
0 0 0 0 0 0 0 0 0 
0 0 0 0 0 0 0 0 0 
0 0 0 0 0 0 0 0 0 
0 0 0 0 0 0 0 0 0 
0 0 0 0 0 0 0 0 0 
0 0 0 0 0 0 0 0 0 
0 0 0 0 0 0 0 0 0 
0 0 0 0 0 0 0 0 0 
0 0 0 0 0 0 0 0 0 
0 0 0 0 0 0 0 0 0 
0 0 0 0 0 0 0 0 0 
0 0 0 0 0 0 0 0 0 
0 0 0 0 0 0 0 0 0 
0 0 0 0 0 0 0 0 0 
0 0 0 0 0 0 0 0 0 
0 0 0 0 0 0 0 0 0 
0 0 0 0 0 0 0 0 0 
0 0 0 0 0 0 0 0 0 
0 0 0 0 0 0 0 0 0 
0 0 0 0 0 0 0 0 0 
0 0 0 0 0 0 0 0 0 
0 0 0 0 0 0 0 0 0 
0 0 0 0 0 0 0 0 0 
0 0 0 0 0 0 0 0 0 
0 0 0 0 0 0 0 0 0 
0 0 0 0 0 0 0 0 0 
0 0 0 0 0 0 0 0 0 
0 0 0 0 0 0 0 0 0 
0 0 0 0 0 0 0 0 0 
0 0 0 0 0 0 0 0 0 
0 0 0 0 0 0 0 0 0 
0 0 0 0 0 0 0 0 0 
0 0 0 0 0 0 0 0 0 
0 0 0 0 0 0 0 0 0 
0 0 0 0 0 0 0 0 0 
0 0 0 0 0 0 0 0 0 
0 0 0 0 0 0 0 0 0 
0 0 0 0 0 0 0 0 0 
0 0 0 0 0 0 0 0 0 
0 0 0 0 0 0 0 0 0 
0 0 0 0 0 0 0 0 0 
0 0 0 0 0 0 0 0 0 
0 0 0 0 0 0 0 0 0 
0 0 0 0 0 0 0 0 0 
0 0 0 0 0 0 0 0 0 
0 0 0 0 0 0 0 0 0 
0 0 0 0 0 0 0 0 0 
0 0 0 0 0 0 0 0 0 
0 0 0 0 0 0 0 0 0 
0 0 0 0 0 0 0 0 0 
0 0 0 0 0 0 0 0 0 
0 0 0 0 0 0 0 0 0 
0 0 0 0 0 0 0 0 0 
0 0 0 0 0 0 0 0 0 
0 0 0 0 0 0 0 0 0 
0 0 0 0 0 0 0 0 0 
0 0 0 0 0 0 0 0 0 
0 0 0 0 0 0 0 0 0 
0 0 0 0 0 0 0 0 0 
0 0 0 0 0 0 0 0 0 
0 0 0 0 0 0 0 0 0 
0 0 0 0 0 0 0 0 0 
0 0 0 0 0 0 0 0 0 
0 0 0 0 0 0 0 0 0 
0 0 0 0 0 0 0 0 0 
0 0 0 0 0 0 0 0 0 
0 0 0 0 0 0 0 0 0 
0 0 0 0 0 0 0 0 0 
0 0 0 0 0 0 0 0 0 
0 0 0 0 0 0 0 0 0 
0 0 0 0 0 0 0 0 0 
0 0 0 0 0 0 0 0 0 
0 0 0 0 0 0 0 0 0 
0 0 0 0 0 0 0 0 0 
0 0 0 0 0 0 0 0 0 
0 0 0 0 0 0 0 0 0 
0 0 0 0 0 0 0 0 0 
0 0 0 0 0 0 0 0 0 
0 0 0 0 0 0 0 0 0 
0 0 0 0 0 0 0 0 0 
0 0 0 0 0 0 0 0 0 
0 0 0 0 0 0 0 0 0 
0 0 0 0 0 0 0 0 0 
0 0 0 0 0 0 0 0 0 
0 0 0 0 0 0 0 0 0 
0 0 0 0 0 0 0 0 0 
0 0 0 0 0 0 0 0 0 
0 0 0 0 0 0 0 0 0 
0 0 0 0 0 0 0 0 0 
0 0 0 0 0 0 0 0 0 
0 0 0 0 0 0 0 0 0 
0 0 0 0 0 0 0 0 0 
0 0 0 0 0 0 0 0 0 
0 0 0 0 0 0 0 0 0 
0 0 0 0 0 0 0 0 0 
0 0 0 0 0 0 0 0 0 
0 0 0 0 0 0 0 0 0 
0 0 0 0 0 0 0 0 0 
0 0 0 0 0 0 0 0 0 
0 0 0 0 0 0 0 0 0 
0 0 0 0 0 0 0 0 0 
0 0 0 0 0 0 0 0 0 
0 0 0 0 0 0 0 0 0 
0 0 0 0 0 0 0 0 0 
0 0 0 0 0 0 0 0 0 
0 0 0 0 0 0 0 0 0 
0 0 0 0 0 0 0 0 0 
0 0 0 0 0 0 0 0 0 
0 0 0 0 0 0 0 0 0 
0 0 0 0 0 0 0 0 0 
0 0 0 0 0 0 0 0 0 
0 0 0 0 0 0 0 0 0 
0 0 0 0 0 0 0 0 0 
0 0 0 0 0 0 0 0 0 
0 0 0 0 0 0 0 0 0 
0 0 0 0 0 0 0 0 0 
0 0 0 0 0 0 0 0 0 
0 0 0 0 0 0 0 0 0 
0 0 0 0 0 0 0 0 0 
0 0 0 0 0 0 0 0 0 
0 0 0 0 0 0 0 0 0 
0 0 0 0 0 0 0 0 0 
0 0 0 0 0 0 0 0 0 
0 0 0 0 0 0 0 0 0 
0 0 0 0 0 0 0 0 0 
0 0 0 0 0 0 0 0 0 
0 0 0 0 0 0 0 0 0 
0 0 0 0 0 0 0 0 0 
0 0 0 0 0 0 0 0 0 
0 0 0 0 0 0 0 0 0 
0 0 0 0 0 0 0 0 0 
0 0 0 0 0 0 0 0 0 
0 0 0 0 0 0 0 0 0 
0 0 0 0 0 0 0 0 0 
0 0 0 0 0 0 0 0 0 
0 0 0 0 0 0 0 0 0 
0 0 0 0 0 0 0 0 0 
0 0 0 0 0 0 0 0 0 
0 0 0 0 0 0 0 0 0 
0 0 0 0 0 0 0 0 0 
0 0 0 0 0 0 0 0 0 
0 0 0 0 0 0 0 0 0 
0 0 0 0 0 0 0 0 0 
0 0 0 0 0 0 0 0 0 
0 0 0 0 0 0 0 0 0 
0 0 0 0 0 0 0 0 0 
0 0 0 0 0 0 0 0 0 
0 0 0 0 0 0 0 0 0 
0 0 0 0 0 0 0 0 0 
0 0 0 0 0 0 0 0 0 
0 0 0 0 0 0 0 0 0 
0 0 0 0 0 0 0 0 0 
0 0 0 0 0 0 0 0 0 
0 0 0 0 0 0 0 0 0 
0 0 0 0 0 0 0 0 0 
0 0 0 0 0 0 0 0 0 
0 0 0 0 0 0 0 0 0 
0 0 0 0 0 0 0 0 0 
0 0 0 0 0 0 0 0 0 
0 0 0 0 0 0 0 0 0 
0 0 0 0 0 0 0 0 0 
0 0 0 0 0 0 0 0 0 
0 0 0 0 0 0 0 0 0 
0 0 0 0 0 0 0 0 0 
0 0 0 0 0 0 0 0 0 
0 0 0 0 0 0 0 0 0 
0 0 0 0 0 0 0 0 0 
0 0 0 0 0 0 0 0 0 
0 0 0 0 0 0 0 0 0 
0 0 0 0 0 0 0 0 0 
0 0 0 0 0 0 0 0 0 
0 0 0 0 0 0 0 0 0 
0 0 0 0 0 0 0 0 0 
0 0 0 0 0 0 0 0 0 
0 0 0 0 0 0 0 0 0 
0 0 0 0 0 0 0 0 0 
0 0 0 0 0 0 0 0 0 
0 0 0 0 0 0 0 0 0 
0 0 0 0 0 0 0 0 0 
0 0 0 0 0 0 0 0 0 
0 0 0 0 0 0 0 0 0 
0 0 0 0 0 0 0 0 0 
0 0 0 0 0 0 0 0 0 
0 0 0 0 0 0 0 0 0 
0 0 0 0 0 0 0 0 0 
0 0 0 0 0 0 0 0 0 
0 0 0 0 0 0 0 0 0 
0 0 0 0 0 0 0 0 0 
0 0 0 0 0 0 0 0 0 
0 0 0 0 0 0 0 0 0 
0 0 0 0 0 0 0 0 0 
0 0 0 0 0 0 0 0 0 
0 0 0 0 0 0 0 0 0 
0 0 0 0 0 0 0 0 0 
0 0 0 0 0 0 0 0 0 
0 0 0 0 0 0 0 0 0 
0 0 0 0 0 0 0 0 0 
0 0 0 0 0 0 0 0 0 
0 0 0 0 0 0 0 0 0 
0 0 0 0 0 0 0 0 0 
0 0 0 0 0 0 0 0 0 
0 0 0 0 0 0 0 0 0 
0 0 0 0 0 0 0 0 0 
0 0 0 0 0 0 0 0 0 
0 0 0 0 0 0 0 0 0 
0 0 0 0 0 0 0 0 0 
0 0 0 0 0 0 0 0 0 
0 0 0 0 0 0 0 0 0 
0 0 0 0 0 0 0 0 0 
0 0 0 0 0 0 0 0 0 
0 0 0 0 0 0 0 0 0 
0 0 0 0 0 0 0 0 0 
0 0 0 0 0 0 0 0 0 
0 0 0 0 0 0 0 0 0 
0 0 0 0 0 0 0 0 0 
0 0 0 0 0 0 0 0 0 
0 0 0 0 0 0 0 0 0 
0 0 0 0 0 0 0 0 0 
0 0 0 0 0 0 0 0 0 
0 0 0 0 0 0 0 0 0 
0 0 0 0 0 0 0 0 0 
0 0 0 0 0 0 0 0 0 
0 0 0 0 0 0 0 0 0 
0 0 0 0 0 0 0 0 0 
0 0 0 0 0 0 0 0 0 
0 0 0 0 0 0 0 0 0 
0 0 0 0 0 0 0 0 0 
0 0 0 0 0 0 0 0 0 
0 0 0 0 0 0 0 0 0 
0 0 0 0 0 0 0 0 0 
0 0 0 0 0 0 0 0 0 
0 0 0 0 0 0 0 0 0 
0 0 0 0 0 0 0 0 0 
0 0 0 0 0 0 0 0 0 
0 0 0 0 0 0 0 0 0 
0 0 0 0 0 0 0 0 0 
0 0 0 0 0 0 0 0 0 
0 0 0 0 0 0 0 0 0 
0 0 0 0 0 0 0 0 0 
0 0 0 0 0 0 0 0 0 
0 0 0 0 0 0 0 0 0 
0 0 0 0 0 0 0 0 0 
0 0 0 0 0 0 0 0 0 
0 0 0 0 0 0 0 0 0 
0 0 0 0 0 0 0 0 0 
0 0 0 0 0 0 0 0 0 
0 0 0 0 0 0 0 0 0 
0 0 0 0 0 0 0 0 0 
0 0 0 0 0 0 0 0 0 
0 0 0 0 0 0 0 0 0 
0 0 0 0 0 0 0 0 0 
0 0 0 0 0 0 0 0 0 
0 0 0 0 0 0 0 0 0 
0 0 0 0 0 0 0 0 0 
0 0 0 0 0 0 0 0 0 
0 0 0 0 0 0 0 0 0 
0 0 0 0 0 0 0 0 0 
0 0 0 0 0 0 0 0 0 
0 0 0 0 0 0 0 0 0 
0 0 0 0 0 0 0 0 0 
0 0 0 0 0 0 0 0 0 
0 0 0 0 0 0 0 0 0 
0 0 0 0 0 0 0 0 0 
0 0 0 0 0 0 0 0 0 
0 0 0 0 0 0 0 0 0 
0 0 0 0 0 0 0 0 0 
0 0 0 0 0 0 0 0 0 
0 0 0 0 0 0 0 0 0 
0 0 0 0 0 0 0 0 0 
0 0 0 0 0 0 0 0 0 
0 0 0 0 0 0 0 0 0 
0 0 0 0 0 0 0 0 0 
0 0 0 0 0 0 0 0 0 
0 0 0 0 0 0 0 0 0 
0 0 0 0 0 0 0 0 0 
0 0 0 0 0 0 0 0 0 
0 0 0 0 0 0 0 0 0 
0 0 0 0 0 0 0 0 0 
0 0 0 0 0 0 0 0 0 
0 0 0 0 0 0 0 0 0 
0 0 0 0 0 0 0 0 0 
0 0 0 0 0 0 0 0 0 
0 0 0 0 0 0 0 0 0 
0 0 0 0 0 0 0 0 0 
0 0 0 0 0 0 0 0 0 
0 0 0 0 0 0 0 0 0 
0 0 0 0 0 0 0 0 0 
0 0 0 0 0 0 0 0 0 
0 0 0 0 0 0 0 0 0 
0 0 0 0 0 0 0 0 0 
0 0 0 0 0 0 0 0 0 
0 0 0 0 0 0 0 0 0 
0 0 0 0 0 0 0 0 0 
0 0 0 0 0 0 0 0 0 
0 0 0 0 0 0 0 0 0 
0 0 0 0 0 0 0 0 0 
0 0 0 0 0 0 0 0 0 
0 0 0 0 0 0 0 0 0 
0 0 0 0 0 0 0 0 0 
0 0 0 0 0 0 0 0 0 
0 0 0 0 0 0 0 0 0 
0 0 0 0 0 0 0 0 0 
0 0 0 0 0 0 0 0 0 
0 0 0 0 0 0 0 0 0 
0 0 0 0 0 0 0 0 0 
0 0 0 0 0 0 0 0 0 
0 0 0 0 0 0 0 0 0 
0 0 0 0 0 0 0 0 0 
0 0 0 0 0 0 0 0 0 
0 0 0 0 0 0 0 0 0 
0 0 0 0 0 0 0 0 0 
0 0 0 0 0 0 0 0 0 
0 0 0 0 0 0 0 0 0 
0 0 0 0 0 0 0 0 0 
0 0 0 0 0 0 0 0 0 
0 0 0 0 0 0 0 0 0 
0 0 0 0 0 0 0 0 0 
0 0 0 0 0 0 0 0 0 
0 0 0 0 0 0 0 0 0 
0 0 0 0 0 0 0 0 0 
0 0 0 0 0 0 0 0 0 
0 0 0 0 0 0 0 0 0 
0 0 0 0 0 0 0 0 0 
0 0 0 0 0 0 0 0 0 
0 0 0 0 0 0 0 0 0 
0 0 0 0 0 0 0 0 0 
0 0 0 0 0 0 0 0 0 
0 0 0 0 0 0 0 0 0 
0 0 0 0 0 0 0 0 0 
0 0 0 0 0 0 0 0 0 
0 0 0 0 0 0 0 0 0 
0 0 0 0 0 0 0 0 0 
0 0 0 0 0 0 0 0 0 
0 0 0 0 0 0 0 0 0 
0 0 0 0 0 0 0 0 0 
0 0 0 0 0 0 0 0 0 
0 0 0 0 0 0 0 0 0 
0 0 0 0 0 0 0 0 0 
0 0 0 0 0 0 0 0 0 
0 0 0 0 0 0 0 0 0 
0 0 0 0 0 0 0 0 0 
0 0 0 0 0 0 0 0 0 
0 0 0 0 0 0 0 0 0 
0 0 0 0 0 0 0 0 0 
0 0 0 0 0 0 0 0 0 
0 0 0 0 0 0 0 0 0 
0 0 0 0 0 0 0 0 0 
0 0 0 0 0 0 0 0 0 
0 0 0 0 0 0 0 0 0 
0 0 0 0 0 0 0 0 0 
0 0 0 0 0 0 0 0 0 
0 0 0 0 0 0 0 0 0 
0 0 0 0 0 0 0 0 0 
0 0 0 0 0 0 0 0 0 
0 0 0 0 0 0 0 0 0 
0 0 0 0 0 0 0 0 0 
0 0 0 0 0 0 0 0 0 
0 0 0 0 0 0 0 0 0 
0 0 0 0 0 0 0 0 0 
0 0 0 0 0 0 0 0 0 
0 0 0 0 0 0 0 0 0 
0 0 0 0 0 0 0 0 0 
0 0 0 0 0 0 0 0 0 
0 0 0 0 0 0 0 0 0 
0 0 0 0 0 0 0 0 0 
0 0 0 0 0 0 0 0 0 
0 0 0 0 0 0 0 0 0 
0 0 0 0 0 0 0 0 0 
0 0 0 0 0 0 0 0 0 
0 0 0 0 0 0 0 0 0 
0 0 0 0 0 0 0 0 0 
0 0 0 0 0 0 0 0 0 
0 0 0 0 0 0 0 0 0 
0 0 0 0 0 0 0 0 0 
0 0 0 0 0 0 0 0 0 
0 0 0 0 0 0 0 0 0 
0 0 0 0 0 0 0 0 0 
0 0 0 0 0 0 0 0 0 
0 0 0 0 0 0 0 0 0 
0 0 0 0 0 0 0 0 0 
0 0 0 0 0 0 0 0 0 
0 0 0 0 0 0 0 0 0 
0 0 0 0 0 0 0 0 0 
0 0 0 0 0 0 0 0 0 
0 0 0 0 0 0 0 0 0 
0 0 0 0 0 0 0 0 0 
0 0 0 0 0 0 0 0 0 
0 0 0 0 0 0 0 0 0 
0 0 0 0 0 0 0 0 0 
0 0 0 0 0 0 0 0 0 
0 0 0 0 0 0 0 0 0 
0 0 0 0 0 0 0 0 0 
0 0 0 0 0 0 0 0 0 
0 0 0 0 0 0 0 0 0 
0 0 0 0 0 0 0 0 0 
0 0 0 0 0 0 0 0 0 
0 0 0 0 0 0 0 0 0 
0 0 0 0 0 0 0 0 0 
0 0 0 0 0 0 0 0 0 
0 0 0 0 0 0 0 0 0 
0 0 0 0 0 0 0 0 0 
0 0 0 0 0 0 0 0 0 
0 0 0 0 0 0 0 0 0 
0 0 0 0 0 0 0 0 0 
0 0 0 0 0 0 0 0 0 
0 0 0 0 0 0 0 0 0 
0 0 0 0 0 0 0 0 0 
0 0 0 0 0 0 0 0 0 
0 0 0 0 0 0 0 0 0 
0 0 0 0 0 0 0 0 0 
0 0 0 0 0 0 0 0 0 
0 0 0 0 0 0 0 0 0 
0 0 0 0 0 0 0 0 0 
0 0 0 0 0 0 0 0 0 
0 0 0 0 0 0 0 0 0 
0 0 0 0 0 0 0 0 0 
0 0 0 0 0 0 0 0 0 
0 0 0 0 0 0 0 0 0 
0 0 0 0 0 0 0 0 0 
0 0 0 0 0 0 0 0 0 
0 0 0 0 0 0 0 0 0 
0 0 0 0 0 0 0 0 0 
0 0 0 0 0 0 0 0 0 
0 0 0 0 0 0 0 0 0 
0 0 0 0 0 0 0 0 0 
0 0 0 0 0 0 0 0 0 
0 0 0 0 0 0 0 0 0 
0 0 0 0 0 0 0 0 0 
0 0 0 0 0 0 0 0 0 
0 0 0 0 0 0 0 0 0 
0 0 0 0 0 0 0 0 0 
0 0 0 0 0 0 0 0 0 
0 0 0 0 0 0 0 0 0 
0 0 0 0 0 0 0 0 0 
0 0 0 0 0 0 0 0 0 
0 0 0 0 0 0 0 0 0 
0 0 0 0 0 0 0 0 0 
0 0 0 0 0 0 0 0 0 
0 0 0 0 0 0 0 0 0 
0 0 0 0 0 0 0 0 0 
0 0 0 0 0 0 0 0 0 
0 0 0 0 0 0 0 0 0 
0 0 0 0 0 0 0 0 0 
0 0 0 0 0 0 0 0 0 
0 0 0 0 0 0 0 0 0 
0 0 0 0 0 0 0 0 0 
0 0 0 0 0 0 0 0 0 
0 0 0 0 0 0 0 0 0 
0 0 0 0 0 0 0 0 0 
0 0 0 0 0 0 0 0 0 
0 0 0 0 0 0 0 0 0 
0 0 0 0 0 0 0 0 0 
0 0 0 0 0 0 0 0 0 
0 0 0 0 0 0 0 0 0 
0 0 0 0 0 0 0 0 0 
0 0 0 0 0 0 0 0 0 
0 0 0 0 0 0 0 0 0 
0 0 0 0 0 0 0 0 0 
0 0 0 0 0 0 0 0 0 
0 0 0 0 0 0 0 0 0 
0 0 0 0 0 0 0 0 0 
0 0 0 0 0 0 0 0 0 
0 0 0 0 0 0 0 0 0 
0 0 0 0 0 0 0 0 0 
0 0 0 0 0 0 0 0 0 
0 0 0 0 0 0 0 0 0 
0 0 0 0 0 0 0 0 0 
0 0 0 0 0 0 0 0 0 
0 0 0 0 0 0 0 0 0 
0 0 0 0 0 0 0 0 0 
0 0 0 0 0 0 0 0 0 
0 0 0 0 0 0 0 0 0 
0 0 0 0 0 0 0 0 0 
0 0 0 0 0 0 0 0 0 
0 0 0 0 0 0 0 0 0 
0 0 0 0 0 0 0 0 0 
0 0 0 0 0 0 0 0 0 
0 0 0 0 0 0 0 0 0 
0 0 0 0 0 0 0 0 0 
0 0 0 0 0 0 0 0 0 
0 0 0 0 0 0 0 0 0 
0 0 0 0 0 0 0 0 0 
0 0 0 0 0 0 0 0 0 
0 0 0 0 0 0 0 0 0 
0 0 0 0 0 0 0 0 0 
0 0 0 0 0 0 0 0 0 
0 0 0 0 0 0 0 0 0 
0 0 0 0 0 0 0 0 0 
0 0 0 0 0 0 0 0 0 
0 0 0 0 0 0 0 0 0 
0 0 0 0 0 0 0 0 0 
0 0 0 0 0 0 0 0 0 
0 0 0 0 0 0 0 0 0 
0 0 0 0 0 0 0 0 0 
0 0 0 0 0 0 0 0 0 
0 0 0 0 0 0 0 0 0 
0 0 0 0 0 0 0 0 0 
0 0 0 0 0 0 0 0 0 
0 0 0 0 0 0 0 0 0 
0 0 0 0 0 0 0 0 0 
0 0 0 0 0 0 0 0 0 
0 0 0 0 0 0 0 0 0 
0 0 0 0 0 0 0 0 0 
0 0 0 0 0 0 0 0 0 
0 0 0 0 0 0 0 0 0 
0 0 0 0 0 0 0 0 0 
0 0 0 0 0 0 0 0 0 
0 0 0 0 0 0 0 0 0 
0 0 0 0 0 0 0 0 0 
0 0 0 0 0 0 0 0 0 
0 0 0 0 0 0 0 0 0 
0 0 0 0 0 0 0 0 0 
0 0 0 0 0 0 0 0 0 
0 0 0 0 0 0 0 0 0 
0 0 0 0 0 0 0 0 0 
0 0 0 0 0 0 0 0 0 
0 0 0 0 0 0 0 0 0 
0 0 0 0 0 0 0 0 0 
0 0 0 0 0 0 0 0 0 
0 0 0 0 0 0 0 0 0 
0 0 0 0 0 0 0 0 0 
0 0 0 0 0 0 0 0 0 
0 0 0 0 0 0 0 0 0 
0 0 0 0 0 0 0 0 0 
0 0 0 0 0 0 0 0 0 
0 0 0 0 0 0 0 0 0 
0 0 0 0 0 0 0 0 0 
0 0 0 0 0 0 0 0 0 
0 0 0 0 0 0 0 0 0 
0 0 0 0 0 0 0 0 0 
0 0 0 0 0 0 0 0 0 
0 0 0 0 0 0 0 0 0 
0 0 0 0 0 0 0 0 0 
0 0 0 0 0 0 0 0 0 
0 0 0 0 0 0 0 0 0 
0 0 0 0 0 0 0 0 0 
0 0 0 0 0 0 0 0 0 
0 0 0 0 0 0 0 0 0 
0 0 0 0 0 0 0 0 0 
0 0 0 0 0 0 0 0 0 
0 0 0 0 0 0 0 0 0 
0 0 0 0 0 0 0 0 0 
0 0 0 0 0 0 0 0 0 
0 0 0 0 0 0 0 0 0 
0 0 0 0 0 0 0 0 0 
0 0 0 0 0 0 0 0 0 
0 0 0 0 0 0 0 0 0 
0 0 0 0 0 0 0 0 0 
0 0 0 0 0 0 0 0 0 
0 0 0 0 0 0 0 0 0 
0 0 0 0 0 0 0 0 0 
0 0 0 0 0 0 0 0 0 
0 0 0 0 0 0 0 0 0 
0 0 0 0 0 0 0 0 0 
0 0 0 0 0 0 0 0 0 
0 0 0 0 0 0 0 0 0 
0 0 0 0 0 0 0 0 0 
0 0 0 0 0 0 0 0 0 
0 0 0 0 0 0 0 0 0 
0 0 0 0 0 0 0 0 0 
0 0 0 0 0 0 0 0 0 
0 0 0 0 0 0 0 0 0 
0 0 0 0 0 0 0 0 0 
0 0 0 0 0 0 0 0 0 
0 0 0 0 0 0 0 0 0 
0 0 0 0 0 0 0 0 0 
0 0 0 0 0 0 0 0 0 
0 0 0 0 0 0 0 0 0 
0 0 0 0 0 0 0 0 0 
0 0 0 0 0 0 0 0 0 
0 0 0 0 0 0 0 0 0 
0 0 0 0 0 0 0 0 0 
0 0 0 0 0 0 0 0 0 
0 0 0 0 0 0 0 0 0 
0 0 0 0 0 0 0 0 0 
0 0 0 0 0 0 0 0 0 
0 0 0 0 0 0 0 0 0 
0 0 0 0 0 0 0 0 0 
0 0 0 0 0 0 0 0 0 
0 0 0 0 0 0 0 0 0 
0 0 0 0 0 0 0 0 0 
0 0 0 0 0 0 0 0 0 
0 0 0 0 0 0 0 0 0 
0 0 0 0 0 0 0 0 0 
0 0 0 0 0 0 0 0 0 
0 0 0 0 0 0 0 0 0 
0 0 0 0 0 0 0 0 0 
0 0 0 0 0 0 0 0 0 
0 0 0 0 0 0 0 0 0 
0 0 0 0 0 0 0 0 0 
0 0 0 0 0 0 0 0 0 
0 0 0 0 0 0 0 0 0 
0 0 0 0 0 0 0 0 0 
0 0 0 0 0 0 0 0 0 
0 0 0 0 0 0 0 0 0 
0 0 0 0 0 0 0 0 0 
0 0 0 0 0 0 0 0 0 
0 0 0 0 0 0 0 0 0 
0 0 0 0 0 0 0 0 0 
0 0 0 0 0 0 0 0 0 
0 0 0 0 0 0 0 0 0 
0 0 0 0 0 0 0 0 0 
0 0 0 0 0 0 0 0 0 
0 0 0 0 0 0 0 0 0 
0 0 0 0 0 0 0 0 0 
0 0 0 0 0 0 0 0 0 
0 0 0 0 0 0 0 0 0 
0 0 0 0 0 0 0 0 0 
0 0 0 0 0 0 0 0 0 
0 0 0 0 0 0 0 0 0 
0 0 0 0 0 0 0 0 0 
0 0 0 0 0 0 0 0 0 
0 0 0 0 0 0 0 0 0 
0 0 0 0 0 0 0 0 0 
0 0 0 0 0 0 0 0 0 
0 0 0 0 0 0 0 0 0 
0 0 0 0 0 0 0 0 0 
0 0 0 0 0 0 0 0 0 
0 0 0 0 0 0 0 0 0 
0 0 0 0 0 0 0 0 0 
0 0 0 0 0 0 0 0 0 
0 0 0 0 0 0 0 0 0 
0 0 0 0 0 0 0 0 0 
0 0 0 0 0 0 0 0 0 
0 0 0 0 0 0 0 0 0 
0 0 0 0 0 0 0 0 0 
0 0 0 0 0 0 0 0 0 
0 0 0 0 0 0 0 0 0 
0 0 0 0 0 0 0 0 0 
0 0 0 0 0 0 0 0 0 
0 0 0 0 0 0 0 0 0 
0 0 0 0 0 0 0 0 0 
0 0 0 0 0 0 0 0 0 
0 0 0 0 0 0 0 0 0 
0 0 0 0 0 0 0 0 0 
0 0 0 0 0 0 0 0 0 
0 0 0 0 0 0 0 0 0 
0 0 0 0 0 0 0 0 0 
0 0 0 0 0 0 0 0 0 
0 0 0 0 0 0 0 0 0 
0 0 0 0 0 0 0 0 0 
0 0 0 0 0 0 0 0 0 
0 0 0 0 0 0 0 0 0 
0 0 0 0 0 0 0 0 0 
0 0 0 0 0 0 0 0 0 
0 0 0 0 0 0 0 0 0 
0 0 0 0 0 0 0 0 0 
0 0 0 0 0 0 0 0 0 
0 0 0 0 0 0 0 0 0 
0 0 0 0 0 0 0 0 0 
0 0 0 0 0 0 0 0 0 
0 0 0 0 0 0 0 0 0 
0 0 0 0 0 0 0 0 0 
0 0 0 0 0 0 0 0 0 
0 0 0 0 0 0 0 0 0 
0 0 0 0 0 0 0 0 0 
0 0 0 0 0 0 0 0 0 
0 0 0 0 0 0 0 0 0 
0 0 0 0 0 0 0 0 0 
0 0 0 0 0 0 0 0 0 
0 0 0 0 0 0 0 0 0 
0 0 0 0 0 0 0 0 0 
0 0 0 0 0 0 0 0 0 
0 0 0 0 0 0 0 0 0 
0 0 0 0 0 0 0 0 0 
0 0 0 0 0 0 0 0 0 
0 0 0 0 0 0 0 0 0 
0 0 0 0 0 0 0 0 0 
0 0 0 0 0 0 0 0 0 
0 0 0 0 0 0 0 0 0 
0 0 0 0 0 0 0 0 0 
0 0 0 0 0 0 0 0 0 
0 0 0 0 0 0 0 0 0 
0 0 0 0 0 0 0 0 0 
0 0 0 0 0 0 0 0 0 
0 0 0 0 0 0 0 0 0 
0 0 0 0 0 0 0 0 0 
0 0 0 0 0 0 0 0 0 
0 0 0 0 0 0 0 0 0 
0 0 0 0 0 0 0 0 0 
0 0 0 0 0 0 0 0 0 
0 0 0 0 0 0 0 0 0 
0 0 0 0 0 0 0 0 0 
0 0 0 0 0 0 0 0 0 
0 0 0 0 0 0 0 0 0 
0 0 0 0 0 0 0 0 0 
0 0 0 0 0 0 0 0 0 
0 0 0 0 0 0 0 0 0 
0 0 0 0 0 0 0 0 0 
0 0 0 0 0 0 0 0 0 
0 0 0 0 0 0 0 0 0 
0 0 0 0 0 0 0 0 0 
0 0 0 0 0 0 0 0 0 
0 0 0 0 0 0 0 0 0 
0 0 0 0 0 0 0 0 0 
0 0 0 0 0 0 0 0 0 
0 0 0 0 0 0 0 0 0 
0 0 0 0 0 0 0 0 0 
0 0 0 0 0 0 0 0 0 
0 0 0 0 0 0 0 0 0 
0 0 0 0 0 0 0 0 0 
0 0 0 0 0 0 0 0 0 
0 0 0 0 0 0 0 0 0 
0 0 0 0 0 0 0 0 0 
0 0 0 0 0 0 0 0 0 
0 0 0 0 0 0 0 0 0 
0 0 0 0 0 0 0 0 0 
0 0 0 0 0 0 0 0 0 
0 0 0 0 0 0 0 0 0 
0 0 0 0 0 0 0 0 0 
0 0 0 0 0 0 0 0 0 
0 0 0 0 0 0 0 0 0 
0 0 0 0 0 0 0 0 0 
0 0 0 0 0 0 0 0 0 
0 0 0 0 0 0 0 0 0 
0 0 0 0 0 0 0 0 0 
0 0 0 0 0 0 0 0 0 
0 0 0 0 0 0 0 0 0 
0 0 0 0 0 0 0 0 0 
0 0 0 0 0 0 0 0 0 
0 0 0 0 0 0 0 0 0 
0 0 0 0 0 0 0 0 0 
0 0 0 0 0 0 0 0 0 
0 0 0 0 0 0 0 0 0 
0 0 0 0 0 0 0 0 0 
0 0 0 0 0 0 0 0 0 
0 0 0 0 0 0 0 0 0 
0 0 0 0 0 0 0 0 0 
0 0 0 0 0 0 0 0 0 
0 0 0 0 0 0 0 0 0 
0 0 0 0 0 0 0 0 0 
0 0 0 0 0 0 0 0 0 
0 0 0 0 0 0 0 0 0 
0 0 0 0 0 0 0 0 0 
0 0 0 0 0 0 0 0 0 
0 0 0 0 0 0 0 0 0 
0 0 0 0 0 0 0 0 0 
0 0 0 0 0 0 0 0 0 
0 0 0 0 0 0 0 0 0 
0 0 0 0 0 0 0 0 0 
0 0 0 0 0 0 0 0 0 
0 0 0 0 0 0 0 0 0 
0 0 0 0 0 0 0 0 0 
0 0 0 0 0 0 0 0 0 
0 0 0 0 0 0 0 0 0 
0 0 0 0 0 0 0 0 0 
0 0 0 0 0 0 0 0 0 
0 0 0 0 0 0 0 0 0 
0 0 0 0 0 0 0 0 0 
0 0 0 0 0 0 0 0 0 
0 0 0 0 0 0 0 0 0 
0 0 0 0 0 0 0 0 0 
0 0 0 0 0 0 0 0 0 
0 0 0 0 0 0 0 0 0 
0 0 0 0 0 0 0 0 0 
0 0 0 0 0 0 0 0 0 
0 0 0 0 0 0 0 0 0 
0 0 0 0 0 0 0 0 0 
0 0 0 0 0 0 0 0 0 
0 0 0 0 0 0 0 0 0 
0 0 0 0 0 0 0 0 0 
0 0 0 0 0 0 0 0 0 
0 0 0 0 0 0 0 0 0 
0 0 0 0 0 0 0 0 0 
0 0 0 0 0 0 0 0 0 
0 0 0 0 0 0 0 0 0 
0 0 0 0 0 0 0 0 0 
0 0 0 0 0 0 0 0 0 
0 0 0 0 0 0 0 0 0 
0 0 0 0 0 0 0 0 0 
0 0 0 0 0 0 0 0 0 
0 0 0 0 0 0 0 0 0 
0 0 0 0 0 0 0 0 0 
0 0 0 0 0 0 0 0 0 
0 0 0 0 0 0 0 0 0 
0 0 0 0 0 0 0 0 0 
0 0 0 0 0 0 0 0 0 
0 0 0 0 0 0 0 0 0 
0 0 0 0 0 0 0 0 0 
0 0 0 0 0 0 0 0 0 
0 0 0 0 0 0 0 0 0 
0 0 0 0 0 0 0 0 0 
0 0 0 0 0 0 0 0 0 
0 0 0 0 0 0 0 0 0 
0 0 0 0 0 0 0 0 0 
0 0 0 0 0 0 0 0 0 
0 0 0 0 0 0 0 0 0 
0 0 0 0 0 0 0 0 0 
0 0 0 0 0 0 0 0 0 
0 0 0 0 0 0 0 0 0 
0 0 0 0 0 0 0 0 0 
0 0 0 0 0 0 0 0 0 
0 0 0 0 0 0 0 0 0 
0 0 0 0 0 0 0 0 0 
0 0 0 0 0 0 0 0 0 
0 0 0 0 0 0 0 0 0 
0 0 0 0 0 0 0 0 0 
0 0 0 0 0 0 0 0 0 
0 0 0 0 0 0 0 0 0 
0 0 0 0 0 0 0 0 0 
0 0 0 0 0 0 0 0 0 
0 0 0 0 0 0 0 0 0 
0 0 0 0 0 0 0 0 0 
0 0 0 0 0 0 0 0 0 
0 0 0 0 0 0 0 0 0 
0 0 0 0 0 0 0 0 0 
0 0 0 0 0 0 0 0 0 
0 0 0 0 0 0 0 0 0 
0 0 0 0 0 0 0 0 0 
0 0 0 0 0 0 0 0 0 
0 0 0 0 0 0 0 0 0 
0 0 0 0 0 0 0 0 0 
0 0 0 0 0 0 0 0 0 
0 0 0 0 0 0 0 0 0 
0 0 0 0 0 0 0 0 0 
0 0 0 0 0 0 0 0 0 
0 0 0 0 0 0 0 0 0 
0 0 0 0 0 0 0 0 0 
0 0 0 0 0 0 0 0 0 
0 0 0 0 0 0 0 0 0 
0 0 0 0 0 0 0 0 0 
0 0 0 0 0 0 0 0 0 
0 0 0 0 0 0 0 0 0 
0 0 0 0 0 0 0 0 0 
0 0 0 0 0 0 0 0 0 
0 0 0 0 0 0 0 0 0 
0 0 0 0 0 0 0 0 0 
0 0 0 0 0 0 0 0 0 
0 0 0 0 0 0 0 0 0 
0 0 0 0 0 0 0 0 0 
0 0 0 0 0 0 0 0 0 
0 0 0 0 0 0 0 0 0 
0 0 0 0 0 0 0 0 0 
0 0 0 0 0 0 0 0 0 
0 0 0 0 0 0 0 0 0 
0 0 0 0 0 0 0 0 0 
0 0 0 0 0 0 0 0 0 
0 0 0 0 0 0 0 0 0 
0 0 0 0 0 0 0 0 0 
0 0 0 0 0 0 0 0 0 
0 0 0 0 0 0 0 0 0 
0 0 0 0 0 0 0 0 0 
0 0 0 0 0 0 0 0 0 
0 0 0 0 0 0 0 0 0 
0 0 0 0 0 0 0 0 0 
0 0 0 0 0 0 0 0 0 
0 0 0 0 0 0 0 0 0 
0 0 0 0 0 0 0 0 0 
0 0 0 0 0 0 0 0 0 
0 0 0 0 0 0 0 0 0 
0 0 0 0 0 0 0 0 0 
0 0 0 0 0 0 0 0 0 
0 0 0 0 0 0 0 0 0 
0 0 0 0 0 0 0 0 0 
0 0 0 0 0 0 0 0 0 
0 0 0 0 0 0 0 0 0 
0 0 0 0 0 0 0 0 0 
0 0 0 0 0 0 0 0 0 
0 0 0 0 0 0 0 0 0 
0 0 0 0 0 0 0 0 0 
0 0 0 0 0 0 0 0 0 
0 0 0 0 0 0 0 0 0 
0 0 0 0 0 0 0 0 0 
0 0 0 0 0 0 0 0 0 
0 0 0 0 0 0 0 0 0 
0 0 0 0 0 0 0 0 0 
0 0 0 0 0 0 0 0 0 
0 0 0 0 0 0 0 0 0 
0 0 0 0 0 0 0 0 0 
0 0 0 0 0 0 0 0 0 
0 0 0 0 0 0 0 0 0 
0 0 0 0 0 0 0 0 0 
0 0 0 0 0 0 0 0 0 
0 0 0 0 0 0 0 0 0 
0 0 0 0 0 0 0 0 0 
0 0 0 0 0 0 0 0 0 
0 0 0 0 0 0 0 0 0 
0 0 0 0 0 0 0 0 0 
0 0 0 0 0 0 0 0 0 
0 0 0 0 0 0 0 0 0 
0 0 0 0 0 0 0 0 0 
0 0 0 0 0 0 0 0 0 
0 0 0 0 0 0 0 0 0 
0 0 0 0 0 0 0 0 0 
0 0 0 0 0 0 0 0 0 
0 0 0 0 0 0 0 0 0 
0 0 0 0 0 0 0 0 0 
0 0 0 0 0 0 0 0 0 
0 0 0 0 0 0 0 0 0 
0 0 0 0 0 0 0 0 0 
0 0 0 0 0 0 0 0 0 
0 0 0 0 0 0 0 0 0 
0 0 0 0 0 0 0 0 0 
0 0 0 0 0 0 0 0 0 
0 0 0 0 0 0 0 0 0 
0 0 0 0 0 0 0 0 0 
0 0 0 0 0 0 0 0 0 
0 0 0 0 0 0 0 0 0 
0 0 0 0 0 0 0 0 0 
0 0 0 0 0 0 0 0 0 
0 0 0 0 0 0 0 0 0 
0 0 0 0 0 0 0 0 0 
0 0 0 0 0 0 0 0 0 
0 0 0 0 0 0 0 0 0 
0 0 0 0 0 0 0 0 0 
0 0 0 0 0 0 0 0 0 
0 0 0 0 0 0 0 0 0 
0 0 0 0 0 0 0 0 0 
0 0 0 0 0 0 0 0 0 
0 0 0 0 0 0 0 0 0 
0 0 0 0 0 0 0 0 0 
0 0 0 0 0 0 0 0 0 
0 0 0 0 0 0 0 0 0 
0 0 0 0 0 0 0 0 0 
0 0 0 0 0 0 0 0 0 
0 0 0 0 0 0 0 0 0 
0 0 0 0 0 0 0 0 0 
0 0 0 0 0 0 0 0 0 
0 0 0 0 0 0 0 0 0 
0 0 0 0 0 0 0 0 0 
0 0 0 0 0 0 0 0 0 
0 0 0 0 0 0 0 0 0 
0 0 0 0 0 0 0 0 0 
0 0 0 0 0 0 0 0 0 
0 0 0 0 0 0 0 0 0 
0 0 0 0 0 0 0 0 0 
0 0 0 0 0 0 0 0 0 
0 0 0 0 0 0 0 0 0 
0 0 0 0 0 0 0 0 0 
0 0 0 0 0 0 0 0 0 
0 0 0 0 0 0 0 0 0 
0 0 0 0 0 0 0 0 0 
0 0 0 0 0 0 0 0 0 
0 0 0 0 0 0 0 0 0 
0 0 0 0 0 0 0 0 0 
0 0 0 0 0 0 0 0 0 
0 0 0 0 0 0 0 0 0 
0 0 0 0 0 0 0 0 0 
0 0 0 0 0 0 0 0 0 
0 0 0 0 0 0 0 0 0 
0 0 0 0 0 0 0 0 0 
0 0 0 0 0 0 0 0 0 
0 0 0 0 0 0 0 0 0 
0 0 0 0 0 0 0 0 0 
0 0 0 0 0 0 0 0 0 
0 0 0 0 0 0 0 0 0 
0 0 0 0 0 0 0 0 0 
0 0 0 0 0 0 0 0 0 
0 0 0 0 0 0 0 0 0 
0 0 0 0 0 0 0 0 0 
0 0 0 0 0 0 0 0 0 
0 0 0 0 0 0 0 0 0 
0 0 0 0 0 0 0 0 0 
0 0 0 0 0 0 0 0 0 
0 0 0 0 0 0 0 0 0 
0 0 0 0 0 0 0 0 0 
0 0 0 0 0 0 0 0 0 
0 0 0 0 0 0 0 0 0 
0 0 0 0 0 0 0 0 0 
0 0 0 0 0 0 0 0 0 
0 0 0 0 0 0 0 0 0 
0 0 0 0 0 0 0 0 0 
0 0 0 0 0 0 0 0 0 
0 0 0 0 0 0 0 0 0 
0 0 0 0 0 0 0 0 0 
0 0 0 0 0 0 0 0 0 
0 0 0 0 0 0 0 0 0 
0 0 0 0 0 0 0 0 0 
0 0 0 0 0 0 0 0 0 
0 0 0 0 0 0 0 0 0 
0 0 0 0 0 0 0 0 0 
0 0 0 0 0 0 0 0 0 
0 0 0 0 0 0 0 0 0 
0 0 0 0 0 0 0 0 0 
0 0 0 0 0 0 0 0 0 
0 0 0 0 0 0 0 0 0 
0 0 0 0 0 0 0 0 0 
0 0 0 0 0 0 0 0 0 
0 0 0 0 0 0 0 0 0 
0 0 0 0 0 0 0 0 0 
0 0 0 0 0 0 0 0 0 
0 0 0 0 0 0 0 0 0 
0 0 0 0 0 0 0 0 0 
0 0 0 0 0 0 0 0 0 
0 0 0 0 0 0 0 0 0 
0 0 0 0 0 0 0 0 0 
0 0 0 0 0 0 0 0 0 
0 0 0 0 0 0 0 0 0 
0 0 0 0 0 0 0 0 0 
0 0 0 0 0 0 0 0 0 
0 0 0 0 0 0 0 0 0 
0 0 0 0 0 0 0 0 0 
0 0 0 0 0 0 0 0 0 
0 0 0 0 0 0 0 0 0 
0 0 0 0 0 0 0 0 0 
0 0 0 0 0 0 0 0 0 
0 0 0 0 0 0 0 0 0 
0 0 0 0 0 0 0 0 0 
0 0 0 0 0 0 0 0 0 
0 0 0 0 0 0 0 0 0 
0 0 0 0 0 0 0 0 0 
0 0 0 0 0 0 0 0 0 
0 0 0 0 0 0 0 0 0 
0 0 0 0 0 0 0 0 0 
0 0 0 0 0 0 0 0 0 
0 0 0 0 0 0 0 0 0 
0 0 0 0 0 0 0 0 0 
0 0 0 0 0 0 0 0 0 
0 0 0 0 0 0 0 0 0 
0 0 0 0 0 0 0 0 0 
0 0 0 0 0 0 0 0 0 
0 0 0 0 0 0 0 0 0 
0 0 0 0 0 0 0 0 0 
0 0 0 0 0 0 0 0 0 
0 0 0 0 0 0 0 0 0 
0 0 0 0 0 0 0 0 0 
0 0 0 0 0 0 0 0 0 
0 0 0 0 0 0 0 0 0 
0 0 0 0 0 0 0 0 0 
0 0 0 0 0 0 0 0 0 
0 0 0 0 0 0 0 0 0 
0 0 0 0 0 0 0 0 0 
0 0 0 0 0 0 0 0 0 
0 0 0 0 0 0 0 0 0 
0 0 0 0 0 0 0 0 0 
0 0 0 0 0 0 0 0 0 
0 0 0 0 0 0 0 0 0 
0 0 0 0 0 0 0 0 0 
0 0 0 0 0 0 0 0 0 
0 0 0 0 0 0 0 0 0 
0 0 0 0 0 0 0 0 0 
0 0 0 0 0 0 0 0 0 
0 0 0 0 0 0 0 0 0 
0 0 0 0 0 0 0 0 0 
0 0 0 0 0 0 0 0 0 
0 0 0 0 0 0 0 0 0 
0 0 0 0 0 0 0 0 0 
0 0 0 0 0 0 0 0 0 
0 0 0 0 0 0 0 0 0 
0 0 0 0 0 0 0 0 0 
0 0 0 0 0 0 0 0 0 
0 0 0 0 0 0 0 0 0 
0 0 0 0 0 0 0 0 0 
0 0 0 0 0 0 0 0 0 
0 0 0 0 0 0 0 0 0 
0 0 0 0 0 0 0 0 0 
0 0 0 0 0 0 0 0 0 
0 0 0 0 0 0 0 0 0 
0 0 0 0 0 0 0 0 0 
0 0 0 0 0 0 0 0 0 
0 0 0 0 0 0 0 0 0 
0 0 0 0 0 0 0 0 0 
0 0 0 0 0 0 0 0 0 
0 0 0 0 0 0 0 0 0 
0 0 0 0 0 0 0 0 0 
0 0 0 0 0 0 0 0 0 
0 0 0 0 0 0 0 0 0 
0 0 0 0 0 0 0 0 0 
0 0 0 0 0 0 0 0 0 
0 0 0 0 0 0 0 0 0 
0 0 0 0 0 0 0 0 0 
0 0 0 0 0 0 0 0 0 
0 0 0 0 0 0 0 0 0 
0 0 0 0 0 0 0 0 0 
0 0 0 0 0 0 0 0 0 
0 0 0 0 0 0 0 0 0 
0 0 0 0 0 0 0 0 0 
0 0 0 0 0 0 0 0 0 
0 0 0 0 0 0 0 0 0 
0 0 0 0 0 0 0 0 0 
0 0 0 0 0 0 0 0 0 
0 0 0 0 0 0 0 0 0 
0 0 0 0 0 0 0 0 0 
0 0 0 0 0 0 0 0 0 
0 0 0 0 0 0 0 0 0 
0 0 0 0 0 0 0 0 0 
0 0 0 0 0 0 0 0 0 
0 0 0 0 0 0 0 0 0 
0 0 0 0 0 0 0 0 0 
0 0 0 0 0 0 0 0 0 
0 0 0 0 0 0 0 0 0 
0 0 0 0 0 0 0 0 0 
0 0 0 0 0 0 0 0 0 
0 0 0 0 0 0 0 0 0 
0 0 0 0 0 0 0 0 0 
0 0 0 0 0 0 0 0 0 
0 0 0 0 0 0 0 0 0 
0 0 0 0 0 0 0 0 0 
0 0 0 0 0 0 0 0 0 
0 0 0 0 0 0 0 0 0 
0 0 0 0 0 0 0 0 0 
0 0 0 0 0 0 0 0 0 
0 0 0 0 0 0 0 0 0 
0 0 0 0 0 0 0 0 0 
0 0 0 0 0 0 0 0 0 
0 0 0 0 0 0 0 0 0 
0 0 0 0 0 0 0 0 0 
0 0 0 0 0 0 0 0 0 
0 0 0 0 0 0 0 0 0 
0 0 0 0 0 0 0 0 0 
0 0 0 0 0 0 0 0 0 
0 0 0 0 0 0 0 0 0 
0 0 0 0 0 0 0 0 0 
0 0 0 0 0 0 0 0 0 
0 0 0 0 0 0 0 0 0 
0 0 0 0 0 0 0 0 0 
0 0 0 0 0 0 0 0 0 
0 0 0 0 0 0 0 0 0 
0 0 0 0 0 0 0 0 0 
0 0 0 0 0 0 0 0 0 
0 0 0 0 0 0 0 0 0 
0 0 0 0 0 0 0 0 0 
0 0 0 0 0 0 0 0 0 
0 0 0 0 0 0 0 0 0 
0 0 0 0 0 0 0 0 0 
0 0 0 0 0 0 0 0 0 
0 0 0 0 0 0 0 0 0 
0 0 0 0 0 0 0 0 0 
0 0 0 0 0 0 0 0 0 
0 0 0 0 0 0 0 0 0 
0 0 0 0 0 0 0 0 0 
0 0 0 0 0 0 0 0 0 
0 0 0 0 0 0 0 0 0 
0 0 0 0 0 0 0 0 0 
0 0 0 0 0 0 0 0 0 
0 0 0 0 0 0 0 0 0 
0 0 0 0 0 0 0 0 0 
0 0 0 0 0 0 0 0 0 
0 0 0 0 0 0 0 0 0 
0 0 0 0 0 0 0 0 0 
0 0 0 0 0 0 0 0 0 
0 0 0 0 0 0 0 0 0 
0 0 0 0 0 0 0 0 0 
0 0 0 0 0 0 0 0 0 
0 0 0 0 0 0 0 0 0 
0 0 0 0 0 0 0 0 0 
0 0 0 0 0 0 0 0 0 
0 0 0 0 0 0 0 0 0 
0 0 0 0 0 0 0 0 0 
0 0 0 0 0 0 0 0 0 
0 0 0 0 0 0 0 0 0 
0 0 0 0 0 0 0 0 0 
0 0 0 0 0 0 0 0 0 
0 0 0 0 0 0 0 0 0 
0 0 0 0 0 0 0 0 0 
0 0 0 0 0 0 0 0 0 
0 0 0 0 0 0 0 0 0 
0 0 0 0 0 0 0 0 0 
0 0 0 0 0 0 0 0 0 
0 0 0 0 0 0 0 0 0 
0 0 0 0 0 0 0 0 0 
0 0 0 0 0 0 0 0 0 
0 0 0 0 0 0 0 0 0 
0 0 0 0 0 0 0 0 0 
0 0 0 0 0 0 0 0 0 
0 0 0 0 0 0 0 0 0 
0 0 0 0 0 0 0 0 0 
0 0 0 0 0 0 0 0 0 
0 0 0 0 0 0 0 0 0 
0 0 0 0 0 0 0 0 0 
0 0 0 0 0 0 0 0 0 
0 0 0 0 0 0 0 0 0 
0 0 0 0 0 0 0 0 0 
0 0 0 0 0 0 0 0 0 
0 0 0 0 0 0 0 0 0 
0 0 0 0 0 0 0 0 0 
0 0 0 0 0 0 0 0 0 
0 0 0 0 0 0 0 0 0 
0 0 0 0 0 0 0 0 0 
0 0 0 0 0 0 0 0 0 
0 0 0 0 0 0 0 0 0 
0 0 0 0 0 0 0 0 0 
0 0 0 0 0 0 0 0 0 
0 0 0 0 0 0 0 0 0 
0 0 0 0 0 0 0 0 0 
0 0 0 0 0 0 0 0 0 
0 0 0 0 0 0 0 0 0 
0 0 0 0 0 0 0 0 0 
0 0 0 0 0 0 0 0 0 
0 0 0 0 0 0 0 0 0 
0 0 0 0 0 0 0 0 0 
0 0 0 0 0 0 0 0 0 
0 0 0 0 0 0 0 0 0 
0 0 0 0 0 0 0 0 0 
0 0 0 0 0 0 0 0 0 
0 0 0 0 0 0 0 0 0 
0 0 0 0 0 0 0 0 0 
0 0 0 0 0 0 0 0 0 
0 0 0 0 0 0 0 0 0 
0 0 0 0 0 0 0 0 0 
0 0 0 0 0 0 0 0 0 
0 0 0 0 0 0 0 0 0 
0 0 0 0 0 0 0 0 0 
0 0 0 0 0 0 0 0 0 
0 0 0 0 0 0 0 0 0 
0 0 0 0 0 0 0 0 0 
0 0 0 0 0 0 0 0 0 
0 0 0 0 0 0 0 0 0 
0 0 0 0 0 0 0 0 0 
0 0 0 0 0 0 0 0 0 
0 0 0 0 0 0 0 0 0 
0 0 0 0 0 0 0 0 0 
0 0 0 0 0 0 0 0 0 
0 0 0 0 0 0 0 0 0 
0 0 0 0 0 0 0 0 0 
0 0 0 0 0 0 0 0 0 
0 0 0 0 0 0 0 0 0 
0 0 0 0 0 0 0 0 0 
0 0 0 0 0 0 0 0 0 
0 0 0 0 0 0 0 0 0 
0 0 0 0 0 0 0 0 0 
0 0 0 0 0 0 0 0 0 
0 0 0 0 0 0 0 0 0 
0 0 0 0 0 0 0 0 0 
0 0 0 0 0 0 0 0 0 
0 0 0 0 0 0 0 0 0 
0 0 0 0 0 0 0 0 0 
0 0 0 0 0 0 0 0 0 
0 0 0 0 0 0 0 0 0 
0 0 0 0 0 0 0 0 0 
0 0 0 0 0 0 0 0 0 
0 0 0 0 0 0 0 0 0 
0 0 0 0 0 0 0 0 0 
0 0 0 0 0 0 0 0 0 
0 0 0 0 0 0 0 0 0 
0 0 0 0 0 0 0 0 0 
0 0 0 0 0 0 0 0 0 
0 0 0 0 0 0 0 0 0 
0 0 0 0 0 0 0 0 0 
0 0 0 0 0 0 0 0 0 
0 0 0 0 0 0 0 0 0 
0 0 0 0 0 0 0 0 0 
0 0 0 0 0 0 0 0 0 
0 0 0 0 0 0 0 0 0 
0 0 0 0 0 0 0 0 0 
0 0 0 0 0 0 0 0 0 
0 0 0 0 0 0 0 0 0 
0 0 0 0 0 0 0 0 0 
0 0 0 0 0 0 0 0 0 
0 0 0 0 0 0 0 0 0 
0 0 0 0 0 0 0 0 0 
0 0 0 0 0 0 0 0 0 
0 0 0 0 0 0 0 0 0 
0 0 0 0 0 0 0 0 0 
0 0 0 0 0 0 0 0 0 
0 0 0 0 0 0 0 0 0 
0 0 0 0 0 0 0 0 0 
0 0 0 0 0 0 0 0 0 
0 0 0 0 0 0 0 0 0 
0 0 0 0 0 0 0 0 0 
0 0 0 0 0 0 0 0 0 
0 0 0 0 0 0 0 0 0 
0 0 0 0 0 0 0 0 0 
0 0 0 0 0 0 0 0 0 
0 0 0 0 0 0 0 0 0 
0 0 0 0 0 0 0 0 0 
0 0 0 0 0 0 0 0 0 
0 0 0 0 0 0 0 0 0 
0 0 0 0 0 0 0 0 0 
0 0 0 0 0 0 0 0 0 
0 0 0 0 0 0 0 0 0 
0 0 0 0 0 0 0 0 0 
0 0 0 0 0 0 0 0 0 
0 0 0 0 0 0 0 0 0 
0 0 0 0 0 0 0 0 0 
0 0 0 0 0 0 0 0 0 
0 0 0 0 0 0 0 0 0 
0 0 0 0 0 0 0 0 0 
0 0 0 0 0 0 0 0 0 
0 0 0 0 0 0 0 0 0 
0 0 0 0 0 0 0 0 0 
0 0 0 0 0 0 0 0 0 
0 0 0 0 0 0 0 0 0 
0 0 0 0 0 0 0 0 0 
0 0 0 0 0 0 0 0 0 
0 0 0 0 0 0 0 0 0 
0 0 0 0 0 0 0 0 0 
0 0 0 0 0 0 0 0 0 
0 0 0 0 0 0 0 0 0 
0 0 0 0 0 0 0 0 0 
0 0 0 0 0 0 0 0 0 
0 0 0 0 0 0 0 0 0 
0 0 0 0 0 0 0 0 0 
0 0 0 0 0 0 0 0 0 
0 0 0 0 0 0 0 0 0 
0 0 0 0 0 0 0 0 0 
0 0 0 0 0 0 0 0 0 
0 0 0 0 0 0 0 0 0 
0 0 0 0 0 0 0 0 0 
0 0 0 0 0 0 0 0 0 
0 0 0 0 0 0 0 0 0 
0 0 0 0 0 0 0 0 0 
0 0 0 0 0 0 0 0 0 
0 0 0 0 0 0 0 0 0 
0 0 0 0 0 0 0 0 0 
0 0 0 0 0 0 0 0 0 
0 0 0 0 0 0 0 0 0 
0 0 0 0 0 0 0 0 0 
0 0 0 0 0 0 0 0 0 
0 0 0 0 0 0 0 0 0 
0 0 0 0 0 0 0 0 0 
0 0 0 0 0 0 0 0 0 
0 0 0 0 0 0 0 0 0 
0 0 0 0 0 0 0 0 0 
0 0 0 0 0 0 0 0 0 
0 0 0 0 0 0 0 0 0 
0 0 0 0 0 0 0 0 0 
0 0 0 0 0 0 0 0 0 
0 0 0 0 0 0 0 0 0 
0 0 0 0 0 0 0 0 0 
0 0 0 0 0 0 0 0 0 
0 0 0 0 0 0 0 0 0 
0 0 0 0 0 0 0 0 0 
0 0 0 0 0 0 0 0 0 
0 0 0 0 0 0 0 0 0 
0 0 0 0 0 0 0 0 0 
0 0 0 0 0 0 0 0 0 
0 0 0 0 0 0 0 0 0 
0 0 0 0 0 0 0 0 0 
0 0 0 0 0 0 0 0 0 
0 0 0 0 0 0 0 0 0 
0 0 0 0 0 0 0 0 0 
0 0 0 0 0 0 0 0 0 
0 0 0 0 0 0 0 0 0 
0 0 0 0 0 0 0 0 0 
0 0 0 0 0 0 0 0 0 
0 0 0 0 0 0 0 0 0 
0 0 0 0 0 0 0 0 0 
0 0 0 0 0 0 0 0 0 
0 0 0 0 0 0 0 0 0 
0 0 0 0 0 0 0 0 0 
0 0 0 0 0 0 0 0 0 
0 0 0 0 0 0 0 0 0 
0 0 0 0 0 0 0 0 0 
0 0 0 0 0 0 0 0 0 
0 0 0 0 0 0 0 0 0 
0 0 0 0 0 0 0 0 0 
0 0 0 0 0 0 0 0 0 
0 0 0 0 0 0 0 0 0 
0 0 0 0 0 0 0 0 0 
0 0 0 0 0 0 0 0 0 
0 0 0 0 0 0 0 0 0 
0 0 0 0 0 0 0 0 0 
0 0 0 0 0 0 0 0 0 
0 0 0 0 0 0 0 0 0 
0 0 0 0 0 0 0 0 0 
0 0 0 0 0 0 0 0 0 
0 0 0 0 0 0 0 0 0 
0 0 0 0 0 0 0 0 0 
0 0 0 0 0 0 0 0 0 
0 0 0 0 0 0 0 0 0 
0 0 0 0 0 0 0 0 0 
0 0 0 0 0 0 0 0 0 
0 0 0 0 0 0 0 0 0 
0 0 0 0 0 0 0 0 0 
0 0 0 0 0 0 0 0 0 
0 0 0 0 0 0 0 0 0 
0 0 0 0 0 0 0 0 0 
0 0 0 0 0 0 0 0 0 
0 0 0 0 0 0 0 0 0 
0 0 0 0 0 0 0 0 0 
0 0 0 0 0 0 0 0 0 
0 0 0 0 0 0 0 0 0 
0 0 0 0 0 0 0 0 0 
0 0 0 0 0 0 0 0 0 
0 0 0 0 0 0 0 0 0 
0 0 0 0 0 0 0 0 0 
0 0 0 0 0 0 0 0 0 
0 0 0 0 0 0 0 0 0 
0 0 0 0 0 0 0 0 0 
0 0 0 0 0 0 0 0 0 
0 0 0 0 0 0 0 0 0 
0 0 0 0 0 0 0 0 0 
0 0 0 0 0 0 0 0 0 
0 0 0 0 0 0 0 0 0 
0 0 0 0 0 0 0 0 0 
0 0 0 0 0 0 0 0 0 
0 0 0 0 0 0 0 0 0 
0 0 0 0 0 0 0 0 0 
0 0 0 0 0 0 0 0 0 
0 0 0 0 0 0 0 0 0 
0 0 0 0 0 0 0 0 0 
0 0 0 0 0 0 0 0 0 
0 0 0 0 0 0 0 0 0 
0 0 0 0 0 0 0 0 0 
0 0 0 0 0 0 0 0 0 
0 0 0 0 0 0 0 0 0 
0 0 0 0 0 0 0 0 0 
0 0 0 0 0 0 0 0 0 
0 0 0 0 0 0 0 0 0 
0 0 0 0 0 0 0 0 0 
0 0 0 0 0 0 0 0 0 
0 0 0 0 0 0 0 0 0 
0 0 0 0 0 0 0 0 0 
0 0 0 0 0 0 0 0 0 
0 0 0 0 0 0 0 0 0 
0 0 0 0 0 0 0 0 0 
0 0 0 0 0 0 0 0 0 
0 0 0 0 0 0 0 0 0 
0 0 0 0 0 0 0 0 0 
0 0 0 0 0 0 0 0 0 
0 0 0 0 0 0 0 0 0 
0 0 0 0 0 0 0 0 0 
0 0 0 0 0 0 0 0 0 
0 0 0 0 0 0 0 0 0 
0 0 0 0 0 0 0 0 0 
0 0 0 0 0 0 0 0 0 
0 0 0 0 0 0 0 0 0 
0 0 0 0 0 0 0 0 0 
0 0 0 0 0 0 0 0 0 
0 0 0 0 0 0 0 0 0 
0 0 0 0 0 0 0 0 0 
0 0 0 0 0 0 0 0 0 
0 0 0 0 0 0 0 0 0 
0 0 0 0 0 0 0 0 0 
0 0 0 0 0 0 0 0 0 
0 0 0 0 0 0 0 0 0 
0 0 0 0 0 0 0 0 0 
0 0 0 0 0 0 0 0 0 
0 0 0 0 0 0 0 0 0 
0 0 0 0 0 0 0 0 0 
0 0 0 0 0 0 0 0 0 
0 0 0 0 0 0 0 0 0 
0 0 0 0 0 0 0 0 0 
0 0 0 0 0 0 0 0 0 
0 0 0 0 0 0 0 0 0 
0 0 0 0 0 0 0 0 0 
0 0 0 0 0 0 0 0 0 
0 0 0 0 0 0 0 0 0 
0 0 0 0 0 0 0 0 0 
0 0 0 0 0 0 0 0 0 
0 0 0 0 0 0 0 0 0 
0 0 0 0 0 0 0 0 0 
0 0 0 0 0 0 0 0 0 
0 0 0 0 0 0 0 0 0 
0 0 0 0 0 0 0 0 0 
0 0 0 0 0 0 0 0 0 
0 0 0 0 0 0 0 0 0 
0 0 0 0 0 0 0 0 0 
0 0 0 0 0 0 0 0 0 
0 0 0 0 0 0 0 0 0 
0 0 0 0 0 0 0 0 0 
0 0 0 0 0 0 0 0 0 
0 0 0 0 0 0 0 0 0 
0 0 0 0 0 0 0 0 0 
0 0 0 0 0 0 0 0 0 
0 0 0 0 0 0 0 0 0 
0 0 0 0 0 0 0 0 0 
0 0 0 0 0 0 0 0 0 
0 0 0 0 0 0 0 0 0 
0 0 0 0 0 0 0 0 0 
0 0 0 0 0 0 0 0 0 
0 0 0 0 0 0 0 0 0 
0 0 0 0 0 0 0 0 0 
0 0 0 0 0 0 0 0 0 
0 0 0 0 0 0 0 0 0 
0 0 0 0 0 0 0 0 0 
0 0 0 0 0 0 0 0 0 
0 0 0 0 0 0 0 0 0 
0 0 0 0 0 0 0 0 0 
0 0 0 0 0 0 0 0 0 
0 0 0 0 0 0 0 0 0 
0 0 0 0 0 0 0 0 0 
0 0 0 0 0 0 0 0 0 
0 0 0 0 0 0 0 0 0 
0 0 0 0 0 0 0 0 0 
0 0 0 0 0 0 0 0 0 
0 0 0 0 0 0 0 0 0 
0 0 0 0 0 0 0 0 0 
0 0 0 0 0 0 0 0 0 
0 0 0 0 0 0 0 0 0 
0 0 0 0 0 0 0 0 0 
0 0 0 0 0 0 0 0 0 
0 0 0 0 0 0 0 0 0 
0 0 0 0 0 0 0 0 0 
0 0 0 0 0 0 0 0 0 
0 0 0 0 0 0 0 0 0 
0 0 0 0 0 0 0 0 0 
0 0 0 0 0 0 0 0 0 
0 0 0 0 0 0 0 0 0 
0 0 0 0 0 0 0 0 0 
0 0 0 0 0 0 0 0 0 
0 0 0 0 0 0 0 0 0 
0 0 0 0 0 0 0 0 0 
0 0 0 0 0 0 0 0 0 
0 0 0 0 0 0 0 0 0 
0 0 0 0 0 0 0 0 0 
0 0 0 0 0 0 0 0 0 
0 0 0 0 0 0 0 0 0 
0 0 0 0 0 0 0 0 0 
0 0 0 0 0 0 0 0 0 
0 0 0 0 0 0 0 0 0 
0 0 0 0 0 0 0 0 0 
0 0 0 0 0 0 0 0 0 
0 0 0 0 0 0 0 0 0 
0 0 0 0 0 0 0 0 0 
0 0 0 0 0 0 0 0 0 
0 0 0 0 0 0 0 0 0 
0 0 0 0 0 0 0 0 0 
0 0 0 0 0 0 0 0 0 
0 0 0 0 0 0 0 0 0 
0 0 0 0 0 0 0 0 0 
0 0 0 0 0 0 0 0 0 
0 0 0 0 0 0 0 0 0 
0 0 0 0 0 0 0 0 0 
0 0 0 0 0 0 0 0 0 
0 0 0 0 0 0 0 0 0 
0 0 0 0 0 0 0 0 0 
0 0 0 0 0 0 0 0 0 
0 0 0 0 0 0 0 0 0 
0 0 0 0 0 0 0 0 0 
0 0 0 0 0 0 0 0 0 
0 0 0 0 0 0 0 0 0 
0 0 0 0 0 0 0 0 0 
0 0 0 0 0 0 0 0 0 
0 0 0 0 0 0 0 0 0 
0 0 0 0 0 0 0 0 0 
0 0 0 0 0 0 0 0 0 
0 0 0 0 0 0 0 0 0 
0 0 0 0 0 0 0 0 0 
0 0 0 0 0 0 0 0 0 
0 0 0 0 0 0 0 0 0 
0 0 0 0 0 0 0 0 0 
0 0 0 0 0 0 0 0 0 
0 0 0 0 0 0 0 0 0 
0 0 0 0 0 0 0 0 0 
0 0 0 0 0 0 0 0 0 
0 0 0 0 0 0 0 0 0 
0 0 0 0 0 0 0 0 0 
0 0 0 0 0 0 0 0 0 
0 0 0 0 0 0 0 0 0 
0 0 0 0 0 0 0 0 0 
0 0 0 0 0 0 0 0 0 
0 0 0 0 0 0 0 0 0 
0 0 0 0 0 0 0 0 0 
0 0 0 0 0 0 0 0 0 
0 0 0 0 0 0 0 0 0 
0 0 0 0 0 0 0 0 0 
0 0 0 0 0 0 0 0 0 
0 0 0 0 0 0 0 0 0 
0 0 0 0 0 0 0 0 0 
0 0 0 0 0 0 0 0 0 
0 0 0 0 0 0 0 0 0 
0 0 0 0 0 0 0 0 0 
0 0 0 0 0 0 0 0 0 
0 0 0 0 0 0 0 0 0 
0 0 0 0 0 0 0 0 0 
0 0 0 0 0 0 0 0 0 
0 0 0 0 0 0 0 0 0 
0 0 0 0 0 0 0 0 0 
0 0 0 0 0 0 0 0 0 
0 0 0 0 0 0 0 0 0 
0 0 0 0 0 0 0 0 0 
0 0 0 0 0 0 0 0 0 
0 0 0 0 0 0 0 0 0 
0 0 0 0 0 0 0 0 0 
0 0 0 0 0 0 0 0 0 
0 0 0 0 0 0 0 0 0 
0 0 0 0 0 0 0 0 0 
0 0 0 0 0 0 0 0 0 
0 0 0 0 0 0 0 0 0 
0 0 0 0 0 0 0 0 0 
0 0 0 0 0 0 0 0 0 
0 0 0 0 0 0 0 0 0 
0 0 0 0 0 0 0 0 0 
0 0 0 0 0 0 0 0 0 
0 0 0 0 0 0 0 0 0 
0 0 0 0 0 0 0 0 0 
0 0 0 0 0 0 0 0 0 
0 0 0 0 0 0 0 0 0 
0 0 0 0 0 0 0 0 0 
0 0 0 0 0 0 0 0 0 
0 0 0 0 0 0 0 0 0 
0 0 0 0 0 0 0 0 0 
0 0 0 0 0 0 0 0 0 
0 0 0 0 0 0 0 0 0 
0 0 0 0 0 0 0 0 0 
0 0 0 0 0 0 0 0 0 
0 0 0 0 0 0 0 0 0 
0 0 0 0 0 0 0 0 0 
0 0 0 0 0 0 0 0 0 
0 0 0 0 0 0 0 0 0 
0 0 0 0 0 0 0 0 0 
0 0 0 0 0 0 0 0 0 
0 0 0 0 0 0 0 0 0 
0 0 0 0 0 0 0 0 0 
0 0 0 0 0 0 0 0 0 
0 0 0 0 0 0 0 0 0 
0 0 0 0 0 0 0 0 0 
0 0 0 0 0 0 0 0 0 
0 0 0 0 0 0 0 0 0 
0 0 0 0 0 0 0 0 0 
0 0 0 0 0 0 0 0 0 
0 0 0 0 0 0 0 0 0 
0 0 0 0 0 0 0 0 0 
0 0 0 0 0 0 0 0 0 
0 0 0 0 0 0 0 0 0 
0 0 0 0 0 0 0 0 0 
0 0 0 0 0 0 0 0 0 
0 0 0 0 0 0 0 0 0 
0 0 0 0 0 0 0 0 0 
0 0 0 0 0 0 0 0 0 
0 0 0 0 0 0 0 0 0 
0 0 0 0 0 0 0 0 0 
0 0 0 0 0 0 0 0 0 
0 0 0 0 0 0 0 0 0 
0 0 0 0 0 0 0 0 0 
0 0 0 0 0 0 0 0 0 
0 0 0 0 0 0 0 0 0 
0 0 0 0 0 0 0 0 0 
0 0 0 0 0 0 0 0 0 
0 0 0 0 0 0 0 0 0 
0 0 0 0 0 0 0 0 0 
0 0 0 0 0 0 0 0 0 
0 0 0 0 0 0 0 0 0 
0 0 0 0 0 0 0 0 0 
0 0 0 0 0 0 0 0 0 
0 0 0 0 0 0 0 0 0 
0 0 0 0 0 0 0 0 0 
0 0 0 0 0 0 0 0 0 
0 0 0 0 0 0 0 0 0 
0 0 0 0 0 0 0 0 0 
0 0 0 0 0 0 0 0 0 
0 0 0 0 0 0 0 0 0 
0 0 0 0 0 0 0 0 0 
0 0 0 0 0 0 0 0 0 
0 0 0 0 0 0 0 0 0 
0 0 0 0 0 0 0 0 0 
0 0 0 0 0 0 0 0 0 
0 0 0 0 0 0 0 0 0 
0 0 0 0 0 0 0 0 0 
0 0 0 0 0 0 0 0 0 
0 0 0 0 0 0 0 0 0 
0 0 0 0 0 0 0 0 0 
0 0 0 0 0 0 0 0 0 
0 0 0 0 0 0 0 0 0 
0 0 0 0 0 0 0 0 0 
0 0 0 0 0 0 0 0 0 
0 0 0 0 0 0 0 0 0 
0 0 0 0 0 0 0 0 0 
0 0 0 0 0 0 0 0 0 
0 0 0 0 0 0 0 0 0 
0 0 0 0 0 0 0 0 0 
0 0 0 0 0 0 0 0 0 
0 0 0 0 0 0 0 0 0 
0 0 0 0 0 0 0 0 0 
0 0 0 0 0 0 0 0 0 
0 0 0 0 0 0 0 0 0 
0 0 0 0 0 0 0 0 0 
0 0 0 0 0 0 0 0 0 
0 0 0 0 0 0 0 0 0 
0 0 0 0 0 0 0 0 0 
0 0 0 0 0 0 0 0 0 
0 0 0 0 0 0 0 0 0 
0 0 0 0 0 0 0 0 0 
0 0 0 0 0 0 0 0 0 
0 0 0 0 0 0 0 0 0 
0 0 0 0 0 0 0 0 0 
0 0 0 0 0 0 0 0 0 
0 0 0 0 0 0 0 0 0 
0 0 0 0 0 0 0 0 0 
0 0 0 0 0 0 0 0 0 
0 0 0 0 0 0 0 0 0 
0 0 0 0 0 0 0 0 0 
0 0 0 0 0 0 0 0 0 
0 0 0 0 0 0 0 0 0 
0 0 0 0 0 0 0 0 0 
0 0 0 0 0 0 0 0 0 
0 0 0 0 0 0 0 0 0 
0 0 0 0 0 0 0 0 0 
0 0 0 0 0 0 0 0 0 
0 0 0 0 0 0 0 0 0 
0 0 0 0 0 0 0 0 0 
0 0 0 0 0 0 0 0 0 
0 0 0 0 0 0 0 0 0 
0 0 0 0 0 0 0 0 0 
0 0 0 0 0 0 0 0 0 
0 0 0 0 0 0 0 0 0 
0 0 0 0 0 0 0 0 0 
0 0 0 0 0 0 0 0 0 
0 0 0 0 0 0 0 0 0 
0 0 0 0 0 0 0 0 0 
0 0 0 0 0 0 0 0 0 
0 0 0 0 0 0 0 0 0 
0 0 0 0 0 0 0 0 0 
0 0 0 0 0 0 0 0 0 
0 0 0 0 0 0 0 0 0 
0 0 0 0 0 0 0 0 0 
0 0 0 0 0 0 0 0 0 
0 0 0 0 0 0 0 0 0 
0 0 0 0 0 0 0 0 0 
0 0 0 0 0 0 0 0 0 
0 0 0 0 0 0 0 0 0 
0 0 0 0 0 0 0 0 0 
0 0 0 0 0 0 0 0 0 
0 0 0 0 0 0 0 0 0 
0 0 0 0 0 0 0 0 0 
0 0 0 0 0 0 0 0 0 
0 0 0 0 0 0 0 0 0 
0 0 0 0 0 0 0 0 0 
0 0 0 0 0 0 0 0 0 
0 0 0 0 0 0 0 0 0 
0 0 0 0 0 0 0 0 0 
0 0 0 0 0 0 0 0 0 
0 0 0 0 0 0 0 0 0 
0 0 0 0 0 0 0 0 0 
0 0 0 0 0 0 0 0 0 
0 0 0 0 0 0 0 0 0 
0 0 0 0 0 0 0 0 0 
0 0 0 0 0 0 0 0 0 
0 0 0 0 0 0 0 0 0 
0 0 0 0 0 0 0 0 0 
0 0 0 0 0 0 0 0 0 
0 0 0 0 0 0 0 0 0 
0 0 0 0 0 0 0 0 0 
0 0 0 0 0 0 0 0 0 
0 0 0 0 0 0 0 0 0 
0 0 0 0 0 0 0 0 0 
0 0 0 0 0 0 0 0 0 
0 0 0 0 0 0 0 0 0 
0 0 0 0 0 0 0 0 0 
0 0 0 0 0 0 0 0 0 
0 0 0 0 0 0 0 0 0 
0 0 0 0 0 0 0 0 0 
0 0 0 0 0 0 0 0 0 
0 0 0 0 0 0 0 0 0 
0 0 0 0 0 0 0 0 0 
0 0 0 0 0 0 0 0 0 
0 0 0 0 0 0 0 0 0 
0 0 0 0 0 0 0 0 0 
0 0 0 0 0 0 0 0 0 
0 0 0 0 0 0 0 0 0 
0 0 0 0 0 0 0 0 0 
0 0 0 0 0 0 0 0 0 
0 0 0 0 0 0 0 0 0 
0 0 0 0 0 0 0 0 0 
0 0 0 0 0 0 0 0 0 
0 0 0 0 0 0 0 0 0 
0 0 0 0 0 0 0 0 0 
0 0 0 0 0 0 0 0 0 
0 0 0 0 0 0 0 0 0 
0 0 0 0 0 0 0 0 0 
0 0 0 0 0 0 0 0 0 
0 0 0 0 0 0 0 0 0 
0 0 0 0 0 0 0 0 0 
0 0 0 0 0 0 0 0 0 
0 0 0 0 0 0 0 0 0 
0 0 0 0 0 0 0 0 0 
0 0 0 0 0 0 0 0 0 
0 0 0 0 0 0 0 0 0 
0 0 0 0 0 0 0 0 0 
0 0 0 0 0 0 0 0 0 
0 0 0 0 0 0 0 0 0 
0 0 0 0 0 0 0 0 0 
0 0 0 0 0 0 0 0 0 
0 0 0 0 0 0 0 0 0 
0 0 0 0 0 0 0 0 0 
0 0 0 0 0 0 0 0 0 
0 0 0 0 0 0 0 0 0 
0 0 0 0 0 0 0 0 0 
0 0 0 0 0 0 0 0 0 
0 0 0 0 0 0 0 0 0 
0 0 0 0 0 0 0 0 0 
0 0 0 0 0 0 0 0 0 
0 0 0 0 0 0 0 0 0 
0 0 0 0 0 0 0 0 0 
0 0 0 0 0 0 0 0 0 
0 0 0 0 0 0 0 0 0 
0 0 0 0 0 0 0 0 0 
0 0 0 0 0 0 0 0 0 
0 0 0 0 0 0 0 0 0 
0 0 0 0 0 0 0 0 0 
0 0 0 0 0 0 0 0 0 
0 0 0 0 0 0 0 0 0 
0 0 0 0 0 0 0 0 0 
0 0 0 0 0 0 0 0 0 
0 0 0 0 0 0 0 0 0 
0 0 0 0 0 0 0 0 0 
0 0 0 0 0 0 0 0 0 
0 0 0 0 0 0 0 0 0 
0 0 0 0 0 0 0 0 0 
0 0 0 0 0 0 0 0 0 
0 0 0 0 0 0 0 0 0 
0 0 0 0 0 0 0 0 0 
0 0 0 0 0 0 0 0 0 
0 0 0 0 0 0 0 0 0 
0 0 0 0 0 0 0 0 0 
0 0 0 0 0 0 0 0 0 
0 0 0 0 0 0 0 0 0 
0 0 0 0 0 0 0 0 0 
0 0 0 0 0 0 0 0 0 
0 0 0 0 0 0 0 0 0 
0 0 0 0 0 0 0 0 0 
0 0 0 0 0 0 0 0 0 
0 0 0 0 0 0 0 0 0 
0 0 0 0 0 0 0 0 0 
0 0 0 0 0 0 0 0 0 
0 0 0 0 0 0 0 0 0 
0 0 0 0 0 0 0 0 0 
0 0 0 0 0 0 0 0 0 
0 0 0 0 0 0 0 0 0 
0 0 0 0 0 0 0 0 0 
0 0 0 0 0 0 0 0 0 
0 0 0 0 0 0 0 0 0 
0 0 0 0 0 0 0 0 0 
0 0 0 0 0 0 0 0 0 
0 0 0 0 0 0 0 0 0 
0 0 0 0 0 0 0 0 0 
0 0 0 0 0 0 0 0 0 
0 0 0 0 0 0 0 0 0 
0 0 0 0 0 0 0 0 0 
0 0 0 0 0 0 0 0 0 
0 0 0 0 0 0 0 0 0 
0 0 0 0 0 0 0 0 0 
0 0 0 0 0 0 0 0 0 
0 0 0 0 0 0 0 0 0 
0 0 0 0 0 0 0 0 0 
0 0 0 0 0 0 0 0 0 
0 0 0 0 0 0 0 0 0 
0 0 0 0 0 0 0 0 0 
0 0 0 0 0 0 0 0 0 
0 0 0 0 0 0 0 0 0 
0 0 0 0 0 0 0 0 0 
0 0 0 0 0 0 0 0 0 
0 0 0 0 0 0 0 0 0 
0 0 0 0 0 0 0 0 0 
0 0 0 0 0 0 0 0 0 
0 0 0 0 0 0 0 0 0 
0 0 0 0 0 0 0 0 0 
0 0 0 0 0 0 0 0 0 
0 0 0 0 0 0 0 0 0 
0 0 0 0 0 0 0 0 0 
0 0 0 0 0 0 0 0 0 
0 0 0 0 0 0 0 0 0 
0 0 0 0 0 0 0 0 0 
0 0 0 0 0 0 0 0 0 
0 0 0 0 0 0 0 0 0 
0 0 0 0 0 0 0 0 0 
0 0 0 0 0 0 0 0 0 
0 0 0 0 0 0 0 0 0 
0 0 0 0 0 0 0 0 0 
0 0 0 0 0 0 0 0 0 
0 0 0 0 0 0 0 0 0 
0 0 0 0 0 0 0 0 0 
0 0 0 0 0 0 0 0 0 
0 0 0 0 0 0 0 0 0 
0 0 0 0 0 0 0 0 0 
0 0 0 0 0 0 0 0 0 
0 0 0 0 0 0 0 0 0 
0 0 0 0 0 0 0 0 0 
0 0 0 0 0 0 0 0 0 
0 0 0 0 0 0 0 0 0 
0 0 0 0 0 0 0 0 0 
0 0 0 0 0 0 0 0 0 
0 0 0 0 0 0 0 0 0 
0 0 0 0 0 0 0 0 0 
0 0 0 0 0 0 0 0 0 
0 0 0 0 0 0 0 0 0 
0 0 0 0 0 0 0 0 0 
0 0 0 0 0 0 0 0 0 
0 0 0 0 0 0 0 0 0 
0 0 0 0 0 0 0 0 0 
0 0 0 0 0 0 0 0 0 
0 0 0 0 0 0 0 0 0 
0 0 0 0 0 0 0 0 0 
0 0 0 0 0 0 0 0 0 
0 0 0 0 0 0 0 0 0 
0 0 0 0 0 0 0 0 0 
0 0 0 0 0 0 0 0 0 
0 0 0 0 0 0 0 0 0 
0 0 0 0 0 0 0 0 0 
0 0 0 0 0 0 0 0 0 
0 0 0 0 0 0 0 0 0 
0 0 0 0 0 0 0 0 0 
0 0 0 0 0 0 0 0 0 
0 0 0 0 0 0 0 0 0 
0 0 0 0 0 0 0 0 0 
0 0 0 0 0 0 0 0 0 
0 0 0 0 0 0 0 0 0 
0 0 0 0 0 0 0 0 0 
0 0 0 0 0 0 0 0 0 
0 0 0 0 0 0 0 0 0 
0 0 0 0 0 0 0 0 0 
0 0 0 0 0 0 0 0 0 
0 0 0 0 0 0 0 0 0 
0 0 0 0 0 0 0 0 0 
0 0 0 0 0 0 0 0 0 
0 0 0 0 0 0 0 0 0 
0 0 0 0 0 0 0 0 0 
0 0 0 0 0 0 0 0 0 
0 0 0 0 0 0 0 0 0 
0 0 0 0 0 0 0 0 0 
0 0 0 0 0 0 0 0 0 
0 0 0 0 0 0 0 0 0 
0 0 0 0 0 0 0 0 0 
0 0 0 0 0 0 0 0 0 
0 0 0 0 0 0 0 0 0 
0 0 0 0 0 0 0 0 0 
0 0 0 0 0 0 0 0 0 
0 0 0 0 0 0 0 0 0 
0 0 0 0 0 0 0 0 0 
0 0 0 0 0 0 0 0 0 
0 0 0 0 0 0 0 0 0 
0 0 0 0 0 0 0 0 0 
0 0 0 0 0 0 0 0 0 
0 0 0 0 0 0 0 0 0 
0 0 0 0 0 0 0 0 0 
0 0 0 0 0 0 0 0 0 
0 0 0 0 0 0 0 0 0 
0 0 0 0 0 0 0 0 0 
0 0 0 0 0 0 0 0 0 
0 0 0 0 0 0 0 0 0 
0 0 0 0 0 0 0 0 0 
0 0 0 0 0 0 0 0 0 
0 0 0 0 0 0 0 0 0 
0 0 0 0 0 0 0 0 0 
0 0 0 0 0 0 0 0 0 
0 0 0 0 0 0 0 0 0 
0 0 0 0 0 0 0 0 0 
0 0 0 0 0 0 0 0 0 
0 0 0 0 0 0 0 0 0 
0 0 0 0 0 0 0 0 0 
0 0 0 0 0 0 0 0 0 
0 0 0 0 0 0 0 0 0 
0 0 0 0 0 0 0 0 0 
0 0 0 0 0 0 0 0 0 
0 0 0 0 0 0 0 0 0 
0 0 0 0 0 0 0 0 0 
0 0 0 0 0 0 0 0 0 
0 0 0 0 0 0 0 0 0 
0 0 0 0 0 0 0 0 0 
0 0 0 0 0 0 0 0 0 
0 0 0 0 0 0 0 0 0 
0 0 0 0 0 0 0 0 0 
0 0 0 0 0 0 0 0 0 
0 0 0 0 0 0 0 0 0 
0 0 0 0 0 0 0 0 0 
0 0 0 0 0 0 0 0 0 
0 0 0 0 0 0 0 0 0 
0 0 0 0 0 0 0 0 0 
0 0 0 0 0 0 0 0 0 
0 0 0 0 0 0 0 0 0 
0 0 0 0 0 0 0 0 0 
0 0 0 0 0 0 0 0 0 
0 0 0 0 0 0 0 0 0 
0 0 0 0 0 0 0 0 0 
0 0 0 0 0 0 0 0 0 
0 0 0 0 0 0 0 0 0 
0 0 0 0 0 0 0 0 0 
0 0 0 0 0 0 0 0 0 
0 0 0 0 0 0 0 0 0 
0 0 0 0 0 0 0 0 0 
0 0 0 0 0 0 0 0 0 
0 0 0 0 0 0 0 0 0 
0 0 0 0 0 0 0 0 0 
0 0 0 0 0 0 0 0 0 
0 0 0 0 0 0 0 0 0 
0 0 0 0 0 0 0 0 0 
0 0 0 0 0 0 0 0 0 
0 0 0 0 0 0 0 0 0 
0 0 0 0 0 0 0 0 0 
0 0 0 0 0 0 0 0 0 
0 0 0 0 0 0 0 0 0 
0 0 0 0 0 0 0 0 0 
0 0 0 0 0 0 0 0 0 
0 0 0 0 0 0 0 0 0 
0 0 0 0 0 0 0 0 0 
0 0 0 0 0 0 0 0 0 
0 0 0 0 0 0 0 0 0 
0 0 0 0 0 0 0 0 0 
0 0 0 0 0 0 0 0 0 
0 0 0 0 0 0 0 0 0 
0 0 0 0 0 0 0 0 0 
0 0 0 0 0 0 0 0 0 
0 0 0 0 0 0 0 0 0 
0 0 0 0 0 0 0 0 0 
0 0 0 0 0 0 0 0 0 
0 0 0 0 0 0 0 0 0 
0 0 0 0 0 0 0 0 0 
0 0 0 0 0 0 0 0 0 
0 0 0 0 0 0 0 0 0 
0 0 0 0 0 0 0 0 0 
0 0 0 0 0 0 0 0 0 
0 0 0 0 0 0 0 0 0 
0 0 0 0 0 0 0 0 0 
0 0 0 0 0 0 0 0 0 
0 0 0 0 0 0 0 0 0 
0 0 0 0 0 0 0 0 0 
0 0 0 0 0 0 0 0 0 
0 0 0 0 0 0 0 0 0 
0 0 0 0 0 0 0 0 0 
0 0 0 0 0 0 0 0 0 
0 0 0 0 0 0 0 0 0 
0 0 0 0 0 0 0 0 0 
0 0 0 0 0 0 0 0 0 
0 0 0 0 0 0 0 0 0 
0 0 0 0 0 0 0 0 0 
0 0 0 0 0 0 0 0 0 
0 0 0 0 0 0 0 0 0 
0 0 0 0 0 0 0 0 0 
0 0 0 0 0 0 0 0 0 
0 0 0 0 0 0 0 0 0 
0 0 0 0 0 0 0 0 0 
0 0 0 0 0 0 0 0 0 
0 0 0 0 0 0 0 0 0 
0 0 0 0 0 0 0 0 0 
0 0 0 0 0 0 0 0 0 
0 0 0 0 0 0 0 0 0 
0 0 0 0 0 0 0 0 0 
0 0 0 0 0 0 0 0 0 
0 0 0 0 0 0 0 0 0 
0 0 0 0 0 0 0 0 0 
0 0 0 0 0 0 0 0 0 
0 0 0 0 0 0 0 0 0 
0 0 0 0 0 0 0 0 0 
0 0 0 0 0 0 0 0 0 
0 0 0 0 0 0 0 0 0 
0 0 0 0 0 0 0 0 0 
0 0 0 0 0 0 0 0 0 
0 0 0 0 0 0 0 0 0 
0 0 0 0 0 0 0 0 0 
0 0 0 0 0 0 0 0 0 
0 0 0 0 0 0 0 0 0 
0 0 0 0 0 0 0 0 0 
0 0 0 0 0 0 0 0 0 
0 0 0 0 0 0 0 0 0 
0 0 0 0 0 0 0 0 0 
0 0 0 0 0 0 0 0 0 
0 0 0 0 0 0 0 0 0 
0 0 0 0 0 0 0 0 0 
0 0 0 0 0 0 0 0 0 
0 0 0 0 0 0 0 0 0 
0 0 0 0 0 0 0 0 0 
0 0 0 0 0 0 0 0 0 
0 0 0 0 0 0 0 0 0 
0 0 0 0 0 0 0 0 0 
0 0 0 0 0 0 0 0 0 
0 0 0 0 0 0 0 0 0 
0 0 0 0 0 0 0 0 0 
0 0 0 0 0 0 0 0 0 
0 0 0 0 0 0 0 0 0 
0 0 0 0 0 0 0 0 0 
0 0 0 0 0 0 0 0 0 
0 0 0 0 0 0 0 0 0 
0 0 0 0 0 0 0 0 0 
0 0 0 0 0 0 0 0 0 
0 0 0 0 0 0 0 0 0 
0 0 0 0 0 0 0 0 0 
0 0 0 0 0 0 0 0 0 
0 0 0 0 0 0 0 0 0 
0 0 0 0 0 0 0 0 0 
0 0 0 0 0 0 0 0 0 
0 0 0 0 0 0 0 0 0 
0 0 0 0 0 0 0 0 0 
0 0 0 0 0 0 0 0 0 
0 0 0 0 0 0 0 0 0 
0 0 0 0 0 0 0 0 0 
0 0 0 0 0 0 0 0 0 
0 0 0 0 0 0 0 0 0 
0 0 0 0 0 0 0 0 0 
0 0 0 0 0 0 0 0 0 
0 0 0 0 0 0 0 0 0 
0 0 0 0 0 0 0 0 0 
0 0 0 0 0 0 0 0 0 
0 0 0 0 0 0 0 0 0 
0 0 0 0 0 0 0 0 0 
0 0 0 0 0 0 0 0 0 
0 0 0 0 0 0 0 0 0 
0 0 0 0 0 0 0 0 0 
0 0 0 0 0 0 0 0 0 
0 0 0 0 0 0 0 0 0 
0 0 0 0 0 0 0 0 0 
0 0 0 0 0 0 0 0 0 
0 0 0 0 0 0 0 0 0 
0 0 0 0 0 0 0 0 0 
0 0 0 0 0 0 0 0 0 
0 0 0 0 0 0 0 0 0 
0 0 0 0 0 0 0 0 0 
0 0 0 0 0 0 0 0 0 
0 0 0 0 0 0 0 0 0 
0 0 0 0 0 0 0 0 0 
0 0 0 0 0 0 0 0 0 
0 0 0 0 0 0 0 0 0 
0 0 0 0 0 0 0 0 0 
0 0 0 0 0 0 0 0 0 
0 0 0 0 0 0 0 0 0 
0 0 0 0 0 0 0 0 0 
0 0 0 0 0 0 0 0 0 
0 0 0 0 0 0 0 0 0 
0 0 0 0 0 0 0 0 0 
0 0 0 0 0 0 0 0 0 
0 0 0 0 0 0 0 0 0 
0 0 0 0 0 0 0 0 0 
0 0 0 0 0 0 0 0 0 
0 0 0 0 0 0 0 0 0 
0 0 0 0 0 0 0 0 0 
0 0 0 0 0 0 0 0 0 
0 0 0 0 0 0 0 0 0 
0 0 0 0 0 0 0 0 0 
0 0 0 0 0 0 0 0 0 
0 0 0 0 0 0 0 0 0 
0 0 0 0 0 0 0 0 0 
0 0 0 0 0 0 0 0 0 
0 0 0 0 0 0 0 0 0 
0 0 0 0 0 0 0 0 0 
0 0 0 0 0 0 0 0 0 
0 0 0 0 0 0 0 0 0 
0 0 0 0 0 0 0 0 0 
0 0 0 0 0 0 0 0 0 
0 0 0 0 0 0 0 0 0 
0 0 0 0 0 0 0 0 0 
0 0 0 0 0 0 0 0 0 
0 0 0 0 0 0 0 0 0 
0 0 0 0 0 0 0 0 0 
0 0 0 0 0 0 0 0 0 
0 0 0 0 0 0 0 0 0 
0 0 0 0 0 0 0 0 0 
0 0 0 0 0 0 0 0 0 
0 0 0 0 0 0 0 0 0 
0 0 0 0 0 0 0 0 0 
0 0 0 0 0 0 0 0 0 
0 0 0 0 0 0 0 0 0 
0 0 0 0 0 0 0 0 0 
0 0 0 0 0 0 0 0 0 
0 0 0 0 0 0 0 0 0 
0 0 0 0 0 0 0 0 0 
0 0 0 0 0 0 0 0 0 
0 0 0 0 0 0 0 0 0 
0 0 0 0 0 0 0 0 0 
0 0 0 0 0 0 0 0 0 
0 0 0 0 0 0 0 0 0 
0 0 0 0 0 0 0 0 0 
0 0 0 0 0 0 0 0 0 
0 0 0 0 0 0 0 0 0 
0 0 0 0 0 0 0 0 0 
0 0 0 0 0 0 0 0 0 
0 0 0 0 0 0 0 0 0 
0 0 0 0 0 0 0 0 0 
0 0 0 0 0 0 0 0 0 
0 0 0 0 0 0 0 0 0 
0 0 0 0 0 0 0 0 0 
0 0 0 0 0 0 0 0 0 
0 0 0 0 0 0 0 0 0 
0 0 0 0 0 0 0 0 0 
0 0 0 0 0 0 0 0 0 
0 0 0 0 0 0 0 0 0 
0 0 0 0 0 0 0 0 0 
0 0 0 0 0 0 0 0 0 
0 0 0 0 0 0 0 0 0 
0 0 0 0 0 0 0 0 0 
0 0 0 0 0 0 0 0 0 
0 0 0 0 0 0 0 0 0 
0 0 0 0 0 0 0 0 0 
0 0 0 0 0 0 0 0 0 
0 0 0 0 0 0 0 0 0 
0 0 0 0 0 0 0 0 0 
0 0 0 0 0 0 0 0 0 
0 0 0 0 0 0 0 0 0 
0 0 0 0 0 0 0 0 0 
0 0 0 0 0 0 0 0 0 
0 0 0 0 0 0 0 0 0 
0 0 0 0 0 0 0 0 0 
0 0 0 0 0 0 0 0 0 
0 0 0 0 0 0 0 0 0 
0 0 0 0 0 0 0 0 0 
0 0 0 0 0 0 0 0 0 
0 0 0 0 0 0 0 0 0 
0 0 0 0 0 0 0 0 0 
0 0 0 0 0 0 0 0 0 
0 0 0 0 0 0 0 0 0 
0 0 0 0 0 0 0 0 0 
0 0 0 0 0 0 0 0 0 
0 0 0 0 0 0 0 0 0 
0 0 0 0 0 0 0 0 0 
0 0 0 0 0 0 0 0 0 
0 0 0 0 0 0 0 0 0 
0 0 0 0 0 0 0 0 0 
0 0 0 0 0 0 0 0 0 
0 0 0 0 0 0 0 0 0 
0 0 0 0 0 0 0 0 0 
0 0 0 0 0 0 0 0 0 
0 0 0 0 0 0 0 0 0 
0 0 0 0 0 0 0 0 0 
0 0 0 0 0 0 0 0 0 
0 0 0 0 0 0 0 0 0 
0 0 0 0 0 0 0 0 0 
0 0 0 0 0 0 0 0 0 
0 0 0 0 0 0 0 0 0 
0 0 0 0 0 0 0 0 0 
0 0 0 0 0 0 0 0 0 
0 0 0 0 0 0 0 0 0 
0 0 0 0 0 0 0 0 0 
0 0 0 0 0 0 0 0 0 
0 0 0 0 0 0 0 0 0 
0 0 0 0 0 0 0 0 0 
0 0 0 0 0 0 0 0 0 
0 0 0 0 0 0 0 0 0 
0 0 0 0 0 0 0 0 0 
0 0 0 0 0 0 0 0 0 
0 0 0 0 0 0 0 0 0 
0 0 0 0 0 0 0 0 0 
0 0 0 0 0 0 0 0 0 
0 0 0 0 0 0 0 0 0 
0 0 0 0 0 0 0 0 0 
0 0 0 0 0 0 0 0 0 
0 0 0 0 0 0 0 0 0 
0 0 0 0 0 0 0 0 0 
0 0 0 0 0 0 0 0 0 
0 0 0 0 0 0 0 0 0 
0 0 0 0 0 0 0 0 0 
0 0 0 0 0 0 0 0 0 
0 0 0 0 0 0 0 0 0 
0 0 0 0 0 0 0 0 0 
0 0 0 0 0 0 0 0 0 
0 0 0 0 0 0 0 0 0 
0 0 0 0 0 0 0 0 0 
0 0 0 0 0 0 0 0 0 
0 0 0 0 0 0 0 0 0 
0 0 0 0 0 0 0 0 0 
0 0 0 0 0 0 0 0 0 
0 0 0 0 0 0 0 0 0 
0 0 0 0 0 0 0 0 0 
0 0 0 0 0 0 0 0 0 
0 0 0 0 0 0 0 0 0 
0 0 0 0 0 0 0 0 0 
0 0 0 0 0 0 0 0 0 
0 0 0 0 0 0 0 0 0 
0 0 0 0 0 0 0 0 0 
0 0 0 0 0 0 0 0 0 
0 0 0 0 0 0 0 0 0 
0 0 0 0 0 0 0 0 0 
0 0 0 0 0 0 0 0 0 
0 0 0 0 0 0 0 0 0 
0 0 0 0 0 0 0 0 0 
0 0 0 0 0 0 0 0 0 
0 0 0 0 0 0 0 0 0 
0 0 0 0 0 0 0 0 0 
0 0 0 0 0 0 0 0 0 
0 0 0 0 0 0 0 0 0 
0 0 0 0 0 0 0 0 0 
0 0 0 0 0 0 0 0 0 
0 0 0 0 0 0 0 0 0 
0 0 0 0 0 0 0 0 0 
0 0 0 0 0 0 0 0 0 
0 0 0 0 0 0 0 0 0 
0 0 0 0 0 0 0 0 0 
0 0 0 0 0 0 0 0 0 
0 0 0 0 0 0 0 0 0 
0 0 0 0 0 0 0 0 0 
0 0 0 0 0 0 0 0 0 
0 0 0 0 0 0 0 0 0 
0 0 0 0 0 0 0 0 0 
0 0 0 0 0 0 0 0 0 
0 0 0 0 0 0 0 0 0 
0 0 0 0 0 0 0 0 0 
0 0 0 0 0 0 0 0 0 
0 0 0 0 0 0 0 0 0 
0 0 0 0 0 0 0 0 0 
0 0 0 0 0 0 0 0 0 
0 0 0 0 0 0 0 0 0 
0 0 0 0 0 0 0 0 0 
0 0 0 0 0 0 0 0 0 
0 0 0 0 0 0 0 0 0 
0 0 0 0 0 0 0 0 0 
0 0 0 0 0 0 0 0 0 
0 0 0 0 0 0 0 0 0 
0 0 0 0 0 0 0 0 0 
0 0 0 0 0 0 0 0 0 
0 0 0 0 0 0 0 0 0 
0 0 0 0 0 0 0 0 0 
0 0 0 0 0 0 0 0 0 
0 0 0 0 0 0 0 0 0 
0 0 0 0 0 0 0 0 0 
0 0 0 0 0 0 0 0 0 
0 0 0 0 0 0 0 0 0 
0 0 0 0 0 0 0 0 0 
0 0 0 0 0 0 0 0 0 
0 0 0 0 0 0 0 0 0 
0 0 0 0 0 0 0 0 0 
0 0 0 0 0 0 0 0 0 
0 0 0 0 0 0 0 0 0 
0 0 0 0 0 0 0 0 0 
0 0 0 0 0 0 0 0 0 
0 0 0 0 0 0 0 0 0 
0 0 0 0 0 0 0 0 0 
0 0 0 0 0 0 0 0 0 
0 0 0 0 0 0 0 0 0 
0 0 0 0 0 0 0 0 0 
0 0 0 0 0 0 0 0 0 
0 0 0 0 0 0 0 0 0 
0 0 0 0 0 0 0 0 0 
0 0 0 0 0 0 0 0 0 
0 0 0 0 0 0 0 0 0 
0 0 0 0 0 0 0 0 0 
0 0 0 0 0 0 0 0 0 
0 0 0 0 0 0 0 0 0 
0 0 0 0 0 0 0 0 0 
0 0 0 0 0 0 0 0 0 
0 0 0 0 0 0 0 0 0 
0 0 0 0 0 0 0 0 0 
0 0 0 0 0 0 0 0 0 
0 0 0 0 0 0 0 0 0 
0 0 0 0 0 0 0 0 0 
0 0 0 0 0 0 0 0 0 
0 0 0 0 0 0 0 0 0 
0 0 0 0 0 0 0 0 0 
0 0 0 0 0 0 0 0 0 
0 0 0 0 0 0 0 0 0 
0 0 0 0 0 0 0 0 0 
0 0 0 0 0 0 0 0 0 
0 0 0 0 0 0 0 0 0 
0 0 0 0 0 0 0 0 0 
0 0 0 0 0 0 0 0 0 
0 0 0 0 0 0 0 0 0 
0 0 0 0 0 0 0 0 0 
0 0 0 0 0 0 0 0 0 
0 0 0 0 0 0 0 0 0 
0 0 0 0 0 0 0 0 0 
0 0 0 0 0 0 0 0 0 
0 0 0 0 0 0 0 0 0 
0 0 0 0 0 0 0 0 0 
0 0 0 0 0 0 0 0 0 
0 0 0 0 0 0 0 0 0 
0 0 0 0 0 0 0 0 0 
0 0 0 0 0 0 0 0 0 
0 0 0 0 0 0 0 0 0 
0 0 0 0 0 0 0 0 0 
0 0 0 0 0 0 0 0 0 
0 0 0 0 0 0 0 0 0 
0 0 0 0 0 0 0 0 0 
0 0 0 0 0 0 0 0 0 
0 0 0 0 0 0 0 0 0 
0 0 0 0 0 0 0 0 0 
0 0 0 0 0 0 0 0 0 
0 0 0 0 0 0 0 0 0 
0 0 0 0 0 0 0 0 0 
0 0 0 0 0 0 0 0 0 
0 0 0 0 0 0 0 0 0 
0 0 0 0 0 0 0 0 0 
0 0 0 0 0 0 0 0 0 
0 0 0 0 0 0 0 0 0 
0 0 0 0 0 0 0 0 0 
0 0 0 0 0 0 0 0 0 
0 0 0 0 0 0 0 0 0 
0 0 0 0 0 0 0 0 0 
0 0 0 0 0 0 0 0 0 
0 0 0 0 0 0 0 0 0 
0 0 0 0 0 0 0 0 0 
0 0 0 0 0 0 0 0 0 
0 0 0 0 0 0 0 0 0 
0 0 0 0 0 0 0 0 0 
0 0 0 0 0 0 0 0 0 
0 0 0 0 0 0 0 0 0 
0 0 0 0 0 0 0 0 0 
0 0 0 0 0 0 0 0 0 
0 0 0 0 0 0 0 0 0 
0 0 0 0 0 0 0 0 0 
0 0 0 0 0 0 0 0 0 
0 0 0 0 0 0 0 0 0 
0 0 0 0 0 0 0 0 0 
0 0 0 0 0 0 0 0 0 
0 0 0 0 0 0 0 0 0 
0 0 0 0 0 0 0 0 0 
0 0 0 0 0 0 0 0 0 
0 0 0 0 0 0 0 0 0 
0 0 0 0 0 0 0 0 0 
0 0 0 0 0 0 0 0 0 
0 0 0 0 0 0 0 0 0 
0 0 0 0 0 0 0 0 0 
0 0 0 0 0 0 0 0 0 
0 0 0 0 0 0 0 0 0 
0 0 0 0 0 0 0 0 0 
0 0 0 0 0 0 0 0 0 
0 0 0 0 0 0 0 0 0 
0 0 0 0 0 0 0 0 0 
0 0 0 0 0 0 0 0 0 
0 0 0 0 0 0 0 0 0 
0 0 0 0 0 0 0 0 0 
0 0 0 0 0 0 0 0 0 
0 0 0 0 0 0 0 0 0 
0 0 0 0 0 0 0 0 0 
0 0 0 0 0 0 0 0 0 
0 0 0 0 0 0 0 0 0 
0 0 0 0 0 0 0 0 0 
0 0 0 0 0 0 0 0 0 
0 0 0 0 0 0 0 0 0 
0 0 0 0 0 0 0 0 0 
0 0 0 0 0 0 0 0 0 
0 0 0 0 0 0 0 0 0 
0 0 0 0 0 0 0 0 0 
0 0 0 0 0 0 0 0 0 
0 0 0 0 0 0 0 0 0 
0 0 0 0 0 0 0 0 0 
0 0 0 0 0 0 0 0 0 
0 0 0 0 0 0 0 0 0 
0 0 0 0 0 0 0 0 0 
0 0 0 0 0 0 0 0 0 
0 0 0 0 0 0 0 0 0 
0 0 0 0 0 0 0 0 0 
0 0 0 0 0 0 0 0 0 
0 0 0 0 0 0 0 0 0 
0 0 0 0 0 0 0 0 0 
0 0 0 0 0 0 0 0 0 
0 0 0 0 0 0 0 0 0 
0 0 0 0 0 0 0 0 0 
0 0 0 0 0 0 0 0 0 
0 0 0 0 0 0 0 0 0 
0 0 0 0 0 0 0 0 0 
0 0 0 0 0 0 0 0 0 
0 0 0 0 0 0 0 0 0 
0 0 0 0 0 0 0 0 0 
0 0 0 0 0 0 0 0 0 
0 0 0 0 0 0 0 0 0 
0 0 0 0 0 0 0 0 0 
0 0 0 0 0 0 0 0 0 
0 0 0 0 0 0 0 0 0 
0 0 0 0 0 0 0 0 0 
0 0 0 0 0 0 0 0 0 
0 0 0 0 0 0 0 0 0 
0 0 0 0 0 0 0 0 0 
0 0 0 0 0 0 0 0 0 
0 0 0 0 0 0 0 0 0 
0 0 0 0 0 0 0 0 0 
0 0 0 0 0 0 0 0 0 
0 0 0 0 0 0 0 0 0 
0 0 0 0 0 0 0 0 0 
0 0 0 0 0 0 0 0 0 
0 0 0 0 0 0 0 0 0 
0 0 0 0 0 0 0 0 0 
0 0 0 0 0 0 0 0 0 
0 0 0 0 0 0 0 0 0 
0 0 0 0 0 0 0 0 0 
0 0 0 0 0 0 0 0 0 
0 0 0 0 0 0 0 0 0 
0 0 0 0 0 0 0 0 0 
0 0 0 0 0 0 0 0 0 
0 0 0 0 0 0 0 0 0 
0 0 0 0 0 0 0 0 0 
0 0 0 0 0 0 0 0 0 
0 0 0 0 0 0 0 0 0 
0 0 0 0 0 0 0 0 0 
0 0 0 0 0 0 0 0 0 
0 0 0 0 0 0 0 0 0 
0 0 0 0 0 0 0 0 0 
0 0 0 0 0 0 0 0 0 
0 0 0 0 0 0 0 0 0 
0 0 0 0 0 0 0 0 0 
0 0 0 0 0 0 0 0 0 
0 0 0 0 0 0 0 0 0 
0 0 0 0 0 0 0 0 0 
0 0 0 0 0 0 0 0 0 
0 0 0 0 0 0 0 0 0 
0 0 0 0 0 0 0 0 0 
0 0 0 0 0 0 0 0 0 
0 0 0 0 0 0 0 0 0 
0 0 0 0 0 0 0 0 0 
0 0 0 0 0 0 0 0 0 
0 0 0 0 0 0 0 0 0 
0 0 0 0 0 0 0 0 0 
0 0 0 0 0 0 0 0 0 
0 0 0 0 0 0 0 0 0 
0 0 0 0 0 0 0 0 0 
0 0 0 0 0 0 0 0 0 
0 0 0 0 0 0 0 0 0 
0 0 0 0 0 0 0 0 0 
0 0 0 0 0 0 0 0 0 
0 0 0 0 0 0 0 0 0 
0 0 0 0 0 0 0 0 0 
0 0 0 0 0 0 0 0 0 
0 0 0 0 0 0 0 0 0 
0 0 0 0 0 0 0 0 0 
0 0 0 0 0 0 0 0 0 
0 0 0 0 0 0 0 0 0 
0 0 0 0 0 0 0 0 0 
0 0 0 0 0 0 0 0 0 
0 0 0 0 0 0 0 0 0 
0 0 0 0 0 0 0 0 0 
0 0 0 0 0 0 0 0 0 
0 0 0 0 0 0 0 0 0 
0 0 0 0 0 0 0 0 0 
0 0 0 0 0 0 0 0 0 
0 0 0 0 0 0 0 0 0 
0 0 0 0 0 0 0 0 0 
0 0 0 0 0 0 0 0 0 
0 0 0 0 0 0 0 0 0 
0 0 0 0 0 0 0 0 0 
0 0 0 0 0 0 0 0 0 
0 0 0 0 0 0 0 0 0 
0 0 0 0 0 0 0 0 0 
0 0 0 0 0 0 0 0 0 
0 0 0 0 0 0 0 0 0 
0 0 0 0 0 0 0 0 0 
0 0 0 0 0 0 0 0 0 
0 0 0 0 0 0 0 0 0 
0 0 0 0 0 0 0 0 0 
0 0 0 0 0 0 0 0 0 
0 0 0 0 0 0 0 0 0 
0 0 0 0 0 0 0 0 0 
0 0 0 0 0 0 0 0 0 
0 0 0 0 0 0 0 0 0 
0 0 0 0 0 0 0 0 0 
0 0 0 0 0 0 0 0 0 
0 0 0 0 0 0 0 0 0 
0 0 0 0 0 0 0 0 0 
0 0 0 0 0 0 0 0 0 
0 0 0 0 0 0 0 0 0 
0 0 0 0 0 0 0 0 0 
0 0 0 0 0 0 0 0 0 
0 0 0 0 0 0 0 0 0 
0 0 0 0 0 0 0 0 0 
0 0 0 0 0 0 0 0 0 
0 0 0 0 0 0 0 0 0 
0 0 0 0 0 0 0 0 0 
0 0 0 0 0 0 0 0 0 
0 0 0 0 0 0 0 0 0 
0 0 0 0 0 0 0 0 0 
0 0 0 0 0 0 0 0 0 
0 0 0 0 0 0 0 0 0 
0 0 0 0 0 0 0 0 0 
0 0 0 0 0 0 0 0 0 
0 0 0 0 0 0 0 0 0 
0 0 0 0 0 0 0 0 0 
0 0 0 0 0 0 0 0 0 
0 0 0 0 0 0 0 0 0 
0 0 0 0 0 0 0 0 0 
0 0 0 0 0 0 0 0 0 
0 0 0 0 0 0 0 0 0 
0 0 0 0 0 0 0 0 0 
0 0 0 0 0 0 0 0 0 
0 0 0 0 0 0 0 0 0 
0 0 0 0 0 0 0 0 0 
0 0 0 0 0 0 0 0 0 
0 0 0 0 0 0 0 0 0 
0 0 0 0 0 0 0 0 0 
0 0 0 0 0 0 0 0 0 
0 0 0 0 0 0 0 0 0 
0 0 0 0 0 0 0 0 0 
0 0 0 0 0 0 0 0 0 
0 0 0 0 0 0 0 0 0 
0 0 0 0 0 0 0 0 0 
0 0 0 0 0 0 0 0 0 
0 0 0 0 0 0 0 0 0 
0 0 0 0 0 0 0 0 0 
0 0 0 0 0 0 0 0 0 
0 0 0 0 0 0 0 0 0 
0 0 0 0 0 0 0 0 0 
0 0 0 0 0 0 0 0 0 
0 0 0 0 0 0 0 0 0 
0 0 0 0 0 0 0 0 0 
0 0 0 0 0 0 0 0 0 
0 0 0 0 0 0 0 0 0 
0 0 0 0 0 0 0 0 0 
0 0 0 0 0 0 0 0 0 
0 0 0 0 0 0 0 0 0 
0 0 0 0 0 0 0 0 0 
0 0 0 0 0 0 0 0 0 
0 0 0 0 0 0 0 0 0 
0 0 0 0 0 0 0 0 0 
0 0 0 0 0 0 0 0 0 
0 0 0 0 0 0 0 0 0 
0 0 0 0 0 0 0 0 0 
0 0 0 0 0 0 0 0 0 
0 0 0 0 0 0 0 0 0 
0 0 0 0 0 0 0 0 0 
0 0 0 0 0 0 0 0 0 
0 0 0 0 0 0 0 0 0 
0 0 0 0 0 0 0 0 0 
0 0 0 0 0 0 0 0 0 
0 0 0 0 0 0 0 0 0 
0 0 0 0 0 0 0 0 0 
0 0 0 0 0 0 0 0 0 
0 0 0 0 0 0 0 0 0 
0 0 0 0 0 0 0 0 0 
0 0 0 0 0 0 0 0 0 
0 0 0 0 0 0 0 0 0 
0 0 0 0 0 0 0 0 0 
0 0 0 0 0 0 0 0 0 
0 0 0 0 0 0 0 0 0 
0 0 0 0 0 0 0 0 0 
0 0 0 0 0 0 0 0 0 
0 0 0 0 0 0 0 0 0 
0 0 0 0 0 0 0 0 0 
0 0 0 0 0 0 0 0 0 
0 0 0 0 0 0 0 0 0 
0 0 0 0 0 0 0 0 0 
0 0 0 0 0 0 0 0 0 
0 0 0 0 0 0 0 0 0 
0 0 0 0 0 0 0 0 0 
0 0 0 0 0 0 0 0 0 
0 0 0 0 0 0 0 0 0 
0 0 0 0 0 0 0 0 0 
0 0 0 0 0 0 0 0 0 
0 0 0 0 0 0 0 0 0 
0 0 0 0 0 0 0 0 0 
0 0 0 0 0 0 0 0 0 
0 0 0 0 0 0 0 0 0 
0 0 0 0 0 0 0 0 0 
0 0 0 0 0 0 0 0 0 
0 0 0 0 0 0 0 0 0 
0 0 0 0 0 0 0 0 0 
0 0 0 0 0 0 0 0 0 
0 0 0 0 0 0 0 0 0 
0 0 0 0 0 0 0 0 0 
0 0 0 0 0 0 0 0 0 
0 0 0 0 0 0 0 0 0 
0 0 0 0 0 0 0 0 0 
0 0 0 0 0 0 0 0 0 
0 0 0 0 0 0 0 0 0 
0 0 0 0 0 0 0 0 0 
0 0 0 0 0 0 0 0 0 
0 0 0 0 0 0 0 0 0 
0 0 0 0 0 0 0 0 0 
0 0 0 0 0 0 0 0 0 
0 0 0 0 0 0 0 0 0 
0 0 0 0 0 0 0 0 0 
0 0 0 0 0 0 0 0 0 
0 0 0 0 0 0 0 0 0 
0 0 0 0 0 0 0 0 0 
0 0 0 0 0 0 0 0 0 
0 0 0 0 0 0 0 0 0 
0 0 0 0 0 0 0 0 0 
0 0 0 0 0 0 0 0 0 
0 0 0 0 0 0 0 0 0 
0 0 0 0 0 0 0 0 0 
0 0 0 0 0 0 0 0 0 
0 0 0 0 0 0 0 0 0 
0 0 0 0 0 0 0 0 0 
0 0 0 0 0 0 0 0 0 
0 0 0 0 0 0 0 0 0 
0 0 0 0 0 0 0 0 0 
0 0 0 0 0 0 0 0 0 
0 0 0 0 0 0 0 0 0 
0 0 0 0 0 0 0 0 0 
0 0 0 0 0 0 0 0 0 
0 0 0 0 0 0 0 0 0 
0 0 0 0 0 0 0 0 0 
0 0 0 0 0 0 0 0 0 
0 0 0 0 0 0 0 0 0 
0 0 0 0 0 0 0 0 0 
0 0 0 0 0 0 0 0 0 
0 0 0 0 0 0 0 0 0 
0 0 0 0 0 0 0 0 0 
0 0 0 0 0 0 0 0 0 
0 0 0 0 0 0 0 0 0 
0 0 0 0 0 0 0 0 0 
0 0 0 0 0 0 0 0 0 
0 0 0 0 0 0 0 0 0 
0 0 0 0 0 0 0 0 0 
0 0 0 0 0 0 0 0 0 
0 0 0 0 0 0 0 0 0 
0 0 0 0 0 0 0 0 0 
0 0 0 0 0 0 0 0 0 
0 0 0 0 0 0 0 0 0 
0 0 0 0 0 0 0 0 0 
0 0 0 0 0 0 0 0 0 
0 0 0 0 0 0 0 0 0 
0 0 0 0 0 0 0 0 0 
0 0 0 0 0 0 0 0 0 
0 0 0 0 0 0 0 0 0 
0 0 0 0 0 0 0 0 0 
0 0 0 0 0 0 0 0 0 
0 0 0 0 0 0 0 0 0 
0 0 0 0 0 0 0 0 0 
0 0 0 0 0 0 0 0 0 
0 0 0 0 0 0 0 0 0 
0 0 0 0 0 0 0 0 0 
0 0 0 0 0 0 0 0 0 
0 0 0 0 0 0 0 0 0 
0 0 0 0 0 0 0 0 0 
0 0 0 0 0 0 0 0 0 
0 0 0 0 0 0 0 0 0 
0 0 0 0 0 0 0 0 0 
0 0 0 0 0 0 0 0 0 
0 0 0 0 0 0 0 0 0 
0 0 0 0 0 0 0 0 0 
0 0 0 0 0 0 0 0 0 
0 0 0 0 0 0 0 0 0 
0 0 0 0 0 0 0 0 0 
0 0 0 0 0 0 0 0 0 
0 0 0 0 0 0 0 0 0 
0 0 0 0 0 0 0 0 0 
0 0 0 0 0 0 0 0 0 
0 0 0 0 0 0 0 0 0 
0 0 0 0 0 0 0 0 0 
0 0 0 0 0 0 0 0 0 
0 0 0 0 0 0 0 0 0 
0 0 0 0 0 0 0 0 0 
0 0 0 0 0 0 0 0 0 
0 0 0 0 0 0 0 0 0 
0 0 0 0 0 0 0 0 0 
0 0 0 0 0 0 0 0 0 
0 0 0 0 0 0 0 0 0 
0 0 0 0 0 0 0 0 0 
0 0 0 0 0 0 0 0 0 
0 0 0 0 0 0 0 0 0 
0 0 0 0 0 0 0 0 0 
0 0 0 0 0 0 0 0 0 
0 0 0 0 0 0 0 0 0 
0 0 0 0 0 0 0 0 0 
0 0 0 0 0 0 0 0 0 
0 0 0 0 0 0 0 0 0 
0 0 0 0 0 0 0 0 0 
0 0 0 0 0 0 0 0 0 
0 0 0 0 0 0 0 0 0 
0 0 0 0 0 0 0 0 0 
0 0 0 0 0 0 0 0 0 
0 0 0 0 0 0 0 0 0 
0 0 0 0 0 0 0 0 0 
0 0 0 0 0 0 0 0 0 
0 0 0 0 0 0 0 0 0 
0 0 0 0 0 0 0 0 0 
0 0 0 0 0 0 0 0 0 
0 0 0 0 0 0 0 0 0 
0 0 0 0 0 0 0 0 0 
0 0 0 0 0 0 0 0 0 
0 0 0 0 0 0 0 0 0 
0 0 0 0 0 0 0 0 0 
0 0 0 0 0 0 0 0 0 
0 0 0 0 0 0 0 0 0 
0 0 0 0 0 0 0 0 0 
0 0 0 0 0 0 0 0 0 
0 0 0 0 0 0 0 0 0 
0 0 0 0 0 0 0 0 0 
0 0 0 0 0 0 0 0 0 
0 0 0 0 0 0 0 0 0 
0 0 0 0 0 0 0 0 0 
0 0 0 0 0 0 0 0 0 
0 0 0 0 0 0 0 0 0 
0 0 0 0 0 0 0 0 0 
0 0 0 0 0 0 0 0 0 
0 0 0 0 0 0 0 0 0 
0 0 0 0 0 0 0 0 0 
0 0 0 0 0 0 0 0 0 
0 0 0 0 0 0 0 0 0 
0 0 0 0 0 0 0 0 0 
0 0 0 0 0 0 0 0 0 
0 0 0 0 0 0 0 0 0 
0 0 0 0 0 0 0 0 0 
0 0 0 0 0 0 0 0 0 
0 0 0 0 0 0 0 0 0 
0 0 0 0 0 0 0 0 0 
0 0 0 0 0 0 0 0 0 
0 0 0 0 0 0 0 0 0 
0 0 0 0 0 0 0 0 0 
0 0 0 0 0 0 0 0 0 
0 0 0 0 0 0 0 0 0 
0 0 0 0 0 0 0 0 0 
0 0 0 0 0 0 0 0 0 
0 0 0 0 0 0 0 0 0 
0 0 0 0 0 0 0 0 0 
0 0 0 0 0 0 0 0 0 
0 0 0 0 0 0 0 0 0 
0 0 0 0 0 0 0 0 0 
0 0 0 0 0 0 0 0 0 
0 0 0 0 0 0 0 0 0 
0 0 0 0 0 0 0 0 0 
0 0 0 0 0 0 0 0 0 
0 0 0 0 0 0 0 0 0 
0 0 0 0 0 0 0 0 0 
0 0 0 0 0 0 0 0 0 
0 0 0 0 0 0 0 0 0 
0 0 0 0 0 0 0 0 0 
0 0 0 0 0 0 0 0 0 
0 0 0 0 0 0 0 0 0 
0 0 0 0 0 0 0 0 0 
0 0 0 0 0 0 0 0 0 
0 0 0 0 0 0 0 0 0 
0 0 0 0 0 0 0 0 0 
0 0 0 0 0 0 0 0 0 
0 0 0 0 0 0 0 0 0 
0 0 0 0 0 0 0 0 0 
0 0 0 0 0 0 0 0 0 
0 0 0 0 0 0 0 0 0 
0 0 0 0 0 0 0 0 0 
0 0 0 0 0 0 0 0 0 
0 0 0 0 0 0 0 0 0 
0 0 0 0 0 0 0 0 0 
0 0 0 0 0 0 0 0 0 
0 0 0 0 0 0 0 0 0 
0 0 0 0 0 0 0 0 0 
0 0 0 0 0 0 0 0 0 
0 0 0 0 0 0 0 0 0 
0 0 0 0 0 0 0 0 0 
0 0 0 0 0 0 0 0 0 
0 0 0 0 0 0 0 0 0 
0 0 0 0 0 0 0 0 0 
0 0 0 0 0 0 0 0 0 
0 0 0 0 0 0 0 0 0 
0 0 0 0 0 0 0 0 0 
0 0 0 0 0 0 0 0 0 
0 0 0 0 0 0 0 0 0 
0 0 0 0 0 0 0 0 0 
0 0 0 0 0 0 0 0 0 
0 0 0 0 0 0 0 0 0 
0 0 0 0 0 0 0 0 0 
0 0 0 0 0 0 0 0 0 
0 0 0 0 0 0 0 0 0 
0 0 0 0 0 0 0 0 0 
0 0 0 0 0 0 0 0 0 
0 0 0 0 0 0 0 0 0 
0 0 0 0 0 0 0 0 0 
0 0 0 0 0 0 0 0 0 
0 0 0 0 0 0 0 0 0 
0 0 0 0 0 0 0 0 0 
0 0 0 0 0 0 0 0 0 
0 0 0 0 0 0 0 0 0 
0 0 0 0 0 0 0 0 0 
0 0 0 0 0 0 0 0 0 
0 0 0 0 0 0 0 0 0 
0 0 0 0 0 0 0 0 0 
0 0 0 0 0 0 0 0 0 
0 0 0 0 0 0 0 0 0 
0 0 0 0 0 0 0 0 0 
0 0 0 0 0 0 0 0 0 
0 0 0 0 0 0 0 0 0 
0 0 0 0 0 0 0 0 0 
0 0 0 0 0 0 0 0 0 
0 0 0 0 0 0 0 0 0 
0 0 0 0 0 0 0 0 0 
0 0 0 0 0 0 0 0 0 
0 0 0 0 0 0 0 0 0 
0 0 0 0 0 0 0 0 0 
0 0 0 0 0 0 0 0 0 
0 0 0 0 0 0 0 0 0 
0 0 0 0 0 0 0 0 0 
0 0 0 0 0 0 0 0 0 
0 0 0 0 0 0 0 0 0 
0 0 0 0 0 0 0 0 0 
0 0 0 0 0 0 0 0 0 
0 0 0 0 0 0 0 0 0 
0 0 0 0 0 0 0 0 0 
0 0 0 0 0 0 0 0 0 
0 0 0 0 0 0 0 0 0 
0 0 0 0 0 0 0 0 0 
0 0 0 0 0 0 0 0 0 
0 0 0 0 0 0 0 0 0 
0 0 0 0 0 0 0 0 0 
0 0 0 0 0 0 0 0 0 
0 0 0 0 0 0 0 0 0 
0 0 0 0 0 0 0 0 0 
0 0 0 0 0 0 0 0 0 
0 0 0 0 0 0 0 0 0 
0 0 0 0 0 0 0 0 0 
0 0 0 0 0 0 0 0 0 
0 0 0 0 0 0 0 0 0 
0 0 0 0 0 0 0 0 0 
0 0 0 0 0 0 0 0 0 
0 0 0 0 0 0 0 0 0 
0 0 0 0 0 0 0 0 0 
0 0 0 0 0 0 0 0 0 
0 0 0 0 0 0 0 0 0 
0 0 0 0 0 0 0 0 0 
0 0 0 0 0 0 0 0 0 
0 0 0 0 0 0 0 0 0 
0 0 0 0 0 0 0 0 0 
0 0 0 0 0 0 0 0 0 
0 0 0 0 0 0 0 0 0 
0 0 0 0 0 0 0 0 0 
0 0 0 0 0 0 0 0 0 
0 0 0 0 0 0 0 0 0 
0 0 0 0 0 0 0 0 0 
0 0 0 0 0 0 0 0 0 
0 0 0 0 0 0 0 0 0 
0 0 0 0 0 0 0 0 0 
0 0 0 0 0 0 0 0 0 
0 0 0 0 0 0 0 0 0 
0 0 0 0 0 0 0 0 0 
0 0 0 0 0 0 0 0 0 
0 0 0 0 0 0 0 0 0 
0 0 0 0 0 0 0 0 0 
0 0 0 0 0 0 0 0 0 
0 0 0 0 0 0 0 0 0 
0 0 0 0 0 0 0 0 0 
0 0 0 0 0 0 0 0 0 
0 0 0 0 0 0 0 0 0 
0 0 0 0 0 0 0 0 0 
0 0 0 0 0 0 0 0 0 
0 0 0 0 0 0 0 0 0 
0 0 0 0 0 0 0 0 0 
0 0 0 0 0 0 0 0 0 
0 0 0 0 0 0 0 0 0 
0 0 0 0 0 0 0 0 0 
0 0 0 0 0 0 0 0 0 
0 0 0 0 0 0 0 0 0 
0 0 0 0 0 0 0 0 0 
0 0 0 0 0 0 0 0 0 
0 0 0 0 0 0 0 0 0 
0 0 0 0 0 0 0 0 0 
0 0 0 0 0 0 0 0 0 
0 0 0 0 0 0 0 0 0 
0 0 0 0 0 0 0 0 0 
0 0 0 0 0 0 0 0 0 
0 0 0 0 0 0 0 0 0 
0 0 0 0 0 0 0 0 0 
0 0 0 0 0 0 0 0 0 
0 0 0 0 0 0 0 0 0 
0 0 0 0 0 0 0 0 0 
0 0 0 0 0 0 0 0 0 
0 0 0 0 0 0 0 0 0 
0 0 0 0 0 0 0 0 0 
0 0 0 0 0 0 0 0 0 
0 0 0 0 0 0 0 0 0 
0 0 0 0 0 0 0 0 0 
0 0 0 0 0 0 0 0 0 
0 0 0 0 0 0 0 0 0 
0 0 0 0 0 0 0 0 0 
0 0 0 0 0 0 0 0 0 
0 0 0 0 0 0 0 0 0 
0 0 0 0 0 0 0 0 0 
0 0 0 0 0 0 0 0 0 
0 0 0 0 0 0 0 0 0 
0 0 0 0 0 0 0 0 0 
0 0 0 0 0 0 0 0 0 
0 0 0 0 0 0 0 0 0 
0 0 0 0 0 0 0 0 0 
0 0 0 0 0 0 0 0 0 
0 0 0 0 0 0 0 0 0 
0 0 0 0 0 0 0 0 0 
0 0 0 0 0 0 0 0 0 
0 0 0 0 0 0 0 0 0 
0 0 0 0 0 0 0 0 0 
0 0 0 0 0 0 0 0 0 
0 0 0 0 0 0 0 0 0 
0 0 0 0 0 0 0 0 0 
0 0 0 0 0 0 0 0 0 
0 0 0 0 0 0 0 0 0 
0 0 0 0 0 0 0 0 0 
0 0 0 0 0 0 0 0 0 
0 0 0 0 0 0 0 0 0 
0 0 0 0 0 0 0 0 0 
0 0 0 0 0 0 0 0 0 
0 0 0 0 0 0 0 0 0 
0 0 0 0 0 0 0 0 0 
0 0 0 0 0 0 0 0 0 
0 0 0 0 0 0 0 0 0 
0 0 0 0 0 0 0 0 0 
0 0 0 0 0 0 0 0 0 
0 0 0 0 0 0 0 0 0 
0 0 0 0 0 0 0 0 0 
0 0 0 0 0 0 0 0 0 
0 0 0 0 0 0 0 0 0 
0 0 0 0 0 0 0 0 0 
0 0 0 0 0 0 0 0 0 
0 0 0 0 0 0 0 0 0 
0 0 0 0 0 0 0 0 0 
0 0 0 0 0 0 0 0 0 
0 0 0 0 0 0 0 0 0 
0 0 0 0 0 0 0 0 0 
0 0 0 0 0 0 0 0 0 
0 0 0 0 0 0 0 0 0 
0 0 0 0 0 0 0 0 0 
0 0 0 0 0 0 0 0 0 
0 0 0 0 0 0 0 0 0 
0 0 0 0 0 0 0 0 0 
0 0 0 0 0 0 0 0 0 
0 0 0 0 0 0 0 0 0 
0 0 0 0 0 0 0 0 0 
0 0 0 0 0 0 0 0 0 
0 0 0 0 0 0 0 0 0 
0 0 0 0 0 0 0 0 0 
0 0 0 0 0 0 0 0 0 
0 0 0 0 0 0 0 0 0 
0 0 0 0 0 0 0 0 0 
0 0 0 0 0 0 0 0 0 
0 0 0 0 0 0 0 0 0 
0 0 0 0 0 0 0 0 0 
0 0 0 0 0 0 0 0 0 
0 0 0 0 0 0 0 0 0 
0 0 0 0 0 0 0 0 0 
0 0 0 0 0 0 0 0 0 
0 0 0 0 0 0 0 0 0 
0 0 0 0 0 0 0 0 0 
0 0 0 0 0 0 0 0 0 
0 0 0 0 0 0 0 0 0 
0 0 0 0 0 0 0 0 0 
0 0 0 0 0 0 0 0 0 
0 0 0 0 0 0 0 0 0 
0 0 0 0 0 0 0 0 0 
0 0 0 0 0 0 0 0 0 
0 0 0 0 0 0 0 0 0 
0 0 0 0 0 0 0 0 0 
0 0 0 0 0 0 0 0 0 
0 0 0 0 0 0 0 0 0 
0 0 0 0 0 0 0 0 0 
0 0 0 0 0 0 0 0 0 
0 0 0 0 0 0 0 0 0 
0 0 0 0 0 0 0 0 0 
0 0 0 0 0 0 0 0 0 
0 0 0 0 0 0 0 0 0 
0 0 0 0 0 0 0 0 0 
0 0 0 0 0 0 0 0 0 
0 0 0 0 0 0 0 0 0 
0 0 0 0 0 0 0 0 0 
0 0 0 0 0 0 0 0 0 
0 0 0 0 0 0 0 0 0 
0 0 0 0 0 0 0 0 0 
0 0 0 0 0 0 0 0 0 
0 0 0 0 0 0 0 0 0 
0 0 0 0 0 0 0 0 0 
0 0 0 0 0 0 0 0 0 
0 0 0 0 0 0 0 0 0 
0 0 0 0 0 0 0 0 0 
0 0 0 0 0 0 0 0 0 
0 0 0 0 0 0 0 0 0 
0 0 0 0 0 0 0 0 0 
0 0 0 0 0 0 0 0 0 
0 0 0 0 0 0 0 0 0 
0 0 0 0 0 0 0 0 0 
0 0 0 0 0 0 0 0 0 
0 0 0 0 0 0 0 0 0 
0 0 0 0 0 0 0 0 0 
0 0 0 0 0 0 0 0 0 
0 0 0 0 0 0 0 0 0 
0 0 0 0 0 0 0 0 0 
0 0 0 0 0 0 0 0 0 
0 0 0 0 0 0 0 0 0 
0 0 0 0 0 0 0 0 0 
0 0 0 0 0 0 0 0 0 
0 0 0 0 0 0 0 0 0 
0 0 0 0 0 0 0 0 0 
0 0 0 0 0 0 0 0 0 
0 0 0 0 0 0 0 0 0 
0 0 0 0 0 0 0 0 0 
0 0 0 0 0 0 0 0 0 
0 0 0 0 0 0 0 0 0 
0 0 0 0 0 0 0 0 0 
0 0 0 0 0 0 0 0 0 
0 0 0 0 0 0 0 0 0 
0 0 0 0 0 0 0 0 0 
0 0 0 0 0 0 0 0 0 
0 0 0 0 0 0 0 0 0 
0 0 0 0 0 0 0 0 0 
0 0 0 0 0 0 0 0 0 
0 0 0 0 0 0 0 0 0 
0 0 0 0 0 0 0 0 0 
0 0 0 0 0 0 0 0 0 
0 0 0 0 0 0 0 0 0 
0 0 0 0 0 0 0 0 0 
0 0 0 0 0 0 0 0 0 
0 0 0 0 0 0 0 0 0 
0 0 0 0 0 0 0 0 0 
0 0 0 0 0 0 0 0 0 
0 0 0 0 0 0 0 0 0 
0 0 0 0 0 0 0 0 0 
0 0 0 0 0 0 0 0 0 
0 0 0 0 0 0 0 0 0 
0 0 0 0 0 0 0 0 0 
0 0 0 0 0 0 0 0 0 
0 0 0 0 0 0 0 0 0 
0 0 0 0 0 0 0 0 0 
0 0 0 0 0 0 0 0 0 
0 0 0 0 0 0 0 0 0 
0 0 0 0 0 0 0 0 0 
0 0 0 0 0 0 0 0 0 
0 0 0 0 0 0 0 0 0 
0 0 0 0 0 0 0 0 0 
0 0 0 0 0 0 0 0 0 
0 0 0 0 0 0 0 0 0 
0 0 0 0 0 0 0 0 0 
0 0 0 0 0 0 0 0 0 
0 0 0 0 0 0 0 0 0 
0 0 0 0 0 0 0 0 0 
0 0 0 0 0 0 0 0 0 
0 0 0 0 0 0 0 0 0 
0 0 0 0 0 0 0 0 0 
0 0 0 0 0 0 0 0 0 
0 0 0 0 0 0 0 0 0 
0 0 0 0 0 0 0 0 0 
0 0 0 0 0 0 0 0 0 
0 0 0 0 0 0 0 0 0 
0 0 0 0 0 0 0 0 0 
0 0 0 0 0 0 0 0 0 
0 0 0 0 0 0 0 0 0 
0 0 0 0 0 0 0 0 0 
0 0 0 0 0 0 0 0 0 
0 0 0 0 0 0 0 0 0 
0 0 0 0 0 0 0 0 0 
0 0 0 0 0 0 0 0 0 
0 0 0 0 0 0 0 0 0 
0 0 0 0 0 0 0 0 0 
0 0 0 0 0 0 0 0 0 
0 0 0 0 0 0 0 0 0 
0 0 0 0 0 0 0 0 0 
0 0 0 0 0 0 0 0 0 
0 0 0 0 0 0 0 0 0 
0 0 0 0 0 0 0 0 0 
0 0 0 0 0 0 0 0 0 
0 0 0 0 0 0 0 0 0 
0 0 0 0 0 0 0 0 0 
0 0 0 0 0 0 0 0 0 
0 0 0 0 0 0 0 0 0 
0 0 0 0 0 0 0 0 0 
0 0 0 0 0 0 0 0 0 
0 0 0 0 0 0 0 0 0 
0 0 0 0 0 0 0 0 0 
0 0 0 0 0 0 0 0 0 
0 0 0 0 0 0 0 0 0 
0 0 0 0 0 0 0 0 0 
0 0 0 0 0 0 0 0 0 
0 0 0 0 0 0 0 0 0 
0 0 0 0 0 0 0 0 0 
0 0 0 0 0 0 0 0 0 
0 0 0 0 0 0 0 0 0 
0 0 0 0 0 0 0 0 0 
0 0 0 0 0 0 0 0 0 
0 0 0 0 0 0 0 0 0 
0 0 0 0 0 0 0 0 0 
0 0 0 0 0 0 0 0 0 
0 0 0 0 0 0 0 0 0 
0 0 0 0 0 0 0 0 0 
0 0 0 0 0 0 0 0 0 
0 0 0 0 0 0 0 0 0 
0 0 0 0 0 0 0 0 0 
0 0 0 0 0 0 0 0 0 
0 0 0 0 0 0 0 0 0 
0 0 0 0 0 0 0 0 0 
0 0 0 0 0 0 0 0 0 
0 0 0 0 0 0 0 0 0 
0 0 0 0 0 0 0 0 0 
0 0 0 0 0 0 0 0 0 
0 0 0 0 0 0 0 0 0 
0 0 0 0 0 0 0 0 0 
0 0 0 0 0 0 0 0 0 
0 0 0 0 0 0 0 0 0 
0 0 0 0 0 0 0 0 0 
0 0 0 0 0 0 0 0 0 
0 0 0 0 0 0 0 0 0 
0 0 0 0 0 0 0 0 0 
0 0 0 0 0 0 0 0 0 
0 0 0 0 0 0 0 0 0 
0 0 0 0 0 0 0 0 0 
0 0 0 0 0 0 0 0 0 
0 0 0 0 0 0 0 0 0 
0 0 0 0 0 0 0 0 0 
0 0 0 0 0 0 0 0 0 
0 0 0 0 0 0 0 0 0 
0 0 0 0 0 0 0 0 0 
0 0 0 0 0 0 0 0 0 
0 0 0 0 0 0 0 0 0 
0 0 0 0 0 0 0 0 0 
0 0 0 0 0 0 0 0 0 
0 0 0 0 0 0 0 0 0 
0 0 0 0 0 0 0 0 0 
0 0 0 0 0 0 0 0 0 
0 0 0 0 0 0 0 0 0 
0 0 0 0 0 0 0 0 0 
0 0 0 0 0 0 0 0 0 
0 0 0 0 0 0 0 0 0 
0 0 0 0 0 0 0 0 0 
0 0 0 0 0 0 0 0 0 
0 0 0 0 0 0 0 0 0 
0 0 0 0 0 0 0 0 0 
0 0 0 0 0 0 0 0 0 
0 0 0 0 0 0 0 0 0 
0 0 0 0 0 0 0 0 0 
0 0 0 0 0 0 0 0 0 
0 0 0 0 0 0 0 0 0 
0 0 0 0 0 0 0 0 0 
0 0 0 0 0 0 0 0 0 
0 0 0 0 0 0 0 0 0 
0 0 0 0 0 0 0 0 0 
0 0 0 0 0 0 0 0 0 
0 0 0 0 0 0 0 0 0 
0 0 0 0 0 0 0 0 0 
0 0 0 0 0 0 0 0 0 
0 0 0 0 0 0 0 0 0 
0 0 0 0 0 0 0 0 0 
0 0 0 0 0 0 0 0 0 
0 0 0 0 0 0 0 0 0 
0 0 0 0 0 0 0 0 0 
0 0 0 0 0 0 0 0 0 
0 0 0 0 0 0 0 0 0 
0 0 0 0 0 0 0 0 0 
0 0 0 0 0 0 0 0 0 
0 0 0 0 0 0 0 0 0 
0 0 0 0 0 0 0 0 0 
0 0 0 0 0 0 0 0 0 
0 0 0 0 0 0 0 0 0 
0 0 0 0 0 0 0 0 0 
0 0 0 0 0 0 0 0 0 
0 0 0 0 0 0 0 0 0 
0 0 0 0 0 0 0 0 0 
0 0 0 0 0 0 0 0 0 
0 0 0 0 0 0 0 0 0 
0 0 0 0 0 0 0 0 0 
0 0 0 0 0 0 0 0 0 
0 0 0 0 0 0 0 0 0 
0 0 0 0 0 0 0 0 0 
0 0 0 0 0 0 0 0 0 
0 0 0 0 0 0 0 0 0 
0 0 0 0 0 0 0 0 0 
0 0 0 0 0 0 0 0 0 
0 0 0 0 0 0 0 0 0 
0 0 0 0 0 0 0 0 0 
0 0 0 0 0 0 0 0 0 
0 0 0 0 0 0 0 0 0 
0 0 0 0 0 0 0 0 0 
0 0 0 0 0 0 0 0 0 
0 0 0 0 0 0 0 0 0 
0 0 0 0 0 0 0 0 0 
0 0 0 0 0 0 0 0 0 
0 0 0 0 0 0 0 0 0 
0 0 0 0 0 0 0 0 0 
0 0 0 0 0 0 0 0 0 
0 0 0 0 0 0 0 0 0 
0 0 0 0 0 0 0 0 0 
0 0 0 0 0 0 0 0 0 
0 0 0 0 0 0 0 0 0 
0 0 0 0 0 0 0 0 0 
0 0 0 0 0 0 0 0 0 
0 0 0 0 0 0 0 0 0 
0 0 0 0 0 0 0 0 0 
0 0 0 0 0 0 0 0 0 
0 0 0 0 0 0 0 0 0 
0 0 0 0 0 0 0 0 0 
0 0 0 0 0 0 0 0 0 
0 0 0 0 0 0 0 0 0 
0 0 0 0 0 0 0 0 0 
0 0 0 0 0 0 0 0 0 
0 0 0 0 0 0 0 0 0 
0 0 0 0 0 0 0 0 0 
0 0 0 0 0 0 0 0 0 
0 0 0 0 0 0 0 0 0 
0 0 0 0 0 0 0 0 0 
0 0 0 0 0 0 0 0 0 
0 0 0 0 0 0 0 0 0 
0 0 0 0 0 0 0 0 0 
0 0 0 0 0 0 0 0 0 
0 0 0 0 0 0 0 0 0 
0 0 0 0 0 0 0 0 0 
0 0 0 0 0 0 0 0 0 
0 0 0 0 0 0 0 0 0 
0 0 0 0 0 0 0 0 0 
0 0 0 0 0 0 0 0 0 
0 0 0 0 0 0 0 0 0 
0 0 0 0 0 0 0 0 0 
0 0 0 0 0 0 0 0 0 
0 0 0 0 0 0 0 0 0 
0 0 0 0 0 0 0 0 0 
0 0 0 0 0 0 0 0 0 
0 0 0 0 0 0 0 0 0 
0 0 0 0 0 0 0 0 0 
0 0 0 0 0 0 0 0 0 
0 0 0 0 0 0 0 0 0 
0 0 0 0 0 0 0 0 0 
0 0 0 0 0 0 0 0 0 
0 0 0 0 0 0 0 0 0 
0 0 0 0 0 0 0 0 0 
0 0 0 0 0 0 0 0 0 
0 0 0 0 0 0 0 0 0 
0 0 0 0 0 0 0 0 0 
0 0 0 0 0 0 0 0 0 
0 0 0 0 0 0 0 0 0 
0 0 0 0 0 0 0 0 0 
0 0 0 0 0 0 0 0 0 
0 0 0 0 0 0 0 0 0 
0 0 0 0 0 0 0 0 0 
0 0 0 0 0 0 0 0 0 
0 0 0 0 0 0 0 0 0 
0 0 0 0 0 0 0 0 0 
0 0 0 0 0 0 0 0 0 
0 0 0 0 0 0 0 0 0 
0 0 0 0 0 0 0 0 0 
0 0 0 0 0 0 0 0 0 
0 0 0 0 0 0 0 0 0 
0 0 0 0 0 0 0 0 0 
0 0 0 0 0 0 0 0 0 
0 0 0 0 0 0 0 0 0 
0 0 0 0 0 0 0 0 0 
0 0 0 0 0 0 0 0 0 
0 0 0 0 0 0 0 0 0 
0 0 0 0 0 0 0 0 0 
0 0 0 0 0 0 0 0 0 
0 0 0 0 0 0 0 0 0 
0 0 0 0 0 0 0 0 0 
0 0 0 0 0 0 0 0 0 
0 0 0 0 0 0 0 0 0 
0 0 0 0 0 0 0 0 0 
0 0 0 0 0 0 0 0 0 
0 0 0 0 0 0 0 0 0 
0 0 0 0 0 0 0 0 0 
0 0 0 0 0 0 0 0 0 
0 0 0 0 0 0 0 0 0 
0 0 0 0 0 0 0 0 0 
0 0 0 0 0 0 0 0 0 
0 0 0 0 0 0 0 0 0 
0 0 0 0 0 0 0 0 0 
0 0 0 0 0 0 0 0 0 
0 0 0 0 0 0 0 0 0 
0 0 0 0 0 0 0 0 0 
0 0 0 0 0 0 0 0 0 
0 0 0 0 0 0 0 0 0 
0 0 0 0 0 0 0 0 0 
0 0 0 0 0 0 0 0 0 
0 0 0 0 0 0 0 0 0 
0 0 0 0 0 0 0 0 0 
0 0 0 0 0 0 0 0 0 
0 0 0 0 0 0 0 0 0 
0 0 0 0 0 0 0 0 0 
0 0 0 0 0 0 0 0 0 
0 0 0 0 0 0 0 0 0 
0 0 0 0 0 0 0 0 0 
0 0 0 0 0 0 0 0 0 
0 0 0 0 0 0 0 0 0 
0 0 0 0 0 0 0 0 0 
0 0 0 0 0 0 0 0 0 
0 0 0 0 0 0 0 0 0 
0 0 0 0 0 0 0 0 0 
0 0 0 0 0 0 0 0 0 
0 0 0 0 0 0 0 0 0 
0 0 0 0 0 0 0 0 0 
0 0 0 0 0 0 0 0 0 
0 0 0 0 0 0 0 0 0 
0 0 0 0 0 0 0 0 0 
0 0 0 0 0 0 0 0 0 
0 0 0 0 0 0 0 0 0 
0 0 0 0 0 0 0 0 0 
0 0 0 0 0 0 0 0 0 
0 0 0 0 0 0 0 0 0 
0 0 0 0 0 0 0 0 0 
0 0 0 0 0 0 0 0 0 
0 0 0 0 0 0 0 0 0 
0 0 0 0 0 0 0 0 0 
0 0 0 0 0 0 0 0 0 
0 0 0 0 0 0 0 0 0 
0 0 0 0 0 0 0 0 0 
0 0 0 0 0 0 0 0 0 
0 0 0 0 0 0 0 0 0 
0 0 0 0 0 0 0 0 0 
0 0 0 0 0 0 0 0 0 
0 0 0 0 0 0 0 0 0 
0 0 0 0 0 0 0 0 0 
0 0 0 0 0 0 0 0 0 
0 0 0 0 0 0 0 0 0 
0 0 0 0 0 0 0 0 0 
0 0 0 0 0 0 0 0 0 
0 0 0 0 0 0 0 0 0 
0 0 0 0 0 0 0 0 0 
0 0 0 0 0 0 0 0 0 
0 0 0 0 0 0 0 0 0 
0 0 0 0 0 0 0 0 0 
0 0 0 0 0 0 0 0 0 
0 0 0 0 0 0 0 0 0 
0 0 0 0 0 0 0 0 0 
0 0 0 0 0 0 0 0 0 
0 0 0 0 0 0 0 0 0 
0 0 0 0 0 0 0 0 0 
0 0 0 0 0 0 0 0 0 
0 0 0 0 0 0 0 0 0 
0 0 0 0 0 0 0 0 0 
0 0 0 0 0 0 0 0 0 
0 0 0 0 0 0 0 0 0 
0 0 0 0 0 0 0 0 0 
0 0 0 0 0 0 0 0 0 
0 0 0 0 0 0 0 0 0 
0 0 0 0 0 0 0 0 0 
0 0 0 0 0 0 0 0 0 
0 0 0 0 0 0 0 0 0 
0 0 0 0 0 0 0 0 0 
0 0 0 0 0 0 0 0 0 
0 0 0 0 0 0 0 0 0 
0 0 0 0 0 0 0 0 0 
0 0 0 0 0 0 0 0 0 
0 0 0 0 0 0 0 0 0 
0 0 0 0 0 0 0 0 0 
0 0 0 0 0 0 0 0 0 
0 0 0 0 0 0 0 0 0 
0 0 0 0 0 0 0 0 0 
0 0 0 0 0 0 0 0 0 
0 0 0 0 0 0 0 0 0 
0 0 0 0 0 0 0 0 0 
0 0 0 0 0 0 0 0 0 
0 0 0 0 0 0 0 0 0 
0 0 0 0 0 0 0 0 0 
0 0 0 0 0 0 0 0 0 
0 0 0 0 0 0 0 0 0 
0 0 0 0 0 0 0 0 0 
0 0 0 0 0 0 0 0 0 
0 0 0 0 0 0 0 0 0 
0 0 0 0 0 0 0 0 0 
0 0 0 0 0 0 0 0 0 
0 0 0 0 0 0 0 0 0 
0 0 0 0 0 0 0 0 0 
0 0 0 0 0 0 0 0 0 
0 0 0 0 0 0 0 0 0 
0 0 0 0 0 0 0 0 0 
0 0 0 0 0 0 0 0 0 
0 0 0 0 0 0 0 0 0 
0 0 0 0 0 0 0 0 0 
0 0 0 0 0 0 0 0 0 
0 0 0 0 0 0 0 0 0 
0 0 0 0 0 0 0 0 0 
0 0 0 0 0 0 0 0 0 
0 0 0 0 0 0 0 0 0 
0 0 0 0 0 0 0 0 0 
0 0 0 0 0 0 0 0 0 
0 0 0 0 0 0 0 0 0 
0 0 0 0 0 0 0 0 0 
0 0 0 0 0 0 0 0 0 
0 0 0 0 0 0 0 0 0 
0 0 0 0 0 0 0 0 0 
0 0 0 0 0 0 0 0 0 
0 0 0 0 0 0 0 0 0 
0 0 0 0 0 0 0 0 0 
0 0 0 0 0 0 0 0 0 
0 0 0 0 0 0 0 0 0 
0 0 0 0 0 0 0 0 0 
0 0 0 0 0 0 0 0 0 
0 0 0 0 0 0 0 0 0 
0 0 0 0 0 0 0 0 0 
0 0 0 0 0 0 0 0 0 
0 0 0 0 0 0 0 0 0 
0 0 0 0 0 0 0 0 0 
0 0 0 0 0 0 0 0 0 
0 0 0 0 0 0 0 0 0 
0 0 0 0 0 0 0 0 0 
0 0 0 0 0 0 0 0 0 
0 0 0 0 0 0 0 0 0 
0 0 0 0 0 0 0 0 0 
0 0 0 0 0 0 0 0 0 
0 0 0 0 0 0 0 0 0 
0 0 0 0 0 0 0 0 0 
0 0 0 0 0 0 0 0 0 
0 0 0 0 0 0 0 0 0 
0 0 0 0 0 0 0 0 0 
0 0 0 0 0 0 0 0 0 
0 0 0 0 0 0 0 0 0 
0 0 0 0 0 0 0 0 0 
0 0 0 0 0 0 0 0 0 
0 0 0 0 0 0 0 0 0 
0 0 0 0 0 0 0 0 0 
0 0 0 0 0 0 0 0 0 
0 0 0 0 0 0 0 0 0 
0 0 0 0 0 0 0 0 0 
0 0 0 0 0 0 0 0 0 
0 0 0 0 0 0 0 0 0 
0 0 0 0 0 0 0 0 0 
0 0 0 0 0 0 0 0 0 
0 0 0 0 0 0 0 0 0 
0 0 0 0 0 0 0 0 0 
0 0 0 0 0 0 0 0 0 
0 0 0 0 0 0 0 0 0 
0 0 0 0 0 0 0 0 0 
0 0 0 0 0 0 0 0 0 
0 0 0 0 0 0 0 0 0 
0 0 0 0 0 0 0 0 0 
0 0 0 0 0 0 0 0 0 
0 0 0 0 0 0 0 0 0 
0 0 0 0 0 0 0 0 0 
0 0 0 0 0 0 0 0 0 
0 0 0 0 0 0 0 0 0 
0 0 0 0 0 0 0 0 0 
0 0 0 0 0 0 0 0 0 
0 0 0 0 0 0 0 0 0 
0 0 0 0 0 0 0 0 0 
0 0 0 0 0 0 0 0 0 
0 0 0 0 0 0 0 0 0 
0 0 0 0 0 0 0 0 0 
0 0 0 0 0 0 0 0 0 
0 0 0 0 0 0 0 0 0 
0 0 0 0 0 0 0 0 0 
0 0 0 0 0 0 0 0 0 
0 0 0 0 0 0 0 0 0 
0 0 0 0 0 0 0 0 0 
0 0 0 0 0 0 0 0 0 
0 0 0 0 0 0 0 0 0 
0 0 0 0 0 0 0 0 0 
0 0 0 0 0 0 0 0 0 
0 0 0 0 0 0 0 0 0 
0 0 0 0 0 0 0 0 0 
0 0 0 0 0 0 0 0 0 
0 0 0 0 0 0 0 0 0 
0 0 0 0 0 0 0 0 0 
0 0 0 0 0 0 0 0 0 
0 0 0 0 0 0 0 0 0 
0 0 0 0 0 0 0 0 0 
0 0 0 0 0 0 0 0 0 
0 0 0 0 0 0 0 0 0 
0 0 0 0 0 0 0 0 0 
0 0 0 0 0 0 0 0 0 
0 0 0 0 0 0 0 0 0 
0 0 0 0 0 0 0 0 0 
0 0 0 0 0 0 0 0 0 
0 0 0 0 0 0 0 0 0 
0 0 0 0 0 0 0 0 0 
0 0 0 0 0 0 0 0 0 
0 0 0 0 0 0 0 0 0 
0 0 0 0 0 0 0 0 0 
0 0 0 0 0 0 0 0 0 
0 0 0 0 0 0 0 0 0 
0 0 0 0 0 0 0 0 0 
0 0 0 0 0 0 0 0 0 
0 0 0 0 0 0 0 0 0 
0 0 0 0 0 0 0 0 0 
0 0 0 0 0 0 0 0 0 
0 0 0 0 0 0 0 0 0 
0 0 0 0 0 0 0 0 0 
0 0 0 0 0 0 0 0 0 
0 0 0 0 0 0 0 0 0 
0 0 0 0 0 0 0 0 0 
0 0 0 0 0 0 0 0 0 
0 0 0 0 0 0 0 0 0 
0 0 0 0 0 0 0 0 0 
0 0 0 0 0 0 0 0 0 
0 0 0 0 0 0 0 0 0 
0 0 0 0 0 0 0 0 0 
0 0 0 0 0 0 0 0 0 
0 0 0 0 0 0 0 0 0 
0 0 0 0 0 0 0 0 0 
0 0 0 0 0 0 0 0 0 
0 0 0 0 0 0 0 0 0 
0 0 0 0 0 0 0 0 0 
0 0 0 0 0 0 0 0 0 
0 0 0 0 0 0 0 0 0 
0 0 0 0 0 0 0 0 0 
0 0 0 0 0 0 0 0 0 
0 0 0 0 0 0 0 0 0 
0 0 0 0 0 0 0 0 0 
0 0 0 0 0 0 0 0 0 
0 0 0 0 0 0 0 0 0 
0 0 0 0 0 0 0 0 0 
0 0 0 0 0 0 0 0 0 
0 0 0 0 0 0 0 0 0 
0 0 0 0 0 0 0 0 0 
0 0 0 0 0 0 0 0 0 
0 0 0 0 0 0 0 0 0 
0 0 0 0 0 0 0 0 0 
0 0 0 0 0 0 0 0 0 
0 0 0 0 0 0 0 0 0 
0 0 0 0 0 0 0 0 0 
0 0 0 0 0 0 0 0 0 
0 0 0 0 0 0 0 0 0 
0 0 0 0 0 0 0 0 0 
0 0 0 0 0 0 0 0 0 
0 0 0 0 0 0 0 0 0 
0 0 0 0 0 0 0 0 0 
0 0 0 0 0 0 0 0 0 
0 0 0 0 0 0 0 0 0 
0 0 0 0 0 0 0 0 0 
0 0 0 0 0 0 0 0 0 
0 0 0 0 0 0 0 0 0 
0 0 0 0 0 0 0 0 0 
0 0 0 0 0 0 0 0 0 
0 0 0 0 0 0 0 0 0 
0 0 0 0 0 0 0 0 0 
0 0 0 0 0 0 0 0 0 
0 0 0 0 0 0 0 0 0 
0 0 0 0 0 0 0 0 0 
0 0 0 0 0 0 0 0 0 
0 0 0 0 0 0 0 0 0 
0 0 0 0 0 0 0 0 0 
0 0 0 0 0 0 0 0 0 
0 0 0 0 0 0 0 0 0 
0 0 0 0 0 0 0 0 0 
0 0 0 0 0 0 0 0 0 
0 0 0 0 0 0 0 0 0 
0 0 0 0 0 0 0 0 0 
0 0 0 0 0 0 0 0 0 
0 0 0 0 0 0 0 0 0 
0 0 0 0 0 0 0 0 0 
0 0 0 0 0 0 0 0 0 
0 0 0 0 0 0 0 0 0 
0 0 0 0 0 0 0 0 0 
0 0 0 0 0 0 0 0 0 
0 0 0 0 0 0 0 0 0 
0 0 0 0 0 0 0 0 0 
0 0 0 0 0 0 0 0 0 
0 0 0 0 0 0 0 0 0 
0 0 0 0 0 0 0 0 0 
0 0 0 0 0 0 0 0 0 
0 0 0 0 0 0 0 0 0 
0 0 0 0 0 0 0 0 0 
0 0 0 0 0 0 0 0 0 
0 0 0 0 0 0 0 0 0 
0 0 0 0 0 0 0 0 0 
0 0 0 0 0 0 0 0 0 
0 0 0 0 0 0 0 0 0 
0 0 0 0 0 0 0 0 0 
0 0 0 0 0 0 0 0 0 
0 0 0 0 0 0 0 0 0 
0 0 0 0 0 0 0 0 0 
0 0 0 0 0 0 0 0 0 
0 0 0 0 0 0 0 0 0 
0 0 0 0 0 0 0 0 0 
0 0 0 0 0 0 0 0 0 
0 0 0 0 0 0 0 0 0 
0 0 0 0 0 0 0 0 0 
0 0 0 0 0 0 0 0 0 
0 0 0 0 0 0 0 0 0 
0 0 0 0 0 0 0 0 0 
0 0 0 0 0 0 0 0 0 
0 0 0 0 0 0 0 0 0 
0 0 0 0 0 0 0 0 0 
0 0 0 0 0 0 0 0 0 
0 0 0 0 0 0 0 0 0 
0 0 0 0 0 0 0 0 0 
0 0 0 0 0 0 0 0 0 
0 0 0 0 0 0 0 0 0 
0 0 0 0 0 0 0 0 0 
0 0 0 0 0 0 0 0 0 
0 0 0 0 0 0 0 0 0 
0 0 0 0 0 0 0 0 0 
0 0 0 0 0 0 0 0 0 
0 0 0 0 0 0 0 0 0 
0 0 0 0 0 0 0 0 0 
0 0 0 0 0 0 0 0 0 
0 0 0 0 0 0 0 0 0 
0 0 0 0 0 0 0 0 0 
0 0 0 0 0 0 0 0 0 
0 0 0 0 0 0 0 0 0 
0 0 0 0 0 0 0 0 0 
0 0 0 0 0 0 0 0 0 
0 0 0 0 0 0 0 0 0 
0 0 0 0 0 0 0 0 0 
0 0 0 0 0 0 0 0 0 
0 0 0 0 0 0 0 0 0 
0 0 0 0 0 0 0 0 0 
0 0 0 0 0 0 0 0 0 
0 0 0 0 0 0 0 0 0 
0 0 0 0 0 0 0 0 0 
0 0 0 0 0 0 0 0 0 
0 0 0 0 0 0 0 0 0 
0 0 0 0 0 0 0 0 0 
0 0 0 0 0 0 0 0 0 
0 0 0 0 0 0 0 0 0 
0 0 0 0 0 0 0 0 0 
0 0 0 0 0 0 0 0 0 
0 0 0 0 0 0 0 0 0 
0 0 0 0 0 0 0 0 0 
0 0 0 0 0 0 0 0 0 
0 0 0 0 0 0 0 0 0 
0 0 0 0 0 0 0 0 0 
0 0 0 0 0 0 0 0 0 
0 0 0 0 0 0 0 0 0 
0 0 0 0 0 0 0 0 0 
0 0 0 0 0 0 0 0 0 
0 0 0 0 0 0 0 0 0 
0 0 0 0 0 0 0 0 0 
0 0 0 0 0 0 0 0 0 
0 0 0 0 0 0 0 0 0 
0 0 0 0 0 0 0 0 0 
0 0 0 0 0 0 0 0 0 
0 0 0 0 0 0 0 0 0 
0 0 0 0 0 0 0 0 0 
0 0 0 0 0 0 0 0 0 
0 0 0 0 0 0 0 0 0 
0 0 0 0 0 0 0 0 0 
0 0 0 0 0 0 0 0 0 
0 0 0 0 0 0 0 0 0 
0 0 0 0 0 0 0 0 0 
0 0 0 0 0 0 0 0 0 
0 0 0 0 0 0 0 0 0 
0 0 0 0 0 0 0 0 0 
0 0 0 0 0 0 0 0 0 
0 0 0 0 0 0 0 0 0 
0 0 0 0 0 0 0 0 0 
0 0 0 0 0 0 0 0 0 
0 0 0 0 0 0 0 0 0 
0 0 0 0 0 0 0 0 0 
0 0 0 0 0 0 0 0 0 
0 0 0 0 0 0 0 0 0 
0 0 0 0 0 0 0 0 0 
0 0 0 0 0 0 0 0 0 
0 0 0 0 0 0 0 0 0 
0 0 0 0 0 0 0 0 0 
0 0 0 0 0 0 0 0 0 
0 0 0 0 0 0 0 0 0 
0 0 0 0 0 0 0 0 0 
0 0 0 0 0 0 0 0 0 
0 0 0 0 0 0 0 0 0 
0 0 0 0 0 0 0 0 0 
0 0 0 0 0 0 0 0 0 
0 0 0 0 0 0 0 0 0 
0 0 0 0 0 0 0 0 0 
0 0 0 0 0 0 0 0 0 
0 0 0 0 0 0 0 0 0 
0 0 0 0 0 0 0 0 0 
0 0 0 0 0 0 0 0 0 
0 0 0 0 0 0 0 0 0 
0 0 0 0 0 0 0 0 0 
0 0 0 0 0 0 0 0 0 
0 0 0 0 0 0 0 0 0 
0 0 0 0 0 0 0 0 0 
0 0 0 0 0 0 0 0 0 
0 0 0 0 0 0 0 0 0 
0 0 0 0 0 0 0 0 0 
0 0 0 0 0 0 0 0 0 
0 0 0 0 0 0 0 0 0 
0 0 0 0 0 0 0 0 0 
0 0 0 0 0 0 0 0 0 
0 0 0 0 0 0 0 0 0 
0 0 0 0 0 0 0 0 0 
0 0 0 0 0 0 0 0 0 
0 0 0 0 0 0 0 0 0 
0 0 0 0 0 0 0 0 0 
0 0 0 0 0 0 0 0 0 
0 0 0 0 0 0 0 0 0 
0 0 0 0 0 0 0 0 0 
0 0 0 0 0 0 0 0 0 
0 0 0 0 0 0 0 0 0 
0 0 0 0 0 0 0 0 0 
0 0 0 0 0 0 0 0 0 
0 0 0 0 0 0 0 0 0 
0 0 0 0 0 0 0 0 0 
0 0 0 0 0 0 0 0 0 
0 0 0 0 0 0 0 0 0 
0 0 0 0 0 0 0 0 0 
0 0 0 0 0 0 0 0 0 
0 0 0 0 0 0 0 0 0 
0 0 0 0 0 0 0 0 0 
0 0 0 0 0 0 0 0 0 
0 0 0 0 0 0 0 0 0 
0 0 0 0 0 0 0 0 0 
0 0 0 0 0 0 0 0 0 
0 0 0 0 0 0 0 0 0 
0 0 0 0 0 0 0 0 0 
0 0 0 0 0 0 0 0 0 
0 0 0 0 0 0 0 0 0 
0 0 0 0 0 0 0 0 0 
0 0 0 0 0 0 0 0 0 
0 0 0 0 0 0 0 0 0 
0 0 0 0 0 0 0 0 0 
0 0 0 0 0 0 0 0 0 
0 0 0 0 0 0 0 0 0 
0 0 0 0 0 0 0 0 0 
0 0 0 0 0 0 0 0 0 
0 0 0 0 0 0 0 0 0 
0 0 0 0 0 0 0 0 0 
0 0 0 0 0 0 0 0 0 
0 0 0 0 0 0 0 0 0 
0 0 0 0 0 0 0 0 0 
0 0 0 0 0 0 0 0 0 
0 0 0 0 0 0 0 0 0 
0 0 0 0 0 0 0 0 0 
0 0 0 0 0 0 0 0 0 
0 0 0 0 0 0 0 0 0 
0 0 0 0 0 0 0 0 0 
0 0 0 0 0 0 0 0 0 
0 0 0 0 0 0 0 0 0 
0 0 0 0 0 0 0 0 0 
0 0 0 0 0 0 0 0 0 
0 0 0 0 0 0 0 0 0 
0 0 0 0 0 0 0 0 0 
0 0 0 0 0 0 0 0 0 
0 0 0 0 0 0 0 0 0 
0 0 0 0 0 0 0 0 0 
0 0 0 0 0 0 0 0 0 
0 0 0 0 0 0 0 0 0 
0 0 0 0 0 0 0 0 0 
0 0 0 0 0 0 0 0 0 
0 0 0 0 0 0 0 0 0 
0 0 0 0 0 0 0 0 0 
0 0 0 0 0 0 0 0 0 
0 0 0 0 0 0 0 0 0 
0 0 0 0 0 0 0 0 0 
0 0 0 0 0 0 0 0 0 
0 0 0 0 0 0 0 0 0 
0 0 0 0 0 0 0 0 0 
0 0 0 0 0 0 0 0 0 
0 0 0 0 0 0 0 0 0 
0 0 0 0 0 0 0 0 0 
0 0 0 0 0 0 0 0 0 
0 0 0 0 0 0 0 0 0 
0 0 0 0 0 0 0 0 0 
0 0 0 0 0 0 0 0 0 
0 0 0 0 0 0 0 0 0 
0 0 0 0 0 0 0 0 0 
0 0 0 0 0 0 0 0 0 
0 0 0 0 0 0 0 0 0 
0 0 0 0 0 0 0 0 0 
0 0 0 0 0 0 0 0 0 
0 0 0 0 0 0 0 0 0 
0 0 0 0 0 0 0 0 0 
0 0 0 0 0 0 0 0 0 
0 0 0 0 0 0 0 0 0 
0 0 0 0 0 0 0 0 0 
0 0 0 0 0 0 0 0 0 
0 0 0 0 0 0 0 0 0 
0 0 0 0 0 0 0 0 0 
0 0 0 0 0 0 0 0 0 
0 0 0 0 0 0 0 0 0 
0 0 0 0 0 0 0 0 0 
0 0 0 0 0 0 0 0 0 
0 0 0 0 0 0 0 0 0 
0 0 0 0 0 0 0 0 0 
0 0 0 0 0 0 0 0 0 
0 0 0 0 0 0 0 0 0 
0 0 0 0 0 0 0 0 0 
0 0 0 0 0 0 0 0 0 
0 0 0 0 0 0 0 0 0 
0 0 0 0 0 0 0 0 0 
0 0 0 0 0 0 0 0 0 
0 0 0 0 0 0 0 0 0 
0 0 0 0 0 0 0 0 0 
0 0 0 0 0 0 0 0 0 
0 0 0 0 0 0 0 0 0 
0 0 0 0 0 0 0 0 0 
0 0 0 0 0 0 0 0 0 
0 0 0 0 0 0 0 0 0 
0 0 0 0 0 0 0 0 0 
0 0 0 0 0 0 0 0 0 
0 0 0 0 0 0 0 0 0 
0 0 0 0 0 0 0 0 0 
0 0 0 0 0 0 0 0 0 
0 0 0 0 0 0 0 0 0 
0 0 0 0 0 0 0 0 0 
0 0 0 0 0 0 0 0 0 
0 0 0 0 0 0 0 0 0 
0 0 0 0 0 0 0 0 0 
0 0 0 0 0 0 0 0 0 
0 0 0 0 0 0 0 0 0 
0 0 0 0 0 0 0 0 0 
0 0 0 0 0 0 0 0 0 
0 0 0 0 0 0 0 0 0 
0 0 0 0 0 0 0 0 0 
0 0 0 0 0 0 0 0 0 
0 0 0 0 0 0 0 0 0 
0 0 0 0 0 0 0 0 0 
0 0 0 0 0 0 0 0 0 
0 0 0 0 0 0 0 0 0 
0 0 0 0 0 0 0 0 0 
0 0 0 0 0 0 0 0 0 
0 0 0 0 0 0 0 0 0 
0 0 0 0 0 0 0 0 0 
0 0 0 0 0 0 0 0 0 
0 0 0 0 0 0 0 0 0 
0 0 0 0 0 0 0 0 0 
0 0 0 0 0 0 0 0 0 
0 0 0 0 0 0 0 0 0 
0 0 0 0 0 0 0 0 0 
0 0 0 0 0 0 0 0 0 
0 0 0 0 0 0 0 0 0 
0 0 0 0 0 0 0 0 0 
0 0 0 0 0 0 0 0 0 
0 0 0 0 0 0 0 0 0 
0 0 0 0 0 0 0 0 0 
0 0 0 0 0 0 0 0 0 
0 0 0 0 0 0 0 0 0 
0 0 0 0 0 0 0 0 0 
0 0 0 0 0 0 0 0 0 
0 0 0 0 0 0 0 0 0 
0 0 0 0 0 0 0 0 0 
0 0 0 0 0 0 0 0 0 
0 0 0 0 0 0 0 0 0 
0 0 0 0 0 0 0 0 0 
0 0 0 0 0 0 0 0 0 
0 0 0 0 0 0 0 0 0 
0 0 0 0 0 0 0 0 0 
0 0 0 0 0 0 0 0 0 
0 0 0 0 0 0 0 0 0 
0 0 0 0 0 0 0 0 0 
0 0 0 0 0 0 0 0 0 
0 0 0 0 0 0 0 0 0 
0 0 0 0 0 0 0 0 0 
0 0 0 0 0 0 0 0 0 
0 0 0 0 0 0 0 0 0 
0 0 0 0 0 0 0 0 0 
0 0 0 0 0 0 0 0 0 
0 0 0 0 0 0 0 0 0 
0 0 0 0 0 0 0 0 0 
0 0 0 0 0 0 0 0 0 
0 0 0 0 0 0 0 0 0 
0 0 0 0 0 0 0 0 0 
0 0 0 0 0 0 0 0 0 
0 0 0 0 0 0 0 0 0 
0 0 0 0 0 0 0 0 0 
0 0 0 0 0 0 0 0 0 
0 0 0 0 0 0 0 0 0 
0 0 0 0 0 0 0 0 0 
0 0 0 0 0 0 0 0 0 
0 0 0 0 0 0 0 0 0 
0 0 0 0 0 0 0 0 0 
0 0 0 0 0 0 0 0 0 
0 0 0 0 0 0 0 0 0 
0 0 0 0 0 0 0 0 0 
0 0 0 0 0 0 0 0 0 
0 0 0 0 0 0 0 0 0 
0 0 0 0 0 0 0 0 0 
0 0 0 0 0 0 0 0 0 
0 0 0 0 0 0 0 0 0 
0 0 0 0 0 0 0 0 0 
0 0 0 0 0 0 0 0 0 
0 0 0 0 0 0 0 0 0 
0 0 0 0 0 0 0 0 0 
0 0 0 0 0 0 0 0 0 
0 0 0 0 0 0 0 0 0 
0 0 0 0 0 0 0 0 0 
0 0 0 0 0 0 0 0 0 
0 0 0 0 0 0 0 0 0 
0 0 0 0 0 0 0 0 0 
0 0 0 0 0 0 0 0 0 
0 0 0 0 0 0 0 0 0 
0 0 0 0 0 0 0 0 0 
0 0 0 0 0 0 0 0 0 
0 0 0 0 0 0 0 0 0 
0 0 0 0 0 0 0 0 0 
0 0 0 0 0 0 0 0 0 
0 0 0 0 0 0 0 0 0 
0 0 0 0 0 0 0 0 0 
0 0 0 0 0 0 0 0 0 
0 0 0 0 0 0 0 0 0 
0 0 0 0 0 0 0 0 0 
0 0 0 0 0 0 0 0 0 
0 0 0 0 0 0 0 0 0 
0 0 0 0 0 0 0 0 0 
0 0 0 0 0 0 0 0 0 
0 0 0 0 0 0 0 0 0 
0 0 0 0 0 0 0 0 0 
0 0 0 0 0 0 0 0 0 
0 0 0 0 0 0 0 0 0 
0 0 0 0 0 0 0 0 0 
0 0 0 0 0 0 0 0 0 
0 0 0 0 0 0 0 0 0 
0 0 0 0 0 0 0 0 0 
0 0 0 0 0 0 0 0 0 
0 0 0 0 0 0 0 0 0 
0 0 0 0 0 0 0 0 0 
0 0 0 0 0 0 0 0 0 
0 0 0 0 0 0 0 0 0 
0 0 0 0 0 0 0 0 0 
0 0 0 0 0 0 0 0 0 
0 0 0 0 0 0 0 0 0 
0 0 0 0 0 0 0 0 0 
0 0 0 0 0 0 0 0 0 
0 0 0 0 0 0 0 0 0 
0 0 0 0 0 0 0 0 0 
0 0 0 0 0 0 0 0 0 
0 0 0 0 0 0 0 0 0 
0 0 0 0 0 0 0 0 0 
0 0 0 0 0 0 0 0 0 
0 0 0 0 0 0 0 0 0 
0 0 0 0 0 0 0 0 0 
0 0 0 0 0 0 0 0 0 
0 0 0 0 0 0 0 0 0 
0 0 0 0 0 0 0 0 0 
0 0 0 0 0 0 0 0 0 
0 0 0 0 0 0 0 0 0 
0 0 0 0 0 0 0 0 0 
0 0 0 0 0 0 0 0 0 
0 0 0 0 0 0 0 0 0 
0 0 0 0 0 0 0 0 0 
0 0 0 0 0 0 0 0 0 
0 0 0 0 0 0 0 0 0 
0 0 0 0 0 0 0 0 0 
0 0 0 0 0 0 0 0 0 
0 0 0 0 0 0 0 0 0 
0 0 0 0 0 0 0 0 0 
0 0 0 0 0 0 0 0 0 
0 0 0 0 0 0 0 0 0 
0 0 0 0 0 0 0 0 0 
0 0 0 0 0 0 0 0 0 
0 0 0 0 0 0 0 0 0 
0 0 0 0 0 0 0 0 0 
0 0 0 0 0 0 0 0 0 
0 0 0 0 0 0 0 0 0 
0 0 0 0 0 0 0 0 0 
0 0 0 0 0 0 0 0 0 
0 0 0 0 0 0 0 0 0 
0 0 0 0 0 0 0 0 0 
0 0 0 0 0 0 0 0 0 
0 0 0 0 0 0 0 0 0 
0 0 0 0 0 0 0 0 0 
0 0 0 0 0 0 0 0 0 
0 0 0 0 0 0 0 0 0 
0 0 0 0 0 0 0 0 0 
0 0 0 0 0 0 0 0 0 
0 0 0 0 0 0 0 0 0 
0 0 0 0 0 0 0 0 0 
0 0 0 0 0 0 0 0 0 
0 0 0 0 0 0 0 0 0 
0 0 0 0 0 0 0 0 0 
0 0 0 0 0 0 0 0 0 
0 0 0 0 0 0 0 0 0 
0 0 0 0 0 0 0 0 0 
0 0 0 0 0 0 0 0 0 
0 0 0 0 0 0 0 0 0 
0 0 0 0 0 0 0 0 0 
0 0 0 0 0 0 0 0 0 
0 0 0 0 0 0 0 0 0 
0 0 0 0 0 0 0 0 0 
0 0 0 0 0 0 0 0 0 
0 0 0 0 0 0 0 0 0 
0 0 0 0 0 0 0 0 0 
0 0 0 0 0 0 0 0 0 
0 0 0 0 0 0 0 0 0 
0 0 0 0 0 0 0 0 0 
0 0 0 0 0 0 0 0 0 
0 0 0 0 0 0 0 0 0 
0 0 0 0 0 0 0 0 0 
0 0 0 0 0 0 0 0 0 
0 0 0 0 0 0 0 0 0 
0 0 0 0 0 0 0 0 0 
0 0 0 0 0 0 0 0 0 
0 0 0 0 0 0 0 0 0 
0 0 0 0 0 0 0 0 0 
0 0 0 0 0 0 0 0 0 
0 0 0 0 0 0 0 0 0 
0 0 0 0 0 0 0 0 0 
0 0 0 0 0 0 0 0 0 
0 0 0 0 0 0 0 0 0 
0 0 0 0 0 0 0 0 0 
0 0 0 0 0 0 0 0 0 
0 0 0 0 0 0 0 0 0 
0 0 0 0 0 0 0 0 0 
0 0 0 0 0 0 0 0 0 
0 0 0 0 0 0 0 0 0 
0 0 0 0 0 0 0 0 0 
0 0 0 0 0 0 0 0 0 
0 0 0 0 0 0 0 0 0 
0 0 0 0 0 0 0 0 0 
0 0 0 0 0 0 0 0 0 
0 0 0 0 0 0 0 0 0 
0 0 0 0 0 0 0 0 0 
0 0 0 0 0 0 0 0 0 
0 0 0 0 0 0 0 0 0 
0 0 0 0 0 0 0 0 0 
0 0 0 0 0 0 0 0 0 
0 0 0 0 0 0 0 0 0 
0 0 0 0 0 0 0 0 0 
0 0 0 0 0 0 0 0 0 
0 0 0 0 0 0 0 0 0 
0 0 0 0 0 0 0 0 0 
0 0 0 0 0 0 0 0 0 
0 0 0 0 0 0 0 0 0 
0 0 0 0 0 0 0 0 0 
0 0 0 0 0 0 0 0 0 
0 0 0 0 0 0 0 0 0 
0 0 0 0 0 0 0 0 0 
0 0 0 0 0 0 0 0 0 
0 0 0 0 0 0 0 0 0 
0 0 0 0 0 0 0 0 0 
0 0 0 0 0 0 0 0 0 
0 0 0 0 0 0 0 0 0 
0 0 0 0 0 0 0 0 0 
0 0 0 0 0 0 0 0 0 
0 0 0 0 0 0 0 0 0 
0 0 0 0 0 0 0 0 0 
0 0 0 0 0 0 0 0 0 
0 0 0 0 0 0 0 0 0 
0 0 0 0 0 0 0 0 0 
0 0 0 0 0 0 0 0 0 
0 0 0 0 0 0 0 0 0 
0 0 0 0 0 0 0 0 0 
0 0 0 0 0 0 0 0 0 
0 0 0 0 0 0 0 0 0 
0 0 0 0 0 0 0 0 0 
0 0 0 0 0 0 0 0 0 
0 0 0 0 0 0 0 0 0 
0 0 0 0 0 0 0 0 0 
0 0 0 0 0 0 0 0 0 
0 0 0 0 0 0 0 0 0 
0 0 0 0 0 0 0 0 0 
0 0 0 0 0 0 0 0 0 
0 0 0 0 0 0 0 0 0 
0 0 0 0 0 0 0 0 0 
0 0 0 0 0 0 0 0 0 
0 0 0 0 0 0 0 0 0 
0 0 0 0 0 0 0 0 0 
0 0 0 0 0 0 0 0 0 
0 0 0 0 0 0 0 0 0 
0 0 0 0 0 0 0 0 0 
0 0 0 0 0 0 0 0 0 
0 0 0 0 0 0 0 0 0 
0 0 0 0 0 0 0 0 0 
0 0 0 0 0 0 0 0 0 
0 0 0 0 0 0 0 0 0 
0 0 0 0 0 0 0 0 0 
0 0 0 0 0 0 0 0 0 
0 0 0 0 0 0 0 0 0 
0 0 0 0 0 0 0 0 0 
0 0 0 0 0 0 0 0 0 
0 0 0 0 0 0 0 0 0 
0 0 0 0 0 0 0 0 0 
0 0 0 0 0 0 0 0 0 
0 0 0 0 0 0 0 0 0 
0 0 0 0 0 0 0 0 0 
0 0 0 0 0 0 0 0 0 
0 0 0 0 0 0 0 0 0 
0 0 0 0 0 0 0 0 0 
0 0 0 0 0 0 0 0 0 
0 0 0 0 0 0 0 0 0 
0 0 0 0 0 0 0 0 0 
0 0 0 0 0 0 0 0 0 
0 0 0 0 0 0 0 0 0 
0 0 0 0 0 0 0 0 0 
0 0 0 0 0 0 0 0 0 
0 0 0 0 0 0 0 0 0 
0 0 0 0 0 0 0 0 0 
0 0 0 0 0 0 0 0 0 
0 0 0 0 0 0 0 0 0 
0 0 0 0 0 0 0 0 0 
0 0 0 0 0 0 0 0 0 
0 0 0 0 0 0 0 0 0 
0 0 0 0 0 0 0 0 0 
0 0 0 0 0 0 0 0 0 
0 0 0 0 0 0 0 0 0 
0 0 0 0 0 0 0 0 0 
0 0 0 0 0 0 0 0 0 
0 0 0 0 0 0 0 0 0 
0 0 0 0 0 0 0 0 0 
0 0 0 0 0 0 0 0 0 
0 0 0 0 0 0 0 0 0 
0 0 0 0 0 0 0 0 0 
0 0 0 0 0 0 0 0 0 
0 0 0 0 0 0 0 0 0 
0 0 0 0 0 0 0 0 0 
0 0 0 0 0 0 0 0 0 
0 0 0 0 0 0 0 0 0 
0 0 0 0 0 0 0 0 0 
0 0 0 0 0 0 0 0 0 
0 0 0 0 0 0 0 0 0 
0 0 0 0 0 0 0 0 0 
0 0 0 0 0 0 0 0 0 
0 0 0 0 0 0 0 0 0 
0 0 0 0 0 0 0 0 0 
0 0 0 0 0 0 0 0 0 
0 0 0 0 0 0 0 0 0 
0 0 0 0 0 0 0 0 0 
0 0 0 0 0 0 0 0 0 
0 0 0 0 0 0 0 0 0 
0 0 0 0 0 0 0 0 0 
0 0 0 0 0 0 0 0 0 
0 0 0 0 0 0 0 0 0 
0 0 0 0 0 0 0 0 0 
0 0 0 0 0 0 0 0 0 
0 0 0 0 0 0 0 0 0 
0 0 0 0 0 0 0 0 0 
0 0 0 0 0 0 0 0 0 
0 0 0 0 0 0 0 0 0 
0 0 0 0 0 0 0 0 0 
0 0 0 0 0 0 0 0 0 
0 0 0 0 0 0 0 0 0 
0 0 0 0 0 0 0 0 0 
0 0 0 0 0 0 0 0 0 
0 0 0 0 0 0 0 0 0 
0 0 0 0 0 0 0 0 0 
0 0 0 0 0 0 0 0 0 
0 0 0 0 0 0 0 0 0 
0 0 0 0 0 0 0 0 0 
0 0 0 0 0 0 0 0 0 
0 0 0 0 0 0 0 0 0 
0 0 0 0 0 0 0 0 0 
0 0 0 0 0 0 0 0 0 
0 0 0 0 0 0 0 0 0 
0 0 0 0 0 0 0 0 0 
0 0 0 0 0 0 0 0 0 
0 0 0 0 0 0 0 0 0 
0 0 0 0 0 0 0 0 0 
0 0 0 0 0 0 0 0 0 
0 0 0 0 0 0 0 0 0 
0 0 0 0 0 0 0 0 0 
0 0 0 0 0 0 0 0 0 
0 0 0 0 0 0 0 0 0 
0 0 0 0 0 0 0 0 0 
0 0 0 0 0 0 0 0 0 
0 0 0 0 0 0 0 0 0 
0 0 0 0 0 0 0 0 0 
0 0 0 0 0 0 0 0 0 
0 0 0 0 0 0 0 0 0 
0 0 0 0 0 0 0 0 0 
0 0 0 0 0 0 0 0 0 
0 0 0 0 0 0 0 0 0 
0 0 0 0 0 0 0 0 0 
0 0 0 0 0 0 0 0 0 
0 0 0 0 0 0 0 0 0 
0 0 0 0 0 0 0 0 0 
0 0 0 0 0 0 0 0 0 
0 0 0 0 0 0 0 0 0 
0 0 0 0 0 0 0 0 0 
0 0 0 0 0 0 0 0 0 
0 0 0 0 0 0 0 0 0 
0 0 0 0 0 0 0 0 0 
0 0 0 0 0 0 0 0 0 
0 0 0 0 0 0 0 0 0 
0 0 0 0 0 0 0 0 0 
0 0 0 0 0 0 0 0 0 
0 0 0 0 0 0 0 0 0 
0 0 0 0 0 0 0 0 0 
0 0 0 0 0 0 0 0 0 
0 0 0 0 0 0 0 0 0 
0 0 0 0 0 0 0 0 0 
0 0 0 0 0 0 0 0 0 
0 0 0 0 0 0 0 0 0 
0 0 0 0 0 0 0 0 0 
0 0 0 0 0 0 0 0 0 
0 0 0 0 0 0 0 0 0 
0 0 0 0 0 0 0 0 0 
0 0 0 0 0 0 0 0 0 
0 0 0 0 0 0 0 0 0 
0 0 0 0 0 0 0 0 0 
0 0 0 0 0 0 0 0 0 
0 0 0 0 0 0 0 0 0 
0 0 0 0 0 0 0 0 0 
0 0 0 0 0 0 0 0 0 
0 0 0 0 0 0 0 0 0 
0 0 0 0 0 0 0 0 0 
0 0 0 0 0 0 0 0 0 
0 0 0 0 0 0 0 0 0 
0 0 0 0 0 0 0 0 0 
0 0 0 0 0 0 0 0 0 
0 0 0 0 0 0 0 0 0 
0 0 0 0 0 0 0 0 0 
0 0 0 0 0 0 0 0 0 
0 0 0 0 0 0 0 0 0 
0 0 0 0 0 0 0 0 0 
0 0 0 0 0 0 0 0 0 
0 0 0 0 0 0 0 0 0 
0 0 0 0 0 0 0 0 0 
0 0 0 0 0 0 0 0 0 
0 0 0 0 0 0 0 0 0 
0 0 0 0 0 0 0 0 0 
0 0 0 0 0 0 0 0 0 
0 0 0 0 0 0 0 0 0 
0 0 0 0 0 0 0 0 0 
0 0 0 0 0 0 0 0 0 
0 0 0 0 0 0 0 0 0 
0 0 0 0 0 0 0 0 0 
0 0 0 0 0 0 0 0 0 
0 0 0 0 0 0 0 0 0 
0 0 0 0 0 0 0 0 0 
0 0 0 0 0 0 0 0 0 
0 0 0 0 0 0 0 0 0 
0 0 0 0 0 0 0 0 0 
0 0 0 0 0 0 0 0 0 
0 0 0 0 0 0 0 0 0 
0 0 0 0 0 0 0 0 0 
0 0 0 0 0 0 0 0 0 
0 0 0 0 0 0 0 0 0 
0 0 0 0 0 0 0 0 0 
0 0 0 0 0 0 0 0 0 
0 0 0 0 0 0 0 0 0 
0 0 0 0 0 0 0 0 0 
0 0 0 0 0 0 0 0 0 
0 0 0 0 0 0 0 0 0 
0 0 0 0 0 0 0 0 0 
0 0 0 0 0 0 0 0 0 
0 0 0 0 0 0 0 0 0 
0 0 0 0 0 0 0 0 0 
0 0 0 0 0 0 0 0 0 
0 0 0 0 0 0 0 0 0 
0 0 0 0 0 0 0 0 0 
0 0 0 0 0 0 0 0 0 
0 0 0 0 0 0 0 0 0 
0 0 0 0 0 0 0 0 0 
0 0 0 0 0 0 0 0 0 
0 0 0 0 0 0 0 0 0 
0 0 0 0 0 0 0 0 0 
0 0 0 0 0 0 0 0 0 
0 0 0 0 0 0 0 0 0 
0 0 0 0 0 0 0 0 0 
0 0 0 0 0 0 0 0 0 
0 0 0 0 0 0 0 0 0 
0 0 0 0 0 0 0 0 0 
0 0 0 0 0 0 0 0 0 
0 0 0 0 0 0 0 0 0 
0 0 0 0 0 0 0 0 0 
0 0 0 0 0 0 0 0 0 
0 0 0 0 0 0 0 0 0 
0 0 0 0 0 0 0 0 0 
0 0 0 0 0 0 0 0 0 
0 0 0 0 0 0 0 0 0 
0 0 0 0 0 0 0 0 0 
0 0 0 0 0 0 0 0 0 
0 0 0 0 0 0 0 0 0 
0 0 0 0 0 0 0 0 0 
0 0 0 0 0 0 0 0 0 
0 0 0 0 0 0 0 0 0 
0 0 0 0 0 0 0 0 0 
0 0 0 0 0 0 0 0 0 
0 0 0 0 0 0 0 0 0 
0 0 0 0 0 0 0 0 0 
0 0 0 0 0 0 0 0 0 
0 0 0 0 0 0 0 0 0 
0 0 0 0 0 0 0 0 0 
0 0 0 0 0 0 0 0 0 
0 0 0 0 0 0 0 0 0 
0 0 0 0 0 0 0 0 0 
0 0 0 0 0 0 0 0 0 
0 0 0 0 0 0 0 0 0 
0 0 0 0 0 0 0 0 0 
0 0 0 0 0 0 0 0 0 
0 0 0 0 0 0 0 0 0 
0 0 0 0 0 0 0 0 0 
0 0 0 0 0 0 0 0 0 
0 0 0 0 0 0 0 0 0 
0 0 0 0 0 0 0 0 0 
0 0 0 0 0 0 0 0 0 
0 0 0 0 0 0 0 0 0 
0 0 0 0 0 0 0 0 0 
0 0 0 0 0 0 0 0 0 
0 0 0 0 0 0 0 0 0 
0 0 0 0 0 0 0 0 0 
0 0 0 0 0 0 0 0 0 
0 0 0 0 0 0 0 0 0 
0 0 0 0 0 0 0 0 0 
0 0 0 0 0 0 0 0 0 
0 0 0 0 0 0 0 0 0 
0 0 0 0 0 0 0 0 0 
0 0 0 0 0 0 0 0 0 
0 0 0 0 0 0 0 0 0 
0 0 0 0 0 0 0 0 0 
0 0 0 0 0 0 0 0 0 
0 0 0 0 0 0 0 0 0 
0 0 0 0 0 0 0 0 0 
0 0 0 0 0 0 0 0 0 
0 0 0 0 0 0 0 0 0 
0 0 0 0 0 0 0 0 0 
0 0 0 0 0 0 0 0 0 
0 0 0 0 0 0 0 0 0 
0 0 0 0 0 0 0 0 0 
0 0 0 0 0 0 0 0 0 
0 0 0 0 0 0 0 0 0 
0 0 0 0 0 0 0 0 0 
0 0 0 0 0 0 0 0 0 
0 0 0 0 0 0 0 0 0 
0 0 0 0 0 0 0 0 0 
0 0 0 0 0 0 0 0 0 
0 0 0 0 0 0 0 0 0 
0 0 0 0 0 0 0 0 0 
0 0 0 0 0 0 0 0 0 
0 0 0 0 0 0 0 0 0 
0 0 0 0 0 0 0 0 0 
0 0 0 0 0 0 0 0 0 
0 0 0 0 0 0 0 0 0 
0 0 0 0 0 0 0 0 0 
0 0 0 0 0 0 0 0 0 
0 0 0 0 0 0 0 0 0 
0 0 0 0 0 0 0 0 0 
0 0 0 0 0 0 0 0 0 
0 0 0 0 0 0 0 0 0 
0 0 0 0 0 0 0 0 0 
0 0 0 0 0 0 0 0 0 
0 0 0 0 0 0 0 0 0 
0 0 0 0 0 0 0 0 0 
0 0 0 0 0 0 0 0 0 
0 0 0 0 0 0 0 0 0 
0 0 0 0 0 0 0 0 0 
0 0 0 0 0 0 0 0 0 
0 0 0 0 0 0 0 0 0 
0 0 0 0 0 0 0 0 0 
0 0 0 0 0 0 0 0 0 
0 0 0 0 0 0 0 0 0 
0 0 0 0 0 0 0 0 0 
0 0 0 0 0 0 0 0 0 
0 0 0 0 0 0 0 0 0 
0 0 0 0 0 0 0 0 0 
0 0 0 0 0 0 0 0 0 
0 0 0 0 0 0 0 0 0 
0 0 0 0 0 0 0 0 0 
0 0 0 0 0 0 0 0 0 
0 0 0 0 0 0 0 0 0 
0 0 0 0 0 0 0 0 0 
0 0 0 0 0 0 0 0 0 
0 0 0 0 0 0 0 0 0 
0 0 0 0 0 0 0 0 0 
0 0 0 0 0 0 0 0 0 
0 0 0 0 0 0 0 0 0 
0 0 0 0 0 0 0 0 0 
0 0 0 0 0 0 0 0 0 
0 0 0 0 0 0 0 0 0 
0 0 0 0 0 0 0 0 0 
0 0 0 0 0 0 0 0 0 
0 0 0 0 0 0 0 0 0 
0 0 0 0 0 0 0 0 0 
0 0 0 0 0 0 0 0 0 
0 0 0 0 0 0 0 0 0 
0 0 0 0 0 0 0 0 0 
0 0 0 0 0 0 0 0 0 
0 0 0 0 0 0 0 0 0 
0 0 0 0 0 0 0 0 0 
0 0 0 0 0 0 0 0 0 
0 0 0 0 0 0 0 0 0 
0 0 0 0 0 0 0 0 0 
0 0 0 0 0 0 0 0 0 
0 0 0 0 0 0 0 0 0 
0 0 0 0 0 0 0 0 0 
0 0 0 0 0 0 0 0 0 
0 0 0 0 0 0 0 0 0 
0 0 0 0 0 0 0 0 0 
0 0 0 0 0 0 0 0 0 
0 0 0 0 0 0 0 0 0 
0 0 0 0 0 0 0 0 0 
0 0 0 0 0 0 0 0 0 
0 0 0 0 0 0 0 0 0 
0 0 0 0 0 0 0 0 0 
0 0 0 0 0 0 0 0 0 
0 0 0 0 0 0 0 0 0 
0 0 0 0 0 0 0 0 0 
0 0 0 0 0 0 0 0 0 
0 0 0 0 0 0 0 0 0 
0 0 0 0 0 0 0 0 0 
0 0 0 0 0 0 0 0 0 
0 0 0 0 0 0 0 0 0 
0 0 0 0 0 0 0 0 0 
0 0 0 0 0 0 0 0 0 
0 0 0 0 0 0 0 0 0 
0 0 0 0 0 0 0 0 0 
0 0 0 0 0 0 0 0 0 
0 0 0 0 0 0 0 0 0 
0 0 0 0 0 0 0 0 0 
0 0 0 0 0 0 0 0 0 
0 0 0 0 0 0 0 0 0 
0 0 0 0 0 0 0 0 0 
0 0 0 0 0 0 0 0 0 
0 0 0 0 0 0 0 0 0 
0 0 0 0 0 0 0 0 0 
0 0 0 0 0 0 0 0 0 
0 0 0 0 0 0 0 0 0 
0 0 0 0 0 0 0 0 0 
0 0 0 0 0 0 0 0 0 
0 0 0 0 0 0 0 0 0 
0 0 0 0 0 0 0 0 0 
0 0 0 0 0 0 0 0 0 
0 0 0 0 0 0 0 0 0 
0 0 0 0 0 0 0 0 0 
0 0 0 0 0 0 0 0 0 
0 0 0 0 0 0 0 0 0 
0 0 0 0 0 0 0 0 0 
0 0 0 0 0 0 0 0 0 
0 0 0 0 0 0 0 0 0 
0 0 0 0 0 0 0 0 0 
0 0 0 0 0 0 0 0 0 
0 0 0 0 0 0 0 0 0 
0 0 0 0 0 0 0 0 0 
0 0 0 0 0 0 0 0 0 
0 0 0 0 0 0 0 0 0 
0 0 0 0 0 0 0 0 0 
0 0 0 0 0 0 0 0 0 
0 0 0 0 0 0 0 0 0 
0 0 0 0 0 0 0 0 0 
0 0 0 0 0 0 0 0 0 
0 0 0 0 0 0 0 0 0 
0 0 0 0 0 0 0 0 0 
0 0 0 0 0 0 0 0 0 
0 0 0 0 0 0 0 0 0 
0 0 0 0 0 0 0 0 0 
0 0 0 0 0 0 0 0 0 
0 0 0 0 0 0 0 0 0 
0 0 0 0 0 0 0 0 0 
0 0 0 0 0 0 0 0 0 
0 0 0 0 0 0 0 0 0 
0 0 0 0 0 0 0 0 0 
0 0 0 0 0 0 0 0 0 
0 0 0 0 0 0 0 0 0 
0 0 0 0 0 0 0 0 0 
0 0 0 0 0 0 0 0 0 
0 0 0 0 0 0 0 0 0 
0 0 0 0 0 0 0 0 0 
0 0 0 0 0 0 0 0 0 
0 0 0 0 0 0 0 0 0 
0 0 0 0 0 0 0 0 0 
0 0 0 0 0 0 0 0 0 
0 0 0 0 0 0 0 0 0 
0 0 0 0 0 0 0 0 0 
0 0 0 0 0 0 0 0 0 
0 0 0 0 0 0 0 0 0 
0 0 0 0 0 0 0 0 0 
0 0 0 0 0 0 0 0 0 
0 0 0 0 0 0 0 0 0 
0 0 0 0 0 0 0 0 0 
0 0 0 0 0 0 0 0 0 
0 0 0 0 0 0 0 0 0 
0 0 0 0 0 0 0 0 0 
0 0 0 0 0 0 0 0 0 
0 0 0 0 0 0 0 0 0 
0 0 0 0 0 0 0 0 0 
0 0 0 0 0 0 0 0 0 
0 0 0 0 0 0 0 0 0 
0 0 0 0 0 0 0 0 0 
0 0 0 0 0 0 0 0 0 
0 0 0 0 0 0 0 0 0 
0 0 0 0 0 0 0 0 0 
0 0 0 0 0 0 0 0 0 
0 0 0 0 0 0 0 0 0 
0 0 0 0 0 0 0 0 0 
0 0 0 0 0 0 0 0 0 
0 0 0 0 0 0 0 0 0 
0 0 0 0 0 0 0 0 0 
0 0 0 0 0 0 0 0 0 
0 0 0 0 0 0 0 0 0 
0 0 0 0 0 0 0 0 0 
0 0 0 0 0 0 0 0 0 
0 0 0 0 0 0 0 0 0 
0 0 0 0 0 0 0 0 0 
0 0 0 0 0 0 0 0 0 
0 0 0 0 0 0 0 0 0 
0 0 0 0 0 0 0 0 0 
0 0 0 0 0 0 0 0 0 
0 0 0 0 0 0 0 0 0 
0 0 0 0 0 0 0 0 0 
0 0 0 0 0 0 0 0 0 
0 0 0 0 0 0 0 0 0 
0 0 0 0 0 0 0 0 0 
0 0 0 0 0 0 0 0 0 
0 0 0 0 0 0 0 0 0 
0 0 0 0 0 0 0 0 0 
0 0 0 0 0 0 0 0 0 
0 0 0 0 0 0 0 0 0 
0 0 0 0 0 0 0 0 0 
0 0 0 0 0 0 0 0 0 
0 0 0 0 0 0 0 0 0 
0 0 0 0 0 0 0 0 0 
0 0 0 0 0 0 0 0 0 
0 0 0 0 0 0 0 0 0 
0 0 0 0 0 0 0 0 0 
0 0 0 0 0 0 0 0 0 
0 0 0 0 0 0 0 0 0 
0 0 0 0 0 0 0 0 0 
0 0 0 0 0 0 0 0 0 
0 0 0 0 0 0 0 0 0 
0 0 0 0 0 0 0 0 0 
0 0 0 0 0 0 0 0 0 
0 0 0 0 0 0 0 0 0 
0 0 0 0 0 0 0 0 0 
0 0 0 0 0 0 0 0 0 
0 0 0 0 0 0 0 0 0 
0 0 0 0 0 0 0 0 0 
0 0 0 0 0 0 0 0 0 
0 0 0 0 0 0 0 0 0 
0 0 0 0 0 0 0 0 0 
0 0 0 0 0 0 0 0 0 
0 0 0 0 0 0 0 0 0 
0 0 0 0 0 0 0 0 0 
0 0 0 0 0 0 0 0 0 
0 0 0 0 0 0 0 0 0 
0 0 0 0 0 0 0 0 0 
0 0 0 0 0 0 0 0 0 
0 0 0 0 0 0 0 0 0 
0 0 0 0 0 0 0 0 0 
0 0 0 0 0 0 0 0 0 
0 0 0 0 0 0 0 0 0 
0 0 0 0 0 0 0 0 0 
0 0 0 0 0 0 0 0 0 
0 0 0 0 0 0 0 0 0 
0 0 0 0 0 0 0 0 0 
0 0 0 0 0 0 0 0 0 
0 0 0 0 0 0 0 0 0 
0 0 0 0 0 0 0 0 0 
0 0 0 0 0 0 0 0 0 
0 0 0 0 0 0 0 0 0 
0 0 0 0 0 0 0 0 0 
0 0 0 0 0 0 0 0 0 
0 0 0 0 0 0 0 0 0 
0 0 0 0 0 0 0 0 0 
0 0 0 0 0 0 0 0 0 
0 0 0 0 0 0 0 0 0 
0 0 0 0 0 0 0 0 0 
0 0 0 0 0 0 0 0 0 
0 0 0 0 0 0 0 0 0 
0 0 0 0 0 0 0 0 0 
0 0 0 0 0 0 0 0 0 
0 0 0 0 0 0 0 0 0 
0 0 0 0 0 0 0 0 0 
0 0 0 0 0 0 0 0 0 
0 0 0 0 0 0 0 0 0 
0 0 0 0 0 0 0 0 0 
0 0 0 0 0 0 0 0 0 
0 0 0 0 0 0 0 0 0 
0 0 0 0 0 0 0 0 0 
0 0 0 0 0 0 0 0 0 
0 0 0 0 0 0 0 0 0 
0 0 0 0 0 0 0 0 0 
0 0 0 0 0 0 0 0 0 
0 0 0 0 0 0 0 0 0 
0 0 0 0 0 0 0 0 0 
0 0 0 0 0 0 0 0 0 
0 0 0 0 0 0 0 0 0 
0 0 0 0 0 0 0 0 0 
0 0 0 0 0 0 0 0 0 
0 0 0 0 0 0 0 0 0 
0 0 0 0 0 0 0 0 0 
0 0 0 0 0 0 0 0 0 
0 0 0 0 0 0 0 0 0 
0 0 0 0 0 0 0 0 0 
0 0 0 0 0 0 0 0 0 
0 0 0 0 0 0 0 0 0 
0 0 0 0 0 0 0 0 0 
0 0 0 0 0 0 0 0 0 
0 0 0 0 0 0 0 0 0 
0 0 0 0 0 0 0 0 0 
0 0 0 0 0 0 0 0 0 
0 0 0 0 0 0 0 0 0 
0 0 0 0 0 0 0 0 0 
0 0 0 0 0 0 0 0 0 
0 0 0 0 0 0 0 0 0 
0 0 0 0 0 0 0 0 0 
0 0 0 0 0 0 0 0 0 
0 0 0 0 0 0 0 0 0 
0 0 0 0 0 0 0 0 0 
0 0 0 0 0 0 0 0 0 
0 0 0 0 0 0 0 0 0 
0 0 0 0 0 0 0 0 0 
0 0 0 0 0 0 0 0 0 
0 0 0 0 0 0 0 0 0 
0 0 0 0 0 0 0 0 0 
0 0 0 0 0 0 0 0 0 
0 0 0 0 0 0 0 0 0 
0 0 0 0 0 0 0 0 0 
0 0 0 0 0 0 0 0 0 
0 0 0 0 0 0 0 0 0 
0 0 0 0 0 0 0 0 0 
0 0 0 0 0 0 0 0 0 
0 0 0 0 0 0 0 0 0 
0 0 0 0 0 0 0 0 0 
0 0 0 0 0 0 0 0 0 
0 0 0 0 0 0 0 0 0 
0 0 0 0 0 0 0 0 0 
0 0 0 0 0 0 0 0 0 
0 0 0 0 0 0 0 0 0 
0 0 0 0 0 0 0 0 0 
0 0 0 0 0 0 0 0 0 
0 0 0 0 0 0 0 0 0 
0 0 0 0 0 0 0 0 0 
0 0 0 0 0 0 0 0 0 
0 0 0 0 0 0 0 0 0 
0 0 0 0 0 0 0 0 0 
0 0 0 0 0 0 0 0 0 
0 0 0 0 0 0 0 0 0 
0 0 0 0 0 0 0 0 0 
0 0 0 0 0 0 0 0 0 
0 0 0 0 0 0 0 0 0 
0 0 0 0 0 0 0 0 0 
0 0 0 0 0 0 0 0 0 
0 0 0 0 0 0 0 0 0 
0 0 0 0 0 0 0 0 0 
0 0 0 0 0 0 0 0 0 
0 0 0 0 0 0 0 0 0 
0 0 0 0 0 0 0 0 0 
0 0 0 0 0 0 0 0 0 
0 0 0 0 0 0 0 0 0 
0 0 0 0 0 0 0 0 0 
0 0 0 0 0 0 0 0 0 
0 0 0 0 0 0 0 0 0 
0 0 0 0 0 0 0 0 0 
0 0 0 0 0 0 0 0 0 
0 0 0 0 0 0 0 0 0 
0 0 0 0 0 0 0 0 0 
0 0 0 0 0 0 0 0 0 
0 0 0 0 0 0 0 0 0 
0 0 0 0 0 0 0 0 0 
0 0 0 0 0 0 0 0 0 
0 0 0 0 0 0 0 0 0 
0 0 0 0 0 0 0 0 0 
0 0 0 0 0 0 0 0 0 
0 0 0 0 0 0 0 0 0 
0 0 0 0 0 0 0 0 0 
0 0 0 0 0 0 0 0 0 
0 0 0 0 0 0 0 0 0 
0 0 0 0 0 0 0 0 0 
0 0 0 0 0 0 0 0 0 
0 0 0 0 0 0 0 0 0 
0 0 0 0 0 0 0 0 0 
0 0 0 0 0 0 0 0 0 
0 0 0 0 0 0 0 0 0 
0 0 0 0 0 0 0 0 0 
0 0 0 0 0 0 0 0 0 
0 0 0 0 0 0 0 0 0 
0 0 0 0 0 0 0 0 0 
0 0 0 0 0 0 0 0 0 
0 0 0 0 0 0 0 0 0 
0 0 0 0 0 0 0 0 0 
0 0 0 0 0 0 0 0 0 
0 0 0 0 0 0 0 0 0 
0 0 0 0 0 0 0 0 0 
0 0 0 0 0 0 0 0 0 
0 0 0 0 0 0 0 0 0 
0 0 0 0 0 0 0 0 0 
0 0 0 0 0 0 0 0 0 
0 0 0 0 0 0 0 0 0 
0 0 0 0 0 0 0 0 0 
0 0 0 0 0 0 0 0 0 
0 0 0 0 0 0 0 0 0 
0 0 0 0 0 0 0 0 0 
0 0 0 0 0 0 0 0 0 
0 0 0 0 0 0 0 0 0 
0 0 0 0 0 0 0 0 0 
0 0 0 0 0 0 0 0 0 
0 0 0 0 0 0 0 0 0 
0 0 0 0 0 0 0 0 0 
0 0 0 0 0 0 0 0 0 
0 0 0 0 0 0 0 0 0 
0 0 0 0 0 0 0 0 0 
0 0 0 0 0 0 0 0 0 
0 0 0 0 0 0 0 0 0 
0 0 0 0 0 0 0 0 0 
0 0 0 0 0 0 0 0 0 
0 0 0 0 0 0 0 0 0 
0 0 0 0 0 0 0 0 0 
0 0 0 0 0 0 0 0 0 
0 0 0 0 0 0 0 0 0 
0 0 0 0 0 0 0 0 0 
0 0 0 0 0 0 0 0 0 
0 0 0 0 0 0 0 0 0 
0 0 0 0 0 0 0 0 0 
0 0 0 0 0 0 0 0 0 
0 0 0 0 0 0 0 0 0 
0 0 0 0 0 0 0 0 0 
0 0 0 0 0 0 0 0 0 
0 0 0 0 0 0 0 0 0 
0 0 0 0 0 0 0 0 0 
0 0 0 0 0 0 0 0 0 
0 0 0 0 0 0 0 0 0 
0 0 0 0 0 0 0 0 0 
0 0 0 0 0 0 0 0 0 
0 0 0 0 0 0 0 0 0 
0 0 0 0 0 0 0 0 0 
0 0 0 0 0 0 0 0 0 
0 0 0 0 0 0 0 0 0 
0 0 0 0 0 0 0 0 0 
0 0 0 0 0 0 0 0 0 
0 0 0 0 0 0 0 0 0 
0 0 0 0 0 0 0 0 0 
0 0 0 0 0 0 0 0 0 
0 0 0 0 0 0 0 0 0 
0 0 0 0 0 0 0 0 0 
0 0 0 0 0 0 0 0 0 
0 0 0 0 0 0 0 0 0 
0 0 0 0 0 0 0 0 0 
0 0 0 0 0 0 0 0 0 
0 0 0 0 0 0 0 0 0 
0 0 0 0 0 0 0 0 0 
0 0 0 0 0 0 0 0 0 
0 0 0 0 0 0 0 0 0 
0 0 0 0 0 0 0 0 0 
0 0 0 0 0 0 0 0 0 
0 0 0 0 0 0 0 0 0 
0 0 0 0 0 0 0 0 0 
0 0 0 0 0 0 0 0 0 
0 0 0 0 0 0 0 0 0 
0 0 0 0 0 0 0 0 0 
0 0 0 0 0 0 0 0 0 
0 0 0 0 0 0 0 0 0 
0 0 0 0 0 0 0 0 0 
0 0 0 0 0 0 0 0 0 
0 0 0 0 0 0 0 0 0 
0 0 0 0 0 0 0 0 0 
0 0 0 0 0 0 0 0 0 
0 0 0 0 0 0 0 0 0 
0 0 0 0 0 0 0 0 0 
0 0 0 0 0 0 0 0 0 
0 0 0 0 0 0 0 0 0 
0 0 0 0 0 0 0 0 0 
0 0 0 0 0 0 0 0 0 
0 0 0 0 0 0 0 0 0 
0 0 0 0 0 0 0 0 0 
0 0 0 0 0 0 0 0 0 
0 0 0 0 0 0 0 0 0 
0 0 0 0 0 0 0 0 0 
0 0 0 0 0 0 0 0 0 
0 0 0 0 0 0 0 0 0 
0 0 0 0 0 0 0 0 0 
0 0 0 0 0 0 0 0 0 
0 0 0 0 0 0 0 0 0 
0 0 0 0 0 0 0 0 0 
0 0 0 0 0 0 0 0 0 
0 0 0 0 0 0 0 0 0 
0 0 0 0 0 0 0 0 0 
0 0 0 0 0 0 0 0 0 
0 0 0 0 0 0 0 0 0 
0 0 0 0 0 0 0 0 0 
0 0 0 0 0 0 0 0 0 
0 0 0 0 0 0 0 0 0 
0 0 0 0 0 0 0 0 0 
0 0 0 0 0 0 0 0 0 
0 0 0 0 0 0 0 0 0 
0 0 0 0 0 0 0 0 0 
0 0 0 0 0 0 0 0 0 
0 0 0 0 0 0 0 0 0 
0 0 0 0 0 0 0 0 0 
0 0 0 0 0 0 0 0 0 
0 0 0 0 0 0 0 0 0 
0 0 0 0 0 0 0 0 0 
0 0 0 0 0 0 0 0 0 
0 0 0 0 0 0 0 0 0 
0 0 0 0 0 0 0 0 0 
0 0 0 0 0 0 0 0 0 
0 0 0 0 0 0 0 0 0 
0 0 0 0 0 0 0 0 0 
0 0 0 0 0 0 0 0 0 
0 0 0 0 0 0 0 0 0 
0 0 0 0 0 0 0 0 0 
0 0 0 0 0 0 0 0 0 
0 0 0 0 0 0 0 0 0 
0 0 0 0 0 0 0 0 0 
0 0 0 0 0 0 0 0 0 
0 0 0 0 0 0 0 0 0 
0 0 0 0 0 0 0 0 0 
0 0 0 0 0 0 0 0 0 
0 0 0 0 0 0 0 0 0 
0 0 0 0 0 0 0 0 0 
0 0 0 0 0 0 0 0 0 
0 0 0 0 0 0 0 0 0 
0 0 0 0 0 0 0 0 0 
0 0 0 0 0 0 0 0 0 
0 0 0 0 0 0 0 0 0 
0 0 0 0 0 0 0 0 0 
0 0 0 0 0 0 0 0 0 
0 0 0 0 0 0 0 0 0 
0 0 0 0 0 0 0 0 0 
0 0 0 0 0 0 0 0 0 
0 0 0 0 0 0 0 0 0 
0 0 0 0 0 0 0 0 0 
0 0 0 0 0 0 0 0 0 
0 0 0 0 0 0 0 0 0 
0 0 0 0 0 0 0 0 0 
0 0 0 0 0 0 0 0 0 
0 0 0 0 0 0 0 0 0 
0 0 0 0 0 0 0 0 0 
0 0 0 0 0 0 0 0 0 
0 0 0 0 0 0 0 0 0 
0 0 0 0 0 0 0 0 0 
0 0 0 0 0 0 0 0 0 
0 0 0 0 0 0 0 0 0 
0 0 0 0 0 0 0 0 0 
0 0 0 0 0 0 0 0 0 
0 0 0 0 0 0 0 0 0 
0 0 0 0 0 0 0 0 0 
0 0 0 0 0 0 0 0 0 
0 0 0 0 0 0 0 0 0 
0 0 0 0 0 0 0 0 0 
0 0 0 0 0 0 0 0 0 
0 0 0 0 0 0 0 0 0 
0 0 0 0 0 0 0 0 0 
0 0 0 0 0 0 0 0 0 
0 0 0 0 0 0 0 0 0 
0 0 0 0 0 0 0 0 0 
0 0 0 0 0 0 0 0 0 
0 0 0 0 0 0 0 0 0 
0 0 0 0 0 0 0 0 0 
0 0 0 0 0 0 0 0 0 
0 0 0 0 0 0 0 0 0 
0 0 0 0 0 0 0 0 0 
0 0 0 0 0 0 0 0 0 
0 0 0 0 0 0 0 0 0 
0 0 0 0 0 0 0 0 0 
0 0 0 0 0 0 0 0 0 
0 0 0 0 0 0 0 0 0 
0 0 0 0 0 0 0 0 0 
0 0 0 0 0 0 0 0 0 
0 0 0 0 0 0 0 0 0 
0 0 0 0 0 0 0 0 0 
0 0 0 0 0 0 0 0 0 
0 0 0 0 0 0 0 0 0 
0 0 0 0 0 0 0 0 0 
0 0 0 0 0 0 0 0 0 
0 0 0 0 0 0 0 0 0 
0 0 0 0 0 0 0 0 0 
0 0 0 0 0 0 0 0 0 
0 0 0 0 0 0 0 0 0 
0 0 0 0 0 0 0 0 0 
0 0 0 0 0 0 0 0 0 
0 0 0 0 0 0 0 0 0 
0 0 0 0 0 0 0 0 0 
0 0 0 0 0 0 0 0 0 
0 0 0 0 0 0 0 0 0 
0 0 0 0 0 0 0 0 0 
0 0 0 0 0 0 0 0 0 
0 0 0 0 0 0 0 0 0 
0 0 0 0 0 0 0 0 0 
0 0 0 0 0 0 0 0 0 
0 0 0 0 0 0 0 0 0 
0 0 0 0 0 0 0 0 0 
0 0 0 0 0 0 0 0 0 
0 0 0 0 0 0 0 0 0 
0 0 0 0 0 0 0 0 0 
0 0 0 0 0 0 0 0 0 
0 0 0 0 0 0 0 0 0 
0 0 0 0 0 0 0 0 0 
0 0 0 0 0 0 0 0 0 
0 0 0 0 0 0 0 0 0 
0 0 0 0 0 0 0 0 0 
0 0 0 0 0 0 0 0 0 
0 0 0 0 0 0 0 0 0 
0 0 0 0 0 0 0 0 0 
0 0 0 0 0 0 0 0 0 
0 0 0 0 0 0 0 0 0 
0 0 0 0 0 0 0 0 0 
0 0 0 0 0 0 0 0 0 
0 0 0 0 0 0 0 0 0 
0 0 0 0 0 0 0 0 0 
0 0 0 0 0 0 0 0 0 
0 0 0 0 0 0 0 0 0 
0 0 0 0 0 0 0 0 0 
0 0 0 0 0 0 0 0 0 
0 0 0 0 0 0 0 0 0 
0 0 0 0 0 0 0 0 0 
0 0 0 0 0 0 0 0 0 
0 0 0 0 0 0 0 0 0 
0 0 0 0 0 0 0 0 0 
0 0 0 0 0 0 0 0 0 
0 0 0 0 0 0 0 0 0 
0 0 0 0 0 0 0 0 0 
0 0 0 0 0 0 0 0 0 
0 0 0 0 0 0 0 0 0 
0 0 0 0 0 0 0 0 0 
0 0 0 0 0 0 0 0 0 
0 0 0 0 0 0 0 0 0 
0 0 0 0 0 0 0 0 0 
0 0 0 0 0 0 0 0 0 
0 0 0 0 0 0 0 0 0 
0 0 0 0 0 0 0 0 0 
0 0 0 0 0 0 0 0 0 
0 0 0 0 0 0 0 0 0 
0 0 0 0 0 0 0 0 0 
0 0 0 0 0 0 0 0 0 
0 0 0 0 0 0 0 0 0 
0 0 0 0 0 0 0 0 0 
0 0 0 0 0 0 0 0 0 
0 0 0 0 0 0 0 0 0 
0 0 0 0 0 0 0 0 0 
0 0 0 0 0 0 0 0 0 
0 0 0 0 0 0 0 0 0 
0 0 0 0 0 0 0 0 0 
0 0 0 0 0 0 0 0 0 
0 0 0 0 0 0 0 0 0 
0 0 0 0 0 0 0 0 0 
0 0 0 0 0 0 0 0 0 
0 0 0 0 0 0 0 0 0 
0 0 0 0 0 0 0 0 0 
0 0 0 0 0 0 0 0 0 
0 0 0 0 0 0 0 0 0 
0 0 0 0 0 0 0 0 0 
0 0 0 0 0 0 0 0 0 
0 0 0 0 0 0 0 0 0 
0 0 0 0 0 0 0 0 0 
0 0 0 0 0 0 0 0 0 
0 0 0 0 0 0 0 0 0 
0 0 0 0 0 0 0 0 0 
0 0 0 0 0 0 0 0 0 
0 0 0 0 0 0 0 0 0 
0 0 0 0 0 0 0 0 0 
0 0 0 0 0 0 0 0 0 
0 0 0 0 0 0 0 0 0 
0 0 0 0 0 0 0 0 0 
0 0 0 0 0 0 0 0 0 
0 0 0 0 0 0 0 0 0 
0 0 0 0 0 0 0 0 0 
0 0 0 0 0 0 0 0 0 
0 0 0 0 0 0 0 0 0 
0 0 0 0 0 0 0 0 0 
0 0 0 0 0 0 0 0 0 
0 0 0 0 0 0 0 0 0 
0 0 0 0 0 0 0 0 0 
0 0 0 0 0 0 0 0 0 
0 0 0 0 0 0 0 0 0 
0 0 0 0 0 0 0 0 0 
0 0 0 0 0 0 0 0 0 
0 0 0 0 0 0 0 0 0 
0 0 0 0 0 0 0 0 0 
0 0 0 0 0 0 0 0 0 
0 0 0 0 0 0 0 0 0 
0 0 0 0 0 0 0 0 0 
0 0 0 0 0 0 0 0 0 
0 0 0 0 0 0 0 0 0 
0 0 0 0 0 0 0 0 0 
0 0 0 0 0 0 0 0 0 
0 0 0 0 0 0 0 0 0 
0 0 0 0 0 0 0 0 0 
0 0 0 0 0 0 0 0 0 
0 0 0 0 0 0 0 0 0 
0 0 0 0 0 0 0 0 0 
0 0 0 0 0 0 0 0 0 
0 0 0 0 0 0 0 0 0 
0 0 0 0 0 0 0 0 0 
0 0 0 0 0 0 0 0 0 
0 0 0 0 0 0 0 0 0 
0 0 0 0 0 0 0 0 0 
0 0 0 0 0 0 0 0 0 
0 0 0 0 0 0 0 0 0 
0 0 0 0 0 0 0 0 0 
0 0 0 0 0 0 0 0 0 
0 0 0 0 0 0 0 0 0 
0 0 0 0 0 0 0 0 0 
0 0 0 0 0 0 0 0 0 
0 0 0 0 0 0 0 0 0 
0 0 0 0 0 0 0 0 0 
0 0 0 0 0 0 0 0 0 
0 0 0 0 0 0 0 0 0 
0 0 0 0 0 0 0 0 0 
0 0 0 0 0 0 0 0 0 
0 0 0 0 0 0 0 0 0 
0 0 0 0 0 0 0 0 0 
0 0 0 0 0 0 0 0 0 
0 0 0 0 0 0 0 0 0 
0 0 0 0 0 0 0 0 0 
0 0 0 0 0 0 0 0 0 
0 0 0 0 0 0 0 0 0 
0 0 0 0 0 0 0 0 0 
0 0 0 0 0 0 0 0 0 
0 0 0 0 0 0 0 0 0 
0 0 0 0 0 0 0 0 0 
0 0 0 0 0 0 0 0 0 
0 0 0 0 0 0 0 0 0 
0 0 0 0 0 0 0 0 0 
0 0 0 0 0 0 0 0 0 
0 0 0 0 0 0 0 0 0 
0 0 0 0 0 0 0 0 0 
0 0 0 0 0 0 0 0 0 
0 0 0 0 0 0 0 0 0 
0 0 0 0 0 0 0 0 0 
0 0 0 0 0 0 0 0 0 
0 0 0 0 0 0 0 0 0 
0 0 0 0 0 0 0 0 0 
0 0 0 0 0 0 0 0 0 
0 0 0 0 0 0 0 0 0 
0 0 0 0 0 0 0 0 0 
0 0 0 0 0 0 0 0 0 
0 0 0 0 0 0 0 0 0 
0 0 0 0 0 0 0 0 0 
0 0 0 0 0 0 0 0 0 
0 0 0 0 0 0 0 0 0 
0 0 0 0 0 0 0 0 0 
0 0 0 0 0 0 0 0 0 
0 0 0 0 0 0 0 0 0 
0 0 0 0 0 0 0 0 0 
0 0 0 0 0 0 0 0 0 
0 0 0 0 0 0 0 0 0 
0 0 0 0 0 0 0 0 0 
0 0 0 0 0 0 0 0 0 
0 0 0 0 0 0 0 0 0 
0 0 0 0 0 0 0 0 0 
0 0 0 0 0 0 0 0 0 
0 0 0 0 0 0 0 0 0 
0 0 0 0 0 0 0 0 0 
0 0 0 0 0 0 0 0 0 
0 0 0 0 0 0 0 0 0 
0 0 0 0 0 0 0 0 0 
0 0 0 0 0 0 0 0 0 
0 0 0 0 0 0 0 0 0 
0 0 0 0 0 0 0 0 0 
0 0 0 0 0 0 0 0 0 
0 0 0 0 0 0 0 0 0 
0 0 0 0 0 0 0 0 0 
0 0 0 0 0 0 0 0 0 
0 0 0 0 0 0 0 0 0 
0 0 0 0 0 0 0 0 0 
0 0 0 0 0 0 0 0 0 
0 0 0 0 0 0 0 0 0 
0 0 0 0 0 0 0 0 0 
0 0 0 0 0 0 0 0 0 
0 0 0 0 0 0 0 0 0 
0 0 0 0 0 0 0 0 0 
0 0 0 0 0 0 0 0 0 
0 0 0 0 0 0 0 0 0 
0 0 0 0 0 0 0 0 0 
0 0 0 0 0 0 0 0 0 
0 0 0 0 0 0 0 0 0 
0 0 0 0 0 0 0 0 0 
0 0 0 0 0 0 0 0 0 
0 0 0 0 0 0 0 0 0 
0 0 0 0 0 0 0 0 0 
0 0 0 0 0 0 0 0 0 
0 0 0 0 0 0 0 0 0 
0 0 0 0 0 0 0 0 0 
0 0 0 0 0 0 0 0 0 
0 0 0 0 0 0 0 0 0 
0 0 0 0 0 0 0 0 0 
0 0 0 0 0 0 0 0 0 
0 0 0 0 0 0 0 0 0 
0 0 0 0 0 0 0 0 0 
0 0 0 0 0 0 0 0 0 
0 0 0 0 0 0 0 0 0 
0 0 0 0 0 0 0 0 0 
0 0 0 0 0 0 0 0 0 
0 0 0 0 0 0 0 0 0 
0 0 0 0 0 0 0 0 0 
0 0 0 0 0 0 0 0 0 
0 0 0 0 0 0 0 0 0 
0 0 0 0 0 0 0 0 0 
0 0 0 0 0 0 0 0 0 
0 0 0 0 0 0 0 0 0 
0 0 0 0 0 0 0 0 0 
0 0 0 0 0 0 0 0 0 
0 0 0 0 0 0 0 0 0 
0 0 0 0 0 0 0 0 0 
0 0 0 0 0 0 0 0 0 
0 0 0 0 0 0 0 0 0 
0 0 0 0 0 0 0 0 0 
0 0 0 0 0 0 0 0 0 
0 0 0 0 0 0 0 0 0 
0 0 0 0 0 0 0 0 0 
0 0 0 0 0 0 0 0 0 
0 0 0 0 0 0 0 0 0 
0 0 0 0 0 0 0 0 0 
0 0 0 0 0 0 0 0 0 
0 0 0 0 0 0 0 0 0 
0 0 0 0 0 0 0 0 0 
0 0 0 0 0 0 0 0 0 
0 0 0 0 0 0 0 0 0 
0 0 0 0 0 0 0 0 0 
0 0 0 0 0 0 0 0 0 
0 0 0 0 0 0 0 0 0 
0 0 0 0 0 0 0 0 0 
0 0 0 0 0 0 0 0 0 
0 0 0 0 0 0 0 0 0 
0 0 0 0 0 0 0 0 0 
0 0 0 0 0 0 0 0 0 
0 0 0 0 0 0 0 0 0 
0 0 0 0 0 0 0 0 0 
0 0 0 0 0 0 0 0 0 
0 0 0 0 0 0 0 0 0 
0 0 0 0 0 0 0 0 0 
0 0 0 0 0 0 0 0 0 
0 0 0 0 0 0 0 0 0 
0 0 0 0 0 0 0 0 0 
0 0 0 0 0 0 0 0 0 
0 0 0 0 0 0 0 0 0 
0 0 0 0 0 0 0 0 0 
0 0 0 0 0 0 0 0 0 
0 0 0 0 0 0 0 0 0 
0 0 0 0 0 0 0 0 0 
0 0 0 0 0 0 0 0 0 
0 0 0 0 0 0 0 0 0 
0 0 0 0 0 0 0 0 0 
0 0 0 0 0 0 0 0 0 
0 0 0 0 0 0 0 0 0 
0 0 0 0 0 0 0 0 0 
0 0 0 0 0 0 0 0 0 
0 0 0 0 0 0 0 0 0 
0 0 0 0 0 0 0 0 0 
0 0 0 0 0 0 0 0 0 
0 0 0 0 0 0 0 0 0 
0 0 0 0 0 0 0 0 0 
0 0 0 0 0 0 0 0 0 
0 0 0 0 0 0 0 0 0 
0 0 0 0 0 0 0 0 0 
0 0 0 0 0 0 0 0 0 
0 0 0 0 0 0 0 0 0 
0 0 0 0 0 0 0 0 0 
0 0 0 0 0 0 0 0 0 
0 0 0 0 0 0 0 0 0 
0 0 0 0 0 0 0 0 0 
0 0 0 0 0 0 0 0 0 
0 0 0 0 0 0 0 0 0 
0 0 0 0 0 0 0 0 0 
0 0 0 0 0 0 0 0 0 
0 0 0 0 0 0 0 0 0 
0 0 0 0 0 0 0 0 0 
0 0 0 0 0 0 0 0 0 
0 0 0 0 0 0 0 0 0 
0 0 0 0 0 0 0 0 0 
0 0 0 0 0 0 0 0 0 
0 0 0 0 0 0 0 0 0 
0 0 0 0 0 0 0 0 0 
0 0 0 0 0 0 0 0 0 
0 0 0 0 0 0 0 0 0 
0 0 0 0 0 0 0 0 0 
0 0 0 0 0 0 0 0 0 
0 0 0 0 0 0 0 0 0 
0 0 0 0 0 0 0 0 0 
0 0 0 0 0 0 0 0 0 
0 0 0 0 0 0 0 0 0 
0 0 0 0 0 0 0 0 0 
0 0 0 0 0 0 0 0 0 
0 0 0 0 0 0 0 0 0 
0 0 0 0 0 0 0 0 0 
0 0 0 0 0 0 0 0 0 
0 0 0 0 0 0 0 0 0 
0 0 0 0 0 0 0 0 0 
0 0 0 0 0 0 0 0 0 
0 0 0 0 0 0 0 0 0 
0 0 0 0 0 0 0 0 0 
0 0 0 0 0 0 0 0 0 
0 0 0 0 0 0 0 0 0 
0 0 0 0 0 0 0 0 0 
0 0 0 0 0 0 0 0 0 
0 0 0 0 0 0 0 0 0 
0 0 0 0 0 0 0 0 0 
0 0 0 0 0 0 0 0 0 
0 0 0 0 0 0 0 0 0 
0 0 0 0 0 0 0 0 0 
0 0 0 0 0 0 0 0 0 
0 0 0 0 0 0 0 0 0 
0 0 0 0 0 0 0 0 0 
0 0 0 0 0 0 0 0 0 
0 0 0 0 0 0 0 0 0 
0 0 0 0 0 0 0 0 0 
0 0 0 0 0 0 0 0 0 
0 0 0 0 0 0 0 0 0 
0 0 0 0 0 0 0 0 0 
0 0 0 0 0 0 0 0 0 
0 0 0 0 0 0 0 0 0 
0 0 0 0 0 0 0 0 0 
0 0 0 0 0 0 0 0 0 
0 0 0 0 0 0 0 0 0 
0 0 0 0 0 0 0 0 0 
0 0 0 0 0 0 0 0 0 
0 0 0 0 0 0 0 0 0 
0 0 0 0 0 0 0 0 0 
0 0 0 0 0 0 0 0 0 
0 0 0 0 0 0 0 0 0 
0 0 0 0 0 0 0 0 0 
0 0 0 0 0 0 0 0 0 
0 0 0 0 0 0 0 0 0 
0 0 0 0 0 0 0 0 0 
0 0 0 0 0 0 0 0 0 
0 0 0 0 0 0 0 0 0 
0 0 0 0 0 0 0 0 0 
0 0 0 0 0 0 0 0 0 
0 0 0 0 0 0 0 0 0 
0 0 0 0 0 0 0 0 0 
0 0 0 0 0 0 0 0 0 
0 0 0 0 0 0 0 0 0 
0 0 0 0 0 0 0 0 0 
0 0 0 0 0 0 0 0 0 
0 0 0 0 0 0 0 0 0 
0 0 0 0 0 0 0 0 0 
0 0 0 0 0 0 0 0 0 
0 0 0 0 0 0 0 0 0 
0 0 0 0 0 0 0 0 0 
0 0 0 0 0 0 0 0 0 
0 0 0 0 0 0 0 0 0 
0 0 0 0 0 0 0 0 0 
0 0 0 0 0 0 0 0 0 
0 0 0 0 0 0 0 0 0 
0 0 0 0 0 0 0 0 0 
0 0 0 0 0 0 0 0 0 
0 0 0 0 0 0 0 0 0 
0 0 0 0 0 0 0 0 0 
0 0 0 0 0 0 0 0 0 
0 0 0 0 0 0 0 0 0 
0 0 0 0 0 0 0 0 0 
0 0 0 0 0 0 0 0 0 
0 0 0 0 0 0 0 0 0 
0 0 0 0 0 0 0 0 0 
0 0 0 0 0 0 0 0 0 
0 0 0 0 0 0 0 0 0 
0 0 0 0 0 0 0 0 0 
0 0 0 0 0 0 0 0 0 
0 0 0 0 0 0 0 0 0 
0 0 0 0 0 0 0 0 0 
0 0 0 0 0 0 0 0 0 
0 0 0 0 0 0 0 0 0 
0 0 0 0 0 0 0 0 0 
0 0 0 0 0 0 0 0 0 
0 0 0 0 0 0 0 0 0 
0 0 0 0 0 0 0 0 0 
0 0 0 0 0 0 0 0 0 
0 0 0 0 0 0 0 0 0 
0 0 0 0 0 0 0 0 0 
0 0 0 0 0 0 0 0 0 
0 0 0 0 0 0 0 0 0 
0 0 0 0 0 0 0 0 0 
0 0 0 0 0 0 0 0 0 
0 0 0 0 0 0 0 0 0 
0 0 0 0 0 0 0 0 0 
0 0 0 0 0 0 0 0 0 
0 0 0 0 0 0 0 0 0 
0 0 0 0 0 0 0 0 0 
0 0 0 0 0 0 0 0 0 
0 0 0 0 0 0 0 0 0 
0 0 0 0 0 0 0 0 0 
0 0 0 0 0 0 0 0 0 
0 0 0 0 0 0 0 0 0 
0 0 0 0 0 0 0 0 0 
0 0 0 0 0 0 0 0 0 
0 0 0 0 0 0 0 0 0 
0 0 0 0 0 0 0 0 0 
0 0 0 0 0 0 0 0 0 
0 0 0 0 0 0 0 0 0 
0 0 0 0 0 0 0 0 0 
0 0 0 0 0 0 0 0 0 
0 0 0 0 0 0 0 0 0 
0 0 0 0 0 0 0 0 0 
0 0 0 0 0 0 0 0 0 
0 0 0 0 0 0 0 0 0 
0 0 0 0 0 0 0 0 0 
0 0 0 0 0 0 0 0 0 
0 0 0 0 0 0 0 0 0 
0 0 0 0 0 0 0 0 0 
0 0 0 0 0 0 0 0 0 
0 0 0 0 0 0 0 0 0 
0 0 0 0 0 0 0 0 0 
0 0 0 0 0 0 0 0 0 
0 0 0 0 0 0 0 0 0 
0 0 0 0 0 0 0 0 0 
0 0 0 0 0 0 0 0 0 
0 0 0 0 0 0 0 0 0 
0 0 0 0 0 0 0 0 0 
0 0 0 0 0 0 0 0 0 
0 0 0 0 0 0 0 0 0 
0 0 0 0 0 0 0 0 0 
0 0 0 0 0 0 0 0 0 
0 0 0 0 0 0 0 0 0 
0 0 0 0 0 0 0 0 0 
0 0 0 0 0 0 0 0 0 
0 0 0 0 0 0 0 0 0 
0 0 0 0 0 0 0 0 0 
0 0 0 0 0 0 0 0 0 
0 0 0 0 0 0 0 0 0 
0 0 0 0 0 0 0 0 0 
0 0 0 0 0 0 0 0 0 
0 0 0 0 0 0 0 0 0 
0 0 0 0 0 0 0 0 0 
0 0 0 0 0 0 0 0 0 
0 0 0 0 0 0 0 0 0 
0 0 0 0 0 0 0 0 0 
0 0 0 0 0 0 0 0 0 
0 0 0 0 0 0 0 0 0 
0 0 0 0 0 0 0 0 0 
0 0 0 0 0 0 0 0 0 
0 0 0 0 0 0 0 0 0 
0 0 0 0 0 0 0 0 0 
0 0 0 0 0 0 0 0 0 
0 0 0 0 0 0 0 0 0 
0 0 0 0 0 0 0 0 0 
0 0 0 0 0 0 0 0 0 
0 0 0 0 0 0 0 0 0 
0 0 0 0 0 0 0 0 0 
0 0 0 0 0 0 0 0 0 
0 0 0 0 0 0 0 0 0 
0 0 0 0 0 0 0 0 0 
0 0 0 0 0 0 0 0 0 
0 0 0 0 0 0 0 0 0 
0 0 0 0 0 0 0 0 0 
0 0 0 0 0 0 0 0 0 
0 0 0 0 0 0 0 0 0 
0 0 0 0 0 0 0 0 0 
0 0 0 0 0 0 0 0 0 
0 0 0 0 0 0 0 0 0 
0 0 0 0 0 0 0 0 0 
0 0 0 0 0 0 0 0 0 
0 0 0 0 0 0 0 0 0 
0 0 0 0 0 0 0 0 0 
0 0 0 0 0 0 0 0 0 
0 0 0 0 0 0 0 0 0 
0 0 0 0 0 0 0 0 0 
0 0 0 0 0 0 0 0 0 
0 0 0 0 0 0 0 0 0 
0 0 0 0 0 0 0 0 0 
0 0 0 0 0 0 0 0 0 
0 0 0 0 0 0 0 0 0 
0 0 0 0 0 0 0 0 0 
0 0 0 0 0 0 0 0 0 
0 0 0 0 0 0 0 0 0 
0 0 0 0 0 0 0 0 0 
0 0 0 0 0 0 0 0 0 
0 0 0 0 0 0 0 0 0 
0 0 0 0 0 0 0 0 0 
0 0 0 0 0 0 0 0 0 
0 0 0 0 0 0 0 0 0 
0 0 0 0 0 0 0 0 0 
0 0 0 0 0 0 0 0 0 
0 0 0 0 0 0 0 0 0 
0 0 0 0 0 0 0 0 0 
0 0 0 0 0 0 0 0 0 
0 0 0 0 0 0 0 0 0 
0 0 0 0 0 0 0 0 0 
0 0 0 0 0 0 0 0 0 
0 0 0 0 0 0 0 0 0 
0 0 0 0 0 0 0 0 0 
0 0 0 0 0 0 0 0 0 
0 0 0 0 0 0 0 0 0 
0 0 0 0 0 0 0 0 0 
0 0 0 0 0 0 0 0 0 
0 0 0 0 0 0 0 0 0 
0 0 0 0 0 0 0 0 0 
0 0 0 0 0 0 0 0 0 
0 0 0 0 0 0 0 0 0 
0 0 0 0 0 0 0 0 0 
0 0 0 0 0 0 0 0 0 
0 0 0 0 0 0 0 0 0 
0 0 0 0 0 0 0 0 0 
0 0 0 0 0 0 0 0 0 
0 0 0 0 0 0 0 0 0 
0 0 0 0 0 0 0 0 0 
0 0 0 0 0 0 0 0 0 
0 0 0 0 0 0 0 0 0 
0 0 0 0 0 0 0 0 0 
0 0 0 0 0 0 0 0 0 
0 0 0 0 0 0 0 0 0 
0 0 0 0 0 0 0 0 0 
0 0 0 0 0 0 0 0 0 
0 0 0 0 0 0 0 0 0 
0 0 0 0 0 0 0 0 0 
0 0 0 0 0 0 0 0 0 
0 0 0 0 0 0 0 0 0 
0 0 0 0 0 0 0 0 0 
0 0 0 0 0 0 0 0 0 
0 0 0 0 0 0 0 0 0 
0 0 0 0 0 0 0 0 0 
0 0 0 0 0 0 0 0 0 
0 0 0 0 0 0 0 0 0 
0 0 0 0 0 0 0 0 0 
0 0 0 0 0 0 0 0 0 
0 0 0 0 0 0 0 0 0 
0 0 0 0 0 0 0 0 0 
0 0 0 0 0 0 0 0 0 
0 0 0 0 0 0 0 0 0 
0 0 0 0 0 0 0 0 0 
0 0 0 0 0 0 0 0 0 
0 0 0 0 0 0 0 0 0 
0 0 0 0 0 0 0 0 0 
0 0 0 0 0 0 0 0 0 
0 0 0 0 0 0 0 0 0 
0 0 0 0 0 0 0 0 0 
0 0 0 0 0 0 0 0 0 
0 0 0 0 0 0 0 0 0 
0 0 0 0 0 0 0 0 0 
0 0 0 0 0 0 0 0 0 
0 0 0 0 0 0 0 0 0 
0 0 0 0 0 0 0 0 0 
0 0 0 0 0 0 0 0 0 
0 0 0 0 0 0 0 0 0 
0 0 0 0 0 0 0 0 0 
0 0 0 0 0 0 0 0 0 
0 0 0 0 0 0 0 0 0 
0 0 0 0 0 0 0 0 0 
0 0 0 0 0 0 0 0 0 
0 0 0 0 0 0 0 0 0 
0 0 0 0 0 0 0 0 0 
0 0 0 0 0 0 0 0 0 
0 0 0 0 0 0 0 0 0 
0 0 0 0 0 0 0 0 0 
0 0 0 0 0 0 0 0 0 
0 0 0 0 0 0 0 0 0 
0 0 0 0 0 0 0 0 0 
0 0 0 0 0 0 0 0 0 
0 0 0 0 0 0 0 0 0 
0 0 0 0 0 0 0 0 0 
0 0 0 0 0 0 0 0 0 
0 0 0 0 0 0 0 0 0 
0 0 0 0 0 0 0 0 0 
0 0 0 0 0 0 0 0 0 
0 0 0 0 0 0 0 0 0 
0 0 0 0 0 0 0 0 0 
0 0 0 0 0 0 0 0 0 
0 0 0 0 0 0 0 0 0 
0 0 0 0 0 0 0 0 0 
0 0 0 0 0 0 0 0 0 
0 0 0 0 0 0 0 0 0 
0 0 0 0 0 0 0 0 0 
0 0 0 0 0 0 0 0 0 
0 0 0 0 0 0 0 0 0 
0 0 0 0 0 0 0 0 0 
0 0 0 0 0 0 0 0 0 
0 0 0 0 0 0 0 0 0 
0 0 0 0 0 0 0 0 0 
0 0 0 0 0 0 0 0 0 
0 0 0 0 0 0 0 0 0 
0 0 0 0 0 0 0 0 0 
0 0 0 0 0 0 0 0 0 
0 0 0 0 0 0 0 0 0 
0 0 0 0 0 0 0 0 0 
0 0 0 0 0 0 0 0 0 
0 0 0 0 0 0 0 0 0 
0 0 0 0 0 0 0 0 0 
0 0 0 0 0 0 0 0 0 
0 0 0 0 0 0 0 0 0 
0 0 0 0 0 0 0 0 0 
0 0 0 0 0 0 0 0 0 
0 0 0 0 0 0 0 0 0 
0 0 0 0 0 0 0 0 0 
0 0 0 0 0 0 0 0 0 
0 0 0 0 0 0 0 0 0 
0 0 0 0 0 0 0 0 0 
0 0 0 0 0 0 0 0 0 
0 0 0 0 0 0 0 0 0 
0 0 0 0 0 0 0 0 0 
0 0 0 0 0 0 0 0 0 
0 0 0 0 0 0 0 0 0 
0 0 0 0 0 0 0 0 0 
0 0 0 0 0 0 0 0 0 
0 0 0 0 0 0 0 0 0 
0 0 0 0 0 0 0 0 0 
0 0 0 0 0 0 0 0 0 
0 0 0 0 0 0 0 0 0 
0 0 0 0 0 0 0 0 0 
0 0 0 0 0 0 0 0 0 
0 0 0 0 0 0 0 0 0 
0 0 0 0 0 0 0 0 0 
0 0 0 0 0 0 0 0 0 
0 0 0 0 0 0 0 0 0 
0 0 0 0 0 0 0 0 0 
0 0 0 0 0 0 0 0 0 
0 0 0 0 0 0 0 0 0 
0 0 0 0 0 0 0 0 0 
0 0 0 0 0 0 0 0 0 
0 0 0 0 0 0 0 0 0 
0 0 0 0 0 0 0 0 0 
0 0 0 0 0 0 0 0 0 
0 0 0 0 0 0 0 0 0 
0 0 0 0 0 0 0 0 0 
0 0 0 0 0 0 0 0 0 
0 0 0 0 0 0 0 0 0 
0 0 0 0 0 0 0 0 0 
0 0 0 0 0 0 0 0 0 
0 0 0 0 0 0 0 0 0 
0 0 0 0 0 0 0 0 0 
0 0 0 0 0 0 0 0 0 
0 0 0 0 0 0 0 0 0 
0 0 0 0 0 0 0 0 0 
0 0 0 0 0 0 0 0 0 
0 0 0 0 0 0 0 0 0 
0 0 0 0 0 0 0 0 0 
0 0 0 0 0 0 0 0 0 
0 0 0 0 0 0 0 0 0 
0 0 0 0 0 0 0 0 0 
0 0 0 0 0 0 0 0 0 
0 0 0 0 0 0 0 0 0 
0 0 0 0 0 0 0 0 0 
0 0 0 0 0 0 0 0 0 
0 0 0 0 0 0 0 0 0 
0 0 0 0 0 0 0 0 0 
0 0 0 0 0 0 0 0 0 
0 0 0 0 0 0 0 0 0 
0 0 0 0 0 0 0 0 0 
0 0 0 0 0 0 0 0 0 
0 0 0 0 0 0 0 0 0 
0 0 0 0 0 0 0 0 0 
0 0 0 0 0 0 0 0 0 
0 0 0 0 0 0 0 0 0 
0 0 0 0 0 0 0 0 0 
0 0 0 0 0 0 0 0 0 
0 0 0 0 0 0 0 0 0 
0 0 0 0 0 0 0 0 0 
0 0 0 0 0 0 0 0 0 
0 0 0 0 0 0 0 0 0 
0 0 0 0 0 0 0 0 0 
0 0 0 0 0 0 0 0 0 
0 0 0 0 0 0 0 0 0 
0 0 0 0 0 0 0 0 0 
0 0 0 0 0 0 0 0 0 
0 0 0 0 0 0 0 0 0 
0 0 0 0 0 0 0 0 0 
0 0 0 0 0 0 0 0 0 
0 0 0 0 0 0 0 0 0 
0 0 0 0 0 0 0 0 0 
0 0 0 0 0 0 0 0 0 
0 0 0 0 0 0 0 0 0 
0 0 0 0 0 0 0 0 0 
0 0 0 0 0 0 0 0 0 
0 0 0 0 0 0 0 0 0 
0 0 0 0 0 0 0 0 0 
0 0 0 0 0 0 0 0 0 
0 0 0 0 0 0 0 0 0 
0 0 0 0 0 0 0 0 0 
0 0 0 0 0 0 0 0 0 
0 0 0 0 0 0 0 0 0 
0 0 0 0 0 0 0 0 0 
0 0 0 0 0 0 0 0 0 
0 0 0 0 0 0 0 0 0 
0 0 0 0 0 0 0 0 0 
0 0 0 0 0 0 0 0 0 
0 0 0 0 0 0 0 0 0 
0 0 0 0 0 0 0 0 0 
0 0 0 0 0 0 0 0 0 
0 0 0 0 0 0 0 0 0 
0 0 0 0 0 0 0 0 0 
0 0 0 0 0 0 0 0 0 
0 0 0 0 0 0 0 0 0 
0 0 0 0 0 0 0 0 0 
0 0 0 0 0 0 0 0 0 
0 0 0 0 0 0 0 0 0 
0 0 0 0 0 0 0 0 0 
0 0 0 0 0 0 0 0 0 
0 0 0 0 0 0 0 0 0 
0 0 0 0 0 0 0 0 0 
0 0 0 0 0 0 0 0 0 
0 0 0 0 0 0 0 0 0 
0 0 0 0 0 0 0 0 0 
0 0 0 0 0 0 0 0 0 
0 0 0 0 0 0 0 0 0 
0 0 0 0 0 0 0 0 0 
0 0 0 0 0 0 0 0 0 
0 0 0 0 0 0 0 0 0 
0 0 0 0 0 0 0 0 0 
0 0 0 0 0 0 0 0 0 
0 0 0 0 0 0 0 0 0 
0 0 0 0 0 0 0 0 0 
0 0 0 0 0 0 0 0 0 
0 0 0 0 0 0 0 0 0 
0 0 0 0 0 0 0 0 0 
0 0 0 0 0 0 0 0 0 
0 0 0 0 0 0 0 0 0 
0 0 0 0 0 0 0 0 0 
0 0 0 0 0 0 0 0 0 
0 0 0 0 0 0 0 0 0 
0 0 0 0 0 0 0 0 0 
0 0 0 0 0 0 0 0 0 
0 0 0 0 0 0 0 0 0 
0 0 0 0 0 0 0 0 0 
0 0 0 0 0 0 0 0 0 
0 0 0 0 0 0 0 0 0 
0 0 0 0 0 0 0 0 0 
0 0 0 0 0 0 0 0 0 
0 0 0 0 0 0 0 0 0 
0 0 0 0 0 0 0 0 0 
0 0 0 0 0 0 0 0 0 
0 0 0 0 0 0 0 0 0 
0 0 0 0 0 0 0 0 0 
0 0 0 0 0 0 0 0 0 
0 0 0 0 0 0 0 0 0 
0 0 0 0 0 0 0 0 0 
0 0 0 0 0 0 0 0 0 
0 0 0 0 0 0 0 0 0 
0 0 0 0 0 0 0 0 0 
0 0 0 0 0 0 0 0 0 
0 0 0 0 0 0 0 0 0 
0 0 0 0 0 0 0 0 0 
0 0 0 0 0 0 0 0 0 
0 0 0 0 0 0 0 0 0 
0 0 0 0 0 0 0 0 0 
0 0 0 0 0 0 0 0 0 
0 0 0 0 0 0 0 0 0 
0 0 0 0 0 0 0 0 0 
0 0 0 0 0 0 0 0 0 
0 0 0 0 0 0 0 0 0 
0 0 0 0 0 0 0 0 0 
0 0 0 0 0 0 0 0 0 
0 0 0 0 0 0 0 0 0 
0 0 0 0 0 0 0 0 0 
0 0 0 0 0 0 0 0 0 
0 0 0 0 0 0 0 0 0 
0 0 0 0 0 0 0 0 0 
0 0 0 0 0 0 0 0 0 
0 0 0 0 0 0 0 0 0 
0 0 0 0 0 0 0 0 0 
0 0 0 0 0 0 0 0 0 
0 0 0 0 0 0 0 0 0 
0 0 0 0 0 0 0 0 0 
0 0 0 0 0 0 0 0 0 
0 0 0 0 0 0 0 0 0 
0 0 0 0 0 0 0 0 0 
0 0 0 0 0 0 0 0 0 
0 0 0 0 0 0 0 0 0 
0 0 0 0 0 0 0 0 0 
0 0 0 0 0 0 0 0 0 
0 0 0 0 0 0 0 0 0 
0 0 0 0 0 0 0 0 0 
0 0 0 0 0 0 0 0 0 
0 0 0 0 0 0 0 0 0 
0 0 0 0 0 0 0 0 0 
0 0 0 0 0 0 0 0 0 
0 0 0 0 0 0 0 0 0 
0 0 0 0 0 0 0 0 0 
0 0 0 0 0 0 0 0 0 
0 0 0 0 0 0 0 0 0 
0 0 0 0 0 0 0 0 0 
0 0 0 0 0 0 0 0 0 
0 0 0 0 0 0 0 0 0 
0 0 0 0 0 0 0 0 0 
0 0 0 0 0 0 0 0 0 
0 0 0 0 0 0 0 0 0 
0 0 0 0 0 0 0 0 0 
0 0 0 0 0 0 0 0 0 
0 0 0 0 0 0 0 0 0 
0 0 0 0 0 0 0 0 0 
0 0 0 0 0 0 0 0 0 
0 0 0 0 0 0 0 0 0 
0 0 0 0 0 0 0 0 0 
0 0 0 0 0 0 0 0 0 
0 0 0 0 0 0 0 0 0 
0 0 0 0 0 0 0 0 0 
0 0 0 0 0 0 0 0 0 
0 0 0 0 0 0 0 0 0 
0 0 0 0 0 0 0 0 0 
0 0 0 0 0 0 0 0 0 
0 0 0 0 0 0 0 0 0 
0 0 0 0 0 0 0 0 0 
0 0 0 0 0 0 0 0 0 
0 0 0 0 0 0 0 0 0 
0 0 0 0 0 0 0 0 0 
0 0 0 0 0 0 0 0 0 
0 0 0 0 0 0 0 0 0 
0 0 0 0 0 0 0 0 0 
0 0 0 0 0 0 0 0 0 
0 0 0 0 0 0 0 0 0 
0 0 0 0 0 0 0 0 0 
0 0 0 0 0 0 0 0 0 
0 0 0 0 0 0 0 0 0 
0 0 0 0 0 0 0 0 0 
0 0 0 0 0 0 0 0 0 
0 0 0 0 0 0 0 0 0 
0 0 0 0 0 0 0 0 0 
0 0 0 0 0 0 0 0 0 
0 0 0 0 0 0 0 0 0 
0 0 0 0 0 0 0 0 0 
0 0 0 0 0 0 0 0 0 
0 0 0 0 0 0 0 0 0 
0 0 0 0 0 0 0 0 0 
0 0 0 0 0 0 0 0 0 
0 0 0 0 0 0 0 0 0 
0 0 0 0 0 0 0 0 0 
0 0 0 0 0 0 0 0 0 
0 0 0 0 0 0 0 0 0 
0 0 0 0 0 0 0 0 0 
0 0 0 0 0 0 0 0 0 
0 0 0 0 0 0 0 0 0 
0 0 0 0 0 0 0 0 0 
0 0 0 0 0 0 0 0 0 
0 0 0 0 0 0 0 0 0 
0 0 0 0 0 0 0 0 0 
0 0 0 0 0 0 0 0 0 
0 0 0 0 0 0 0 0 0 
0 0 0 0 0 0 0 0 0 
0 0 0 0 0 0 0 0 0 
0 0 0 0 0 0 0 0 0 
0 0 0 0 0 0 0 0 0 
0 0 0 0 0 0 0 0 0 
0 0 0 0 0 0 0 0 0 
0 0 0 0 0 0 0 0 0 
0 0 0 0 0 0 0 0 0 
0 0 0 0 0 0 0 0 0 
0 0 0 0 0 0 0 0 0 
0 0 0 0 0 0 0 0 0 
0 0 0 0 0 0 0 0 0 
0 0 0 0 0 0 0 0 0 
0 0 0 0 0 0 0 0 0 
0 0 0 0 0 0 0 0 0 
0 0 0 0 0 0 0 0 0 
0 0 0 0 0 0 0 0 0 
0 0 0 0 0 0 0 0 0 
0 0 0 0 0 0 0 0 0 
0 0 0 0 0 0 0 0 0 
0 0 0 0 0 0 0 0 0 
0 0 0 0 0 0 0 0 0 
0 0 0 0 0 0 0 0 0 
0 0 0 0 0 0 0 0 0 
0 0 0 0 0 0 0 0 0 
0 0 0 0 0 0 0 0 0 
0 0 0 0 0 0 0 0 0 
0 0 0 0 0 0 0 0 0 
0 0 0 0 0 0 0 0 0 
0 0 0 0 0 0 0 0 0 
0 0 0 0 0 0 0 0 0 
0 0 0 0 0 0 0 0 0 
0 0 0 0 0 0 0 0 0 
0 0 0 0 0 0 0 0 0 
0 0 0 0 0 0 0 0 0 
0 0 0 0 0 0 0 0 0 
0 0 0 0 0 0 0 0 0 
0 0 0 0 0 0 0 0 0 
0 0 0 0 0 0 0 0 0 
0 0 0 0 0 0 0 0 0 
0 0 0 0 0 0 0 0 0 
0 0 0 0 0 0 0 0 0 
0 0 0 0 0 0 0 0 0 
0 0 0 0 0 0 0 0 0 
0 0 0 0 0 0 0 0 0 
0 0 0 0 0 0 0 0 0 
0 0 0 0 0 0 0 0 0 
0 0 0 0 0 0 0 0 0 
0 0 0 0 0 0 0 0 0 
0 0 0 0 0 0 0 0 0 
0 0 0 0 0 0 0 0 0 
0 0 0 0 0 0 0 0 0 
0 0 0 0 0 0 0 0 0 
0 0 0 0 0 0 0 0 0 
0 0 0 0 0 0 0 0 0 
0 0 0 0 0 0 0 0 0 
0 0 0 0 0 0 0 0 0 
0 0 0 0 0 0 0 0 0 
0 0 0 0 0 0 0 0 0 
0 0 0 0 0 0 0 0 0 
0 0 0 0 0 0 0 0 0 
0 0 0 0 0 0 0 0 0 
0 0 0 0 0 0 0 0 0 
0 0 0 0 0 0 0 0 0 
0 0 0 0 0 0 0 0 0 
0 0 0 0 0 0 0 0 0 
0 0 0 0 0 0 0 0 0 
0 0 0 0 0 0 0 0 0 
0 0 0 0 0 0 0 0 0 
0 0 0 0 0 0 0 0 0 
0 0 0 0 0 0 0 0 0 
0 0 0 0 0 0 0 0 0 
0 0 0 0 0 0 0 0 0 
0 0 0 0 0 0 0 0 0 
0 0 0 0 0 0 0 0 0 
0 0 0 0 0 0 0 0 0 
0 0 0 0 0 0 0 0 0 
0 0 0 0 0 0 0 0 0 
0 0 0 0 0 0 0 0 0 
0 0 0 0 0 0 0 0 0 
0 0 0 0 0 0 0 0 0 
0 0 0 0 0 0 0 0 0 
0 0 0 0 0 0 0 0 0 
0 0 0 0 0 0 0 0 0 
0 0 0 0 0 0 0 0 0 
0 0 0 0 0 0 0 0 0 
0 0 0 0 0 0 0 0 0 
0 0 0 0 0 0 0 0 0 
0 0 0 0 0 0 0 0 0 
0 0 0 0 0 0 0 0 0 
0 0 0 0 0 0 0 0 0 
0 0 0 0 0 0 0 0 0 
0 0 0 0 0 0 0 0 0 
0 0 0 0 0 0 0 0 0 
0 0 0 0 0 0 0 0 0 
0 0 0 0 0 0 0 0 0 
0 0 0 0 0 0 0 0 0 
0 0 0 0 0 0 0 0 0 
0 0 0 0 0 0 0 0 0 
0 0 0 0 0 0 0 0 0 
0 0 0 0 0 0 0 0 0 
0 0 0 0 0 0 0 0 0 
0 0 0 0 0 0 0 0 0 
0 0 0 0 0 0 0 0 0 
0 0 0 0 0 0 0 0 0 
0 0 0 0 0 0 0 0 0 
0 0 0 0 0 0 0 0 0 
0 0 0 0 0 0 0 0 0 
0 0 0 0 0 0 0 0 0 
0 0 0 0 0 0 0 0 0 
0 0 0 0 0 0 0 0 0 
0 0 0 0 0 0 0 0 0 
0 0 0 0 0 0 0 0 0 
0 0 0 0 0 0 0 0 0 
0 0 0 0 0 0 0 0 0 
0 0 0 0 0 0 0 0 0 
0 0 0 0 0 0 0 0 0 
0 0 0 0 0 0 0 0 0 
0 0 0 0 0 0 0 0 0 
0 0 0 0 0 0 0 0 0 
0 0 0 0 0 0 0 0 0 
0 0 0 0 0 0 0 0 0 
0 0 0 0 0 0 0 0 0 
0 0 0 0 0 0 0 0 0 
0 0 0 0 0 0 0 0 0 
0 0 0 0 0 0 0 0 0 
0 0 0 0 0 0 0 0 0 
0 0 0 0 0 0 0 0 0 
0 0 0 0 0 0 0 0 0 
0 0 0 0 0 0 0 0 0 
0 0 0 0 0 0 0 0 0 
0 0 0 0 0 0 0 0 0 
0 0 0 0 0 0 0 0 0 
0 0 0 0 0 0 0 0 0 
0 0 0 0 0 0 0 0 0 
0 0 0 0 0 0 0 0 0 
0 0 0 0 0 0 0 0 0 
0 0 0 0 0 0 0 0 0 
0 0 0 0 0 0 0 0 0 
0 0 0 0 0 0 0 0 0 
0 0 0 0 0 0 0 0 0 
0 0 0 0 0 0 0 0 0 
0 0 0 0 0 0 0 0 0 
0 0 0 0 0 0 0 0 0 
0 0 0 0 0 0 0 0 0 
0 0 0 0 0 0 0 0 0 
0 0 0 0 0 0 0 0 0 
0 0 0 0 0 0 0 0 0 
0 0 0 0 0 0 0 0 0 
0 0 0 0 0 0 0 0 0 
0 0 0 0 0 0 0 0 0 
0 0 0 0 0 0 0 0 0 
0 0 0 0 0 0 0 0 0 
0 0 0 0 0 0 0 0 0 
0 0 0 0 0 0 0 0 0 
0 0 0 0 0 0 0 0 0 
0 0 0 0 0 0 0 0 0 
0 0 0 0 0 0 0 0 0 
0 0 0 0 0 0 0 0 0 
0 0 0 0 0 0 0 0 0 
0 0 0 0 0 0 0 0 0 
0 0 0 0 0 0 0 0 0 
0 0 0 0 0 0 0 0 0 
0 0 0 0 0 0 0 0 0 
0 0 0 0 0 0 0 0 0 
0 0 0 0 0 0 0 0 0 
0 0 0 0 0 0 0 0 0 
0 0 0 0 0 0 0 0 0 
0 0 0 0 0 0 0 0 0 
0 0 0 0 0 0 0 0 0 
0 0 0 0 0 0 0 0 0 
0 0 0 0 0 0 0 0 0 
0 0 0 0 0 0 0 0 0 
0 0 0 0 0 0 0 0 0 
0 0 0 0 0 0 0 0 0 
0 0 0 0 0 0 0 0 0 
0 0 0 0 0 0 0 0 0 
0 0 0 0 0 0 0 0 0 
0 0 0 0 0 0 0 0 0 
0 0 0 0 0 0 0 0 0 
0 0 0 0 0 0 0 0 0 
0 0 0 0 0 0 0 0 0 
0 0 0 0 0 0 0 0 0 
0 0 0 0 0 0 0 0 0 
0 0 0 0 0 0 0 0 0 
0 0 0 0 0 0 0 0 0 
0 0 0 0 0 0 0 0 0 
0 0 0 0 0 0 0 0 0 
0 0 0 0 0 0 0 0 0 
0 0 0 0 0 0 0 0 0 
0 0 0 0 0 0 0 0 0 
0 0 0 0 0 0 0 0 0 
0 0 0 0 0 0 0 0 0 
0 0 0 0 0 0 0 0 0 
0 0 0 0 0 0 0 0 0 
0 0 0 0 0 0 0 0 0 
0 0 0 0 0 0 0 0 0 
0 0 0 0 0 0 0 0 0 
0 0 0 0 0 0 0 0 0 
0 0 0 0 0 0 0 0 0 
0 0 0 0 0 0 0 0 0 
0 0 0 0 0 0 0 0 0 
0 0 0 0 0 0 0 0 0 
0 0 0 0 0 0 0 0 0 
0 0 0 0 0 0 0 0 0 
0 0 0 0 0 0 0 0 0 
0 0 0 0 0 0 0 0 0 
0 0 0 0 0 0 0 0 0 
0 0 0 0 0 0 0 0 0 
0 0 0 0 0 0 0 0 0 
0 0 0 0 0 0 0 0 0 
0 0 0 0 0 0 0 0 0 
0 0 0 0 0 0 0 0 0 
0 0 0 0 0 0 0 0 0 
0 0 0 0 0 0 0 0 0 
0 0 0 0 0 0 0 0 0 
0 0 0 0 0 0 0 0 0 
0 0 0 0 0 0 0 0 0 
0 0 0 0 0 0 0 0 0 
0 0 0 0 0 0 0 0 0 
0 0 0 0 0 0 0 0 0 
0 0 0 0 0 0 0 0 0 
0 0 0 0 0 0 0 0 0 
0 0 0 0 0 0 0 0 0 
0 0 0 0 0 0 0 0 0 
0 0 0 0 0 0 0 0 0 
0 0 0 0 0 0 0 0 0 
0 0 0 0 0 0 0 0 0 
0 0 0 0 0 0 0 0 0 
0 0 0 0 0 0 0 0 0 
0 0 0 0 0 0 0 0 0 
0 0 0 0 0 0 0 0 0 
0 0 0 0 0 0 0 0 0 
0 0 0 0 0 0 0 0 0 
0 0 0 0 0 0 0 0 0 
0 0 0 0 0 0 0 0 0 
0 0 0 0 0 0 0 0 0 
0 0 0 0 0 0 0 0 0 
0 0 0 0 0 0 0 0 0 
0 0 0 0 0 0 0 0 0 
0 0 0 0 0 0 0 0 0 
0 0 0 0 0 0 0 0 0 
0 0 0 0 0 0 0 0 0 
0 0 0 0 0 0 0 0 0 
0 0 0 0 0 0 0 0 0 
0 0 0 0 0 0 0 0 0 
0 0 0 0 0 0 0 0 0 
0 0 0 0 0 0 0 0 0 
0 0 0 0 0 0 0 0 0 
0 0 0 0 0 0 0 0 0 
0 0 0 0 0 0 0 0 0 
0 0 0 0 0 0 0 0 0 
0 0 0 0 0 0 0 0 0 
0 0 0 0 0 0 0 0 0 
0 0 0 0 0 0 0 0 0 
0 0 0 0 0 0 0 0 0 
0 0 0 0 0 0 0 0 0 
0 0 0 0 0 0 0 0 0 
0 0 0 0 0 0 0 0 0 
0 0 0 0 0 0 0 0 0 
0 0 0 0 0 0 0 0 0 
0 0 0 0 0 0 0 0 0 
0 0 0 0 0 0 0 0 0 
0 0 0 0 0 0 0 0 0 
0 0 0 0 0 0 0 0 0 
0 0 0 0 0 0 0 0 0 
0 0 0 0 0 0 0 0 0 
0 0 0 0 0 0 0 0 0 
0 0 0 0 0 0 0 0 0 
0 0 0 0 0 0 0 0 0 
0 0 0 0 0 0 0 0 0 
0 0 0 0 0 0 0 0 0 
0 0 0 0 0 0 0 0 0 
0 0 0 0 0 0 0 0 0 
0 0 0 0 0 0 0 0 0 
0 0 0 0 0 0 0 0 0 
0 0 0 0 0 0 0 0 0 
0 0 0 0 0 0 0 0 0 
0 0 0 0 0 0 0 0 0 
0 0 0 0 0 0 0 0 0 
0 0 0 0 0 0 0 0 0 
0 0 0 0 0 0 0 0 0 
0 0 0 0 0 0 0 0 0 
0 0 0 0 0 0 0 0 0 
0 0 0 0 0 0 0 0 0 
0 0 0 0 0 0 0 0 0 
0 0 0 0 0 0 0 0 0 
0 0 0 0 0 0 0 0 0 
0 0 0 0 0 0 0 0 0 
0 0 0 0 0 0 0 0 0 
0 0 0 0 0 0 0 0 0 
0 0 0 0 0 0 0 0 0 
0 0 0 0 0 0 0 0 0 
0 0 0 0 0 0 0 0 0 
0 0 0 0 0 0 0 0 0 
0 0 0 0 0 0 0 0 0 
0 0 0 0 0 0 0 0 0 
0 0 0 0 0 0 0 0 0 
0 0 0 0 0 0 0 0 0 
0 0 0 0 0 0 0 0 0 
0 0 0 0 0 0 0 0 0 
0 0 0 0 0 0 0 0 0 
0 0 0 0 0 0 0 0 0 
0 0 0 0 0 0 0 0 0 
0 0 0 0 0 0 0 0 0 
0 0 0 0 0 0 0 0 0 
0 0 0 0 0 0 0 0 0 
0 0 0 0 0 0 0 0 0 
0 0 0 0 0 0 0 0 0 
0 0 0 0 0 0 0 0 0 
0 0 0 0 0 0 0 0 0 
0 0 0 0 0 0 0 0 0 
0 0 0 0 0 0 0 0 0 
0 0 0 0 0 0 0 0 0 
0 0 0 0 0 0 0 0 0 
0 0 0 0 0 0 0 0 0 
0 0 0 0 0 0 0 0 0 
0 0 0 0 0 0 0 0 0 
0 0 0 0 0 0 0 0 0 
0 0 0 0 0 0 0 0 0 
0 0 0 0 0 0 0 0 0 
0 0 0 0 0 0 0 0 0 
0 0 0 0 0 0 0 0 0 
0 0 0 0 0 0 0 0 0 
0 0 0 0 0 0 0 0 0 
0 0 0 0 0 0 0 0 0 
0 0 0 0 0 0 0 0 0 
0 0 0 0 0 0 0 0 0 
0 0 0 0 0 0 0 0 0 
0 0 0 0 0 0 0 0 0 
0 0 0 0 0 0 0 0 0 
0 0 0 0 0 0 0 0 0 
0 0 0 0 0 0 0 0 0 
0 0 0 0 0 0 0 0 0 
0 0 0 0 0 0 0 0 0 
0 0 0 0 0 0 0 0 0 
0 0 0 0 0 0 0 0 0 
0 0 0 0 0 0 0 0 0 
0 0 0 0 0 0 0 0 0 
0 0 0 0 0 0 0 0 0 
0 0 0 0 0 0 0 0 0 
0 0 0 0 0 0 0 0 0 
0 0 0 0 0 0 0 0 0 
0 0 0 0 0 0 0 0 0 
0 0 0 0 0 0 0 0 0 
0 0 0 0 0 0 0 0 0 
0 0 0 0 0 0 0 0 0 
0 0 0 0 0 0 0 0 0 
0 0 0 0 0 0 0 0 0 
0 0 0 0 0 0 0 0 0 
0 0 0 0 0 0 0 0 0 
0 0 0 0 0 0 0 0 0 
0 0 0 0 0 0 0 0 0 
0 0 0 0 0 0 0 0 0 
0 0 0 0 0 0 0 0 0 
0 0 0 0 0 0 0 0 0 
0 0 0 0 0 0 0 0 0 
0 0 0 0 0 0 0 0 0 
0 0 0 0 0 0 0 0 0 
0 0 0 0 0 0 0 0 0 
0 0 0 0 0 0 0 0 0 
0 0 0 0 0 0 0 0 0 
0 0 0 0 0 0 0 0 0 
0 0 0 0 0 0 0 0 0 
0 0 0 0 0 0 0 0 0 
0 0 0 0 0 0 0 0 0 
0 0 0 0 0 0 0 0 0 
0 0 0 0 0 0 0 0 0 
0 0 0 0 0 0 0 0 0 
0 0 0 0 0 0 0 0 0 
0 0 0 0 0 0 0 0 0 
0 0 0 0 0 0 0 0 0 
0 0 0 0 0 0 0 0 0 
0 0 0 0 0 0 0 0 0 
0 0 0 0 0 0 0 0 0 
0 0 0 0 0 0 0 0 0 
0 0 0 0 0 0 0 0 0 
0 0 0 0 0 0 0 0 0 
0 0 0 0 0 0 0 0 0 
0 0 0 0 0 0 0 0 0 
0 0 0 0 0 0 0 0 0 
0 0 0 0 0 0 0 0 0 
0 0 0 0 0 0 0 0 0 
0 0 0 0 0 0 0 0 0 
0 0 0 0 0 0 0 0 0 
0 0 0 0 0 0 0 0 0 
0 0 0 0 0 0 0 0 0 
0 0 0 0 0 0 0 0 0 
0 0 0 0 0 0 0 0 0 
0 0 0 0 0 0 0 0 0 
0 0 0 0 0 0 0 0 0 
0 0 0 0 0 0 0 0 0 
0 0 0 0 0 0 0 0 0 
0 0 0 0 0 0 0 0 0 
0 0 0 0 0 0 0 0 0 
0 0 0 0 0 0 0 0 0 
0 0 0 0 0 0 0 0 0 
0 0 0 0 0 0 0 0 0 
0 0 0 0 0 0 0 0 0 
0 0 0 0 0 0 0 0 0 
0 0 0 0 0 0 0 0 0 
0 0 0 0 0 0 0 0 0 
0 0 0 0 0 0 0 0 0 
0 0 0 0 0 0 0 0 0 
0 0 0 0 0 0 0 0 0 
0 0 0 0 0 0 0 0 0 
0 0 0 0 0 0 0 0 0 
0 0 0 0 0 0 0 0 0 
0 0 0 0 0 0 0 0 0 
0 0 0 0 0 0 0 0 0 
0 0 0 0 0 0 0 0 0 
0 0 0 0 0 0 0 0 0 
0 0 0 0 0 0 0 0 0 
0 0 0 0 0 0 0 0 0 
0 0 0 0 0 0 0 0 0 
0 0 0 0 0 0 0 0 0 
0 0 0 0 0 0 0 0 0 
0 0 0 0 0 0 0 0 0 
0 0 0 0 0 0 0 0 0 
0 0 0 0 0 0 0 0 0 
0 0 0 0 0 0 0 0 0 
0 0 0 0 0 0 0 0 0 
0 0 0 0 0 0 0 0 0 
0 0 0 0 0 0 0 0 0 
0 0 0 0 0 0 0 0 0 
0 0 0 0 0 0 0 0 0 
0 0 0 0 0 0 0 0 0 
0 0 0 0 0 0 0 0 0 
0 0 0 0 0 0 0 0 0 
0 0 0 0 0 0 0 0 0 
0 0 0 0 0 0 0 0 0 
0 0 0 0 0 0 0 0 0 
0 0 0 0 0 0 0 0 0 
0 0 0 0 0 0 0 0 0 
0 0 0 0 0 0 0 0 0 
0 0 0 0 0 0 0 0 0 
0 0 0 0 0 0 0 0 0 
0 0 0 0 0 0 0 0 0 
0 0 0 0 0 0 0 0 0 
0 0 0 0 0 0 0 0 0 
0 0 0 0 0 0 0 0 0 
0 0 0 0 0 0 0 0 0 
0 0 0 0 0 0 0 0 0 
0 0 0 0 0 0 0 0 0 
0 0 0 0 0 0 0 0 0 
0 0 0 0 0 0 0 0 0 
0 0 0 0 0 0 0 0 0 
0 0 0 0 0 0 0 0 0 
0 0 0 0 0 0 0 0 0 
0 0 0 0 0 0 0 0 0 
0 0 0 0 0 0 0 0 0 
0 0 0 0 0 0 0 0 0 
0 0 0 0 0 0 0 0 0 
0 0 0 0 0 0 0 0 0 
0 0 0 0 0 0 0 0 0 
0 0 0 0 0 0 0 0 0 
0 0 0 0 0 0 0 0 0 
0 0 0 0 0 0 0 0 0 
0 0 0 0 0 0 0 0 0 
0 0 0 0 0 0 0 0 0 
0 0 0 0 0 0 0 0 0 
0 0 0 0 0 0 0 0 0 
0 0 0 0 0 0 0 0 0 
0 0 0 0 0 0 0 0 0 
0 0 0 0 0 0 0 0 0 
0 0 0 0 0 0 0 0 0 
0 0 0 0 0 0 0 0 0 
0 0 0 0 0 0 0 0 0 
0 0 0 0 0 0 0 0 0 
0 0 0 0 0 0 0 0 0 
0 0 0 0 0 0 0 0 0 
0 0 0 0 0 0 0 0 0 
0 0 0 0 0 0 0 0 0 
0 0 0 0 0 0 0 0 0 
0 0 0 0 0 0 0 0 0 
0 0 0 0 0 0 0 0 0 
0 0 0 0 0 0 0 0 0 
0 0 0 0 0 0 0 0 0 
0 0 0 0 0 0 0 0 0 
0 0 0 0 0 0 0 0 0 
0 0 0 0 0 0 0 0 0 
0 0 0 0 0 0 0 0 0 
0 0 0 0 0 0 0 0 0 
0 0 0 0 0 0 0 0 0 
0 0 0 0 0 0 0 0 0 
0 0 0 0 0 0 0 0 0 
0 0 0 0 0 0 0 0 0 
0 0 0 0 0 0 0 0 0 
0 0 0 0 0 0 0 0 0 
0 0 0 0 0 0 0 0 0 
0 0 0 0 0 0 0 0 0 
0 0 0 0 0 0 0 0 0 
0 0 0 0 0 0 0 0 0 
0 0 0 0 0 0 0 0 0 
0 0 0 0 0 0 0 0 0 
0 0 0 0 0 0 0 0 0 
0 0 0 0 0 0 0 0 0 
0 0 0 0 0 0 0 0 0 
0 0 0 0 0 0 0 0 0 
0 0 0 0 0 0 0 0 0 
0 0 0 0 0 0 0 0 0 
0 0 0 0 0 0 0 0 0 
0 0 0 0 0 0 0 0 0 
0 0 0 0 0 0 0 0 0 
0 0 0 0 0 0 0 0 0 
0 0 0 0 0 0 0 0 0 
0 0 0 0 0 0 0 0 0 
0 0 0 0 0 0 0 0 0 
0 0 0 0 0 0 0 0 0 
0 0 0 0 0 0 0 0 0 
0 0 0 0 0 0 0 0 0 
0 0 0 0 0 0 0 0 0 
0 0 0 0 0 0 0 0 0 
0 0 0 0 0 0 0 0 0 
0 0 0 0 0 0 0 0 0 
0 0 0 0 0 0 0 0 0 
0 0 0 0 0 0 0 0 0 
0 0 0 0 0 0 0 0 0 
0 0 0 0 0 0 0 0 0 
0 0 0 0 0 0 0 0 0 
0 0 0 0 0 0 0 0 0 
0 0 0 0 0 0 0 0 0 
0 0 0 0 0 0 0 0 0 
0 0 0 0 0 0 0 0 0 
0 0 0 0 0 0 0 0 0 
0 0 0 0 0 0 0 0 0 
0 0 0 0 0 0 0 0 0 
0 0 0 0 0 0 0 0 0 
0 0 0 0 0 0 0 0 0 
0 0 0 0 0 0 0 0 0 
0 0 0 0 0 0 0 0 0 
0 0 0 0 0 0 0 0 0 
0 0 0 0 0 0 0 0 0 
0 0 0 0 0 0 0 0 0 
0 0 0 0 0 0 0 0 0 
0 0 0 0 0 0 0 0 0 
0 0 0 0 0 0 0 0 0 
0 0 0 0 0 0 0 0 0 
0 0 0 0 0 0 0 0 0 
0 0 0 0 0 0 0 0 0 
0 0 0 0 0 0 0 0 0 
0 0 0 0 0 0 0 0 0 
0 0 0 0 0 0 0 0 0 
0 0 0 0 0 0 0 0 0 
0 0 0 0 0 0 0 0 0 
0 0 0 0 0 0 0 0 0 
0 0 0 0 0 0 0 0 0 
0 0 0 0 0 0 0 0 0 
0 0 0 0 0 0 0 0 0 
0 0 0 0 0 0 0 0 0 
0 0 0 0 0 0 0 0 0 
0 0 0 0 0 0 0 0 0 
0 0 0 0 0 0 0 0 0 
0 0 0 0 0 0 0 0 0 
0 0 0 0 0 0 0 0 0 
0 0 0 0 0 0 0 0 0 
0 0 0 0 0 0 0 0 0 
0 0 0 0 0 0 0 0 0 
0 0 0 0 0 0 0 0 0 
0 0 0 0 0 0 0 0 0 
0 0 0 0 0 0 0 0 0 
0 0 0 0 0 0 0 0 0 
0 0 0 0 0 0 0 0 0 
0 0 0 0 0 0 0 0 0 
0 0 0 0 0 0 0 0 0 
0 0 0 0 0 0 0 0 0 
0 0 0 0 0 0 0 0 0 
0 0 0 0 0 0 0 0 0 
0 0 0 0 0 0 0 0 0 
0 0 0 0 0 0 0 0 0 
0 0 0 0 0 0 0 0 0 
0 0 0 0 0 0 0 0 0 
0 0 0 0 0 0 0 0 0 
0 0 0 0 0 0 0 0 0 
0 0 0 0 0 0 0 0 0 
0 0 0 0 0 0 0 0 0 
0 0 0 0 0 0 0 0 0 
0 0 0 0 0 0 0 0 0 
0 0 0 0 0 0 0 0 0 
0 0 0 0 0 0 0 0 0 
0 0 0 0 0 0 0 0 0 
0 0 0 0 0 0 0 0 0 
0 0 0 0 0 0 0 0 0 
0 0 0 0 0 0 0 0 0 
0 0 0 0 0 0 0 0 0 
0 0 0 0 0 0 0 0 0 
0 0 0 0 0 0 0 0 0 
0 0 0 0 0 0 0 0 0 
0 0 0 0 0 0 0 0 0 
0 0 0 0 0 0 0 0 0 
0 0 0 0 0 0 0 0 0 
0 0 0 0 0 0 0 0 0 
0 0 0 0 0 0 0 0 0 
0 0 0 0 0 0 0 0 0 
0 0 0 0 0 0 0 0 0 
0 0 0 0 0 0 0 0 0 
0 0 0 0 0 0 0 0 0 
0 0 0 0 0 0 0 0 0 
0 0 0 0 0 0 0 0 0 
0 0 0 0 0 0 0 0 0 
0 0 0 0 0 0 0 0 0 
0 0 0 0 0 0 0 0 0 
0 0 0 0 0 0 0 0 0 
0 0 0 0 0 0 0 0 0 
0 0 0 0 0 0 0 0 0 
0 0 0 0 0 0 0 0 0 
0 0 0 0 0 0 0 0 0 
0 0 0 0 0 0 0 0 0 
0 0 0 0 0 0 0 0 0 
0 0 0 0 0 0 0 0 0 
0 0 0 0 0 0 0 0 0 
0 0 0 0 0 0 0 0 0 
0 0 0 0 0 0 0 0 0 
0 0 0 0 0 0 0 0 0 
0 0 0 0 0 0 0 0 0 
0 0 0 0 0 0 0 0 0 
0 0 0 0 0 0 0 0 0 
0 0 0 0 0 0 0 0 0 
0 0 0 0 0 0 0 0 0 
0 0 0 0 0 0 0 0 0 
0 0 0 0 0 0 0 0 0 
0 0 0 0 0 0 0 0 0 
0 0 0 0 0 0 0 0 0 
0 0 0 0 0 0 0 0 0 
0 0 0 0 0 0 0 0 0 
0 0 0 0 0 0 0 0 0 
0 0 0 0 0 0 0 0 0 
0 0 0 0 0 0 0 0 0 
0 0 0 0 0 0 0 0 0 
0 0 0 0 0 0 0 0 0 
0 0 0 0 0 0 0 0 0 
0 0 0 0 0 0 0 0 0 
0 0 0 0 0 0 0 0 0 
0 0 0 0 0 0 0 0 0 
0 0 0 0 0 0 0 0 0 
0 0 0 0 0 0 0 0 0 
0 0 0 0 0 0 0 0 0 
0 0 0 0 0 0 0 0 0 
0 0 0 0 0 0 0 0 0 
0 0 0 0 0 0 0 0 0 
0 0 0 0 0 0 0 0 0 
0 0 0 0 0 0 0 0 0 
0 0 0 0 0 0 0 0 0 
0 0 0 0 0 0 0 0 0 
0 0 0 0 0 0 0 0 0 
0 0 0 0 0 0 0 0 0 
0 0 0 0 0 0 0 0 0 
0 0 0 0 0 0 0 0 0 
0 0 0 0 0 0 0 0 0 
0 0 0 0 0 0 0 0 0 
0 0 0 0 0 0 0 0 0 
0 0 0 0 0 0 0 0 0 
0 0 0 0 0 0 0 0 0 
0 0 0 0 0 0 0 0 0 
0 0 0 0 0 0 0 0 0 
0 0 0 0 0 0 0 0 0 
0 0 0 0 0 0 0 0 0 
0 0 0 0 0 0 0 0 0 
0 0 0 0 0 0 0 0 0 
0 0 0 0 0 0 0 0 0 
0 0 0 0 0 0 0 0 0 
0 0 0 0 0 0 0 0 0 
0 0 0 0 0 0 0 0 0 
0 0 0 0 0 0 0 0 0 
0 0 0 0 0 0 0 0 0 
0 0 0 0 0 0 0 0 0 
0 0 0 0 0 0 0 0 0 
0 0 0 0 0 0 0 0 0 
0 0 0 0 0 0 0 0 0 
0 0 0 0 0 0 0 0 0 
0 0 0 0 0 0 0 0 0 
0 0 0 0 0 0 0 0 0 
0 0 0 0 0 0 0 0 0 
0 0 0 0 0 0 0 0 0 
0 0 0 0 0 0 0 0 0 
0 0 0 0 0 0 0 0 0 
0 0 0 0 0 0 0 0 0 
0 0 0 0 0 0 0 0 0 
0 0 0 0 0 0 0 0 0 
0 0 0 0 0 0 0 0 0 
0 0 0 0 0 0 0 0 0 
0 0 0 0 0 0 0 0 0 
0 0 0 0 0 0 0 0 0 
0 0 0 0 0 0 0 0 0 
0 0 0 0 0 0 0 0 0 
0 0 0 0 0 0 0 0 0 
0 0 0 0 0 0 0 0 0 
0 0 0 0 0 0 0 0 0 
0 0 0 0 0 0 0 0 0 
0 0 0 0 0 0 0 0 0 
0 0 0 0 0 0 0 0 0 
0 0 0 0 0 0 0 0 0 
0 0 0 0 0 0 0 0 0 
0 0 0 0 0 0 0 0 0 
0 0 0 0 0 0 0 0 0 
0 0 0 0 0 0 0 0 0 
0 0 0 0 0 0 0 0 0 
0 0 0 0 0 0 0 0 0 
0 0 0 0 0 0 0 0 0 
0 0 0 0 0 0 0 0 0 
0 0 0 0 0 0 0 0 0 
0 0 0 0 0 0 0 0 0 
0 0 0 0 0 0 0 0 0 
0 0 0 0 0 0 0 0 0 
0 0 0 0 0 0 0 0 0 
0 0 0 0 0 0 0 0 0 
0 0 0 0 0 0 0 0 0 
0 0 0 0 0 0 0 0 0 
0 0 0 0 0 0 0 0 0 
0 0 0 0 0 0 0 0 0 
0 0 0 0 0 0 0 0 0 
0 0 0 0 0 0 0 0 0 
0 0 0 0 0 0 0 0 0 
0 0 0 0 0 0 0 0 0 
0 0 0 0 0 0 0 0 0 
0 0 0 0 0 0 0 0 0 
0 0 0 0 0 0 0 0 0 
0 0 0 0 0 0 0 0 0 
0 0 0 0 0 0 0 0 0 
0 0 0 0 0 0 0 0 0 
0 0 0 0 0 0 0 0 0 
0 0 0 0 0 0 0 0 0 
0 0 0 0 0 0 0 0 0 
0 0 0 0 0 0 0 0 0 
0 0 0 0 0 0 0 0 0 
0 0 0 0 0 0 0 0 0 
0 0 0 0 0 0 0 0 0 
0 0 0 0 0 0 0 0 0 
0 0 0 0 0 0 0 0 0 
0 0 0 0 0 0 0 0 0 
0 0 0 0 0 0 0 0 0 
0 0 0 0 0 0 0 0 0 
0 0 0 0 0 0 0 0 0 
0 0 0 0 0 0 0 0 0 
0 0 0 0 0 0 0 0 0 
0 0 0 0 0 0 0 0 0 
0 0 0 0 0 0 0 0 0 
0 0 0 0 0 0 0 0 0 
0 0 0 0 0 0 0 0 0 
0 0 0 0 0 0 0 0 0 
0 0 0 0 0 0 0 0 0 
0 0 0 0 0 0 0 0 0 
0 0 0 0 0 0 0 0 0 
0 0 0 0 0 0 0 0 0 
0 0 0 0 0 0 0 0 0 
0 0 0 0 0 0 0 0 0 
0 0 0 0 0 0 0 0 0 
0 0 0 0 0 0 0 0 0 
0 0 0 0 0 0 0 0 0 
0 0 0 0 0 0 0 0 0 
0 0 0 0 0 0 0 0 0 
0 0 0 0 0 0 0 0 0 
0 0 0 0 0 0 0 0 0 
0 0 0 0 0 0 0 0 0 
0 0 0 0 0 0 0 0 0 
0 0 0 0 0 0 0 0 0 
0 0 0 0 0 0 0 0 0 
0 0 0 0 0 0 0 0 0 
0 0 0 0 0 0 0 0 0 
0 0 0 0 0 0 0 0 0 
0 0 0 0 0 0 0 0 0 
0 0 0 0 0 0 0 0 0 
0 0 0 0 0 0 0 0 0 
0 0 0 0 0 0 0 0 0 
0 0 0 0 0 0 0 0 0 
0 0 0 0 0 0 0 0 0 
0 0 0 0 0 0 0 0 0 
0 0 0 0 0 0 0 0 0 
0 0 0 0 0 0 0 0 0 
0 0 0 0 0 0 0 0 0 
0 0 0 0 0 0 0 0 0 
0 0 0 0 0 0 0 0 0 
0 0 0 0 0 0 0 0 0 
0 0 0 0 0 0 0 0 0 
0 0 0 0 0 0 0 0 0 
0 0 0 0 0 0 0 0 0 
0 0 0 0 0 0 0 0 0 
0 0 0 0 0 0 0 0 0 
0 0 0 0 0 0 0 0 0 
0 0 0 0 0 0 0 0 0 
0 0 0 0 0 0 0 0 0 
0 0 0 0 0 0 0 0 0 
0 0 0 0 0 0 0 0 0 
0 0 0 0 0 0 0 0 0 
0 0 0 0 0 0 0 0 0 
0 0 0 0 0 0 0 0 0 
0 0 0 0 0 0 0 0 0 
0 0 0 0 0 0 0 0 0 
0 0 0 0 0 0 0 0 0 
0 0 0 0 0 0 0 0 0 
0 0 0 0 0 0 0 0 0 
0 0 0 0 0 0 0 0 0 
0 0 0 0 0 0 0 0 0 
0 0 0 0 0 0 0 0 0 
0 0 0 0 0 0 0 0 0 
0 0 0 0 0 0 0 0 0 
0 0 0 0 0 0 0 0 0 
0 0 0 0 0 0 0 0 0 
0 0 0 0 0 0 0 0 0 
0 0 0 0 0 0 0 0 0 
0 0 0 0 0 0 0 0 0 
0 0 0 0 0 0 0 0 0 
0 0 0 0 0 0 0 0 0 
0 0 0 0 0 0 0 0 0 
0 0 0 0 0 0 0 0 0 
0 0 0 0 0 0 0 0 0 
0 0 0 0 0 0 0 0 0 
0 0 0 0 0 0 0 0 0 
0 0 0 0 0 0 0 0 0 
0 0 0 0 0 0 0 0 0 
0 0 0 0 0 0 0 0 0 
0 0 0 0 0 0 0 0 0 
0 0 0 0 0 0 0 0 0 
0 0 0 0 0 0 0 0 0 
0 0 0 0 0 0 0 0 0 
0 0 0 0 0 0 0 0 0 
0 0 0 0 0 0 0 0 0 
0 0 0 0 0 0 0 0 0 
0 0 0 0 0 0 0 0 0 
0 0 0 0 0 0 0 0 0 
0 0 0 0 0 0 0 0 0 
0 0 0 0 0 0 0 0 0 
0 0 0 0 0 0 0 0 0 
0 0 0 0 0 0 0 0 0 
0 0 0 0 0 0 0 0 0 
0 0 0 0 0 0 0 0 0 
0 0 0 0 0 0 0 0 0 
0 0 0 0 0 0 0 0 0 
0 0 0 0 0 0 0 0 0 
0 0 0 0 0 0 0 0 0 
0 0 0 0 0 0 0 0 0 
0 0 0 0 0 0 0 0 0 
0 0 0 0 0 0 0 0 0 
0 0 0 0 0 0 0 0 0 
0 0 0 0 0 0 0 0 0 
0 0 0 0 0 0 0 0 0 
0 0 0 0 0 0 0 0 0 
0 0 0 0 0 0 0 0 0 
0 0 0 0 0 0 0 0 0 
0 0 0 0 0 0 0 0 0 
0 0 0 0 0 0 0 0 0 
0 0 0 0 0 0 0 0 0 
0 0 0 0 0 0 0 0 0 
0 0 0 0 0 0 0 0 0 
0 0 0 0 0 0 0 0 0 
0 0 0 0 0 0 0 0 0 
0 0 0 0 0 0 0 0 0 
0 0 0 0 0 0 0 0 0 
0 0 0 0 0 0 0 0 0 
0 0 0 0 0 0 0 0 0 
0 0 0 0 0 0 0 0 0 
0 0 0 0 0 0 0 0 0 
0 0 0 0 0 0 0 0 0 
0 0 0 0 0 0 0 0 0 
0 0 0 0 0 0 0 0 0 
0 0 0 0 0 0 0 0 0 
0 0 0 0 0 0 0 0 0 
0 0 0 0 0 0 0 0 0 
0 0 0 0 0 0 0 0 0 
0 0 0 0 0 0 0 0 0 
0 0 0 0 0 0 0 0 0 
0 0 0 0 0 0 0 0 0 
0 0 0 0 0 0 0 0 0 
0 0 0 0 0 0 0 0 0 
0 0 0 0 0 0 0 0 0 
0 0 0 0 0 0 0 0 0 
0 0 0 0 0 0 0 0 0 
0 0 0 0 0 0 0 0 0 
0 0 0 0 0 0 0 0 0 
0 0 0 0 0 0 0 0 0 
0 0 0 0 0 0 0 0 0 
0 0 0 0 0 0 0 0 0 
0 0 0 0 0 0 0 0 0 
0 0 0 0 0 0 0 0 0 
0 0 0 0 0 0 0 0 0 
0 0 0 0 0 0 0 0 0 
0 0 0 0 0 0 0 0 0 
0 0 0 0 0 0 0 0 0 
0 0 0 0 0 0 0 0 0 
0 0 0 0 0 0 0 0 0 
0 0 0 0 0 0 0 0 0 
0 0 0 0 0 0 0 0 0 
0 0 0 0 0 0 0 0 0 
0 0 0 0 0 0 0 0 0 
0 0 0 0 0 0 0 0 0 
0 0 0 0 0 0 0 0 0 
0 0 0 0 0 0 0 0 0 
0 0 0 0 0 0 0 0 0 
0 0 0 0 0 0 0 0 0 
0 0 0 0 0 0 0 0 0 
0 0 0 0 0 0 0 0 0 
0 0 0 0 0 0 0 0 0 
0 0 0 0 0 0 0 0 0 
0 0 0 0 0 0 0 0 0 
0 0 0 0 0 0 0 0 0 
0 0 0 0 0 0 0 0 0 
0 0 0 0 0 0 0 0 0 
0 0 0 0 0 0 0 0 0 
0 0 0 0 0 0 0 0 0 
0 0 0 0 0 0 0 0 0 
0 0 0 0 0 0 0 0 0 
0 0 0 0 0 0 0 0 0 
0 0 0 0 0 0 0 0 0 
0 0 0 0 0 0 0 0 0 
0 0 0 0 0 0 0 0 0 
0 0 0 0 0 0 0 0 0 
0 0 0 0 0 0 0 0 0 
0 0 0 0 0 0 0 0 0 
0 0 0 0 0 0 0 0 0 
0 0 0 0 0 0 0 0 0 
0 0 0 0 0 0 0 0 0 
0 0 0 0 0 0 0 0 0 
0 0 0 0 0 0 0 0 0 
0 0 0 0 0 0 0 0 0 
0 0 0 0 0 0 0 0 0 
0 0 0 0 0 0 0 0 0 
0 0 0 0 0 0 0 0 0 
0 0 0 0 0 0 0 0 0 
0 0 0 0 0 0 0 0 0 
0 0 0 0 0 0 0 0 0 
0 0 0 0 0 0 0 0 0 
0 0 0 0 0 0 0 0 0 
0 0 0 0 0 0 0 0 0 
0 0 0 0 0 0 0 0 0 
0 0 0 0 0 0 0 0 0 
0 0 0 0 0 0 0 0 0 
0 0 0 0 0 0 0 0 0 
0 0 0 0 0 0 0 0 0 
0 0 0 0 0 0 0 0 0 
0 0 0 0 0 0 0 0 0 
0 0 0 0 0 0 0 0 0 
0 0 0 0 0 0 0 0 0 
0 0 0 0 0 0 0 0 0 
0 0 0 0 0 0 0 0 0 
0 0 0 0 0 0 0 0 0 
0 0 0 0 0 0 0 0 0 
0 0 0 0 0 0 0 0 0 
0 0 0 0 0 0 0 0 0 
0 0 0 0 0 0 0 0 0 
0 0 0 0 0 0 0 0 0 
0 0 0 0 0 0 0 0 0 
0 0 0 0 0 0 0 0 0 
0 0 0 0 0 0 0 0 0 
0 0 0 0 0 0 0 0 0 
0 0 0 0 0 0 0 0 0 
0 0 0 0 0 0 0 0 0 
0 0 0 0 0 0 0 0 0 
0 0 0 0 0 0 0 0 0 
0 0 0 0 0 0 0 0 0 
0 0 0 0 0 0 0 0 0 
0 0 0 0 0 0 0 0 0 
0 0 0 0 0 0 0 0 0 
0 0 0 0 0 0 0 0 0 
0 0 0 0 0 0 0 0 0 
0 0 0 0 0 0 0 0 0 
0 0 0 0 0 0 0 0 0 
0 0 0 0 0 0 0 0 0 
0 0 0 0 0 0 0 0 0 
0 0 0 0 0 0 0 0 0 
0 0 0 0 0 0 0 0 0 
0 0 0 0 0 0 0 0 0 
0 0 0 0 0 0 0 0 0 
0 0 0 0 0 0 0 0 0 
0 0 0 0 0 0 0 0 0 
0 0 0 0 0 0 0 0 0 
0 0 0 0 0 0 0 0 0 
0 0 0 0 0 0 0 0 0 
0 0 0 0 0 0 0 0 0 
0 0 0 0 0 0 0 0 0 
0 0 0 0 0 0 0 0 0 
0 0 0 0 0 0 0 0 0 
0 0 0 0 0 0 0 0 0 
0 0 0 0 0 0 0 0 0 
0 0 0 0 0 0 0 0 0 
0 0 0 0 0 0 0 0 0 
0 0 0 0 0 0 0 0 0 
0 0 0 0 0 0 0 0 0 
0 0 0 0 0 0 0 0 0 
0 0 0 0 0 0 0 0 0 
0 0 0 0 0 0 0 0 0 
0 0 0 0 0 0 0 0 0 
0 0 0 0 0 0 0 0 0 
0 0 0 0 0 0 0 0 0 
0 0 0 0 0 0 0 0 0 
0 0 0 0 0 0 0 0 0 
0 0 0 0 0 0 0 0 0 
0 0 0 0 0 0 0 0 0 
0 0 0 0 0 0 0 0 0 
0 0 0 0 0 0 0 0 0 
0 0 0 0 0 0 0 0 0 
0 0 0 0 0 0 0 0 0 
0 0 0 0 0 0 0 0 0 
0 0 0 0 0 0 0 0 0 
0 0 0 0 0 0 0 0 0 
0 0 0 0 0 0 0 0 0 
0 0 0 0 0 0 0 0 0 
0 0 0 0 0 0 0 0 0 
0 0 0 0 0 0 0 0 0 
0 0 0 0 0 0 0 0 0 
0 0 0 0 0 0 0 0 0 
0 0 0 0 0 0 0 0 0 
0 0 0 0 0 0 0 0 0 
0 0 0 0 0 0 0 0 0 
0 0 0 0 0 0 0 0 0 
0 0 0 0 0 0 0 0 0 
0 0 0 0 0 0 0 0 0 
0 0 0 0 0 0 0 0 0 
0 0 0 0 0 0 0 0 0 
0 0 0 0 0 0 0 0 0 
0 0 0 0 0 0 0 0 0 
0 0 0 0 0 0 0 0 0 
0 0 0 0 0 0 0 0 0 
0 0 0 0 0 0 0 0 0 
0 0 0 0 0 0 0 0 0 
0 0 0 0 0 0 0 0 0 
0 0 0 0 0 0 0 0 0 
0 0 0 0 0 0 0 0 0 
0 0 0 0 0 0 0 0 0 
0 0 0 0 0 0 0 0 0 
0 0 0 0 0 0 0 0 0 
0 0 0 0 0 0 0 0 0 
0 0 0 0 0 0 0 0 0 
0 0 0 0 0 0 0 0 0 
0 0 0 0 0 0 0 0 0 
0 0 0 0 0 0 0 0 0 
0 0 0 0 0 0 0 0 0 
0 0 0 0 0 0 0 0 0 
0 0 0 0 0 0 0 0 0 
0 0 0 0 0 0 0 0 0 
0 0 0 0 0 0 0 0 0 
0 0 0 0 0 0 0 0 0 
0 0 0 0 0 0 0 0 0 
0 0 0 0 0 0 0 0 0 
0 0 0 0 0 0 0 0 0 
0 0 0 0 0 0 0 0 0 
0 0 0 0 0 0 0 0 0 
0 0 0 0 0 0 0 0 0 
0 0 0 0 0 0 0 0 0 
0 0 0 0 0 0 0 0 0 
0 0 0 0 0 0 0 0 0 
0 0 0 0 0 0 0 0 0 
0 0 0 0 0 0 0 0 0 
0 0 0 0 0 0 0 0 0 
0 0 0 0 0 0 0 0 0 
0 0 0 0 0 0 0 0 0 
0 0 0 0 0 0 0 0 0 
0 0 0 0 0 0 0 0 0 
0 0 0 0 0 0 0 0 0 
0 0 0 0 0 0 0 0 0 
0 0 0 0 0 0 0 0 0 
0 0 0 0 0 0 0 0 0 
0 0 0 0 0 0 0 0 0 
0 0 0 0 0 0 0 0 0 
0 0 0 0 0 0 0 0 0 
0 0 0 0 0 0 0 0 0 
0 0 0 0 0 0 0 0 0 
0 0 0 0 0 0 0 0 0 
0 0 0 0 0 0 0 0 0 
0 0 0 0 0 0 0 0 0 
0 0 0 0 0 0 0 0 0 
0 0 0 0 0 0 0 0 0 
0 0 0 0 0 0 0 0 0 
0 0 0 0 0 0 0 0 0 
0 0 0 0 0 0 0 0 0 
0 0 0 0 0 0 0 0 0 
0 0 0 0 0 0 0 0 0 
0 0 0 0 0 0 0 0 0 
0 0 0 0 0 0 0 0 0 
0 0 0 0 0 0 0 0 0 
0 0 0 0 0 0 0 0 0 
0 0 0 0 0 0 0 0 0 
0 0 0 0 0 0 0 0 0 
0 0 0 0 0 0 0 0 0 
0 0 0 0 0 0 0 0 0 
0 0 0 0 0 0 0 0 0 
0 0 0 0 0 0 0 0 0 
0 0 0 0 0 0 0 0 0 
0 0 0 0 0 0 0 0 0 
0 0 0 0 0 0 0 0 0 
0 0 0 0 0 0 0 0 0 
0 0 0 0 0 0 0 0 0 
0 0 0 0 0 0 0 0 0 
0 0 0 0 0 0 0 0 0 
0 0 0 0 0 0 0 0 0 
0 0 0 0 0 0 0 0 0 
0 0 0 0 0 0 0 0 0 
0 0 0 0 0 0 0 0 0 
0 0 0 0 0 0 0 0 0 
0 0 0 0 0 0 0 0 0 
0 0 0 0 0 0 0 0 0 
0 0 0 0 0 0 0 0 0 
0 0 0 0 0 0 0 0 0 
0 0 0 0 0 0 0 0 0 
0 0 0 0 0 0 0 0 0 
0 0 0 0 0 0 0 0 0 
0 0 0 0 0 0 0 0 0 
0 0 0 0 0 0 0 0 0 
0 0 0 0 0 0 0 0 0 
0 0 0 0 0 0 0 0 0 
0 0 0 0 0 0 0 0 0 
0 0 0 0 0 0 0 0 0 
0 0 0 0 0 0 0 0 0 
0 0 0 0 0 0 0 0 0 
0 0 0 0 0 0 0 0 0 
0 0 0 0 0 0 0 0 0 
0 0 0 0 0 0 0 0 0 
0 0 0 0 0 0 0 0 0 
0 0 0 0 0 0 0 0 0 
0 0 0 0 0 0 0 0 0 
0 0 0 0 0 0 0 0 0 
0 0 0 0 0 0 0 0 0 
0 0 0 0 0 0 0 0 0 
0 0 0 0 0 0 0 0 0 
0 0 0 0 0 0 0 0 0 
0 0 0 0 0 0 0 0 0 
0 0 0 0 0 0 0 0 0 
0 0 0 0 0 0 0 0 0 
0 0 0 0 0 0 0 0 0 
0 0 0 0 0 0 0 0 0 
0 0 0 0 0 0 0 0 0 
0 0 0 0 0 0 0 0 0 
0 0 0 0 0 0 0 0 0 
0 0 0 0 0 0 0 0 0 
0 0 0 0 0 0 0 0 0 
0 0 0 0 0 0 0 0 0 
0 0 0 0 0 0 0 0 0 
0 0 0 0 0 0 0 0 0 
0 0 0 0 0 0 0 0 0 
0 0 0 0 0 0 0 0 0 
0 0 0 0 0 0 0 0 0 
0 0 0 0 0 0 0 0 0 
0 0 0 0 0 0 0 0 0 
0 0 0 0 0 0 0 0 0 
0 0 0 0 0 0 0 0 0 
0 0 0 0 0 0 0 0 0 
0 0 0 0 0 0 0 0 0 
0 0 0 0 0 0 0 0 0 
0 0 0 0 0 0 0 0 0 
0 0 0 0 0 0 0 0 0 
0 0 0 0 0 0 0 0 0 
0 0 0 0 0 0 0 0 0 
0 0 0 0 0 0 0 0 0 
0 0 0 0 0 0 0 0 0 
0 0 0 0 0 0 0 0 0 
0 0 0 0 0 0 0 0 0 
0 0 0 0 0 0 0 0 0 
0 0 0 0 0 0 0 0 0 
0 0 0 0 0 0 0 0 0 
0 0 0 0 0 0 0 0 0 
0 0 0 0 0 0 0 0 0 
0 0 0 0 0 0 0 0 0 
0 0 0 0 0 0 0 0 0 
0 0 0 0 0 0 0 0 0 
0 0 0 0 0 0 0 0 0 
0 0 0 0 0 0 0 0 0 
0 0 0 0 0 0 0 0 0 
0 0 0 0 0 0 0 0 0 
0 0 0 0 0 0 0 0 0 
0 0 0 0 0 0 0 0 0 
0 0 0 0 0 0 0 0 0 
0 0 0 0 0 0 0 0 0 
0 0 0 0 0 0 0 0 0 
0 0 0 0 0 0 0 0 0 
0 0 0 0 0 0 0 0 0 
0 0 0 0 0 0 0 0 0 
0 0 0 0 0 0 0 0 0 
0 0 0 0 0 0 0 0 0 
0 0 0 0 0 0 0 0 0 
0 0 0 0 0 0 0 0 0 
0 0 0 0 0 0 0 0 0 
0 0 0 0 0 0 0 0 0 
0 0 0 0 0 0 0 0 0 
0 0 0 0 0 0 0 0 0 
0 0 0 0 0 0 0 0 0 
0 0 0 0 0 0 0 0 0 
0 0 0 0 0 0 0 0 0 
0 0 0 0 0 0 0 0 0 
0 0 0 0 0 0 0 0 0 
0 0 0 0 0 0 0 0 0 
0 0 0 0 0 0 0 0 0 
0 0 0 0 0 0 0 0 0 
0 0 0 0 0 0 0 0 0 
0 0 0 0 0 0 0 0 0 
0 0 0 0 0 0 0 0 0 
0 0 0 0 0 0 0 0 0 
0 0 0 0 0 0 0 0 0 
0 0 0 0 0 0 0 0 0 
0 0 0 0 0 0 0 0 0 
0 0 0 0 0 0 0 0 0 
0 0 0 0 0 0 0 0 0 
0 0 0 0 0 0 0 0 0 
0 0 0 0 0 0 0 0 0 
0 0 0 0 0 0 0 0 0 
0 0 0 0 0 0 0 0 0 
0 0 0 0 0 0 0 0 0 
0 0 0 0 0 0 0 0 0 
0 0 0 0 0 0 0 0 0 
0 0 0 0 0 0 0 0 0 
0 0 0 0 0 0 0 0 0 
0 0 0 0 0 0 0 0 0 
0 0 0 0 0 0 0 0 0 
0 0 0 0 0 0 0 0 0 
0 0 0 0 0 0 0 0 0 
0 0 0 0 0 0 0 0 0 
0 0 0 0 0 0 0 0 0 
0 0 0 0 0 0 0 0 0 
0 0 0 0 0 0 0 0 0 
0 0 0 0 0 0 0 0 0 
0 0 0 0 0 0 0 0 0 
0 0 0 0 0 0 0 0 0 
0 0 0 0 0 0 0 0 0 
0 0 0 0 0 0 0 0 0 
0 0 0 0 0 0 0 0 0 
0 0 0 0 0 0 0 0 0 
0 0 0 0 0 0 0 0 0 
0 0 0 0 0 0 0 0 0 
0 0 0 0 0 0 0 0 0 
0 0 0 0 0 0 0 0 0 
0 0 0 0 0 0 0 0 0 
0 0 0 0 0 0 0 0 0 
0 0 0 0 0 0 0 0 0 
0 0 0 0 0 0 0 0 0 
0 0 0 0 0 0 0 0 0 
0 0 0 0 0 0 0 0 0 
0 0 0 0 0 0 0 0 0 
0 0 0 0 0 0 0 0 0 
0 0 0 0 0 0 0 0 0 
0 0 0 0 0 0 0 0 0 
0 0 0 0 0 0 0 0 0 
0 0 0 0 0 0 0 0 0 
0 0 0 0 0 0 0 0 0 
0 0 0 0 0 0 0 0 0 
0 0 0 0 0 0 0 0 0 
0 0 0 0 0 0 0 0 0 
0 0 0 0 0 0 0 0 0 
0 0 0 0 0 0 0 0 0 
0 0 0 0 0 0 0 0 0 
0 0 0 0 0 0 0 0 0 
0 0 0 0 0 0 0 0 0 
0 0 0 0 0 0 0 0 0 
0 0 0 0 0 0 0 0 0 
0 0 0 0 0 0 0 0 0 
0 0 0 0 0 0 0 0 0 
0 0 0 0 0 0 0 0 0 
0 0 0 0 0 0 0 0 0 
0 0 0 0 0 0 0 0 0 
0 0 0 0 0 0 0 0 0 
0 0 0 0 0 0 0 0 0 
0 0 0 0 0 0 0 0 0 
0 0 0 0 0 0 0 0 0 
0 0 0 0 0 0 0 0 0 
0 0 0 0 0 0 0 0 0 
0 0 0 0 0 0 0 0 0 
0 0 0 0 0 0 0 0 0 
0 0 0 0 0 0 0 0 0 
0 0 0 0 0 0 0 0 0 
0 0 0 0 0 0 0 0 0 
0 0 0 0 0 0 0 0 0 
0 0 0 0 0 0 0 0 0 
0 0 0 0 0 0 0 0 0 
0 0 0 0 0 0 0 0 0 
0 0 0 0 0 0 0 0 0 
0 0 0 0 0 0 0 0 0 
0 0 0 0 0 0 0 0 0 
0 0 0 0 0 0 0 0 0 
0 0 0 0 0 0 0 0 0 
0 0 0 0 0 0 0 0 0 
0 0 0 0 0 0 0 0 0 
0 0 0 0 0 0 0 0 0 
0 0 0 0 0 0 0 0 0 
0 0 0 0 0 0 0 0 0 
0 0 0 0 0 0 0 0 0 
0 0 0 0 0 0 0 0 0 
0 0 0 0 0 0 0 0 0 
0 0 0 0 0 0 0 0 0 
0 0 0 0 0 0 0 0 0 
0 0 0 0 0 0 0 0 0 
0 0 0 0 0 0 0 0 0 
0 0 0 0 0 0 0 0 0 
0 0 0 0 0 0 0 0 0 
0 0 0 0 0 0 0 0 0 
0 0 0 0 0 0 0 0 0 
0 0 0 0 0 0 0 0 0 
0 0 0 0 0 0 0 0 0 
0 0 0 0 0 0 0 0 0 
0 0 0 0 0 0 0 0 0 
0 0 0 0 0 0 0 0 0 
0 0 0 0 0 0 0 0 0 
0 0 0 0 0 0 0 0 0 
0 0 0 0 0 0 0 0 0 
0 0 0 0 0 0 0 0 0 
0 0 0 0 0 0 0 0 0 
0 0 0 0 0 0 0 0 0 
0 0 0 0 0 0 0 0 0 
0 0 0 0 0 0 0 0 0 
0 0 0 0 0 0 0 0 0 
0 0 0 0 0 0 0 0 0 
0 0 0 0 0 0 0 0 0 
0 0 0 0 0 0 0 0 0 
0 0 0 0 0 0 0 0 0 
0 0 0 0 0 0 0 0 0 
0 0 0 0 0 0 0 0 0 
0 0 0 0 0 0 0 0 0 
0 0 0 0 0 0 0 0 0 
0 0 0 0 0 0 0 0 0 
0 0 0 0 0 0 0 0 0 
0 0 0 0 0 0 0 0 0 
0 0 0 0 0 0 0 0 0 
0 0 0 0 0 0 0 0 0 
0 0 0 0 0 0 0 0 0 
0 0 0 0 0 0 0 0 0 
0 0 0 0 0 0 0 0 0 
0 0 0 0 0 0 0 0 0 
0 0 0 0 0 0 0 0 0 
0 0 0 0 0 0 0 0 0 
0 0 0 0 0 0 0 0 0 
0 0 0 0 0 0 0 0 0 
0 0 0 0 0 0 0 0 0 
0 0 0 0 0 0 0 0 0 
0 0 0 0 0 0 0 0 0 
0 0 0 0 0 0 0 0 0 
0 0 0 0 0 0 0 0 0 
0 0 0 0 0 0 0 0 0 
0 0 0 0 0 0 0 0 0 
0 0 0 0 0 0 0 0 0 
0 0 0 0 0 0 0 0 0 
0 0 0 0 0 0 0 0 0 
0 0 0 0 0 0 0 0 0 
0 0 0 0 0 0 0 0 0 
0 0 0 0 0 0 0 0 0 
0 0 0 0 0 0 0 0 0 
0 0 0 0 0 0 0 0 0 
0 0 0 0 0 0 0 0 0 
0 0 0 0 0 0 0 0 0 
0 0 0 0 0 0 0 0 0 
0 0 0 0 0 0 0 0 0 
0 0 0 0 0 0 0 0 0 
0 0 0 0 0 0 0 0 0 
0 0 0 0 0 0 0 0 0 
0 0 0 0 0 0 0 0 0 
0 0 0 0 0 0 0 0 0 
0 0 0 0 0 0 0 0 0 
0 0 0 0 0 0 0 0 0 
0 0 0 0 0 0 0 0 0 
0 0 0 0 0 0 0 0 0 
0 0 0 0 0 0 0 0 0 
0 0 0 0 0 0 0 0 0 
0 0 0 0 0 0 0 0 0 
0 0 0 0 0 0 0 0 0 
0 0 0 0 0 0 0 0 0 
0 0 0 0 0 0 0 0 0 
0 0 0 0 0 0 0 0 0 
0 0 0 0 0 0 0 0 0 
0 0 0 0 0 0 0 0 0 
0 0 0 0 0 0 0 0 0 
0 0 0 0 0 0 0 0 0 
0 0 0 0 0 0 0 0 0 
0 0 0 0 0 0 0 0 0 
0 0 0 0 0 0 0 0 0 
0 0 0 0 0 0 0 0 0 
0 0 0 0 0 0 0 0 0 
0 0 0 0 0 0 0 0 0 
0 0 0 0 0 0 0 0 0 
0 0 0 0 0 0 0 0 0 
0 0 0 0 0 0 0 0 0 
0 0 0 0 0 0 0 0 0 
0 0 0 0 0 0 0 0 0 
0 0 0 0 0 0 0 0 0 
0 0 0 0 0 0 0 0 0 
0 0 0 0 0 0 0 0 0 
0 0 0 0 0 0 0 0 0 
0 0 0 0 0 0 0 0 0 
0 0 0 0 0 0 0 0 0 
0 0 0 0 0 0 0 0 0 
0 0 0 0 0 0 0 0 0 
0 0 0 0 0 0 0 0 0 
0 0 0 0 0 0 0 0 0 
0 0 0 0 0 0 0 0 0 
0 0 0 0 0 0 0 0 0 
0 0 0 0 0 0 0 0 0 
0 0 0 0 0 0 0 0 0 
0 0 0 0 0 0 0 0 0 
0 0 0 0 0 0 0 0 0 
0 0 0 0 0 0 0 0 0 
0 0 0 0 0 0 0 0 0 
0 0 0 0 0 0 0 0 0 
0 0 0 0 0 0 0 0 0 
0 0 0 0 0 0 0 0 0 
0 0 0 0 0 0 0 0 0 
0 0 0 0 0 0 0 0 0 
0 0 0 0 0 0 0 0 0 
0 0 0 0 0 0 0 0 0 
0 0 0 0 0 0 0 0 0 
0 0 0 0 0 0 0 0 0 
0 0 0 0 0 0 0 0 0 
0 0 0 0 0 0 0 0 0 
0 0 0 0 0 0 0 0 0 
0 0 0 0 0 0 0 0 0 
0 0 0 0 0 0 0 0 0 
0 0 0 0 0 0 0 0 0 
0 0 0 0 0 0 0 0 0 
0 0 0 0 0 0 0 0 0 
0 0 0 0 0 0 0 0 0 
0 0 0 0 0 0 0 0 0 
0 0 0 0 0 0 0 0 0 
0 0 0 0 0 0 0 0 0 
0 0 0 0 0 0 0 0 0 
0 0 0 0 0 0 0 0 0 
0 0 0 0 0 0 0 0 0 
0 0 0 0 0 0 0 0 0 
0 0 0 0 0 0 0 0 0 
0 0 0 0 0 0 0 0 0 
0 0 0 0 0 0 0 0 0 
0 0 0 0 0 0 0 0 0 
0 0 0 0 0 0 0 0 0 
0 0 0 0 0 0 0 0 0 
0 0 0 0 0 0 0 0 0 
0 0 0 0 0 0 0 0 0 
0 0 0 0 0 0 0 0 0 
0 0 0 0 0 0 0 0 0 
0 0 0 0 0 0 0 0 0 
0 0 0 0 0 0 0 0 0 
0 0 0 0 0 0 0 0 0 
0 0 0 0 0 0 0 0 0 
0 0 0 0 0 0 0 0 0 
0 0 0 0 0 0 0 0 0 
0 0 0 0 0 0 0 0 0 
0 0 0 0 0 0 0 0 0 
0 0 0 0 0 0 0 0 0 
0 0 0 0 0 0 0 0 0 
0 0 0 0 0 0 0 0 0 
0 0 0 0 0 0 0 0 0 
0 0 0 0 0 0 0 0 0 
0 0 0 0 0 0 0 0 0 
0 0 0 0 0 0 0 0 0 
0 0 0 0 0 0 0 0 0 
0 0 0 0 0 0 0 0 0 
0 0 0 0 0 0 0 0 0 
0 0 0 0 0 0 0 0 0 
0 0 0 0 0 0 0 0 0 
0 0 0 0 0 0 0 0 0 
0 0 0 0 0 0 0 0 0 
0 0 0 0 0 0 0 0 0 
0 0 0 0 0 0 0 0 0 
0 0 0 0 0 0 0 0 0 
0 0 0 0 0 0 0 0 0 
0 0 0 0 0 0 0 0 0 
0 0 0 0 0 0 0 0 0 
0 0 0 0 0 0 0 0 0 
0 0 0 0 0 0 0 0 0 
0 0 0 0 0 0 0 0 0 
0 0 0 0 0 0 0 0 0 
0 0 0 0 0 0 0 0 0 
0 0 0 0 0 0 0 0 0 
0 0 0 0 0 0 0 0 0 
0 0 0 0 0 0 0 0 0 
0 0 0 0 0 0 0 0 0 
0 0 0 0 0 0 0 0 0 
0 0 0 0 0 0 0 0 0 
0 0 0 0 0 0 0 0 0 
0 0 0 0 0 0 0 0 0 
0 0 0 0 0 0 0 0 0 
0 0 0 0 0 0 0 0 0 
0 0 0 0 0 0 0 0 0 
0 0 0 0 0 0 0 0 0 
0 0 0 0 0 0 0 0 0 
0 0 0 0 0 0 0 0 0 
0 0 0 0 0 0 0 0 0 
0 0 0 0 0 0 0 0 0 
0 0 0 0 0 0 0 0 0 
0 0 0 0 0 0 0 0 0 
0 0 0 0 0 0 0 0 0 
0 0 0 0 0 0 0 0 0 
0 0 0 0 0 0 0 0 0 
0 0 0 0 0 0 0 0 0 
0 0 0 0 0 0 0 0 0 
0 0 0 0 0 0 0 0 0 
0 0 0 0 0 0 0 0 0 
0 0 0 0 0 0 0 0 0 
0 0 0 0 0 0 0 0 0 
0 0 0 0 0 0 0 0 0 
0 0 0 0 0 0 0 0 0 
0 0 0 0 0 0 0 0 0 
0 0 0 0 0 0 0 0 0 
0 0 0 0 0 0 0 0 0 
0 0 0 0 0 0 0 0 0 
0 0 0 0 0 0 0 0 0 
0 0 0 0 0 0 0 0 0 
0 0 0 0 0 0 0 0 0 
0 0 0 0 0 0 0 0 0 
0 0 0 0 0 0 0 0 0 
0 0 0 0 0 0 0 0 0 
0 0 0 0 0 0 0 0 0 
0 0 0 0 0 0 0 0 0 
0 0 0 0 0 0 0 0 0 
0 0 0 0 0 0 0 0 0 
0 0 0 0 0 0 0 0 0 
0 0 0 0 0 0 0 0 0 
0 0 0 0 0 0 0 0 0 
0 0 0 0 0 0 0 0 0 
0 0 0 0 0 0 0 0 0 
0 0 0 0 0 0 0 0 0 
0 0 0 0 0 0 0 0 0 
0 0 0 0 0 0 0 0 0 
0 0 0 0 0 0 0 0 0 
0 0 0 0 0 0 0 0 0 
0 0 0 0 0 0 0 0 0 
0 0 0 0 0 0 0 0 0 
0 0 0 0 0 0 0 0 0 
0 0 0 0 0 0 0 0 0 
0 0 0 0 0 0 0 0 0 
0 0 0 0 0 0 0 0 0 
0 0 0 0 0 0 0 0 0 
0 0 0 0 0 0 0 0 0 
0 0 0 0 0 0 0 0 0 
0 0 0 0 0 0 0 0 0 
0 0 0 0 0 0 0 0 0 
0 0 0 0 0 0 0 0 0 
0 0 0 0 0 0 0 0 0 
0 0 0 0 0 0 0 0 0 
0 0 0 0 0 0 0 0 0 
0 0 0 0 0 0 0 0 0 
0 0 0 0 0 0 0 0 0 
0 0 0 0 0 0 0 0 0 
0 0 0 0 0 0 0 0 0 
0 0 0 0 0 0 0 0 0 
0 0 0 0 0 0 0 0 0 
0 0 0 0 0 0 0 0 0 
0 0 0 0 0 0 0 0 0 
0 0 0 0 0 0 0 0 0 
0 0 0 0 0 0 0 0 0 
0 0 0 0 0 0 0 0 0 
0 0 0 0 0 0 0 0 0 
0 0 0 0 0 0 0 0 0 
0 0 0 0 0 0 0 0 0 
0 0 0 0 0 0 0 0 0 
0 0 0 0 0 0 0 0 0 
0 0 0 0 0 0 0 0 0 
0 0 0 0 0 0 0 0 0 
0 0 0 0 0 0 0 0 0 
0 0 0 0 0 0 0 0 0 
0 0 0 0 0 0 0 0 0 
0 0 0 0 0 0 0 0 0 
0 0 0 0 0 0 0 0 0 
0 0 0 0 0 0 0 0 0 
0 0 0 0 0 0 0 0 0 
0 0 0 0 0 0 0 0 0 
0 0 0 0 0 0 0 0 0 
0 0 0 0 0 0 0 0 0 
0 0 0 0 0 0 0 0 0 
0 0 0 0 0 0 0 0 0 
0 0 0 0 0 0 0 0 0 
0 0 0 0 0 0 0 0 0 
0 0 0 0 0 0 0 0 0 
0 0 0 0 0 0 0 0 0 
0 0 0 0 0 0 0 0 0 
0 0 0 0 0 0 0 0 0 
0 0 0 0 0 0 0 0 0 
0 0 0 0 0 0 0 0 0 
0 0 0 0 0 0 0 0 0 
0 0 0 0 0 0 0 0 0 
0 0 0 0 0 0 0 0 0 
0 0 0 0 0 0 0 0 0 
0 0 0 0 0 0 0 0 0 
0 0 0 0 0 0 0 0 0 
0 0 0 0 0 0 0 0 0 
0 0 0 0 0 0 0 0 0 
0 0 0 0 0 0 0 0 0 
0 0 0 0 0 0 0 0 0 
0 0 0 0 0 0 0 0 0 
0 0 0 0 0 0 0 0 0 
0 0 0 0 0 0 0 0 0 
0 0 0 0 0 0 0 0 0 
0 0 0 0 0 0 0 0 0 
0 0 0 0 0 0 0 0 0 
0 0 0 0 0 0 0 0 0 
0 0 0 0 0 0 0 0 0 
0 0 0 0 0 0 0 0 0 
0 0 0 0 0 0 0 0 0 
0 0 0 0 0 0 0 0 0 
0 0 0 0 0 0 0 0 0 
0 0 0 0 0 0 0 0 0 
0 0 0 0 0 0 0 0 0 
0 0 0 0 0 0 0 0 0 
0 0 0 0 0 0 0 0 0 
0 0 0 0 0 0 0 0 0 
0 0 0 0 0 0 0 0 0 
0 0 0 0 0 0 0 0 0 
0 0 0 0 0 0 0 0 0 
0 0 0 0 0 0 0 0 0 
0 0 0 0 0 0 0 0 0 
0 0 0 0 0 0 0 0 0 
0 0 0 0 0 0 0 0 0 
0 0 0 0 0 0 0 0 0 
0 0 0 0 0 0 0 0 0 
0 0 0 0 0 0 0 0 0 
0 0 0 0 0 0 0 0 0 
0 0 0 0 0 0 0 0 0 
0 0 0 0 0 0 0 0 0 
0 0 0 0 0 0 0 0 0 
0 0 0 0 0 0 0 0 0 
0 0 0 0 0 0 0 0 0 
0 0 0 0 0 0 0 0 0 
0 0 0 0 0 0 0 0 0 
0 0 0 0 0 0 0 0 0 
0 0 0 0 0 0 0 0 0 
0 0 0 0 0 0 0 0 0 
0 0 0 0 0 0 0 0 0 
0 0 0 0 0 0 0 0 0 
0 0 0 0 0 0 0 0 0 
0 0 0 0 0 0 0 0 0 
0 0 0 0 0 0 0 0 0 
0 0 0 0 0 0 0 0 0 
0 0 0 0 0 0 0 0 0 
0 0 0 0 0 0 0 0 0 
0 0 0 0 0 0 0 0 0 
0 0 0 0 0 0 0 0 0 
0 0 0 0 0 0 0 0 0 
0 0 0 0 0 0 0 0 0 
0 0 0 0 0 0 0 0 0 
0 0 0 0 0 0 0 0 0 
0 0 0 0 0 0 0 0 0 
0 0 0 0 0 0 0 0 0 
0 0 0 0 0 0 0 0 0 
0 0 0 0 0 0 0 0 0 
0 0 0 0 0 0 0 0 0 
0 0 0 0 0 0 0 0 0 
0 0 0 0 0 0 0 0 0 
0 0 0 0 0 0 0 0 0 
0 0 0 0 0 0 0 0 0 
0 0 0 0 0 0 0 0 0 
0 0 0 0 0 0 0 0 0 
0 0 0 0 0 0 0 0 0 
0 0 0 0 0 0 0 0 0 
0 0 0 0 0 0 0 0 0 
0 0 0 0 0 0 0 0 0 
0 0 0 0 0 0 0 0 0 
0 0 0 0 0 0 0 0 0 
0 0 0 0 0 0 0 0 0 
0 0 0 0 0 0 0 0 0 
0 0 0 0 0 0 0 0 0 
0 0 0 0 0 0 0 0 0 
0 0 0 0 0 0 0 0 0 
0 0 0 0 0 0 0 0 0 
0 0 0 0 0 0 0 0 0 
0 0 0 0 0 0 0 0 0 
0 0 0 0 0 0 0 0 0 
0 0 0 0 0 0 0 0 0 
0 0 0 0 0 0 0 0 0 
0 0 0 0 0 0 0 0 0 
0 0 0 0 0 0 0 0 0 
0 0 0 0 0 0 0 0 0 
0 0 0 0 0 0 0 0 0 
0 0 0 0 0 0 0 0 0 
0 0 0 0 0 0 0 0 0 
0 0 0 0 0 0 0 0 0 
0 0 0 0 0 0 0 0 0 
0 0 0 0 0 0 0 0 0 
0 0 0 0 0 0 0 0 0 
0 0 0 0 0 0 0 0 0 
0 0 0 0 0 0 0 0 0 
0 0 0 0 0 0 0 0 0 
0 0 0 0 0 0 0 0 0 
0 0 0 0 0 0 0 0 0 
0 0 0 0 0 0 0 0 0 
0 0 0 0 0 0 0 0 0 
0 0 0 0 0 0 0 0 0 
0 0 0 0 0 0 0 0 0 
0 0 0 0 0 0 0 0 0 
0 0 0 0 0 0 0 0 0 
0 0 0 0 0 0 0 0 0 
0 0 0 0 0 0 0 0 0 
0 0 0 0 0 0 0 0 0 
0 0 0 0 0 0 0 0 0 
0 0 0 0 0 0 0 0 0 
0 0 0 0 0 0 0 0 0 
0 0 0 0 0 0 0 0 0 
0 0 0 0 0 0 0 0 0 
0 0 0 0 0 0 0 0 0 
0 0 0 0 0 0 0 0 0 
0 0 0 0 0 0 0 0 0 
0 0 0 0 0 0 0 0 0 
0 0 0 0 0 0 0 0 0 
0 0 0 0 0 0 0 0 0 
0 0 0 0 0 0 0 0 0 
0 0 0 0 0 0 0 0 0 
0 0 0 0 0 0 0 0 0 
0 0 0 0 0 0 0 0 0 
0 0 0 0 0 0 0 0 0 
0 0 0 0 0 0 0 0 0 
0 0 0 0 0 0 0 0 0 
0 0 0 0 0 0 0 0 0 
0 0 0 0 0 0 0 0 0 
0 0 0 0 0 0 0 0 0 
0 0 0 0 0 0 0 0 0 
0 0 0 0 0 0 0 0 0 
0 0 0 0 0 0 0 0 0 
0 0 0 0 0 0 0 0 0 
0 0 0 0 0 0 0 0 0 
0 0 0 0 0 0 0 0 0 
0 0 0 0 0 0 0 0 0 
0 0 0 0 0 0 0 0 0 
0 0 0 0 0 0 0 0 0 
0 0 0 0 0 0 0 0 0 
0 0 0 0 0 0 0 0 0 
0 0 0 0 0 0 0 0 0 
0 0 0 0 0 0 0 0 0 
0 0 0 0 0 0 0 0 0 
0 0 0 0 0 0 0 0 0 
0 0 0 0 0 0 0 0 0 
0 0 0 0 0 0 0 0 0 
0 0 0 0 0 0 0 0 0 
0 0 0 0 0 0 0 0 0 
0 0 0 0 0 0 0 0 0 
0 0 0 0 0 0 0 0 0 
0 0 0 0 0 0 0 0 0 
0 0 0 0 0 0 0 0 0 
0 0 0 0 0 0 0 0 0 
0 0 0 0 0 0 0 0 0 
0 0 0 0 0 0 0 0 0 
0 0 0 0 0 0 0 0 0 
0 0 0 0 0 0 0 0 0 
0 0 0 0 0 0 0 0 0 
0 0 0 0 0 0 0 0 0 
0 0 0 0 0 0 0 0 0 
0 0 0 0 0 0 0 0 0 
0 0 0 0 0 0 0 0 0 
0 0 0 0 0 0 0 0 0 
0 0 0 0 0 0 0 0 0 
0 0 0 0 0 0 0 0 0 
0 0 0 0 0 0 0 0 0 
0 0 0 0 0 0 0 0 0 
0 0 0 0 0 0 0 0 0 
0 0 0 0 0 0 0 0 0 
0 0 0 0 0 0 0 0 0 
0 0 0 0 0 0 0 0 0 
0 0 0 0 0 0 0 0 0 
0 0 0 0 0 0 0 0 0 
0 0 0 0 0 0 0 0 0 
0 0 0 0 0 0 0 0 0 
0 0 0 0 0 0 0 0 0 
0 0 0 0 0 0 0 0 0 
0 0 0 0 0 0 0 0 0 
0 0 0 0 0 0 0 0 0 
0 0 0 0 0 0 0 0 0 
0 0 0 0 0 0 0 0 0 
0 0 0 0 0 0 0 0 0 
0 0 0 0 0 0 0 0 0 
0 0 0 0 0 0 0 0 0 
0 0 0 0 0 0 0 0 0 
0 0 0 0 0 0 0 0 0 
0 0 0 0 0 0 0 0 0 
0 0 0 0 0 0 0 0 0 
0 0 0 0 0 0 0 0 0 
0 0 0 0 0 0 0 0 0 
0 0 0 0 0 0 0 0 0 
0 0 0 0 0 0 0 0 0 
0 0 0 0 0 0 0 0 0 
0 0 0 0 0 0 0 0 0 
0 0 0 0 0 0 0 0 0 
0 0 0 0 0 0 0 0 0 
0 0 0 0 0 0 0 0 0 
0 0 0 0 0 0 0 0 0 
0 0 0 0 0 0 0 0 0 
0 0 0 0 0 0 0 0 0 
0 0 0 0 0 0 0 0 0 
0 0 0 0 0 0 0 0 0 
0 0 0 0 0 0 0 0 0 
0 0 0 0 0 0 0 0 0 
0 0 0 0 0 0 0 0 0 
0 0 0 0 0 0 0 0 0 
0 0 0 0 0 0 0 0 0 
0 0 0 0 0 0 0 0 0 
0 0 0 0 0 0 0 0 0 
0 0 0 0 0 0 0 0 0 
0 0 0 0 0 0 0 0 0 
0 0 0 0 0 0 0 0 0 
0 0 0 0 0 0 0 0 0 
0 0 0 0 0 0 0 0 0 
0 0 0 0 0 0 0 0 0 
0 0 0 0 0 0 0 0 0 
0 0 0 0 0 0 0 0 0 
0 0 0 0 0 0 0 0 0 
0 0 0 0 0 0 0 0 0 
0 0 0 0 0 0 0 0 0 
0 0 0 0 0 0 0 0 0 
0 0 0 0 0 0 0 0 0 
0 0 0 0 0 0 0 0 0 
0 0 0 0 0 0 0 0 0 
0 0 0 0 0 0 0 0 0 
0 0 0 0 0 0 0 0 0 
0 0 0 0 0 0 0 0 0 
0 0 0 0 0 0 0 0 0 
0 0 0 0 0 0 0 0 0 
0 0 0 0 0 0 0 0 0 
0 0 0 0 0 0 0 0 0 
0 0 0 0 0 0 0 0 0 
0 0 0 0 0 0 0 0 0 
0 0 0 0 0 0 0 0 0 
0 0 0 0 0 0 0 0 0 
0 0 0 0 0 0 0 0 0 
0 0 0 0 0 0 0 0 0 
0 0 0 0 0 0 0 0 0 
0 0 0 0 0 0 0 0 0 
0 0 0 0 0 0 0 0 0 
0 0 0 0 0 0 0 0 0 
0 0 0 0 0 0 0 0 0 
0 0 0 0 0 0 0 0 0 
0 0 0 0 0 0 0 0 0 
0 0 0 0 0 0 0 0 0 
0 0 0 0 0 0 0 0 0 
0 0 0 0 0 0 0 0 0 
0 0 0 0 0 0 0 0 0 
0 0 0 0 0 0 0 0 0 
0 0 0 0 0 0 0 0 0 
0 0 0 0 0 0 0 0 0 
0 0 0 0 0 0 0 0 0 
0 0 0 0 0 0 0 0 0 
0 0 0 0 0 0 0 0 0 
0 0 0 0 0 0 0 0 0 
0 0 0 0 0 0 0 0 0 
0 0 0 0 0 0 0 0 0 
0 0 0 0 0 0 0 0 0 
0 0 0 0 0 0 0 0 0 
0 0 0 0 0 0 0 0 0 
0 0 0 0 0 0 0 0 0 
0 0 0 0 0 0 0 0 0 
0 0 0 0 0 0 0 0 0 
0 0 0 0 0 0 0 0 0 
0 0 0 0 0 0 0 0 0 
0 0 0 0 0 0 0 0 0 
0 0 0 0 0 0 0 0 0 
0 0 0 0 0 0 0 0 0 
0 0 0 0 0 0 0 0 0 
0 0 0 0 0 0 0 0 0 
0 0 0 0 0 0 0 0 0 
0 0 0 0 0 0 0 0 0 
0 0 0 0 0 0 0 0 0 
0 0 0 0 0 0 0 0 0 
0 0 0 0 0 0 0 0 0 
0 0 0 0 0 0 0 0 0 
0 0 0 0 0 0 0 0 0 
0 0 0 0 0 0 0 0 0 
0 0 0 0 0 0 0 0 0 
0 0 0 0 0 0 0 0 0 
0 0 0 0 0 0 0 0 0 
0 0 0 0 0 0 0 0 0 
0 0 0 0 0 0 0 0 0 
0 0 0 0 0 0 0 0 0 
0 0 0 0 0 0 0 0 0 
0 0 0 0 0 0 0 0 0 
0 0 0 0 0 0 0 0 0 
0 0 0 0 0 0 0 0 0 
0 0 0 0 0 0 0 0 0 
0 0 0 0 0 0 0 0 0 
0 0 0 0 0 0 0 0 0 
0 0 0 0 0 0 0 0 0 
0 0 0 0 0 0 0 0 0 
0 0 0 0 0 0 0 0 0 
0 0 0 0 0 0 0 0 0 
0 0 0 0 0 0 0 0 0 
0 0 0 0 0 0 0 0 0 
0 0 0 0 0 0 0 0 0 
0 0 0 0 0 0 0 0 0 
0 0 0 0 0 0 0 0 0 
0 0 0 0 0 0 0 0 0 
0 0 0 0 0 0 0 0 0 
0 0 0 0 0 0 0 0 0 
0 0 0 0 0 0 0 0 0 
0 0 0 0 0 0 0 0 0 
0 0 0 0 0 0 0 0 0 
0 0 0 0 0 0 0 0 0 
0 0 0 0 0 0 0 0 0 
0 0 0 0 0 0 0 0 0 
0 0 0 0 0 0 0 0 0 
0 0 0 0 0 0 0 0 0 
0 0 0 0 0 0 0 0 0 
0 0 0 0 0 0 0 0 0 
0 0 0 0 0 0 0 0 0 
0 0 0 0 0 0 0 0 0 
0 0 0 0 0 0 0 0 0 
0 0 0 0 0 0 0 0 0 
0 0 0 0 0 0 0 0 0 
0 0 0 0 0 0 0 0 0 
0 0 0 0 0 0 0 0 0 
0 0 0 0 0 0 0 0 0 
0 0 0 0 0 0 0 0 0 
0 0 0 0 0 0 0 0 0 
0 0 0 0 0 0 0 0 0 
0 0 0 0 0 0 0 0 0 
0 0 0 0 0 0 0 0 0 
0 0 0 0 0 0 0 0 0 
0 0 0 0 0 0 0 0 0 
0 0 0 0 0 0 0 0 0 
0 0 0 0 0 0 0 0 0 
0 0 0 0 0 0 0 0 0 
0 0 0 0 0 0 0 0 0 
0 0 0 0 0 0 0 0 0 
0 0 0 0 0 0 0 0 0 
0 0 0 0 0 0 0 0 0 
0 0 0 0 0 0 0 0 0 
0 0 0 0 0 0 0 0 0 
0 0 0 0 0 0 0 0 0 
0 0 0 0 0 0 0 0 0 
0 0 0 0 0 0 0 0 0 
0 0 0 0 0 0 0 0 0 
0 0 0 0 0 0 0 0 0 
0 0 0 0 0 0 0 0 0 
0 0 0 0 0 0 0 0 0 
0 0 0 0 0 0 0 0 0 
0 0 0 0 0 0 0 0 0 
0 0 0 0 0 0 0 0 0 
0 0 0 0 0 0 0 0 0 
0 0 0 0 0 0 0 0 0 
0 0 0 0 0 0 0 0 0 
0 0 0 0 0 0 0 0 0 
0 0 0 0 0 0 0 0 0 
0 0 0 0 0 0 0 0 0 
0 0 0 0 0 0 0 0 0 
0 0 0 0 0 0 0 0 0 
0 0 0 0 0 0 0 0 0 
0 0 0 0 0 0 0 0 0 
0 0 0 0 0 0 0 0 0 
0 0 0 0 0 0 0 0 0 
0 0 0 0 0 0 0 0 0 
0 0 0 0 0 0 0 0 0 
0 0 0 0 0 0 0 0 0 
0 0 0 0 0 0 0 0 0 
0 0 0 0 0 0 0 0 0 
0 0 0 0 0 0 0 0 0 
0 0 0 0 0 0 0 0 0 
0 0 0 0 0 0 0 0 0 
0 0 0 0 0 0 0 0 0 
0 0 0 0 0 0 0 0 0 
0 0 0 0 0 0 0 0 0 
0 0 0 0 0 0 0 0 0 
0 0 0 0 0 0 0 0 0 
0 0 0 0 0 0 0 0 0 
0 0 0 0 0 0 0 0 0 
0 0 0 0 0 0 0 0 0 
0 0 0 0 0 0 0 0 0 
0 0 0 0 0 0 0 0 0 
0 0 0 0 0 0 0 0 0 
0 0 0 0 0 0 0 0 0 
0 0 0 0 0 0 0 0 0 
0 0 0 0 0 0 0 0 0 
0 0 0 0 0 0 0 0 0 
0 0 0 0 0 0 0 0 0 
0 0 0 0 0 0 0 0 0 
0 0 0 0 0 0 0 0 0 
0 0 0 0 0 0 0 0 0 
0 0 0 0 0 0 0 0 0 
0 0 0 0 0 0 0 0 0 
0 0 0 0 0 0 0 0 0 
0 0 0 0 0 0 0 0 0 
0 0 0 0 0 0 0 0 0 
0 0 0 0 0 0 0 0 0 
0 0 0 0 0 0 0 0 0 
0 0 0 0 0 0 0 0 0 
0 0 0 0 0 0 0 0 0 
0 0 0 0 0 0 0 0 0 
0 0 0 0 0 0 0 0 0 
0 0 0 0 0 0 0 0 0 
0 0 0 0 0 0 0 0 0 
0 0 0 0 0 0 0 0 0 
0 0 0 0 0 0 0 0 0 
0 0 0 0 0 0 0 0 0 
0 0 0 0 0 0 0 0 0 
0 0 0 0 0 0 0 0 0 
0 0 0 0 0 0 0 0 0 
0 0 0 0 0 0 0 0 0 
0 0 0 0 0 0 0 0 0 
0 0 0 0 0 0 0 0 0 
0 0 0 0 0 0 0 0 0 
0 0 0 0 0 0 0 0 0 
0 0 0 0 0 0 0 0 0 
0 0 0 0 0 0 0 0 0 
0 0 0 0 0 0 0 0 0 
0 0 0 0 0 0 0 0 0 
0 0 0 0 0 0 0 0 0 
0 0 0 0 0 0 0 0 0 
0 0 0 0 0 0 0 0 0 
0 0 0 0 0 0 0 0 0 
0 0 0 0 0 0 0 0 0 
0 0 0 0 0 0 0 0 0 
0 0 0 0 0 0 0 0 0 
0 0 0 0 0 0 0 0 0 
0 0 0 0 0 0 0 0 0 
0 0 0 0 0 0 0 0 0 
0 0 0 0 0 0 0 0 0 
0 0 0 0 0 0 0 0 0 
0 0 0 0 0 0 0 0 0 
0 0 0 0 0 0 0 0 0 
0 0 0 0 0 0 0 0 0 
0 0 0 0 0 0 0 0 0 
0 0 0 0 0 0 0 0 0 
0 0 0 0 0 0 0 0 0 
0 0 0 0 0 0 0 0 0 
0 0 0 0 0 0 0 0 0 
0 0 0 0 0 0 0 0 0 
0 0 0 0 0 0 0 0 0 
0 0 0 0 0 0 0 0 0 
0 0 0 0 0 0 0 0 0 
0 0 0 0 0 0 0 0 0 
0 0 0 0 0 0 0 0 0 
0 0 0 0 0 0 0 0 0 
0 0 0 0 0 0 0 0 0 
0 0 0 0 0 0 0 0 0 
0 0 0 0 0 0 0 0 0 
0 0 0 0 0 0 0 0 0 
0 0 0 0 0 0 0 0 0 
0 0 0 0 0 0 0 0 0 
0 0 0 0 0 0 0 0 0 
0 0 0 0 0 0 0 0 0 
0 0 0 0 0 0 0 0 0 
0 0 0 0 0 0 0 0 0 
0 0 0 0 0 0 0 0 0 
0 0 0 0 0 0 0 0 0 
0 0 0 0 0 0 0 0 0 
0 0 0 0 0 0 0 0 0 
0 0 0 0 0 0 0 0 0 
0 0 0 0 0 0 0 0 0 
0 0 0 0 0 0 0 0 0 
0 0 0 0 0 0 0 0 0 
0 0 0 0 0 0 0 0 0 
0 0 0 0 0 0 0 0 0 
0 0 0 0 0 0 0 0 0 
0 0 0 0 0 0 0 0 0 
0 0 0 0 0 0 0 0 0 
0 0 0 0 0 0 0 0 0 
0 0 0 0 0 0 0 0 0 
0 0 0 0 0 0 0 0 0 
0 0 0 0 0 0 0 0 0 
0 0 0 0 0 0 0 0 0 
0 0 0 0 0 0 0 0 0 
0 0 0 0 0 0 0 0 0 
0 0 0 0 0 0 0 0 0 
0 0 0 0 0 0 0 0 0 
0 0 0 0 0 0 0 0 0 
0 0 0 0 0 0 0 0 0 
0 0 0 0 0 0 0 0 0 
0 0 0 0 0 0 0 0 0 
0 0 0 0 0 0 0 0 0 
0 0 0 0 0 0 0 0 0 
0 0 0 0 0 0 0 0 0 
0 0 0 0 0 0 0 0 0 
0 0 0 0 0 0 0 0 0 
0 0 0 0 0 0 0 0 0 
0 0 0 0 0 0 0 0 0 
0 0 0 0 0 0 0 0 0 
0 0 0 0 0 0 0 0 0 
0 0 0 0 0 0 0 0 0 
0 0 0 0 0 0 0 0 0 
0 0 0 0 0 0 0 0 0 
0 0 0 0 0 0 0 0 0 
0 0 0 0 0 0 0 0 0 
0 0 0 0 0 0 0 0 0 
0 0 0 0 0 0 0 0 0 
0 0 0 0 0 0 0 0 0 
0 0 0 0 0 0 0 0 0 
0 0 0 0 0 0 0 0 0 
0 0 0 0 0 0 0 0 0 
0 0 0 0 0 0 0 0 0 
0 0 0 0 0 0 0 0 0 
0 0 0 0 0 0 0 0 0 
0 0 0 0 0 0 0 0 0 
0 0 0 0 0 0 0 0 0 
0 0 0 0 0 0 0 0 0 
0 0 0 0 0 0 0 0 0 
0 0 0 0 0 0 0 0 0 
0 0 0 0 0 0 0 0 0 
0 0 0 0 0 0 0 0 0 
0 0 0 0 0 0 0 0 0 
0 0 0 0 0 0 0 0 0 
0 0 0 0 0 0 0 0 0 
0 0 0 0 0 0 0 0 0 
0 0 0 0 0 0 0 0 0 
0 0 0 0 0 0 0 0 0 
0 0 0 0 0 0 0 0 0 
0 0 0 0 0 0 0 0 0 
0 0 0 0 0 0 0 0 0 
0 0 0 0 0 0 0 0 0 
0 0 0 0 0 0 0 0 0 
0 0 0 0 0 0 0 0 0 
0 0 0 0 0 0 0 0 0 
0 0 0 0 0 0 0 0 0 
0 0 0 0 0 0 0 0 0 
0 0 0 0 0 0 0 0 0 
0 0 0 0 0 0 0 0 0 
0 0 0 0 0 0 0 0 0 
0 0 0 0 0 0 0 0 0 
0 0 0 0 0 0 0 0 0 
0 0 0 0 0 0 0 0 0 
0 0 0 0 0 0 0 0 0 
0 0 0 0 0 0 0 0 0 
0 0 0 0 0 0 0 0 0 
0 0 0 0 0 0 0 0 0 
0 0 0 0 0 0 0 0 0 
0 0 0 0 0 0 0 0 0 
0 0 0 0 0 0 0 0 0 
0 0 0 0 0 0 0 0 0 
0 0 0 0 0 0 0 0 0 
0 0 0 0 0 0 0 0 0 
0 0 0 0 0 0 0 0 0 
0 0 0 0 0 0 0 0 0 
0 0 0 0 0 0 0 0 0 
0 0 0 0 0 0 0 0 0 
0 0 0 0 0 0 0 0 0 
0 0 0 0 0 0 0 0 0 
0 0 0 0 0 0 0 0 0 
0 0 0 0 0 0 0 0 0 
0 0 0 0 0 0 0 0 0 
0 0 0 0 0 0 0 0 0 
0 0 0 0 0 0 0 0 0 
0 0 0 0 0 0 0 0 0 
0 0 0 0 0 0 0 0 0 
0 0 0 0 0 0 0 0 0 
0 0 0 0 0 0 0 0 0 
0 0 0 0 0 0 0 0 0 
0 0 0 0 0 0 0 0 0 
0 0 0 0 0 0 0 0 0 
0 0 0 0 0 0 0 0 0 
0 0 0 0 0 0 0 0 0 
0 0 0 0 0 0 0 0 0 
0 0 0 0 0 0 0 0 0 
0 0 0 0 0 0 0 0 0 
0 0 0 0 0 0 0 0 0 
0 0 0 0 0 0 0 0 0 
0 0 0 0 0 0 0 0 0 
0 0 0 0 0 0 0 0 0 
0 0 0 0 0 0 0 0 0 
0 0 0 0 0 0 0 0 0 
0 0 0 0 0 0 0 0 0 
0 0 0 0 0 0 0 0 0 
0 0 0 0 0 0 0 0 0 
0 0 0 0 0 0 0 0 0 
0 0 0 0 0 0 0 0 0 
0 0 0 0 0 0 0 0 0 
0 0 0 0 0 0 0 0 0 
0 0 0 0 0 0 0 0 0 
0 0 0 0 0 0 0 0 0 
0 0 0 0 0 0 0 0 0 
0 0 0 0 0 0 0 0 0 
0 0 0 0 0 0 0 0 0 
0 0 0 0 0 0 0 0 0 
0 0 0 0 0 0 0 0 0 
0 0 0 0 0 0 0 0 0 
0 0 0 0 0 0 0 0 0 
0 0 0 0 0 0 0 0 0 
0 0 0 0 0 0 0 0 0 
0 0 0 0 0 0 0 0 0 
0 0 0 0 0 0 0 0 0 
0 0 0 0 0 0 0 0 0 
0 0 0 0 0 0 0 0 0 
0 0 0 0 0 0 0 0 0 
0 0 0 0 0 0 0 0 0 
0 0 0 0 0 0 0 0 0 
0 0 0 0 0 0 0 0 0 
0 0 0 0 0 0 0 0 0 
0 0 0 0 0 0 0 0 0 
0 0 0 0 0 0 0 0 0 
0 0 0 0 0 0 0 0 0 
0 0 0 0 0 0 0 0 0 
0 0 0 0 0 0 0 0 0 
0 0 0 0 0 0 0 0 0 
0 0 0 0 0 0 0 0 0 
0 0 0 0 0 0 0 0 0 
0 0 0 0 0 0 0 0 0 
0 0 0 0 0 0 0 0 0 
0 0 0 0 0 0 0 0 0 
0 0 0 0 0 0 0 0 0 
0 0 0 0 0 0 0 0 0 
0 0 0 0 0 0 0 0 0 
0 0 0 0 0 0 0 0 0 
0 0 0 0 0 0 0 0 0 
0 0 0 0 0 0 0 0 0 
0 0 0 0 0 0 0 0 0 
0 0 0 0 0 0 0 0 0 
0 0 0 0 0 0 0 0 0 
0 0 0 0 0 0 0 0 0 
0 0 0 0 0 0 0 0 0 
0 0 0 0 0 0 0 0 0 
0 0 0 0 0 0 0 0 0 
0 0 0 0 0 0 0 0 0 
0 0 0 0 0 0 0 0 0 
0 0 0 0 0 0 0 0 0 
0 0 0 0 0 0 0 0 0 
0 0 0 0 0 0 0 0 0 
0 0 0 0 0 0 0 0 0 
0 0 0 0 0 0 0 0 0 
0 0 0 0 0 0 0 0 0 
0 0 0 0 0 0 0 0 0 
0 0 0 0 0 0 0 0 0 
0 0 0 0 0 0 0 0 0 
0 0 0 0 0 0 0 0 0 
0 0 0 0 0 0 0 0 0 
0 0 0 0 0 0 0 0 0 
0 0 0 0 0 0 0 0 0 
0 0 0 0 0 0 0 0 0 
0 0 0 0 0 0 0 0 0 
0 0 0 0 0 0 0 0 0 
0 0 0 0 0 0 0 0 0 
0 0 0 0 0 0 0 0 0 
0 0 0 0 0 0 0 0 0 
0 0 0 0 0 0 0 0 0 
0 0 0 0 0 0 0 0 0 
0 0 0 0 0 0 0 0 0 
0 0 0 0 0 0 0 0 0 
0 0 0 0 0 0 0 0 0 
0 0 0 0 0 0 0 0 0 
0 0 0 0 0 0 0 0 0 
0 0 0 0 0 0 0 0 0 
0 0 0 0 0 0 0 0 0 
0 0 0 0 0 0 0 0 0 
0 0 0 0 0 0 0 0 0 
0 0 0 0 0 0 0 0 0 
0 0 0 0 0 0 0 0 0 
0 0 0 0 0 0 0 0 0 
0 0 0 0 0 0 0 0 0 
0 0 0 0 0 0 0 0 0 
0 0 0 0 0 0 0 0 0 
0 0 0 0 0 0 0 0 0 
0 0 0 0 0 0 0 0 0 
0 0 0 0 0 0 0 0 0 
0 0 0 0 0 0 0 0 0 
0 0 0 0 0 0 0 0 0 
0 0 0 0 0 0 0 0 0 
0 0 0 0 0 0 0 0 0 
0 0 0 0 0 0 0 0 0 
0 0 0 0 0 0 0 0 0 
0 0 0 0 0 0 0 0 0 
0 0 0 0 0 0 0 0 0 
0 0 0 0 0 0 0 0 0 
0 0 0 0 0 0 0 0 0 
0 0 0 0 0 0 0 0 0 
0 0 0 0 0 0 0 0 0 
0 0 0 0 0 0 0 0 0 
0 0 0 0 0 0 0 0 0 
0 0 0 0 0 0 0 0 0 
0 0 0 0 0 0 0 0 0 
0 0 0 0 0 0 0 0 0 
0 0 0 0 0 0 0 0 0 
0 0 0 0 0 0 0 0 0 
0 0 0 0 0 0 0 0 0 
0 0 0 0 0 0 0 0 0 
0 0 0 0 0 0 0 0 0 
0 0 0 0 0 0 0 0 0 
0 0 0 0 0 0 0 0 0 
0 0 0 0 0 0 0 0 0 
0 0 0 0 0 0 0 0 0 
0 0 0 0 0 0 0 0 0 
0 0 0 0 0 0 0 0 0 
0 0 0 0 0 0 0 0 0 
0 0 0 0 0 0 0 0 0 
0 0 0 0 0 0 0 0 0 
0 0 0 0 0 0 0 0 0 
0 0 0 0 0 0 0 0 0 
0 0 0 0 0 0 0 0 0 
0 0 0 0 0 0 0 0 0 
0 0 0 0 0 0 0 0 0 
0 0 0 0 0 0 0 0 0 
0 0 0 0 0 0 0 0 0 
0 0 0 0 0 0 0 0 0 
0 0 0 0 0 0 0 0 0 
0 0 0 0 0 0 0 0 0 
0 0 0 0 0 0 0 0 0 
0 0 0 0 0 0 0 0 0 
0 0 0 0 0 0 0 0 0 
0 0 0 0 0 0 0 0 0 
0 0 0 0 0 0 0 0 0 
0 0 0 0 0 0 0 0 0 
0 0 0 0 0 0 0 0 0 
0 0 0 0 0 0 0 0 0 
0 0 0 0 0 0 0 0 0 
0 0 0 0 0 0 0 0 0 
0 0 0 0 0 0 0 0 0 
0 0 0 0 0 0 0 0 0 
0 0 0 0 0 0 0 0 0 
0 0 0 0 0 0 0 0 0 
0 0 0 0 0 0 0 0 0 
0 0 0 0 0 0 0 0 0 
0 0 0 0 0 0 0 0 0 
0 0 0 0 0 0 0 0 0 
0 0 0 0 0 0 0 0 0 
0 0 0 0 0 0 0 0 0 
0 0 0 0 0 0 0 0 0 
0 0 0 0 0 0 0 0 0 
0 0 0 0 0 0 0 0 0 
0 0 0 0 0 0 0 0 0 
0 0 0 0 0 0 0 0 0 
0 0 0 0 0 0 0 0 0 
0 0 0 0 0 0 0 0 0 
0 0 0 0 0 0 0 0 0 
0 0 0 0 0 0 0 0 0 
0 0 0 0 0 0 0 0 0 
0 0 0 0 0 0 0 0 0 
0 0 0 0 0 0 0 0 0 
0 0 0 0 0 0 0 0 0 
0 0 0 0 0 0 0 0 0 
0 0 0 0 0 0 0 0 0 
0 0 0 0 0 0 0 0 0 
0 0 0 0 0 0 0 0 0 
0 0 0 0 0 0 0 0 0 
0 0 0 0 0 0 0 0 0 
0 0 0 0 0 0 0 0 0 
0 0 0 0 0 0 0 0 0 
0 0 0 0 0 0 0 0 0 
0 0 0 0 0 0 0 0 0 
0 0 0 0 0 0 0 0 0 
0 0 0 0 0 0 0 0 0 
0 0 0 0 0 0 0 0 0 
0 0 0 0 0 0 0 0 0 
0 0 0 0 0 0 0 0 0 
0 0 0 0 0 0 0 0 0 
0 0 0 0 0 0 0 0 0 
0 0 0 0 0 0 0 0 0 
0 0 0 0 0 0 0 0 0 
0 0 0 0 0 0 0 0 0 
0 0 0 0 0 0 0 0 0 
0 0 0 0 0 0 0 0 0 
0 0 0 0 0 0 0 0 0 
0 0 0 0 0 0 0 0 0 
0 0 0 0 0 0 0 0 0 
0 0 0 0 0 0 0 0 0 
0 0 0 0 0 0 0 0 0 
0 0 0 0 0 0 0 0 0 
0 0 0 0 0 0 0 0 0 
0 0 0 0 0 0 0 0 0 
0 0 0 0 0 0 0 0 0 
0 0 0 0 0 0 0 0 0 
0 0 0 0 0 0 0 0 0 
0 0 0 0 0 0 0 0 0 
0 0 0 0 0 0 0 0 0 
0 0 0 0 0 0 0 0 0 
0 0 0 0 0 0 0 0 0 
0 0 0 0 0 0 0 0 0 
0 0 0 0 0 0 0 0 0 
0 0 0 0 0 0 0 0 0 
0 0 0 0 0 0 0 0 0 
0 0 0 0 0 0 0 0 0 
0 0 0 0 0 0 0 0 0 
0 0 0 0 0 0 0 0 0 
0 0 0 0 0 0 0 0 0 
0 0 0 0 0 0 0 0 0 
0 0 0 0 0 0 0 0 0 
0 0 0 0 0 0 0 0 0 
0 0 0 0 0 0 0 0 0 
0 0 0 0 0 0 0 0 0 
0 0 0 0 0 0 0 0 0 
0 0 0 0 0 0 0 0 0 
0 0 0 0 0 0 0 0 0 
0 0 0 0 0 0 0 0 0 
0 0 0 0 0 0 0 0 0 
0 0 0 0 0 0 0 0 0 
0 0 0 0 0 0 0 0 0 
0 0 0 0 0 0 0 0 0 
0 0 0 0 0 0 0 0 0 
0 0 0 0 0 0 0 0 0 
0 0 0 0 0 0 0 0 0 
0 0 0 0 0 0 0 0 0 
0 0 0 0 0 0 0 0 0 
0 0 0 0 0 0 0 0 0 
0 0 0 0 0 0 0 0 0 
0 0 0 0 0 0 0 0 0 
0 0 0 0 0 0 0 0 0 
0 0 0 0 0 0 0 0 0 
0 0 0 0 0 0 0 0 0 
0 0 0 0 0 0 0 0 0 
0 0 0 0 0 0 0 0 0 
0 0 0 0 0 0 0 0 0 
0 0 0 0 0 0 0 0 0 
0 0 0 0 0 0 0 0 0 
0 0 0 0 0 0 0 0 0 
0 0 0 0 0 0 0 0 0 
0 0 0 0 0 0 0 0 0 
0 0 0 0 0 0 0 0 0 
0 0 0 0 0 0 0 0 0 
0 0 0 0 0 0 0 0 0 
0 0 0 0 0 0 0 0 0 
0 0 0 0 0 0 0 0 0 
0 0 0 0 0 0 0 0 0 
0 0 0 0 0 0 0 0 0 
0 0 0 0 0 0 0 0 0 
0 0 0 0 0 0 0 0 0 
0 0 0 0 0 0 0 0 0 
0 0 0 0 0 0 0 0 0 
0 0 0 0 0 0 0 0 0 
0 0 0 0 0 0 0 0 0 
0 0 0 0 0 0 0 0 0 
0 0 0 0 0 0 0 0 0 
0 0 0 0 0 0 0 0 0 
0 0 0 0 0 0 0 0 0 
0 0 0 0 0 0 0 0 0 
0 0 0 0 0 0 0 0 0 
0 0 0 0 0 0 0 0 0 
0 0 0 0 0 0 0 0 0 
0 0 0 0 0 0 0 0 0 
0 0 0 0 0 0 0 0 0 
0 0 0 0 0 0 0 0 0 
0 0 0 0 0 0 0 0 0 
0 0 0 0 0 0 0 0 0 
0 0 0 0 0 0 0 0 0 
0 0 0 0 0 0 0 0 0 
0 0 0 0 0 0 0 0 0 
0 0 0 0 0 0 0 0 0 
0 0 0 0 0 0 0 0 0 
0 0 0 0 0 0 0 0 0 
0 0 0 0 0 0 0 0 0 
0 0 0 0 0 0 0 0 0 
0 0 0 0 0 0 0 0 0 
0 0 0 0 0 0 0 0 0 
0 0 0 0 0 0 0 0 0 
0 0 0 0 0 0 0 0 0 
0 0 0 0 0 0 0 0 0 
0 0 0 0 0 0 0 0 0 
0 0 0 0 0 0 0 0 0 
0 0 0 0 0 0 0 0 0 
0 0 0 0 0 0 0 0 0 
0 0 0 0 0 0 0 0 0 
0 0 0 0 0 0 0 0 0 
0 0 0 0 0 0 0 0 0 
0 0 0 0 0 0 0 0 0 
0 0 0 0 0 0 0 0 0 
0 0 0 0 0 0 0 0 0 
0 0 0 0 0 0 0 0 0 
0 0 0 0 0 0 0 0 0 
0 0 0 0 0 0 0 0 0 
0 0 0 0 0 0 0 0 0 
0 0 0 0 0 0 0 0 0 
0 0 0 0 0 0 0 0 0 
0 0 0 0 0 0 0 0 0 
0 0 0 0 0 0 0 0 0 
0 0 0 0 0 0 0 0 0 
0 0 0 0 0 0 0 0 0 
0 0 0 0 0 0 0 0 0 
0 0 0 0 0 0 0 0 0 
0 0 0 0 0 0 0 0 0 
0 0 0 0 0 0 0 0 0 
0 0 0 0 0 0 0 0 0 
0 0 0 0 0 0 0 0 0 
0 0 0 0 0 0 0 0 0 
0 0 0 0 0 0 0 0 0 
0 0 0 0 0 0 0 0 0 
0 0 0 0 0 0 0 0 0 
0 0 0 0 0 0 0 0 0 
0 0 0 0 0 0 0 0 0 
0 0 0 0 0 0 0 0 0 
0 0 0 0 0 0 0 0 0 
0 0 0 0 0 0 0 0 0 
0 0 0 0 0 0 0 0 0 
0 0 0 0 0 0 0 0 0 
0 0 0 0 0 0 0 0 0 
0 0 0 0 0 0 0 0 0 
0 0 0 0 0 0 0 0 0 
0 0 0 0 0 0 0 0 0 
0 0 0 0 0 0 0 0 0 
0 0 0 0 0 0 0 0 0 
0 0 0 0 0 0 0 0 0 
0 0 0 0 0 0 0 0 0 
0 0 0 0 0 0 0 0 0 
0 0 0 0 0 0 0 0 0 
0 0 0 0 0 0 0 0 0 
0 0 0 0 0 0 0 0 0 
0 0 0 0 0 0 0 0 0 
0 0 0 0 0 0 0 0 0 
0 0 0 0 0 0 0 0 0 
0 0 0 0 0 0 0 0 0 
0 0 0 0 0 0 0 0 0 
0 0 0 0 0 0 0 0 0 
0 0 0 0 0 0 0 0 0 
0 0 0 0 0 0 0 0 0 
0 0 0 0 0 0 0 0 0 
0 0 0 0 0 0 0 0 0 
0 0 0 0 0 0 0 0 0 
0 0 0 0 0 0 0 0 0 
0 0 0 0 0 0 0 0 0 
0 0 0 0 0 0 0 0 0 
0 0 0 0 0 0 0 0 0 
0 0 0 0 0 0 0 0 0 
0 0 0 0 0 0 0 0 0 
0 0 0 0 0 0 0 0 0 
0 0 0 0 0 0 0 0 0 
0 0 0 0 0 0 0 0 0 
0 0 0 0 0 0 0 0 0 
0 0 0 0 0 0 0 0 0 
0 0 0 0 0 0 0 0 0 
0 0 0 0 0 0 0 0 0 
0 0 0 0 0 0 0 0 0 
0 0 0 0 0 0 0 0 0 
0 0 0 0 0 0 0 0 0 
0 0 0 0 0 0 0 0 0 
0 0 0 0 0 0 0 0 0 
0 0 0 0 0 0 0 0 0 
0 0 0 0 0 0 0 0 0 
0 0 0 0 0 0 0 0 0 
0 0 0 0 0 0 0 0 0 
0 0 0 0 0 0 0 0 0 
0 0 0 0 0 0 0 0 0 
0 0 0 0 0 0 0 0 0 
0 0 0 0 0 0 0 0 0 
0 0 0 0 0 0 0 0 0 
0 0 0 0 0 0 0 0 0 
0 0 0 0 0 0 0 0 0 
0 0 0 0 0 0 0 0 0 
0 0 0 0 0 0 0 0 0 
0 0 0 0 0 0 0 0 0 
0 0 0 0 0 0 0 0 0 
0 0 0 0 0 0 0 0 0 
0 0 0 0 0 0 0 0 0 
0 0 0 0 0 0 0 0 0 
0 0 0 0 0 0 0 0 0 
0 0 0 0 0 0 0 0 0 
0 0 0 0 0 0 0 0 0 
0 0 0 0 0 0 0 0 0 
0 0 0 0 0 0 0 0 0 
0 0 0 0 0 0 0 0 0 
0 0 0 0 0 0 0 0 0 
0 0 0 0 0 0 0 0 0 
0 0 0 0 0 0 0 0 0 
0 0 0 0 0 0 0 0 0 
0 0 0 0 0 0 0 0 0 
0 0 0 0 0 0 0 0 0 
0 0 0 0 0 0 0 0 0 
0 0 0 0 0 0 0 0 0 
0 0 0 0 0 0 0 0 0 
0 0 0 0 0 0 0 0 0 
0 0 0 0 0 0 0 0 0 
0 0 0 0 0 0 0 0 0 
0 0 0 0 0 0 0 0 0 
0 0 0 0 0 0 0 0 0 
0 0 0 0 0 0 0 0 0 
0 0 0 0 0 0 0 0 0 
0 0 0 0 0 0 0 0 0 
0 0 0 0 0 0 0 0 0 
0 0 0 0 0 0 0 0 0 
0 0 0 0 0 0 0 0 0 
0 0 0 0 0 0 0 0 0 
0 0 0 0 0 0 0 0 0 
0 0 0 0 0 0 0 0 0 
0 0 0 0 0 0 0 0 0 
0 0 0 0 0 0 0 0 0 
0 0 0 0 0 0 0 0 0 
0 0 0 0 0 0 0 0 0 
0 0 0 0 0 0 0 0 0 
0 0 0 0 0 0 0 0 0 
0 0 0 0 0 0 0 0 0 
0 0 0 0 0 0 0 0 0 
0 0 0 0 0 0 0 0 0 
0 0 0 0 0 0 0 0 0 
0 0 0 0 0 0 0 0 0 
0 0 0 0 0 0 0 0 0 
0 0 0 0 0 0 0 0 0 
0 0 0 0 0 0 0 0 0 
0 0 0 0 0 0 0 0 0 
0 0 0 0 0 0 0 0 0 
0 0 0 0 0 0 0 0 0 
0 0 0 0 0 0 0 0 0 
0 0 0 0 0 0 0 0 0 
0 0 0 0 0 0 0 0 0 
0 0 0 0 0 0 0 0 0 
0 0 0 0 0 0 0 0 0 
0 0 0 0 0 0 0 0 0 
0 0 0 0 0 0 0 0 0 
0 0 0 0 0 0 0 0 0 
0 0 0 0 0 0 0 0 0 
0 0 0 0 0 0 0 0 0 
0 0 0 0 0 0 0 0 0 
0 0 0 0 0 0 0 0 0 
0 0 0 0 0 0 0 0 0 
0 0 0 0 0 0 0 0 0 
0 0 0 0 0 0 0 0 0 
0 0 0 0 0 0 0 0 0 
0 0 0 0 0 0 0 0 0 
0 0 0 0 0 0 0 0 0 
0 0 0 0 0 0 0 0 0 
0 0 0 0 0 0 0 0 0 
0 0 0 0 0 0 0 0 0 
0 0 0 0 0 0 0 0 0 
0 0 0 0 0 0 0 0 0 
0 0 0 0 0 0 0 0 0 
0 0 0 0 0 0 0 0 0 
0 0 0 0 0 0 0 0 0 
0 0 0 0 0 0 0 0 0 
0 0 0 0 0 0 0 0 0 
0 0 0 0 0 0 0 0 0 
0 0 0 0 0 0 0 0 0 
0 0 0 0 0 0 0 0 0 
0 0 0 0 0 0 0 0 0 
0 0 0 0 0 0 0 0 0 
0 0 0 0 0 0 0 0 0 
0 0 0 0 0 0 0 0 0 
0 0 0 0 0 0 0 0 0 
0 0 0 0 0 0 0 0 0 
0 0 0 0 0 0 0 0 0 
0 0 0 0 0 0 0 0 0 
0 0 0 0 0 0 0 0 0 
0 0 0 0 0 0 0 0 0 
0 0 0 0 0 0 0 0 0 
0 0 0 0 0 0 0 0 0 
0 0 0 0 0 0 0 0 0 
0 0 0 0 0 0 0 0 0 
0 0 0 0 0 0 0 0 0 
0 0 0 0 0 0 0 0 0 
0 0 0 0 0 0 0 0 0 
0 0 0 0 0 0 0 0 0 
0 0 0 0 0 0 0 0 0 
0 0 0 0 0 0 0 0 0 
0 0 0 0 0 0 0 0 0 
0 0 0 0 0 0 0 0 0 
0 0 0 0 0 0 0 0 0 
0 0 0 0 0 0 0 0 0 
0 0 0 0 0 0 0 0 0 
0 0 0 0 0 0 0 0 0 
0 0 0 0 0 0 0 0 0 
0 0 0 0 0 0 0 0 0 
0 0 0 0 0 0 0 0 0 
0 0 0 0 0 0 0 0 0 
0 0 0 0 0 0 0 0 0 
0 0 0 0 0 0 0 0 0 
0 0 0 0 0 0 0 0 0 
0 0 0 0 0 0 0 0 0 
0 0 0 0 0 0 0 0 0 
0 0 0 0 0 0 0 0 0 
0 0 0 0 0 0 0 0 0 
0 0 0 0 0 0 0 0 0 
0 0 0 0 0 0 0 0 0 
0 0 0 0 0 0 0 0 0 
0 0 0 0 0 0 0 0 0 
0 0 0 0 0 0 0 0 0 
0 0 0 0 0 0 0 0 0 
0 0 0 0 0 0 0 0 0 
0 0 0 0 0 0 0 0 0 
0 0 0 0 0 0 0 0 0 
0 0 0 0 0 0 0 0 0 
0 0 0 0 0 0 0 0 0 
0 0 0 0 0 0 0 0 0 
0 0 0 0 0 0 0 0 0 
0 0 0 0 0 0 0 0 0 
0 0 0 0 0 0 0 0 0 
0 0 0 0 0 0 0 0 0 
0 0 0 0 0 0 0 0 0 
0 0 0 0 0 0 0 0 0 
0 0 0 0 0 0 0 0 0 
0 0 0 0 0 0 0 0 0 
0 0 0 0 0 0 0 0 0 
0 0 0 0 0 0 0 0 0 
0 0 0 0 0 0 0 0 0 
0 0 0 0 0 0 0 0 0 
0 0 0 0 0 0 0 0 0 
0 0 0 0 0 0 0 0 0 
0 0 0 0 0 0 0 0 0 
0 0 0 0 0 0 0 0 0 
0 0 0 0 0 0 0 0 0 
0 0 0 0 0 0 0 0 0 
0 0 0 0 0 0 0 0 0 
0 0 0 0 0 0 0 0 0 
0 0 0 0 0 0 0 0 0 
0 0 0 0 0 0 0 0 0 
0 0 0 0 0 0 0 0 0 
0 0 0 0 0 0 0 0 0 
0 0 0 0 0 0 0 0 0 
0 0 0 0 0 0 0 0 0 
0 0 0 0 0 0 0 0 0 
0 0 0 0 0 0 0 0 0 
0 0 0 0 0 0 0 0 0 
0 0 0 0 0 0 0 0 0 
0 0 0 0 0 0 0 0 0 
0 0 0 0 0 0 0 0 0 
0 0 0 0 0 0 0 0 0 
0 0 0 0 0 0 0 0 0 
0 0 0 0 0 0 0 0 0 
0 0 0 0 0 0 0 0 0 
0 0 0 0 0 0 0 0 0 
0 0 0 0 0 0 0 0 0 
0 0 0 0 0 0 0 0 0 
0 0 0 0 0 0 0 0 0 
0 0 0 0 0 0 0 0 0 
0 0 0 0 0 0 0 0 0 
0 0 0 0 0 0 0 0 0 
0 0 0 0 0 0 0 0 0 
0 0 0 0 0 0 0 0 0 
0 0 0 0 0 0 0 0 0 
0 0 0 0 0 0 0 0 0 
0 0 0 0 0 0 0 0 0 
0 0 0 0 0 0 0 0 0 
0 0 0 0 0 0 0 0 0 
0 0 0 0 0 0 0 0 0 
0 0 0 0 0 0 0 0 0 
0 0 0 0 0 0 0 0 0 
0 0 0 0 0 0 0 0 0 
0 0 0 0 0 0 0 0 0 
0 0 0 0 0 0 0 0 0 
0 0 0 0 0 0 0 0 0 
0 0 0 0 0 0 0 0 0 
0 0 0 0 0 0 0 0 0 
0 0 0 0 0 0 0 0 0 
0 0 0 0 0 0 0 0 0 
0 0 0 0 0 0 0 0 0 
0 0 0 0 0 0 0 0 0 
0 0 0 0 0 0 0 0 0 
0 0 0 0 0 0 0 0 0 
0 0 0 0 0 0 0 0 0 
0 0 0 0 0 0 0 0 0 
0 0 0 0 0 0 0 0 0 
0 0 0 0 0 0 0 0 0 
0 0 0 0 0 0 0 0 0 
0 0 0 0 0 0 0 0 0 
0 0 0 0 0 0 0 0 0 
0 0 0 0 0 0 0 0 0 
0 0 0 0 0 0 0 0 0 
0 0 0 0 0 0 0 0 0 
0 0 0 0 0 0 0 0 0 
0 0 0 0 0 0 0 0 0 
0 0 0 0 0 0 0 0 0 
0 0 0 0 0 0 0 0 0 
0 0 0 0 0 0 0 0 0 
0 0 0 0 0 0 0 0 0 
0 0 0 0 0 0 0 0 0 
0 0 0 0 0 0 0 0 0 
0 0 0 0 0 0 0 0 0 
0 0 0 0 0 0 0 0 0 
0 0 0 0 0 0 0 0 0 
0 0 0 0 0 0 0 0 0 
0 0 0 0 0 0 0 0 0 
0 0 0 0 0 0 0 0 0 
0 0 0 0 0 0 0 0 0 
0 0 0 0 0 0 0 0 0 
0 0 0 0 0 0 0 0 0 
0 0 0 0 0 0 0 0 0 
0 0 0 0 0 0 0 0 0 
0 0 0 0 0 0 0 0 0 
0 0 0 0 0 0 0 0 0 
0 0 0 0 0 0 0 0 0 
0 0 0 0 0 0 0 0 0 
0 0 0 0 0 0 0 0 0 
0 0 0 0 0 0 0 0 0 
0 0 0 0 0 0 0 0 0 
0 0 0 0 0 0 0 0 0 
0 0 0 0 0 0 0 0 0 
0 0 0 0 0 0 0 0 0 
0 0 0 0 0 0 0 0 0 
0 0 0 0 0 0 0 0 0 
0 0 0 0 0 0 0 0 0 
0 0 0 0 0 0 0 0 0 
0 0 0 0 0 0 0 0 0 
0 0 0 0 0 0 0 0 0 
0 0 0 0 0 0 0 0 0 
0 0 0 0 0 0 0 0 0 
0 0 0 0 0 0 0 0 0 
0 0 0 0 0 0 0 0 0 
0 0 0 0 0 0 0 0 0 
0 0 0 0 0 0 0 0 0 
0 0 0 0 0 0 0 0 0 
0 0 0 0 0 0 0 0 0 
0 0 0 0 0 0 0 0 0 
0 0 0 0 0 0 0 0 0 
0 0 0 0 0 0 0 0 0 
0 0 0 0 0 0 0 0 0 
0 0 0 0 0 0 0 0 0 
0 0 0 0 0 0 0 0 0 
0 0 0 0 0 0 0 0 0 
0 0 0 0 0 0 0 0 0 
0 0 0 0 0 0 0 0 0 
0 0 0 0 0 0 0 0 0 
0 0 0 0 0 0 0 0 0 
0 0 0 0 0 0 0 0 0 
0 0 0 0 0 0 0 0 0 
0 0 0 0 0 0 0 0 0 
0 0 0 0 0 0 0 0 0 
0 0 0 0 0 0 0 0 0 
0 0 0 0 0 0 0 0 0 
0 0 0 0 0 0 0 0 0 
0 0 0 0 0 0 0 0 0 
0 0 0 0 0 0 0 0 0 
0 0 0 0 0 0 0 0 0 
0 0 0 0 0 0 0 0 0 
0 0 0 0 0 0 0 0 0 
0 0 0 0 0 0 0 0 0 
0 0 0 0 0 0 0 0 0 
0 0 0 0 0 0 0 0 0 
0 0 0 0 0 0 0 0 0 
0 0 0 0 0 0 0 0 0 
0 0 0 0 0 0 0 0 0 
0 0 0 0 0 0 0 0 0 
0 0 0 0 0 0 0 0 0 
0 0 0 0 0 0 0 0 0 
0 0 0 0 0 0 0 0 0 
0 0 0 0 0 0 0 0 0 
0 0 0 0 0 0 0 0 0 
0 0 0 0 0 0 0 0 0 
0 0 0 0 0 0 0 0 0 
0 0 0 0 0 0 0 0 0 
0 0 0 0 0 0 0 0 0 
0 0 0 0 0 0 0 0 0 
0 0 0 0 0 0 0 0 0 
0 0 0 0 0 0 0 0 0 
0 0 0 0 0 0 0 0 0 
0 0 0 0 0 0 0 0 0 
0 0 0 0 0 0 0 0 0 
0 0 0 0 0 0 0 0 0 
0 0 0 0 0 0 0 0 0 
0 0 0 0 0 0 0 0 0 
0 0 0 0 0 0 0 0 0 
0 0 0 0 0 0 0 0 0 
0 0 0 0 0 0 0 0 0 
0 0 0 0 0 0 0 0 0 
0 0 0 0 0 0 0 0 0 
0 0 0 0 0 0 0 0 0 
0 0 0 0 0 0 0 0 0 
0 0 0 0 0 0 0 0 0 
0 0 0 0 0 0 0 0 0 
0 0 0 0 0 0 0 0 0 
0 0 0 0 0 0 0 0 0 
0 0 0 0 0 0 0 0 0 
0 0 0 0 0 0 0 0 0 
0 0 0 0 0 0 0 0 0 
0 0 0 0 0 0 0 0 0 
0 0 0 0 0 0 0 0 0 
0 0 0 0 0 0 0 0 0 
0 0 0 0 0 0 0 0 0 
0 0 0 0 0 0 0 0 0 
0 0 0 0 0 0 0 0 0 
0 0 0 0 0 0 0 0 0 
0 0 0 0 0 0 0 0 0 
0 0 0 0 0 0 0 0 0 
0 0 0 0 0 0 0 0 0 
0 0 0 0 0 0 0 0 0 
0 0 0 0 0 0 0 0 0 
0 0 0 0 0 0 0 0 0 
0 0 0 0 0 0 0 0 0 
0 0 0 0 0 0 0 0 0 
0 0 0 0 0 0 0 0 0 
0 0 0 0 0 0 0 0 0 
0 0 0 0 0 0 0 0 0 
0 0 0 0 0 0 0 0 0 
0 0 0 0 0 0 0 0 0 
0 0 0 0 0 0 0 0 0 
0 0 0 0 0 0 0 0 0 
0 0 0 0 0 0 0 0 0 
0 0 0 0 0 0 0 0 0 
0 0 0 0 0 0 0 0 0 
0 0 0 0 0 0 0 0 0 
0 0 0 0 0 0 0 0 0 
0 0 0 0 0 0 0 0 0 
0 0 0 0 0 0 0 0 0 
0 0 0 0 0 0 0 0 0 
0 0 0 0 0 0 0 0 0 
0 0 0 0 0 0 0 0 0 
0 0 0 0 0 0 0 0 0 
0 0 0 0 0 0 0 0 0 
0 0 0 0 0 0 0 0 0 
0 0 0 0 0 0 0 0 0 
0 0 0 0 0 0 0 0 0 
0 0 0 0 0 0 0 0 0 
0 0 0 0 0 0 0 0 0 
0 0 0 0 0 0 0 0 0 
0 0 0 0 0 0 0 0 0 
0 0 0 0 0 0 0 0 0 
0 0 0 0 0 0 0 0 0 
0 0 0 0 0 0 0 0 0 
0 0 0 0 0 0 0 0 0 
0 0 0 0 0 0 0 0 0 
0 0 0 0 0 0 0 0 0 
0 0 0 0 0 0 0 0 0 
0 0 0 0 0 0 0 0 0 
0 0 0 0 0 0 0 0 0 
0 0 0 0 0 0 0 0 0 
0 0 0 0 0 0 0 0 0 
0 0 0 0 0 0 0 0 0 
0 0 0 0 0 0 0 0 0 
0 0 0 0 0 0 0 0 0 
0 0 0 0 0 0 0 0 0 
0 0 0 0 0 0 0 0 0 
0 0 0 0 0 0 0 0 0 
0 0 0 0 0 0 0 0 0 
0 0 0 0 0 0 0 0 0 
0 0 0 0 0 0 0 0 0 
0 0 0 0 0 0 0 0 0 
0 0 0 0 0 0 0 0 0 
0 0 0 0 0 0 0 0 0 
0 0 0 0 0 0 0 0 0 
0 0 0 0 0 0 0 0 0 
0 0 0 0 0 0 0 0 0 
0 0 0 0 0 0 0 0 0 
0 0 0 0 0 0 0 0 0 
0 0 0 0 0 0 0 0 0 
0 0 0 0 0 0 0 0 0 
0 0 0 0 0 0 0 0 0 
0 0 0 0 0 0 0 0 0 
0 0 0 0 0 0 0 0 0 
0 0 0 0 0 0 0 0 0 
0 0 0 0 0 0 0 0 0 
0 0 0 0 0 0 0 0 0 
0 0 0 0 0 0 0 0 0 
0 0 0 0 0 0 0 0 0 
0 0 0 0 0 0 0 0 0 
0 0 0 0 0 0 0 0 0 
0 0 0 0 0 0 0 0 0 
0 0 0 0 0 0 0 0 0 
0 0 0 0 0 0 0 0 0 
0 0 0 0 0 0 0 0 0 
0 0 0 0 0 0 0 0 0 
0 0 0 0 0 0 0 0 0 
0 0 0 0 0 0 0 0 0 
0 0 0 0 0 0 0 0 0 
0 0 0 0 0 0 0 0 0 
0 0 0 0 0 0 0 0 0 
0 0 0 0 0 0 0 0 0 
0 0 0 0 0 0 0 0 0 
0 0 0 0 0 0 0 0 0 
0 0 0 0 0 0 0 0 0 
0 0 0 0 0 0 0 0 0 
0 0 0 0 0 0 0 0 0 
0 0 0 0 0 0 0 0 0 
0 0 0 0 0 0 0 0 0 
0 0 0 0 0 0 0 0 0 
0 0 0 0 0 0 0 0 0 
0 0 0 0 0 0 0 0 0 
0 0 0 0 0 0 0 0 0 
0 0 0 0 0 0 0 0 0 
0 0 0 0 0 0 0 0 0 
0 0 0 0 0 0 0 0 0 
0 0 0 0 0 0 0 0 0 
0 0 0 0 0 0 0 0 0 
0 0 0 0 0 0 0 0 0 
0 0 0 0 0 0 0 0 0 
0 0 0 0 0 0 0 0 0 
0 0 0 0 0 0 0 0 0 
0 0 0 0 0 0 0 0 0 
0 0 0 0 0 0 0 0 0 
0 0 0 0 0 0 0 0 0 
0 0 0 0 0 0 0 0 0 
0 0 0 0 0 0 0 0 0 
0 0 0 0 0 0 0 0 0 
0 0 0 0 0 0 0 0 0 
0 0 0 0 0 0 0 0 0 
0 0 0 0 0 0 0 0 0 
0 0 0 0 0 0 0 0 0 
0 0 0 0 0 0 0 0 0 
0 0 0 0 0 0 0 0 0 
0 0 0 0 0 0 0 0 0 
0 0 0 0 0 0 0 0 0 
0 0 0 0 0 0 0 0 0 
0 0 0 0 0 0 0 0 0 
0 0 0 0 0 0 0 0 0 
0 0 0 0 0 0 0 0 0 
0 0 0 0 0 0 0 0 0 
0 0 0 0 0 0 0 0 0 
0 0 0 0 0 0 0 0 0 
0 0 0 0 0 0 0 0 0 
0 0 0 0 0 0 0 0 0 
0 0 0 0 0 0 0 0 0 
0 0 0 0 0 0 0 0 0 
0 0 0 0 0 0 0 0 0 
0 0 0 0 0 0 0 0 0 
0 0 0 0 0 0 0 0 0 
0 0 0 0 0 0 0 0 0 
0 0 0 0 0 0 0 0 0 
0 0 0 0 0 0 0 0 0 
0 0 0 0 0 0 0 0 0 
0 0 0 0 0 0 0 0 0 
0 0 0 0 0 0 0 0 0 
0 0 0 0 0 0 0 0 0 
0 0 0 0 0 0 0 0 0 
0 0 0 0 0 0 0 0 0 
0 0 0 0 0 0 0 0 0 
0 0 0 0 0 0 0 0 0 
0 0 0 0 0 0 0 0 0 
0 0 0 0 0 0 0 0 0 
0 0 0 0 0 0 0 0 0 
0 0 0 0 0 0 0 0 0 
0 0 0 0 0 0 0 0 0 
0 0 0 0 0 0 0 0 0 
0 0 0 0 0 0 0 0 0 
0 0 0 0 0 0 0 0 0 
0 0 0 0 0 0 0 0 0 
0 0 0 0 0 0 0 0 0 
0 0 0 0 0 0 0 0 0 
0 0 0 0 0 0 0 0 0 
0 0 0 0 0 0 0 0 0 
0 0 0 0 0 0 0 0 0 
0 0 0 0 0 0 0 0 0 
0 0 0 0 0 0 0 0 0 
0 0 0 0 0 0 0 0 0 
0 0 0 0 0 0 0 0 0 
0 0 0 0 0 0 0 0 0 
0 0 0 0 0 0 0 0 0 
0 0 0 0 0 0 0 0 0 
0 0 0 0 0 0 0 0 0 
0 0 0 0 0 0 0 0 0 
0 0 0 0 0 0 0 0 0 
0 0 0 0 0 0 0 0 0 
0 0 0 0 0 0 0 0 0 
0 0 0 0 0 0 0 0 0 
0 0 0 0 0 0 0 0 0 
0 0 0 0 0 0 0 0 0 
0 0 0 0 0 0 0 0 0 
0 0 0 0 0 0 0 0 0 
0 0 0 0 0 0 0 0 0 
0 0 0 0 0 0 0 0 0 
0 0 0 0 0 0 0 0 0 
0 0 0 0 0 0 0 0 0 
0 0 0 0 0 0 0 0 0 
0 0 0 0 0 0 0 0 0 
0 0 0 0 0 0 0 0 0 
0 0 0 0 0 0 0 0 0 
0 0 0 0 0 0 0 0 0 
0 0 0 0 0 0 0 0 0 
0 0 0 0 0 0 0 0 0 
0 0 0 0 0 0 0 0 0 
0 0 0 0 0 0 0 0 0 
0 0 0 0 0 0 0 0 0 
0 0 0 0 0 0 0 0 0 
0 0 0 0 0 0 0 0 0 
0 0 0 0 0 0 0 0 0 
0 0 0 0 0 0 0 0 0 
0 0 0 0 0 0 0 0 0 
0 0 0 0 0 0 0 0 0 
0 0 0 0 0 0 0 0 0 
0 0 0 0 0 0 0 0 0 
0 0 0 0 0 0 0 0 0 
0 0 0 0 0 0 0 0 0 
0 0 0 0 0 0 0 0 0 
0 0 0 0 0 0 0 0 0 
0 0 0 0 0 0 0 0 0 
0 0 0 0 0 0 0 0 0 
0 0 0 0 0 0 0 0 0 
0 0 0 0 0 0 0 0 0 
0 0 0 0 0 0 0 0 0 
0 0 0 0 0 0 0 0 0 
0 0 0 0 0 0 0 0 0 
0 0 0 0 0 0 0 0 0 
0 0 0 0 0 0 0 0 0 
0 0 0 0 0 0 0 0 0 
0 0 0 0 0 0 0 0 0 
0 0 0 0 0 0 0 0 0 
0 0 0 0 0 0 0 0 0 
0 0 0 0 0 0 0 0 0 
0 0 0 0 0 0 0 0 0 
0 0 0 0 0 0 0 0 0 
0 0 0 0 0 0 0 0 0 
0 0 0 0 0 0 0 0 0 
0 0 0 0 0 0 0 0 0 
0 0 0 0 0 0 0 0 0 
0 0 0 0 0 0 0 0 0 
0 0 0 0 0 0 0 0 0 
0 0 0 0 0 0 0 0 0 
0 0 0 0 0 0 0 0 0 
0 0 0 0 0 0 0 0 0 
0 0 0 0 0 0 0 0 0 
0 0 0 0 0 0 0 0 0 
0 0 0 0 0 0 0 0 0 
0 0 0 0 0 0 0 0 0 
0 0 0 0 0 0 0 0 0 
0 0 0 0 0 0 0 0 0 
0 0 0 0 0 0 0 0 0 
0 0 0 0 0 0 0 0 0 
0 0 0 0 0 0 0 0 0 
0 0 0 0 0 0 0 0 0 
0 0 0 0 0 0 0 0 0 
0 0 0 0 0 0 0 0 0 
0 0 0 0 0 0 0 0 0 
0 0 0 0 0 0 0 0 0 
0 0 0 0 0 0 0 0 0 
0 0 0 0 0 0 0 0 0 
0 0 0 0 0 0 0 0 0 
0 0 0 0 0 0 0 0 0 
0 0 0 0 0 0 0 0 0 
0 0 0 0 0 0 0 0 0 
0 0 0 0 0 0 0 0 0 
0 0 0 0 0 0 0 0 0 
0 0 0 0 0 0 0 0 0 
0 0 0 0 0 0 0 0 0 
0 0 0 0 0 0 0 0 0 
0 0 0 0 0 0 0 0 0 
0 0 0 0 0 0 0 0 0 
0 0 0 0 0 0 0 0 0 
0 0 0 0 0 0 0 0 0 
0 0 0 0 0 0 0 0 0 
0 0 0 0 0 0 0 0 0 
0 0 0 0 0 0 0 0 0 
0 0 0 0 0 0 0 0 0 
0 0 0 0 0 0 0 0 0 
0 0 0 0 0 0 0 0 0 
0 0 0 0 0 0 0 0 0 
0 0 0 0 0 0 0 0 0 
0 0 0 0 0 0 0 0 0 
0 0 0 0 0 0 0 0 0 
0 0 0 0 0 0 0 0 0 
0 0 0 0 0 0 0 0 0 
0 0 0 0 0 0 0 0 0 
0 0 0 0 0 0 0 0 0 
0 0 0 0 0 0 0 0 0 
0 0 0 0 0 0 0 0 0 
0 0 0 0 0 0 0 0 0 
0 0 0 0 0 0 0 0 0 
0 0 0 0 0 0 0 0 0 
0 0 0 0 0 0 0 0 0 
0 0 0 0 0 0 0 0 0 
0 0 0 0 0 0 0 0 0 
0 0 0 0 0 0 0 0 0 
0 0 0 0 0 0 0 0 0 
0 0 0 0 0 0 0 0 0 
0 0 0 0 0 0 0 0 0 
0 0 0 0 0 0 0 0 0 
0 0 0 0 0 0 0 0 0 
0 0 0 0 0 0 0 0 0 
0 0 0 0 0 0 0 0 0 
0 0 0 0 0 0 0 0 0 
0 0 0 0 0 0 0 0 0 
0 0 0 0 0 0 0 0 0 
0 0 0 0 0 0 0 0 0 
0 0 0 0 0 0 0 0 0 
0 0 0 0 0 0 0 0 0 
0 0 0 0 0 0 0 0 0 
0 0 0 0 0 0 0 0 0 
0 0 0 0 0 0 0 0 0 
0 0 0 0 0 0 0 0 0 
0 0 0 0 0 0 0 0 0 
0 0 0 0 0 0 0 0 0 
0 0 0 0 0 0 0 0 0 
0 0 0 0 0 0 0 0 0 
0 0 0 0 0 0 0 0 0 
0 0 0 0 0 0 0 0 0 
0 0 0 0 0 0 0 0 0 
0 0 0 0 0 0 0 0 0 
0 0 0 0 0 0 0 0 0 
0 0 0 0 0 0 0 0 0 
0 0 0 0 0 0 0 0 0 
0 0 0 0 0 0 0 0 0 
0 0 0 0 0 0 0 0 0 
0 0 0 0 0 0 0 0 0 
0 0 0 0 0 0 0 0 0 
0 0 0 0 0 0 0 0 0 
0 0 0 0 0 0 0 0 0 
0 0 0 0 0 0 0 0 0 
0 0 0 0 0 0 0 0 0 
0 0 0 0 0 0 0 0 0 
0 0 0 0 0 0 0 0 0 
0 0 0 0 0 0 0 0 0 
0 0 0 0 0 0 0 0 0 
0 0 0 0 0 0 0 0 0 
0 0 0 0 0 0 0 0 0 
0 0 0 0 0 0 0 0 0 
0 0 0 0 0 0 0 0 0 
0 0 0 0 0 0 0 0 0 
0 0 0 0 0 0 0 0 0 
0 0 0 0 0 0 0 0 0 
0 0 0 0 0 0 0 0 0 
0 0 0 0 0 0 0 0 0 
0 0 0 0 0 0 0 0 0 
0 0 0 0 0 0 0 0 0 
0 0 0 0 0 0 0 0 0 
0 0 0 0 0 0 0 0 0 
0 0 0 0 0 0 0 0 0 
0 0 0 0 0 0 0 0 0 
0 0 0 0 0 0 0 0 0 
0 0 0 0 0 0 0 0 0 
0 0 0 0 0 0 0 0 0 
0 0 0 0 0 0 0 0 0 
0 0 0 0 0 0 0 0 0 
0 0 0 0 0 0 0 0 0 
0 0 0 0 0 0 0 0 0 
0 0 0 0 0 0 0 0 0 
0 0 0 0 0 0 0 0 0 
0 0 0 0 0 0 0 0 0 
0 0 0 0 0 0 0 0 0 
0 0 0 0 0 0 0 0 0 
0 0 0 0 0 0 0 0 0 
0 0 0 0 0 0 0 0 0 
0 0 0 0 0 0 0 0 0 
0 0 0 0 0 0 0 0 0 
0 0 0 0 0 0 0 0 0 
0 0 0 0 0 0 0 0 0 
0 0 0 0 0 0 0 0 0 
0 0 0 0 0 0 0 0 0 
0 0 0 0 0 0 0 0 0 
0 0 0 0 0 0 0 0 0 
0 0 0 0 0 0 0 0 0 
0 0 0 0 0 0 0 0 0 
0 0 0 0 0 0 0 0 0 
0 0 0 0 0 0 0 0 0 
0 0 0 0 0 0 0 0 0 
0 0 0 0 0 0 0 0 0 
0 0 0 0 0 0 0 0 0 
0 0 0 0 0 0 0 0 0 
0 0 0 0 0 0 0 0 0 
0 0 0 0 0 0 0 0 0 
0 0 0 0 0 0 0 0 0 
0 0 0 0 0 0 0 0 0 
0 0 0 0 0 0 0 0 0 
0 0 0 0 0 0 0 0 0 
0 0 0 0 0 0 0 0 0 
0 0 0 0 0 0 0 0 0 
0 0 0 0 0 0 0 0 0 
0 0 0 0 0 0 0 0 0 
0 0 0 0 0 0 0 0 0 
0 0 0 0 0 0 0 0 0 
0 0 0 0 0 0 0 0 0 
0 0 0 0 0 0 0 0 0 
0 0 0 0 0 0 0 0 0 
0 0 0 0 0 0 0 0 0 
0 0 0 0 0 0 0 0 0 
0 0 0 0 0 0 0 0 0 
0 0 0 0 0 0 0 0 0 
0 0 0 0 0 0 0 0 0 
0 0 0 0 0 0 0 0 0 
0 0 0 0 0 0 0 0 0 
0 0 0 0 0 0 0 0 0 
0 0 0 0 0 0 0 0 0 
0 0 0 0 0 0 0 0 0 
0 0 0 0 0 0 0 0 0 
0 0 0 0 0 0 0 0 0 
0 0 0 0 0 0 0 0 0 
0 0 0 0 0 0 0 0 0 
0 0 0 0 0 0 0 0 0 
0 0 0 0 0 0 0 0 0 
0 0 0 0 0 0 0 0 0 
0 0 0 0 0 0 0 0 0 
0 0 0 0 0 0 0 0 0 
0 0 0 0 0 0 0 0 0 
0 0 0 0 0 0 0 0 0 
0 0 0 0 0 0 0 0 0 
0 0 0 0 0 0 0 0 0 
0 0 0 0 0 0 0 0 0 
0 0 0 0 0 0 0 0 0 
0 0 0 0 0 0 0 0 0 
0 0 0 0 0 0 0 0 0 
0 0 0 0 0 0 0 0 0 
0 0 0 0 0 0 0 0 0 
0 0 0 0 0 0 0 0 0 
0 0 0 0 0 0 0 0 0 
0 0 0 0 0 0 0 0 0 
0 0 0 0 0 0 0 0 0 
0 0 0 0 0 0 0 0 0 
0 0 0 0 0 0 0 0 0 
0 0 0 0 0 0 0 0 0 
0 0 0 0 0 0 0 0 0 
0 0 0 0 0 0 0 0 0 
0 0 0 0 0 0 0 0 0 
0 0 0 0 0 0 0 0 0 
0 0 0 0 0 0 0 0 0 
0 0 0 0 0 0 0 0 0 
0 0 0 0 0 0 0 0 0 
0 0 0 0 0 0 0 0 0 
0 0 0 0 0 0 0 0 0 
0 0 0 0 0 0 0 0 0 
0 0 0 0 0 0 0 0 0 
0 0 0 0 0 0 0 0 0 
0 0 0 0 0 0 0 0 0 
0 0 0 0 0 0 0 0 0 
0 0 0 0 0 0 0 0 0 
0 0 0 0 0 0 0 0 0 
0 0 0 0 0 0 0 0 0 
0 0 0 0 0 0 0 0 0 
0 0 0 0 0 0 0 0 0 
0 0 0 0 0 0 0 0 0 
0 0 0 0 0 0 0 0 0 
0 0 0 0 0 0 0 0 0 
0 0 0 0 0 0 0 0 0 
0 0 0 0 0 0 0 0 0 
0 0 0 0 0 0 0 0 0 
0 0 0 0 0 0 0 0 0 
0 0 0 0 0 0 0 0 0 
0 0 0 0 0 0 0 0 0 
0 0 0 0 0 0 0 0 0 
0 0 0 0 0 0 0 0 0 
0 0 0 0 0 0 0 0 0 
0 0 0 0 0 0 0 0 0 
0 0 0 0 0 0 0 0 0 
0 0 0 0 0 0 0 0 0 
0 0 0 0 0 0 0 0 0 
0 0 0 0 0 0 0 0 0 
0 0 0 0 0 0 0 0 0 
0 0 0 0 0 0 0 0 0 
0 0 0 0 0 0 0 0 0 
0 0 0 0 0 0 0 0 0 
0 0 0 0 0 0 0 0 0 
0 0 0 0 0 0 0 0 0 
0 0 0 0 0 0 0 0 0 
0 0 0 0 0 0 0 0 0 
0 0 0 0 0 0 0 0 0 
0 0 0 0 0 0 0 0 0 
0 0 0 0 0 0 0 0 0 
0 0 0 0 0 0 0 0 0 
0 0 0 0 0 0 0 0 0 
0 0 0 0 0 0 0 0 0 
0 0 0 0 0 0 0 0 0 
0 0 0 0 0 0 0 0 0 
0 0 0 0 0 0 0 0 0 
0 0 0 0 0 0 0 0 0 
0 0 0 0 0 0 0 0 0 
0 0 0 0 0 0 0 0 0 
0 0 0 0 0 0 0 0 0 
0 0 0 0 0 0 0 0 0 
0 0 0 0 0 0 0 0 0 
0 0 0 0 0 0 0 0 0 
0 0 0 0 0 0 0 0 0 
0 0 0 0 0 0 0 0 0 
0 0 0 0 0 0 0 0 0 
0 0 0 0 0 0 0 0 0 
0 0 0 0 0 0 0 0 0 
0 0 0 0 0 0 0 0 0 
0 0 0 0 0 0 0 0 0 
0 0 0 0 0 0 0 0 0 
0 0 0 0 0 0 0 0 0 
0 0 0 0 0 0 0 0 0 
0 0 0 0 0 0 0 0 0 
0 0 0 0 0 0 0 0 0 
0 0 0 0 0 0 0 0 0 
0 0 0 0 0 0 0 0 0 
0 0 0 0 0 0 0 0 0 
0 0 0 0 0 0 0 0 0 
0 0 0 0 0 0 0 0 0 
0 0 0 0 0 0 0 0 0 
0 0 0 0 0 0 0 0 0 
0 0 0 0 0 0 0 0 0 
0 0 0 0 0 0 0 0 0 
0 0 0 0 0 0 0 0 0 
0 0 0 0 0 0 0 0 0 
0 0 0 0 0 0 0 0 0 
0 0 0 0 0 0 0 0 0 
0 0 0 0 0 0 0 0 0 
0 0 0 0 0 0 0 0 0 
0 0 0 0 0 0 0 0 0 
0 0 0 0 0 0 0 0 0 
0 0 0 0 0 0 0 0 0 
0 0 0 0 0 0 0 0 0 
0 0 0 0 0 0 0 0 0 
0 0 0 0 0 0 0 0 0 
0 0 0 0 0 0 0 0 0 
0 0 0 0 0 0 0 0 0 
0 0 0 0 0 0 0 0 0 
0 0 0 0 0 0 0 0 0 
0 0 0 0 0 0 0 0 0 
0 0 0 0 0 0 0 0 0 
0 0 0 0 0 0 0 0 0 
0 0 0 0 0 0 0 0 0 
0 0 0 0 0 0 0 0 0 
0 0 0 0 0 0 0 0 0 
0 0 0 0 0 0 0 0 0 
0 0 0 0 0 0 0 0 0 
0 0 0 0 0 0 0 0 0 
0 0 0 0 0 0 0 0 0 
0 0 0 0 0 0 0 0 0 
0 0 0 0 0 0 0 0 0 
0 0 0 0 0 0 0 0 0 
0 0 0 0 0 0 0 0 0 
0 0 0 0 0 0 0 0 0 
0 0 0 0 0 0 0 0 0 
0 0 0 0 0 0 0 0 0 
0 0 0 0 0 0 0 0 0 
0 0 0 0 0 0 0 0 0 
0 0 0 0 0 0 0 0 0 
0 0 0 0 0 0 0 0 0 
0 0 0 0 0 0 0 0 0 
0 0 0 0 0 0 0 0 0 
0 0 0 0 0 0 0 0 0 
0 0 0 0 0 0 0 0 0 
0 0 0 0 0 0 0 0 0 
0 0 0 0 0 0 0 0 0 
0 0 0 0 0 0 0 0 0 
0 0 0 0 0 0 0 0 0 
0 0 0 0 0 0 0 0 0 
0 0 0 0 0 0 0 0 0 
0 0 0 0 0 0 0 0 0 
0 0 0 0 0 0 0 0 0 
0 0 0 0 0 0 0 0 0 
0 0 0 0 0 0 0 0 0 
0 0 0 0 0 0 0 0 0 
0 0 0 0 0 0 0 0 0 
0 0 0 0 0 0 0 0 0 
0 0 0 0 0 0 0 0 0 
0 0 0 0 0 0 0 0 0 
0 0 0 0 0 0 0 0 0 
0 0 0 0 0 0 0 0 0 
0 0 0 0 0 0 0 0 0 
0 0 0 0 0 0 0 0 0 
0 0 0 0 0 0 0 0 0 
0 0 0 0 0 0 0 0 0 
0 0 0 0 0 0 0 0 0 
0 0 0 0 0 0 0 0 0 
0 0 0 0 0 0 0 0 0 
0 0 0 0 0 0 0 0 0 
0 0 0 0 0 0 0 0 0 
0 0 0 0 0 0 0 0 0 
0 0 0 0 0 0 0 0 0 
0 0 0 0 0 0 0 0 0 
0 0 0 0 0 0 0 0 0 
0 0 0 0 0 0 0 0 0 
0 0 0 0 0 0 0 0 0 
0 0 0 0 0 0 0 0 0 
0 0 0 0 0 0 0 0 0 
0 0 0 0 0 0 0 0 0 
0 0 0 0 0 0 0 0 0 
0 0 0 0 0 0 0 0 0 
0 0 0 0 0 0 0 0 0 
0 0 0 0 0 0 0 0 0 
0 0 0 0 0 0 0 0 0 
0 0 0 0 0 0 0 0 0 
0 0 0 0 0 0 0 0 0 
0 0 0 0 0 0 0 0 0 
0 0 0 0 0 0 0 0 0 
0 0 0 0 0 0 0 0 0 
0 0 0 0 0 0 0 0 0 
0 0 0 0 0 0 0 0 0 
0 0 0 0 0 0 0 0 0 
0 0 0 0 0 0 0 0 0 
0 0 0 0 0 0 0 0 0 
0 0 0 0 0 0 0 0 0 
0 0 0 0 0 0 0 0 0 
0 0 0 0 0 0 0 0 0 
0 0 0 0 0 0 0 0 0 
0 0 0 0 0 0 0 0 0 
0 0 0 0 0 0 0 0 0 
0 0 0 0 0 0 0 0 0 
0 0 0 0 0 0 0 0 0 
0 0 0 0 0 0 0 0 0 
0 0 0 0 0 0 0 0 0 
0 0 0 0 0 0 0 0 0 
0 0 0 0 0 0 0 0 0 
0 0 0 0 0 0 0 0 0 
0 0 0 0 0 0 0 0 0 
0 0 0 0 0 0 0 0 0 
0 0 0 0 0 0 0 0 0 
0 0 0 0 0 0 0 0 0 
0 0 0 0 0 0 0 0 0 
0 0 0 0 0 0 0 0 0 
0 0 0 0 0 0 0 0 0 
0 0 0 0 0 0 0 0 0 
0 0 0 0 0 0 0 0 0 
0 0 0 0 0 0 0 0 0 
0 0 0 0 0 0 0 0 0 
0 0 0 0 0 0 0 0 0 
0 0 0 0 0 0 0 0 0 
0 0 0 0 0 0 0 0 0 
0 0 0 0 0 0 0 0 0 
0 0 0 0 0 0 0 0 0 
0 0 0 0 0 0 0 0 0 
0 0 0 0 0 0 0 0 0 
0 0 0 0 0 0 0 0 0 
0 0 0 0 0 0 0 0 0 
0 0 0 0 0 0 0 0 0 
0 0 0 0 0 0 0 0 0 
0 0 0 0 0 0 0 0 0 
0 0 0 0 0 0 0 0 0 
0 0 0 0 0 0 0 0 0 
0 0 0 0 0 0 0 0 0 
0 0 0 0 0 0 0 0 0 
0 0 0 0 0 0 0 0 0 
0 0 0 0 0 0 0 0 0 
0 0 0 0 0 0 0 0 0 
0 0 0 0 0 0 0 0 0 
0 0 0 0 0 0 0 0 0 
0 0 0 0 0 0 0 0 0 
0 0 0 0 0 0 0 0 0 
0 0 0 0 0 0 0 0 0 
0 0 0 0 0 0 0 0 0 
0 0 0 0 0 0 0 0 0 
0 0 0 0 0 0 0 0 0 
0 0 0 0 0 0 0 0 0 
0 0 0 0 0 0 0 0 0 
0 0 0 0 0 0 0 0 0 
0 0 0 0 0 0 0 0 0 
0 0 0 0 0 0 0 0 0 
0 0 0 0 0 0 0 0 0 
0 0 0 0 0 0 0 0 0 
0 0 0 0 0 0 0 0 0 
0 0 0 0 0 0 0 0 0 
0 0 0 0 0 0 0 0 0 
0 0 0 0 0 0 0 0 0 
0 0 0 0 0 0 0 0 0 
0 0 0 0 0 0 0 0 0 
0 0 0 0 0 0 0 0 0 
0 0 0 0 0 0 0 0 0 
0 0 0 0 0 0 0 0 0 
0 0 0 0 0 0 0 0 0 
0 0 0 0 0 0 0 0 0 
0 0 0 0 0 0 0 0 0 
0 0 0 0 0 0 0 0 0 
0 0 0 0 0 0 0 0 0 
0 0 0 0 0 0 0 0 0 
0 0 0 0 0 0 0 0 0 
0 0 0 0 0 0 0 0 0 
0 0 0 0 0 0 0 0 0 
0 0 0 0 0 0 0 0 0 
0 0 0 0 0 0 0 0 0 
0 0 0 0 0 0 0 0 0 
0 0 0 0 0 0 0 0 0 
0 0 0 0 0 0 0 0 0 
0 0 0 0 0 0 0 0 0 
0 0 0 0 0 0 0 0 0 
0 0 0 0 0 0 0 0 0 
0 0 0 0 0 0 0 0 0 
0 0 0 0 0 0 0 0 0 
0 0 0 0 0 0 0 0 0 
0 0 0 0 0 0 0 0 0 
0 0 0 0 0 0 0 0 0 
0 0 0 0 0 0 0 0 0 
0 0 0 0 0 0 0 0 0 
0 0 0 0 0 0 0 0 0 
0 0 0 0 0 0 0 0 0 
0 0 0 0 0 0 0 0 0 
0 0 0 0 0 0 0 0 0 
0 0 0 0 0 0 0 0 0 
0 0 0 0 0 0 0 0 0 
0 0 0 0 0 0 0 0 0 
0 0 0 0 0 0 0 0 0 
0 0 0 0 0 0 0 0 0 
0 0 0 0 0 0 0 0 0 
0 0 0 0 0 0 0 0 0 
0 0 0 0 0 0 0 0 0 
0 0 0 0 0 0 0 0 0 
0 0 0 0 0 0 0 0 0 
0 0 0 0 0 0 0 0 0 
0 0 0 0 0 0 0 0 0 
0 0 0 0 0 0 0 0 0 
0 0 0 0 0 0 0 0 0 
0 0 0 0 0 0 0 0 0 
0 0 0 0 0 0 0 0 0 
0 0 0 0 0 0 0 0 0 
0 0 0 0 0 0 0 0 0 
0 0 0 0 0 0 0 0 0 
0 0 0 0 0 0 0 0 0 
0 0 0 0 0 0 0 0 0 
0 0 0 0 0 0 0 0 0 
0 0 0 0 0 0 0 0 0 
0 0 0 0 0 0 0 0 0 
0 0 0 0 0 0 0 0 0 
0 0 0 0 0 0 0 0 0 
0 0 0 0 0 0 0 0 0 
0 0 0 0 0 0 0 0 0 
0 0 0 0 0 0 0 0 0 
0 0 0 0 0 0 0 0 0 
0 0 0 0 0 0 0 0 0 
0 0 0 0 0 0 0 0 0 
0 0 0 0 0 0 0 0 0 
0 0 0 0 0 0 0 0 0 
0 0 0 0 0 0 0 0 0 
0 0 0 0 0 0 0 0 0 
0 0 0 0 0 0 0 0 0 
0 0 0 0 0 0 0 0 0 
0 0 0 0 0 0 0 0 0 
0 0 0 0 0 0 0 0 0 
0 0 0 0 0 0 0 0 0 
0 0 0 0 0 0 0 0 0 
0 0 0 0 0 0 0 0 0 
0 0 0 0 0 0 0 0 0 
0 0 0 0 0 0 0 0 0 
0 0 0 0 0 0 0 0 0 
0 0 0 0 0 0 0 0 0 
0 0 0 0 0 0 0 0 0 
0 0 0 0 0 0 0 0 0 
0 0 0 0 0 0 0 0 0 
0 0 0 0 0 0 0 0 0 
0 0 0 0 0 0 0 0 0 
0 0 0 0 0 0 0 0 0 
0 0 0 0 0 0 0 0 0 
0 0 0 0 0 0 0 0 0 
0 0 0 0 0 0 0 0 0 
0 0 0 0 0 0 0 0 0 
0 0 0 0 0 0 0 0 0 
0 0 0 0 0 0 0 0 0 
0 0 0 0 0 0 0 0 0 
0 0 0 0 0 0 0 0 0 
0 0 0 0 0 0 0 0 0 
0 0 0 0 0 0 0 0 0 
0 0 0 0 0 0 0 0 0 
0 0 0 0 0 0 0 0 0 
0 0 0 0 0 0 0 0 0 
0 0 0 0 0 0 0 0 0 
0 0 0 0 0 0 0 0 0 
0 0 0 0 0 0 0 0 0 
0 0 0 0 0 0 0 0 0 
0 0 0 0 0 0 0 0 0 
0 0 0 0 0 0 0 0 0 
0 0 0 0 0 0 0 0 0 
0 0 0 0 0 0 0 0 0 
0 0 0 0 0 0 0 0 0 
0 0 0 0 0 0 0 0 0 
0 0 0 0 0 0 0 0 0 
0 0 0 0 0 0 0 0 0 
0 0 0 0 0 0 0 0 0 
0 0 0 0 0 0 0 0 0 
0 0 0 0 0 0 0 0 0 
0 0 0 0 0 0 0 0 0 
0 0 0 0 0 0 0 0 0 
0 0 0 0 0 0 0 0 0 
0 0 0 0 0 0 0 0 0 
0 0 0 0 0 0 0 0 0 
0 0 0 0 0 0 0 0 0 
0 0 0 0 0 0 0 0 0 
0 0 0 0 0 0 0 0 0 
0 0 0 0 0 0 0 0 0 
0 0 0 0 0 0 0 0 0 
0 0 0 0 0 0 0 0 0 
0 0 0 0 0 0 0 0 0 
0 0 0 0 0 0 0 0 0 
0 0 0 0 0 0 0 0 0 
0 0 0 0 0 0 0 0 0 
0 0 0 0 0 0 0 0 0 
0 0 0 0 0 0 0 0 0 
0 0 0 0 0 0 0 0 0 
0 0 0 0 0 0 0 0 0 
0 0 0 0 0 0 0 0 0 
0 0 0 0 0 0 0 0 0 
0 0 0 0 0 0 0 0 0 
0 0 0 0 0 0 0 0 0 
0 0 0 0 0 0 0 0 0 
0 0 0 0 0 0 0 0 0 
0 0 0 0 0 0 0 0 0 
0 0 0 0 0 0 0 0 0 
0 0 0 0 0 0 0 0 0 
0 0 0 0 0 0 0 0 0 
0 0 0 0 0 0 0 0 0 
0 0 0 0 0 0 0 0 0 
0 0 0 0 0 0 0 0 0 
0 0 0 0 0 0 0 0 0 
0 0 0 0 0 0 0 0 0 
0 0 0 0 0 0 0 0 0 
0 0 0 0 0 0 0 0 0 
0 0 0 0 0 0 0 0 0 
0 0 0 0 0 0 0 0 0 
0 0 0 0 0 0 0 0 0 
0 0 0 0 0 0 0 0 0 
0 0 0 0 0 0 0 0 0 
0 0 0 0 0 0 0 0 0 
0 0 0 0 0 0 0 0 0 
0 0 0 0 0 0 0 0 0 
0 0 0 0 0 0 0 0 0 
0 0 0 0 0 0 0 0 0 
0 0 0 0 0 0 0 0 0 
0 0 0 0 0 0 0 0 0 
0 0 0 0 0 0 0 0 0 
0 0 0 0 0 0 0 0 0 
0 0 0 0 0 0 0 0 0 
0 0 0 0 0 0 0 0 0 
0 0 0 0 0 0 0 0 0 
0 0 0 0 0 0 0 0 0 
0 0 0 0 0 0 0 0 0 
0 0 0 0 0 0 0 0 0 
0 0 0 0 0 0 0 0 0 
0 0 0 0 0 0 0 0 0 
0 0 0 0 0 0 0 0 0 
0 0 0 0 0 0 0 0 0 
0 0 0 0 0 0 0 0 0 
0 0 0 0 0 0 0 0 0 
0 0 0 0 0 0 0 0 0 
0 0 0 0 0 0 0 0 0 
0 0 0 0 0 0 0 0 0 
0 0 0 0 0 0 0 0 0 
0 0 0 0 0 0 0 0 0 
0 0 0 0 0 0 0 0 0 
0 0 0 0 0 0 0 0 0 
0 0 0 0 0 0 0 0 0 
0 0 0 0 0 0 0 0 0 
0 0 0 0 0 0 0 0 0 
0 0 0 0 0 0 0 0 0 
0 0 0 0 0 0 0 0 0 
0 0 0 0 0 0 0 0 0 
0 0 0 0 0 0 0 0 0 
0 0 0 0 0 0 0 0 0 
0 0 0 0 0 0 0 0 0 
0 0 0 0 0 0 0 0 0 
0 0 0 0 0 0 0 0 0 
0 0 0 0 0 0 0 0 0 
0 0 0 0 0 0 0 0 0 
0 0 0 0 0 0 0 0 0 
0 0 0 0 0 0 0 0 0 
0 0 0 0 0 0 0 0 0 
0 0 0 0 0 0 0 0 0 
0 0 0 0 0 0 0 0 0 
0 0 0 0 0 0 0 0 0 
0 0 0 0 0 0 0 0 0 
0 0 0 0 0 0 0 0 0 
0 0 0 0 0 0 0 0 0 
0 0 0 0 0 0 0 0 0 
0 0 0 0 0 0 0 0 0 
0 0 0 0 0 0 0 0 0 
0 0 0 0 0 0 0 0 0 
0 0 0 0 0 0 0 0 0 
0 0 0 0 0 0 0 0 0 
0 0 0 0 0 0 0 0 0 
0 0 0 0 0 0 0 0 0 
0 0 0 0 0 0 0 0 0 
0 0 0 0 0 0 0 0 0 
0 0 0 0 0 0 0 0 0 
0 0 0 0 0 0 0 0 0 
0 0 0 0 0 0 0 0 0 
0 0 0 0 0 0 0 0 0 
0 0 0 0 0 0 0 0 0 
0 0 0 0 0 0 0 0 0 
0 0 0 0 0 0 0 0 0 
0 0 0 0 0 0 0 0 0 
0 0 0 0 0 0 0 0 0 
0 0 0 0 0 0 0 0 0 
0 0 0 0 0 0 0 0 0 
0 0 0 0 0 0 0 0 0 
0 0 0 0 0 0 0 0 0 
0 0 0 0 0 0 0 0 0 
0 0 0 0 0 0 0 0 0 
0 0 0 0 0 0 0 0 0 
0 0 0 0 0 0 0 0 0 
0 0 0 0 0 0 0 0 0 
0 0 0 0 0 0 0 0 0 
0 0 0 0 0 0 0 0 0 
0 0 0 0 0 0 0 0 0 
0 0 0 0 0 0 0 0 0 
0 0 0 0 0 0 0 0 0 
0 0 0 0 0 0 0 0 0 
0 0 0 0 0 0 0 0 0 
0 0 0 0 0 0 0 0 0 
0 0 0 0 0 0 0 0 0 
0 0 0 0 0 0 0 0 0 
0 0 0 0 0 0 0 0 0 
0 0 0 0 0 0 0 0 0 
0 0 0 0 0 0 0 0 0 
0 0 0 0 0 0 0 0 0 
0 0 0 0 0 0 0 0 0 
0 0 0 0 0 0 0 0 0 
0 0 0 0 0 0 0 0 0 
0 0 0 0 0 0 0 0 0 
0 0 0 0 0 0 0 0 0 
0 0 0 0 0 0 0 0 0 
0 0 0 0 0 0 0 0 0 
0 0 0 0 0 0 0 0 0 
0 0 0 0 0 0 0 0 0 
0 0 0 0 0 0 0 0 0 
0 0 0 0 0 0 0 0 0 
0 0 0 0 0 0 0 0 0 
0 0 0 0 0 0 0 0 0 
0 0 0 0 0 0 0 0 0 
0 0 0 0 0 0 0 0 0 
0 0 0 0 0 0 0 0 0 
0 0 0 0 0 0 0 0 0 
0 0 0 0 0 0 0 0 0 
0 0 0 0 0 0 0 0 0 
0 0 0 0 0 0 0 0 0 
0 0 0 0 0 0 0 0 0 
0 0 0 0 0 0 0 0 0 
0 0 0 0 0 0 0 0 0 
0 0 0 0 0 0 0 0 0 
0 0 0 0 0 0 0 0 0 
0 0 0 0 0 0 0 0 0 
0 0 0 0 0 0 0 0 0 
0 0 0 0 0 0 0 0 0 
0 0 0 0 0 0 0 0 0 
0 0 0 0 0 0 0 0 0 
0 0 0 0 0 0 0 0 0 
0 0 0 0 0 0 0 0 0 
0 0 0 0 0 0 0 0 0 
0 0 0 0 0 0 0 0 0 
0 0 0 0 0 0 0 0 0 
0 0 0 0 0 0 0 0 0 
0 0 0 0 0 0 0 0 0 
0 0 0 0 0 0 0 0 0 
0 0 0 0 0 0 0 0 0 
0 0 0 0 0 0 0 0 0 
0 0 0 0 0 0 0 0 0 
0 0 0 0 0 0 0 0 0 
0 0 0 0 0 0 0 0 0 
0 0 0 0 0 0 0 0 0 
0 0 0 0 0 0 0 0 0 
0 0 0 0 0 0 0 0 0 
0 0 0 0 0 0 0 0 0 
0 0 0 0 0 0 0 0 0 
0 0 0 0 0 0 0 0 0 
0 0 0 0 0 0 0 0 0 
0 0 0 0 0 0 0 0 0 
0 0 0 0 0 0 0 0 0 
0 0 0 0 0 0 0 0 0 
0 0 0 0 0 0 0 0 0 
0 0 0 0 0 0 0 0 0 
0 0 0 0 0 0 0 0 0 
0 0 0 0 0 0 0 0 0 
0 0 0 0 0 0 0 0 0 
0 0 0 0 0 0 0 0 0 
0 0 0 0 0 0 0 0 0 
0 0 0 0 0 0 0 0 0 
0 0 0 0 0 0 0 0 0 
0 0 0 0 0 0 0 0 0 
0 0 0 0 0 0 0 0 0 
0 0 0 0 0 0 0 0 0 
0 0 0 0 0 0 0 0 0 
0 0 0 0 0 0 0 0 0 
0 0 0 0 0 0 0 0 0 
0 0 0 0 0 0 0 0 0 
0 0 0 0 0 0 0 0 0 
0 0 0 0 0 0 0 0 0 
0 0 0 0 0 0 0 0 0 
0 0 0 0 0 0 0 0 0 
0 0 0 0 0 0 0 0 0 
0 0 0 0 0 0 0 0 0 
0 0 0 0 0 0 0 0 0 
0 0 0 0 0 0 0 0 0 
0 0 0 0 0 0 0 0 0 
0 0 0 0 0 0 0 0 0 
0 0 0 0 0 0 0 0 0 
0 0 0 0 0 0 0 0 0 
0 0 0 0 0 0 0 0 0 
0 0 0 0 0 0 0 0 0 
0 0 0 0 0 0 0 0 0 
0 0 0 0 0 0 0 0 0 
0 0 0 0 0 0 0 0 0 
0 0 0 0 0 0 0 0 0 
0 0 0 0 0 0 0 0 0 
0 0 0 0 0 0 0 0 0 
0 0 0 0 0 0 0 0 0 
0 0 0 0 0 0 0 0 0 
0 0 0 0 0 0 0 0 0 
0 0 0 0 0 0 0 0 0 
0 0 0 0 0 0 0 0 0 
0 0 0 0 0 0 0 0 0 
0 0 0 0 0 0 0 0 0 
0 0 0 0 0 0 0 0 0 
0 0 0 0 0 0 0 0 0 
0 0 0 0 0 0 0 0 0 
0 0 0 0 0 0 0 0 0 
0 0 0 0 0 0 0 0 0 
0 0 0 0 0 0 0 0 0 
0 0 0 0 0 0 0 0 0 
0 0 0 0 0 0 0 0 0 
0 0 0 0 0 0 0 0 0 
0 0 0 0 0 0 0 0 0 
0 0 0 0 0 0 0 0 0 
0 0 0 0 0 0 0 0 0 
0 0 0 0 0 0 0 0 0 
0 0 0 0 0 0 0 0 0 
0 0 0 0 0 0 0 0 0 
0 0 0 0 0 0 0 0 0 
0 0 0 0 0 0 0 0 0 
0 0 0 0 0 0 0 0 0 
0 0 0 0 0 0 0 0 0 
0 0 0 0 0 0 0 0 0 
0 0 0 0 0 0 0 0 0 
0 0 0 0 0 0 0 0 0 
0 0 0 0 0 0 0 0 0 
0 0 0 0 0 0 0 0 0 
0 0 0 0 0 0 0 0 0 
0 0 0 0 0 0 0 0 0 
0 0 0 0 0 0 0 0 0 
0 0 0 0 0 0 0 0 0 
0 0 0 0 0 0 0 0 0 
0 0 0 0 0 0 0 0 0 
0 0 0 0 0 0 0 0 0 
0 0 0 0 0 0 0 0 0 
0 0 0 0 0 0 0 0 0 
0 0 0 0 0 0 0 0 0 
0 0 0 0 0 0 0 0 0 
0 0 0 0 0 0 0 0 0 
0 0 0 0 0 0 0 0 0 
0 0 0 0 0 0 0 0 0 
0 0 0 0 0 0 0 0 0 
0 0 0 0 0 0 0 0 0 
0 0 0 0 0 0 0 0 0 
0 0 0 0 0 0 0 0 0 
0 0 0 0 0 0 0 0 0 
0 0 0 0 0 0 0 0 0 
0 0 0 0 0 0 0 0 0 
0 0 0 0 0 0 0 0 0 
0 0 0 0 0 0 0 0 0 
0 0 0 0 0 0 0 0 0 
0 0 0 0 0 0 0 0 0 
0 0 0 0 0 0 0 0 0 
0 0 0 0 0 0 0 0 0 
0 0 0 0 0 0 0 0 0 
0 0 0 0 0 0 0 0 0 
0 0 0 0 0 0 0 0 0 
0 0 0 0 0 0 0 0 0 
0 0 0 0 0 0 0 0 0 
0 0 0 0 0 0 0 0 0 
0 0 0 0 0 0 0 0 0 
0 0 0 0 0 0 0 0 0 
0 0 0 0 0 0 0 0 0 
0 0 0 0 0 0 0 0 0 
0 0 0 0 0 0 0 0 0 
0 0 0 0 0 0 0 0 0 
0 0 0 0 0 0 0 0 0 
0 0 0 0 0 0 0 0 0 
0 0 0 0 0 0 0 0 0 
0 0 0 0 0 0 0 0 0 
0 0 0 0 0 0 0 0 0 
0 0 0 0 0 0 0 0 0 
0 0 0 0 0 0 0 0 0 
0 0 0 0 0 0 0 0 0 
0 0 0 0 0 0 0 0 0 
0 0 0 0 0 0 0 0 0 
0 0 0 0 0 0 0 0 0 
0 0 0 0 0 0 0 0 0 
0 0 0 0 0 0 0 0 0 
0 0 0 0 0 0 0 0 0 
0 0 0 0 0 0 0 0 0 
0 0 0 0 0 0 0 0 0 
0 0 0 0 0 0 0 0 0 
0 0 0 0 0 0 0 0 0 
0 0 0 0 0 0 0 0 0 
0 0 0 0 0 0 0 0 0 
0 0 0 0 0 0 0 0 0 
0 0 0 0 0 0 0 0 0 
0 0 0 0 0 0 0 0 0 
0 0 0 0 0 0 0 0 0 
0 0 0 0 0 0 0 0 0 
0 0 0 0 0 0 0 0 0 
0 0 0 0 0 0 0 0 0 
0 0 0 0 0 0 0 0 0 
0 0 0 0 0 0 0 0 0 
0 0 0 0 0 0 0 0 0 
0 0 0 0 0 0 0 0 0 
0 0 0 0 0 0 0 0 0 
0 0 0 0 0 0 0 0 0 
0 0 0 0 0 0 0 0 0 
0 0 0 0 0 0 0 0 0 
0 0 0 0 0 0 0 0 0 
0 0 0 0 0 0 0 0 0 
0 0 0 0 0 0 0 0 0 
0 0 0 0 0 0 0 0 0 
0 0 0 0 0 0 0 0 0 
0 0 0 0 0 0 0 0 0 
0 0 0 0 0 0 0 0 0 
0 0 0 0 0 0 0 0 0 
0 0 0 0 0 0 0 0 0 
0 0 0 0 0 0 0 0 0 
0 0 0 0 0 0 0 0 0 
0 0 0 0 0 0 0 0 0 
0 0 0 0 0 0 0 0 0 
0 0 0 0 0 0 0 0 0 
0 0 0 0 0 0 0 0 0 
0 0 0 0 0 0 0 0 0 
0 0 0 0 0 0 0 0 0 
0 0 0 0 0 0 0 0 0 
0 0 0 0 0 0 0 0 0 
0 0 0 0 0 0 0 0 0 
0 0 0 0 0 0 0 0 0 
0 0 0 0 0 0 0 0 0 
0 0 0 0 0 0 0 0 0 
0 0 0 0 0 0 0 0 0 
0 0 0 0 0 0 0 0 0 
0 0 0 0 0 0 0 0 0 
0 0 0 0 0 0 0 0 0 
0 0 0 0 0 0 0 0 0 
0 0 0 0 0 0 0 0 0 
0 0 0 0 0 0 0 0 0 
0 0 0 0 0 0 0 0 0 
0 0 0 0 0 0 0 0 0 
0 0 0 0 0 0 0 0 0 
0 0 0 0 0 0 0 0 0 
0 0 0 0 0 0 0 0 0 
0 0 0 0 0 0 0 0 0 
0 0 0 0 0 0 0 0 0 
0 0 0 0 0 0 0 0 0 
0 0 0 0 0 0 0 0 0 
0 0 0 0 0 0 0 0 0 
0 0 0 0 0 0 0 0 0 
0 0 0 0 0 0 0 0 0 
0 0 0 0 0 0 0 0 0 
0 0 0 0 0 0 0 0 0 
0 0 0 0 0 0 0 0 0 
0 0 0 0 0 0 0 0 0 
0 0 0 0 0 0 0 0 0 
0 0 0 0 0 0 0 0 0 
0 0 0 0 0 0 0 0 0 
0 0 0 0 0 0 0 0 0 
0 0 0 0 0 0 0 0 0 
0 0 0 0 0 0 0 0 0 
0 0 0 0 0 0 0 0 0 
0 0 0 0 0 0 0 0 0 
0 0 0 0 0 0 0 0 0 
0 0 0 0 0 0 0 0 0 
0 0 0 0 0 0 0 0 0 
0 0 0 0 0 0 0 0 0 
0 0 0 0 0 0 0 0 0 
0 0 0 0 0 0 0 0 0 
0 0 0 0 0 0 0 0 0 
0 0 0 0 0 0 0 0 0 
0 0 0 0 0 0 0 0 0 
0 0 0 0 0 0 0 0 0 
0 0 0 0 0 0 0 0 0 
0 0 0 0 0 0 0 0 0 
0 0 0 0 0 0 0 0 0 
0 0 0 0 0 0 0 0 0 
0 0 0 0 0 0 0 0 0 
0 0 0 0 0 0 0 0 0 
0 0 0 0 0 0 0 0 0 
0 0 0 0 0 0 0 0 0 
0 0 0 0 0 0 0 0 0 
0 0 0 0 0 0 0 0 0 
0 0 0 0 0 0 0 0 0 
0 0 0 0 0 0 0 0 0 
0 0 0 0 0 0 0 0 0 
0 0 0 0 0 0 0 0 0 
0 0 0 0 0 0 0 0 0 
0 0 0 0 0 0 0 0 0 
0 0 0 0 0 0 0 0 0 
0 0 0 0 0 0 0 0 0 
0 0 0 0 0 0 0 0 0 
0 0 0 0 0 0 0 0 0 
0 0 0 0 0 0 0 0 0 
0 0 0 0 0 0 0 0 0 
0 0 0 0 0 0 0 0 0 
0 0 0 0 0 0 0 0 0 
0 0 0 0 0 0 0 0 0 
0 0 0 0 0 0 0 0 0 
0 0 0 0 0 0 0 0 0 
0 0 0 0 0 0 0 0 0 
0 0 0 0 0 0 0 0 0 
0 0 0 0 0 0 0 0 0 
0 0 0 0 0 0 0 0 0 
0 0 0 0 0 0 0 0 0 
0 0 0 0 0 0 0 0 0 
0 0 0 0 0 0 0 0 0 
0 0 0 0 0 0 0 0 0 
0 0 0 0 0 0 0 0 0 
0 0 0 0 0 0 0 0 0 
0 0 0 0 0 0 0 0 0 
0 0 0 0 0 0 0 0 0 
0 0 0 0 0 0 0 0 0 
0 0 0 0 0 0 0 0 0 
0 0 0 0 0 0 0 0 0 
0 0 0 0 0 0 0 0 0 
0 0 0 0 0 0 0 0 0 
0 0 0 0 0 0 0 0 0 
0 0 0 0 0 0 0 0 0 
0 0 0 0 0 0 0 0 0 
0 0 0 0 0 0 0 0 0 
0 0 0 0 0 0 0 0 0 
0 0 0 0 0 0 0 0 0 
0 0 0 0 0 0 0 0 0 
0 0 0 0 0 0 0 0 0 
0 0 0 0 0 0 0 0 0 
0 0 0 0 0 0 0 0 0 
0 0 0 0 0 0 0 0 0 
0 0 0 0 0 0 0 0 0 
0 0 0 0 0 0 0 0 0 
0 0 0 0 0 0 0 0 0 
0 0 0 0 0 0 0 0 0 
0 0 0 0 0 0 0 0 0 
0 0 0 0 0 0 0 0 0 
0 0 0 0 0 0 0 0 0 
0 0 0 0 0 0 0 0 0 
0 0 0 0 0 0 0 0 0 
0 0 0 0 0 0 0 0 0 
0 0 0 0 0 0 0 0 0 
0 0 0 0 0 0 0 0 0 
0 0 0 0 0 0 0 0 0 
0 0 0 0 0 0 0 0 0 
0 0 0 0 0 0 0 0 0 
0 0 0 0 0 0 0 0 0 
0 0 0 0 0 0 0 0 0 
0 0 0 0 0 0 0 0 0 
0 0 0 0 0 0 0 0 0 
0 0 0 0 0 0 0 0 0 
0 0 0 0 0 0 0 0 0 
0 0 0 0 0 0 0 0 0 
0 0 0 0 0 0 0 0 0 
0 0 0 0 0 0 0 0 0 
0 0 0 0 0 0 0 0 0 
0 0 0 0 0 0 0 0 0 
0 0 0 0 0 0 0 0 0 
0 0 0 0 0 0 0 0 0 
0 0 0 0 0 0 0 0 0 
0 0 0 0 0 0 0 0 0 
0 0 0 0 0 0 0 0 0 
0 0 0 0 0 0 0 0 0 
0 0 0 0 0 0 0 0 0 
0 0 0 0 0 0 0 0 0 
0 0 0 0 0 0 0 0 0 
0 0 0 0 0 0 0 0 0 
0 0 0 0 0 0 0 0 0 
0 0 0 0 0 0 0 0 0 
0 0 0 0 0 0 0 0 0 
0 0 0 0 0 0 0 0 0 
0 0 0 0 0 0 0 0 0 
0 0 0 0 0 0 0 0 0 
0 0 0 0 0 0 0 0 0 
0 0 0 0 0 0 0 0 0 
0 0 0 0 0 0 0 0 0 
0 0 0 0 0 0 0 0 0 
0 0 0 0 0 0 0 0 0 
0 0 0 0 0 0 0 0 0 
0 0 0 0 0 0 0 0 0 
0 0 0 0 0 0 0 0 0 
0 0 0 0 0 0 0 0 0 
0 0 0 0 0 0 0 0 0 
0 0 0 0 0 0 0 0 0 
0 0 0 0 0 0 0 0 0 
0 0 0 0 0 0 0 0 0 
0 0 0 0 0 0 0 0 0 
0 0 0 0 0 0 0 0 0 
0 0 0 0 0 0 0 0 0 
0 0 0 0 0 0 0 0 0 
0 0 0 0 0 0 0 0 0 
0 0 0 0 0 0 0 0 0 
0 0 0 0 0 0 0 0 0 
0 0 0 0 0 0 0 0 0 
0 0 0 0 0 0 0 0 0 
0 0 0 0 0 0 0 0 0 
0 0 0 0 0 0 0 0 0 
0 0 0 0 0 0 0 0 0 
0 0 0 0 0 0 0 0 0 
0 0 0 0 0 0 0 0 0 
0 0 0 0 0 0 0 0 0 
0 0 0 0 0 0 0 0 0 
0 0 0 0 0 0 0 0 0 
0 0 0 0 0 0 0 0 0 
0 0 0 0 0 0 0 0 0 
0 0 0 0 0 0 0 0 0 
0 0 0 0 0 0 0 0 0 
0 0 0 0 0 0 0 0 0 
0 0 0 0 0 0 0 0 0 
0 0 0 0 0 0 0 0 0 
0 0 0 0 0 0 0 0 0 
0 0 0 0 0 0 0 0 0 
0 0 0 0 0 0 0 0 0 
0 0 0 0 0 0 0 0 0 
0 0 0 0 0 0 0 0 0 
0 0 0 0 0 0 0 0 0 
0 0 0 0 0 0 0 0 0 
0 0 0 0 0 0 0 0 0 
0 0 0 0 0 0 0 0 0 
0 0 0 0 0 0 0 0 0 
0 0 0 0 0 0 0 0 0 
0 0 0 0 0 0 0 0 0 
0 0 0 0 0 0 0 0 0 
0 0 0 0 0 0 0 0 0 
0 0 0 0 0 0 0 0 0 
0 0 0 0 0 0 0 0 0 
0 0 0 0 0 0 0 0 0 
0 0 0 0 0 0 0 0 0 
0 0 0 0 0 0 0 0 0 
0 0 0 0 0 0 0 0 0 
0 0 0 0 0 0 0 0 0 
0 0 0 0 0 0 0 0 0 
0 0 0 0 0 0 0 0 0 
0 0 0 0 0 0 0 0 0 
0 0 0 0 0 0 0 0 0 
0 0 0 0 0 0 0 0 0 
0 0 0 0 0 0 0 0 0 
0 0 0 0 0 0 0 0 0 
0 0 0 0 0 0 0 0 0 
0 0 0 0 0 0 0 0 0 
0 0 0 0 0 0 0 0 0 
0 0 0 0 0 0 0 0 0 
0 0 0 0 0 0 0 0 0 
0 0 0 0 0 0 0 0 0 
0 0 0 0 0 0 0 0 0 
0 0 0 0 0 0 0 0 0 
0 0 0 0 0 0 0 0 0 
0 0 0 0 0 0 0 0 0 
0 0 0 0 0 0 0 0 0 
0 0 0 0 0 0 0 0 0 
0 0 0 0 0 0 0 0 0 
0 0 0 0 0 0 0 0 0 
0 0 0 0 0 0 0 0 0 
0 0 0 0 0 0 0 0 0 
0 0 0 0 0 0 0 0 0 
0 0 0 0 0 0 0 0 0 
0 0 0 0 0 0 0 0 0 
0 0 0 0 0 0 0 0 0 
0 0 0 0 0 0 0 0 0 
0 0 0 0 0 0 0 0 0 
0 0 0 0 0 0 0 0 0 
0 0 0 0 0 0 0 0 0 
0 0 0 0 0 0 0 0 0 
0 0 0 0 0 0 0 0 0 
0 0 0 0 0 0 0 0 0 
0 0 0 0 0 0 0 0 0 
0 0 0 0 0 0 0 0 0 
0 0 0 0 0 0 0 0 0 
0 0 0 0 0 0 0 0 0 
0 0 0 0 0 0 0 0 0 
0 0 0 0 0 0 0 0 0 
0 0 0 0 0 0 0 0 0 
0 0 0 0 0 0 0 0 0 
0 0 0 0 0 0 0 0 0 
0 0 0 0 0 0 0 0 0 
0 0 0 0 0 0 0 0 0 
0 0 0 0 0 0 0 0 0 
0 0 0 0 0 0 0 0 0 
0 0 0 0 0 0 0 0 0 
0 0 0 0 0 0 0 0 0 
0 0 0 0 0 0 0 0 0 
0 0 0 0 0 0 0 0 0 
0 0 0 0 0 0 0 0 0 
0 0 0 0 0 0 0 0 0 
0 0 0 0 0 0 0 0 0 
0 0 0 0 0 0 0 0 0 
0 0 0 0 0 0 0 0 0 
0 0 0 0 0 0 0 0 0 
0 0 0 0 0 0 0 0 0 
0 0 0 0 0 0 0 0 0 
0 0 0 0 0 0 0 0 0 
0 0 0 0 0 0 0 0 0 
0 0 0 0 0 0 0 0 0 
0 0 0 0 0 0 0 0 0 
0 0 0 0 0 0 0 0 0 
0 0 0 0 0 0 0 0 0 
0 0 0 0 0 0 0 0 0 
0 0 0 0 0 0 0 0 0 
0 0 0 0 0 0 0 0 0 
0 0 0 0 0 0 0 0 0 
0 0 0 0 0 0 0 0 0 
0 0 0 0 0 0 0 0 0 
0 0 0 0 0 0 0 0 0 
0 0 0 0 0 0 0 0 0 
0 0 0 0 0 0 0 0 0 
0 0 0 0 0 0 0 0 0 
0 0 0 0 0 0 0 0 0 
0 0 0 0 0 0 0 0 0 
0 0 0 0 0 0 0 0 0 
0 0 0 0 0 0 0 0 0 
0 0 0 0 0 0 0 0 0 
0 0 0 0 0 0 0 0 0 
0 0 0 0 0 0 0 0 0 
0 0 0 0 0 0 0 0 0 
0 0 0 0 0 0 0 0 0 
0 0 0 0 0 0 0 0 0 
0 0 0 0 0 0 0 0 0 
0 0 0 0 0 0 0 0 0 
0 0 0 0 0 0 0 0 0 
0 0 0 0 0 0 0 0 0 
0 0 0 0 0 0 0 0 0 
0 0 0 0 0 0 0 0 0 
0 0 0 0 0 0 0 0 0 
0 0 0 0 0 0 0 0 0 
0 0 0 0 0 0 0 0 0 
0 0 0 0 0 0 0 0 0 
0 0 0 0 0 0 0 0 0 
0 0 0 0 0 0 0 0 0 
0 0 0 0 0 0 0 0 0 
0 0 0 0 0 0 0 0 0 
0 0 0 0 0 0 0 0 0 
0 0 0 0 0 0 0 0 0 
0 0 0 0 0 0 0 0 0 
0 0 0 0 0 0 0 0 0 
0 0 0 0 0 0 0 0 0 
0 0 0 0 0 0 0 0 0 
0 0 0 0 0 0 0 0 0 
0 0 0 0 0 0 0 0 0 
0 0 0 0 0 0 0 0 0 
0 0 0 0 0 0 0 0 0 
0 0 0 0 0 0 0 0 0 
0 0 0 0 0 0 0 0 0 
0 0 0 0 0 0 0 0 0 
0 0 0 0 0 0 0 0 0 
0 0 0 0 0 0 0 0 0 
0 0 0 0 0 0 0 0 0 
0 0 0 0 0 0 0 0 0 
0 0 0 0 0 0 0 0 0 
0 0 0 0 0 0 0 0 0 
0 0 0 0 0 0 0 0 0 
0 0 0 0 0 0 0 0 0 
0 0 0 0 0 0 0 0 0 
0 0 0 0 0 0 0 0 0 
0 0 0 0 0 0 0 0 0 
0 0 0 0 0 0 0 0 0 
0 0 0 0 0 0 0 0 0 
0 0 0 0 0 0 0 0 0 
0 0 0 0 0 0 0 0 0 
0 0 0 0 0 0 0 0 0 
0 0 0 0 0 0 0 0 0 
0 0 0 0 0 0 0 0 0 
0 0 0 0 0 0 0 0 0 
0 0 0 0 0 0 0 0 0 
0 0 0 0 0 0 0 0 0 
0 0 0 0 0 0 0 0 0 
0 0 0 0 0 0 0 0 0 
0 0 0 0 0 0 0 0 0 
0 0 0 0 0 0 0 0 0 
0 0 0 0 0 0 0 0 0 
0 0 0 0 0 0 0 0 0 
0 0 0 0 0 0 0 0 0 
0 0 0 0 0 0 0 0 0 
0 0 0 0 0 0 0 0 0 
0 0 0 0 0 0 0 0 0 
0 0 0 0 0 0 0 0 0 
0 0 0 0 0 0 0 0 0 
0 0 0 0 0 0 0 0 0 
0 0 0 0 0 0 0 0 0 
0 0 0 0 0 0 0 0 0 
0 0 0 0 0 0 0 0 0 
0 0 0 0 0 0 0 0 0 
0 0 0 0 0 0 0 0 0 
0 0 0 0 0 0 0 0 0 
0 0 0 0 0 0 0 0 0 
0 0 0 0 0 0 0 0 0 
0 0 0 0 0 0 0 0 0 
0 0 0 0 0 0 0 0 0 
0 0 0 0 0 0 0 0 0 
0 0 0 0 0 0 0 0 0 
0 0 0 0 0 0 0 0 0 
0 0 0 0 0 0 0 0 0 
0 0 0 0 0 0 0 0 0 
0 0 0 0 0 0 0 0 0 
0 0 0 0 0 0 0 0 0 
0 0 0 0 0 0 0 0 0 
0 0 0 0 0 0 0 0 0 
0 0 0 0 0 0 0 0 0 
0 0 0 0 0 0 0 0 0 
0 0 0 0 0 0 0 0 0 
0 0 0 0 0 0 0 0 0 
0 0 0 0 0 0 0 0 0 
0 0 0 0 0 0 0 0 0 
0 0 0 0 0 0 0 0 0 
0 0 0 0 0 0 0 0 0 
0 0 0 0 0 0 0 0 0 
0 0 0 0 0 0 0 0 0 
0 0 0 0 0 0 0 0 0 
0 0 0 0 0 0 0 0 0 
0 0 0 0 0 0 0 0 0 
0 0 0 0 0 0 0 0 0 
0 0 0 0 0 0 0 0 0 
0 0 0 0 0 0 0 0 0 
0 0 0 0 0 0 0 0 0 
0 0 0 0 0 0 0 0 0 
0 0 0 0 0 0 0 0 0 
0 0 0 0 0 0 0 0 0 
0 0 0 0 0 0 0 0 0 
0 0 0 0 0 0 0 0 0 
0 0 0 0 0 0 0 0 0 
0 0 0 0 0 0 0 0 0 
0 0 0 0 0 0 0 0 0 
0 0 0 0 0 0 0 0 0 
0 0 0 0 0 0 0 0 0 
0 0 0 0 0 0 0 0 0 
0 0 0 0 0 0 0 0 0 
0 0 0 0 0 0 0 0 0 
0 0 0 0 0 0 0 0 0 
0 0 0 0 0 0 0 0 0 
0 0 0 0 0 0 0 0 0 
0 0 0 0 0 0 0 0 0 
0 0 0 0 0 0 0 0 0 
0 0 0 0 0 0 0 0 0 
0 0 0 0 0 0 0 0 0 
0 0 0 0 0 0 0 0 0 
0 0 0 0 0 0 0 0 0 
0 0 0 0 0 0 0 0 0 
0 0 0 0 0 0 0 0 0 
0 0 0 0 0 0 0 0 0 
0 0 0 0 0 0 0 0 0 
0 0 0 0 0 0 0 0 0 
0 0 0 0 0 0 0 0 0 
0 0 0 0 0 0 0 0 0 
0 0 0 0 0 0 0 0 0 
0 0 0 0 0 0 0 0 0 
0 0 0 0 0 0 0 0 0 
0 0 0 0 0 0 0 0 0 
0 0 0 0 0 0 0 0 0 
0 0 0 0 0 0 0 0 0 
0 0 0 0 0 0 0 0 0 
0 0 0 0 0 0 0 0 0 
0 0 0 0 0 0 0 0 0 
0 0 0 0 0 0 0 0 0 
0 0 0 0 0 0 0 0 0 
0 0 0 0 0 0 0 0 0 
0 0 0 0 0 0 0 0 0 
0 0 0 0 0 0 0 0 0 
0 0 0 0 0 0 0 0 0 
0 0 0 0 0 0 0 0 0 
0 0 0 0 0 0 0 0 0 
0 0 0 0 0 0 0 0 0 
0 0 0 0 0 0 0 0 0 
0 0 0 0 0 0 0 0 0 
0 0 0 0 0 0 0 0 0 
0 0 0 0 0 0 0 0 0 
0 0 0 0 0 0 0 0 0 
0 0 0 0 0 0 0 0 0 
0 0 0 0 0 0 0 0 0 
0 0 0 0 0 0 0 0 0 
0 0 0 0 0 0 0 0 0 
0 0 0 0 0 0 0 0 0 
0 0 0 0 0 0 0 0 0 
0 0 0 0 0 0 0 0 0 
0 0 0 0 0 0 0 0 0 
0 0 0 0 0 0 0 0 0 
0 0 0 0 0 0 0 0 0 
0 0 0 0 0 0 0 0 0 
0 0 0 0 0 0 0 0 0 
0 0 0 0 0 0 0 0 0 
0 0 0 0 0 0 0 0 0 
0 0 0 0 0 0 0 0 0 
0 0 0 0 0 0 0 0 0 
0 0 0 0 0 0 0 0 0 
0 0 0 0 0 0 0 0 0 
0 0 0 0 0 0 0 0 0 
0 0 0 0 0 0 0 0 0 
0 0 0 0 0 0 0 0 0 
0 0 0 0 0 0 0 0 0 
0 0 0 0 0 0 0 0 0 
0 0 0 0 0 0 0 0 0 
0 0 0 0 0 0 0 0 0 
0 0 0 0 0 0 0 0 0 
0 0 0 0 0 0 0 0 0 
0 0 0 0 0 0 0 0 0 
0 0 0 0 0 0 0 0 0 
0 0 0 0 0 0 0 0 0 
0 0 0 0 0 0 0 0 0 
0 0 0 0 0 0 0 0 0 
0 0 0 0 0 0 0 0 0 
0 0 0 0 0 0 0 0 0 
0 0 0 0 0 0 0 0 0 
0 0 0 0 0 0 0 0 0 
0 0 0 0 0 0 0 0 0 
0 0 0 0 0 0 0 0 0 
0 0 0 0 0 0 0 0 0 
0 0 0 0 0 0 0 0 0 
0 0 0 0 0 0 0 0 0 
0 0 0 0 0 0 0 0 0 
0 0 0 0 0 0 0 0 0 
0 0 0 0 0 0 0 0 0 
0 0 0 0 0 0 0 0 0 
0 0 0 0 0 0 0 0 0 
0 0 0 0 0 0 0 0 0 
0 0 0 0 0 0 0 0 0 
0 0 0 0 0 0 0 0 0 
0 0 0 0 0 0 0 0 0 
0 0 0 0 0 0 0 0 0 
0 0 0 0 0 0 0 0 0 
0 0 0 0 0 0 0 0 0 
0 0 0 0 0 0 0 0 0 
0 0 0 0 0 0 0 0 0 
0 0 0 0 0 0 0 0 0 
0 0 0 0 0 0 0 0 0 
0 0 0 0 0 0 0 0 0 
0 0 0 0 0 0 0 0 0 
0 0 0 0 0 0 0 0 0 
0 0 0 0 0 0 0 0 0 
0 0 0 0 0 0 0 0 0 
0 0 0 0 0 0 0 0 0 
0 0 0 0 0 0 0 0 0 
0 0 0 0 0 0 0 0 0 
0 0 0 0 0 0 0 0 0 
0 0 0 0 0 0 0 0 0 
0 0 0 0 0 0 0 0 0 
0 0 0 0 0 0 0 0 0 
0 0 0 0 0 0 0 0 0 
0 0 0 0 0 0 0 0 0 
0 0 0 0 0 0 0 0 0 
0 0 0 0 0 0 0 0 0 
0 0 0 0 0 0 0 0 0 
0 0 0 0 0 0 0 0 0 
0 0 0 0 0 0 0 0 0 
0 0 0 0 0 0 0 0 0 
0 0 0 0 0 0 0 0 0 
0 0 0 0 0 0 0 0 0 
0 0 0 0 0 0 0 0 0 
0 0 0 0 0 0 0 0 0 
0 0 0 0 0 0 0 0 0 
0 0 0 0 0 0 0 0 0 
0 0 0 0 0 0 0 0 0 
0 0 0 0 0 0 0 0 0 
0 0 0 0 0 0 0 0 0 
0 0 0 0 0 0 0 0 0 
0 0 0 0 0 0 0 0 0 
0 0 0 0 0 0 0 0 0 
0 0 0 0 0 0 0 0 0 
0 0 0 0 0 0 0 0 0 
0 0 0 0 0 0 0 0 0 
0 0 0 0 0 0 0 0 0 
0 0 0 0 0 0 0 0 0 
0 0 0 0 0 0 0 0 0 
0 0 0 0 0 0 0 0 0 
0 0 0 0 0 0 0 0 0 
0 0 0 0 0 0 0 0 0 
0 0 0 0 0 0 0 0 0 
0 0 0 0 0 0 0 0 0 
0 0 0 0 0 0 0 0 0 
0 0 0 0 0 0 0 0 0 
0 0 0 0 0 0 0 0 0 
0 0 0 0 0 0 0 0 0 
0 0 0 0 0 0 0 0 0 
0 0 0 0 0 0 0 0 0 
0 0 0 0 0 0 0 0 0 
0 0 0 0 0 0 0 0 0 
0 0 0 0 0 0 0 0 0 
0 0 0 0 0 0 0 0 0 
0 0 0 0 0 0 0 0 0 
0 0 0 0 0 0 0 0 0 
0 0 0 0 0 0 0 0 0 
0 0 0 0 0 0 0 0 0 
0 0 0 0 0 0 0 0 0 
0 0 0 0 0 0 0 0 0 
0 0 0 0 0 0 0 0 0 
0 0 0 0 0 0 0 0 0 
0 0 0 0 0 0 0 0 0 
0 0 0 0 0 0 0 0 0 
0 0 0 0 0 0 0 0 0 
0 0 0 0 0 0 0 0 0 
0 0 0 0 0 0 0 0 0 
0 0 0 0 0 0 0 0 0 
0 0 0 0 0 0 0 0 0 
0 0 0 0 0 0 0 0 0 
0 0 0 0 0 0 0 0 0 
0 0 0 0 0 0 0 0 0 
0 0 0 0 0 0 0 0 0 
0 0 0 0 0 0 0 0 0 
0 0 0 0 0 0 0 0 0 
0 0 0 0 0 0 0 0 0 
0 0 0 0 0 0 0 0 0 
0 0 0 0 0 0 0 0 0 
0 0 0 0 0 0 0 0 0 
0 0 0 0 0 0 0 0 0 
0 0 0 0 0 0 0 0 0 
0 0 0 0 0 0 0 0 0 
0 0 0 0 0 0 0 0 0 
0 0 0 0 0 0 0 0 0 
0 0 0 0 0 0 0 0 0 
0 0 0 0 0 0 0 0 0 
0 0 0 0 0 0 0 0 0 
0 0 0 0 0 0 0 0 0 
0 0 0 0 0 0 0 0 0 
0 0 0 0 0 0 0 0 0 
0 0 0 0 0 0 0 0 0 
0 0 0 0 0 0 0 0 0 
0 0 0 0 0 0 0 0 0 
0 0 0 0 0 0 0 0 0 
0 0 0 0 0 0 0 0 0 
0 0 0 0 0 0 0 0 0 
0 0 0 0 0 0 0 0 0 
0 0 0 0 0 0 0 0 0 
0 0 0 0 0 0 0 0 0 
0 0 0 0 0 0 0 0 0 
0 0 0 0 0 0 0 0 0 
0 0 0 0 0 0 0 0 0 
0 0 0 0 0 0 0 0 0 
0 0 0 0 0 0 0 0 0 
0 0 0 0 0 0 0 0 0 
0 0 0 0 0 0 0 0 0 
0 0 0 0 0 0 0 0 0 
0 0 0 0 0 0 0 0 0 
0 0 0 0 0 0 0 0 0 
0 0 0 0 0 0 0 0 0 
0 0 0 0 0 0 0 0 0 
0 0 0 0 0 0 0 0 0 
0 0 0 0 0 0 0 0 0 
0 0 0 0 0 0 0 0 0 
0 0 0 0 0 0 0 0 0 
0 0 0 0 0 0 0 0 0 
0 0 0 0 0 0 0 0 0 
0 0 0 0 0 0 0 0 0 
0 0 0 0 0 0 0 0 0 
0 0 0 0 0 0 0 0 0 
0 0 0 0 0 0 0 0 0 
0 0 0 0 0 0 0 0 0 
0 0 0 0 0 0 0 0 0 
0 0 0 0 0 0 0 0 0 
0 0 0 0 0 0 0 0 0 
0 0 0 0 0 0 0 0 0 
0 0 0 0 0 0 0 0 0 
0 0 0 0 0 0 0 0 0 
0 0 0 0 0 0 0 0 0 
0 0 0 0 0 0 0 0 0 
0 0 0 0 0 0 0 0 0 
0 0 0 0 0 0 0 0 0 
0 0 0 0 0 0 0 0 0 
0 0 0 0 0 0 0 0 0 
0 0 0 0 0 0 0 0 0 
0 0 0 0 0 0 0 0 0 
0 0 0 0 0 0 0 0 0 
0 0 0 0 0 0 0 0 0 
0 0 0 0 0 0 0 0 0 
0 0 0 0 0 0 0 0 0 
0 0 0 0 0 0 0 0 0 
0 0 0 0 0 0 0 0 0 
0 0 0 0 0 0 0 0 0 
0 0 0 0 0 0 0 0 0 
0 0 0 0 0 0 0 0 0 
0 0 0 0 0 0 0 0 0 
0 0 0 0 0 0 0 0 0 
0 0 0 0 0 0 0 0 0 
0 0 0 0 0 0 0 0 0 
0 0 0 0 0 0 0 0 0 
0 0 0 0 0 0 0 0 0 
0 0 0 0 0 0 0 0 0 
0 0 0 0 0 0 0 0 0 
0 0 0 0 0 0 0 0 0 
0 0 0 0 0 0 0 0 0 
0 0 0 0 0 0 0 0 0 
0 0 0 0 0 0 0 0 0 
0 0 0 0 0 0 0 0 0 
0 0 0 0 0 0 0 0 0 
0 0 0 0 0 0 0 0 0 
0 0 0 0 0 0 0 0 0 
0 0 0 0 0 0 0 0 0 
0 0 0 0 0 0 0 0 0 
0 0 0 0 0 0 0 0 0 
0 0 0 0 0 0 0 0 0 
0 0 0 0 0 0 0 0 0 
0 0 0 0 0 0 0 0 0 
0 0 0 0 0 0 0 0 0 
0 0 0 0 0 0 0 0 0 
0 0 0 0 0 0 0 0 0 
0 0 0 0 0 0 0 0 0 
0 0 0 0 0 0 0 0 0 
0 0 0 0 0 0 0 0 0 
0 0 0 0 0 0 0 0 0 
0 0 0 0 0 0 0 0 0 
0 0 0 0 0 0 0 0 0 
0 0 0 0 0 0 0 0 0 
0 0 0 0 0 0 0 0 0 
0 0 0 0 0 0 0 0 0 
0 0 0 0 0 0 0 0 0 
0 0 0 0 0 0 0 0 0 
0 0 0 0 0 0 0 0 0 
0 0 0 0 0 0 0 0 0 
0 0 0 0 0 0 0 0 0 
0 0 0 0 0 0 0 0 0 
0 0 0 0 0 0 0 0 0 
0 0 0 0 0 0 0 0 0 
0 0 0 0 0 0 0 0 0 
0 0 0 0 0 0 0 0 0 
0 0 0 0 0 0 0 0 0 
0 0 0 0 0 0 0 0 0 
0 0 0 0 0 0 0 0 0 
0 0 0 0 0 0 0 0 0 
0 0 0 0 0 0 0 0 0 
0 0 0 0 0 0 0 0 0 
0 0 0 0 0 0 0 0 0 
0 0 0 0 0 0 0 0 0 
0 0 0 0 0 0 0 0 0 
0 0 0 0 0 0 0 0 0 
0 0 0 0 0 0 0 0 0 
0 0 0 0 0 0 0 0 0 
0 0 0 0 0 0 0 0 0 
0 0 0 0 0 0 0 0 0 
0 0 0 0 0 0 0 0 0 
0 0 0 0 0 0 0 0 0 
0 0 0 0 0 0 0 0 0 
0 0 0 0 0 0 0 0 0 
0 0 0 0 0 0 0 0 0 
0 0 0 0 0 0 0 0 0 
0 0 0 0 0 0 0 0 0 
0 0 0 0 0 0 0 0 0 
0 0 0 0 0 0 0 0 0 
0 0 0 0 0 0 0 0 0 
0 0 0 0 0 0 0 0 0 
0 0 0 0 0 0 0 0 0 
0 0 0 0 0 0 0 0 0 
0 0 0 0 0 0 0 0 0 
0 0 0 0 0 0 0 0 0 
0 0 0 0 0 0 0 0 0 
0 0 0 0 0 0 0 0 0 
0 0 0 0 0 0 0 0 0 
0 0 0 0 0 0 0 0 0 
0 0 0 0 0 0 0 0 0 
0 0 0 0 0 0 0 0 0 
0 0 0 0 0 0 0 0 0 
0 0 0 0 0 0 0 0 0 
0 0 0 0 0 0 0 0 0 
0 0 0 0 0 0 0 0 0 
0 0 0 0 0 0 0 0 0 
0 0 0 0 0 0 0 0 0 
0 0 0 0 0 0 0 0 0 
0 0 0 0 0 0 0 0 0 
0 0 0 0 0 0 0 0 0 
0 0 0 0 0 0 0 0 0 
0 0 0 0 0 0 0 0 0 
0 0 0 0 0 0 0 0 0 
0 0 0 0 0 0 0 0 0 
0 0 0 0 0 0 0 0 0 
0 0 0 0 0 0 0 0 0 
0 0 0 0 0 0 0 0 0 
0 0 0 0 0 0 0 0 0 
0 0 0 0 0 0 0 0 0 
0 0 0 0 0 0 0 0 0 
0 0 0 0 0 0 0 0 0 
0 0 0 0 0 0 0 0 0 
0 0 0 0 0 0 0 0 0 
0 0 0 0 0 0 0 0 0 
0 0 0 0 0 0 0 0 0 
0 0 0 0 0 0 0 0 0 
0 0 0 0 0 0 0 0 0 
0 0 0 0 0 0 0 0 0 
0 0 0 0 0 0 0 0 0 
0 0 0 0 0 0 0 0 0 
0 0 0 0 0 0 0 0 0 
0 0 0 0 0 0 0 0 0 
0 0 0 0 0 0 0 0 0 
0 0 0 0 0 0 0 0 0 
0 0 0 0 0 0 0 0 0 
0 0 0 0 0 0 0 0 0 
0 0 0 0 0 0 0 0 0 
0 0 0 0 0 0 0 0 0 
0 0 0 0 0 0 0 0 0 
0 0 0 0 0 0 0 0 0 
0 0 0 0 0 0 0 0 0 
0 0 0 0 0 0 0 0 0 
0 0 0 0 0 0 0 0 0 
0 0 0 0 0 0 0 0 0 
0 0 0 0 0 0 0 0 0 
0 0 0 0 0 0 0 0 0 
0 0 0 0 0 0 0 0 0 
0 0 0 0 0 0 0 0 0 
0 0 0 0 0 0 0 0 0 
0 0 0 0 0 0 0 0 0 
0 0 0 0 0 0 0 0 0 
0 0 0 0 0 0 0 0 0 
0 0 0 0 0 0 0 0 0 
0 0 0 0 0 0 0 0 0 
0 0 0 0 0 0 0 0 0 
0 0 0 0 0 0 0 0 0 
0 0 0 0 0 0 0 0 0 
0 0 0 0 0 0 0 0 0 
0 0 0 0 0 0 0 0 0 
0 0 0 0 0 0 0 0 0 
0 0 0 0 0 0 0 0 0 
0 0 0 0 0 0 0 0 0 
0 0 0 0 0 0 0 0 0 
0 0 0 0 0 0 0 0 0 
0 0 0 0 0 0 0 0 0 
0 0 0 0 0 0 0 0 0 
0 0 0 0 0 0 0 0 0 
0 0 0 0 0 0 0 0 0 
0 0 0 0 0 0 0 0 0 
0 0 0 0 0 0 0 0 0 
0 0 0 0 0 0 0 0 0 
0 0 0 0 0 0 0 0 0 
0 0 0 0 0 0 0 0 0 
0 0 0 0 0 0 0 0 0 
0 0 0 0 0 0 0 0 0 
0 0 0 0 0 0 0 0 0 
0 0 0 0 0 0 0 0 0 
0 0 0 0 0 0 0 0 0 
0 0 0 0 0 0 0 0 0 
0 0 0 0 0 0 0 0 0 
0 0 0 0 0 0 0 0 0 
0 0 0 0 0 0 0 0 0 
0 0 0 0 0 0 0 0 0 
0 0 0 0 0 0 0 0 0 
0 0 0 0 0 0 0 0 0 
0 0 0 0 0 0 0 0 0 
0 0 0 0 0 0 0 0 0 
0 0 0 0 0 0 0 0 0 
0 0 0 0 0 0 0 0 0 
0 0 0 0 0 0 0 0 0 
0 0 0 0 0 0 0 0 0 
0 0 0 0 0 0 0 0 0 
0 0 0 0 0 0 0 0 0 
0 0 0 0 0 0 0 0 0 
0 0 0 0 0 0 0 0 0 
0 0 0 0 0 0 0 0 0 
0 0 0 0 0 0 0 0 0 
0 0 0 0 0 0 0 0 0 
0 0 0 0 0 0 0 0 0 
0 0 0 0 0 0 0 0 0 
0 0 0 0 0 0 0 0 0 
0 0 0 0 0 0 0 0 0 
0 0 0 0 0 0 0 0 0 
0 0 0 0 0 0 0 0 0 
0 0 0 0 0 0 0 0 0 
0 0 0 0 0 0 0 0 0 
0 0 0 0 0 0 0 0 0 
0 0 0 0 0 0 0 0 0 
0 0 0 0 0 0 0 0 0 
0 0 0 0 0 0 0 0 0 
0 0 0 0 0 0 0 0 0 
0 0 0 0 0 0 0 0 0 
0 0 0 0 0 0 0 0 0 
0 0 0 0 0 0 0 0 0 
0 0 0 0 0 0 0 0 0 
0 0 0 0 0 0 0 0 0 
0 0 0 0 0 0 0 0 0 
0 0 0 0 0 0 0 0 0 
0 0 0 0 0 0 0 0 0 
0 0 0 0 0 0 0 0 0 
0 0 0 0 0 0 0 0 0 
0 0 0 0 0 0 0 0 0 
0 0 0 0 0 0 0 0 0 
0 0 0 0 0 0 0 0 0 
0 0 0 0 0 0 0 0 0 
0 0 0 0 0 0 0 0 0 
0 0 0 0 0 0 0 0 0 
0 0 0 0 0 0 0 0 0 
0 0 0 0 0 0 0 0 0 
0 0 0 0 0 0 0 0 0 
0 0 0 0 0 0 0 0 0 
0 0 0 0 0 0 0 0 0 
0 0 0 0 0 0 0 0 0 
0 0 0 0 0 0 0 0 0 
0 0 0 0 0 0 0 0 0 
0 0 0 0 0 0 0 0 0 
0 0 0 0 0 0 0 0 0 
0 0 0 0 0 0 0 0 0 
0 0 0 0 0 0 0 0 0 
0 0 0 0 0 0 0 0 0 
0 0 0 0 0 0 0 0 0 
0 0 0 0 0 0 0 0 0 
0 0 0 0 0 0 0 0 0 
0 0 0 0 0 0 0 0 0 
0 0 0 0 0 0 0 0 0 
0 0 0 0 0 0 0 0 0 
0 0 0 0 0 0 0 0 0 
0 0 0 0 0 0 0 0 0 
0 0 0 0 0 0 0 0 0 
0 0 0 0 0 0 0 0 0 
0 0 0 0 0 0 0 0 0 
0 0 0 0 0 0 0 0 0 
0 0 0 0 0 0 0 0 0 
0 0 0 0 0 0 0 0 0 
0 0 0 0 0 0 0 0 0 
0 0 0 0 0 0 0 0 0 
0 0 0 0 0 0 0 0 0 
0 0 0 0 0 0 0 0 0 
0 0 0 0 0 0 0 0 0 
0 0 0 0 0 0 0 0 0 
0 0 0 0 0 0 0 0 0 
0 0 0 0 0 0 0 0 0 
0 0 0 0 0 0 0 0 0 
0 0 0 0 0 0 0 0 0 
0 0 0 0 0 0 0 0 0 
0 0 0 0 0 0 0 0 0 
0 0 0 0 0 0 0 0 0 
0 0 0 0 0 0 0 0 0 
0 0 0 0 0 0 0 0 0 
0 0 0 0 0 0 0 0 0 
0 0 0 0 0 0 0 0 0 
0 0 0 0 0 0 0 0 0 
0 0 0 0 0 0 0 0 0 
0 0 0 0 0 0 0 0 0 
0 0 0 0 0 0 0 0 0 
0 0 0 0 0 0 0 0 0 
0 0 0 0 0 0 0 0 0 
0 0 0 0 0 0 0 0 0 
0 0 0 0 0 0 0 0 0 
0 0 0 0 0 0 0 0 0 
0 0 0 0 0 0 0 0 0 
0 0 0 0 0 0 0 0 0 
0 0 0 0 0 0 0 0 0 
0 0 0 0 0 0 0 0 0 
0 0 0 0 0 0 0 0 0 
0 0 0 0 0 0 0 0 0 
0 0 0 0 0 0 0 0 0 
0 0 0 0 0 0 0 0 0 
0 0 0 0 0 0 0 0 0 
0 0 0 0 0 0 0 0 0 
0 0 0 0 0 0 0 0 0 
0 0 0 0 0 0 0 0 0 
0 0 0 0 0 0 0 0 0 
0 0 0 0 0 0 0 0 0 
0 0 0 0 0 0 0 0 0 
0 0 0 0 0 0 0 0 0 
0 0 0 0 0 0 0 0 0 
0 0 0 0 0 0 0 0 0 
0 0 0 0 0 0 0 0 0 
0 0 0 0 0 0 0 0 0 
0 0 0 0 0 0 0 0 0 
0 0 0 0 0 0 0 0 0 
0 0 0 0 0 0 0 0 0 
0 0 0 0 0 0 0 0 0 
0 0 0 0 0 0 0 0 0 
0 0 0 0 0 0 0 0 0 
0 0 0 0 0 0 0 0 0 
0 0 0 0 0 0 0 0 0 
0 0 0 0 0 0 0 0 0 
0 0 0 0 0 0 0 0 0 
0 0 0 0 0 0 0 0 0 
0 0 0 0 0 0 0 0 0 
0 0 0 0 0 0 0 0 0 
0 0 0 0 0 0 0 0 0 
0 0 0 0 0 0 0 0 0 
0 0 0 0 0 0 0 0 0 
0 0 0 0 0 0 0 0 0 
0 0 0 0 0 0 0 0 0 
0 0 0 0 0 0 0 0 0 
0 0 0 0 0 0 0 0 0 
0 0 0 0 0 0 0 0 0 
0 0 0 0 0 0 0 0 0 
0 0 0 0 0 0 0 0 0 
0 0 0 0 0 0 0 0 0 
0 0 0 0 0 0 0 0 0 
0 0 0 0 0 0 0 0 0 
0 0 0 0 0 0 0 0 0 
0 0 0 0 0 0 0 0 0 
0 0 0 0 0 0 0 0 0 
0 0 0 0 0 0 0 0 0 
0 0 0 0 0 0 0 0 0 
0 0 0 0 0 0 0 0 0 
0 0 0 0 0 0 0 0 0 
0 0 0 0 0 0 0 0 0 
0 0 0 0 0 0 0 0 0 
0 0 0 0 0 0 0 0 0 
0 0 0 0 0 0 0 0 0 
0 0 0 0 0 0 0 0 0 
0 0 0 0 0 0 0 0 0 
0 0 0 0 0 0 0 0 0 
0 0 0 0 0 0 0 0 0 
0 0 0 0 0 0 0 0 0 
0 0 0 0 0 0 0 0 0 
0 0 0 0 0 0 0 0 0 
0 0 0 0 0 0 0 0 0 
0 0 0 0 0 0 0 0 0 
0 0 0 0 0 0 0 0 0 
0 0 0 0 0 0 0 0 0 
0 0 0 0 0 0 0 0 0 
0 0 0 0 0 0 0 0 0 
0 0 0 0 0 0 0 0 0 
0 0 0 0 0 0 0 0 0 
0 0 0 0 0 0 0 0 0 
0 0 0 0 0 0 0 0 0 
0 0 0 0 0 0 0 0 0 
0 0 0 0 0 0 0 0 0 
0 0 0 0 0 0 0 0 0 
0 0 0 0 0 0 0 0 0 
0 0 0 0 0 0 0 0 0 
0 0 0 0 0 0 0 0 0 
0 0 0 0 0 0 0 0 0 
0 0 0 0 0 0 0 0 0 
0 0 0 0 0 0 0 0 0 
0 0 0 0 0 0 0 0 0 
0 0 0 0 0 0 0 0 0 
0 0 0 0 0 0 0 0 0 
0 0 0 0 0 0 0 0 0 
0 0 0 0 0 0 0 0 0 
0 0 0 0 0 0 0 0 0 
0 0 0 0 0 0 0 0 0 
0 0 0 0 0 0 0 0 0 
0 0 0 0 0 0 0 0 0 
0 0 0 0 0 0 0 0 0 
0 0 0 0 0 0 0 0 0 
0 0 0 0 0 0 0 0 0 
0 0 0 0 0 0 0 0 0 
0 0 0 0 0 0 0 0 0 
0 0 0 0 0 0 0 0 0 
0 0 0 0 0 0 0 0 0 
0 0 0 0 0 0 0 0 0 
0 0 0 0 0 0 0 0 0 
0 0 0 0 0 0 0 0 0 
0 0 0 0 0 0 0 0 0 
0 0 0 0 0 0 0 0 0 
0 0 0 0 0 0 0 0 0 
0 0 0 0 0 0 0 0 0 
0 0 0 0 0 0 0 0 0 
0 0 0 0 0 0 0 0 0 
0 0 0 0 0 0 0 0 0 
0 0 0 0 0 0 0 0 0 
0 0 0 0 0 0 0 0 0 
0 0 0 0 0 0 0 0 0 
0 0 0 0 0 0 0 0 0 
0 0 0 0 0 0 0 0 0 
0 0 0 0 0 0 0 0 0 
0 0 0 0 0 0 0 0 0 
0 0 0 0 0 0 0 0 0 
0 0 0 0 0 0 0 0 0 
0 0 0 0 0 0 0 0 0 
0 0 0 0 0 0 0 0 0 
0 0 0 0 0 0 0 0 0 
0 0 0 0 0 0 0 0 0 
0 0 0 0 0 0 0 0 0 
0 0 0 0 0 0 0 0 0 
0 0 0 0 0 0 0 0 0 
0 0 0 0 0 0 0 0 0 
0 0 0 0 0 0 0 0 0 
0 0 0 0 0 0 0 0 0 
0 0 0 0 0 0 0 0 0 
0 0 0 0 0 0 0 0 0 
0 0 0 0 0 0 0 0 0 
0 0 0 0 0 0 0 0 0 
0 0 0 0 0 0 0 0 0 
0 0 0 0 0 0 0 0 0 
0 0 0 0 0 0 0 0 0 
0 0 0 0 0 0 0 0 0 
0 0 0 0 0 0 0 0 0 
0 0 0 0 0 0 0 0 0 
0 0 0 0 0 0 0 0 0 
0 0 0 0 0 0 0 0 0 
0 0 0 0 0 0 0 0 0 
0 0 0 0 0 0 0 0 0 
0 0 0 0 0 0 0 0 0 
0 0 0 0 0 0 0 0 0 
0 0 0 0 0 0 0 0 0 
0 0 0 0 0 0 0 0 0 
0 0 0 0 0 0 0 0 0 
0 0 0 0 0 0 0 0 0 
0 0 0 0 0 0 0 0 0 
0 0 0 0 0 0 0 0 0 
0 0 0 0 0 0 0 0 0 
0 0 0 0 0 0 0 0 0 
0 0 0 0 0 0 0 0 0 
0 0 0 0 0 0 0 0 0 
0 0 0 0 0 0 0 0 0 
0 0 0 0 0 0 0 0 0 
0 0 0 0 0 0 0 0 0 
0 0 0 0 0 0 0 0 0 
0 0 0 0 0 0 0 0 0 
0 0 0 0 0 0 0 0 0 
0 0 0 0 0 0 0 0 0 
0 0 0 0 0 0 0 0 0 
0 0 0 0 0 0 0 0 0 
0 0 0 0 0 0 0 0 0 
0 0 0 0 0 0 0 0 0 
0 0 0 0 0 0 0 0 0 
0 0 0 0 0 0 0 0 0 
0 0 0 0 0 0 0 0 0 
0 0 0 0 0 0 0 0 0 
0 0 0 0 0 0 0 0 0 
0 0 0 0 0 0 0 0 0 
0 0 0 0 0 0 0 0 0 
0 0 0 0 0 0 0 0 0 
0 0 0 0 0 0 0 0 0 
0 0 0 0 0 0 0 0 0 
0 0 0 0 0 0 0 0 0 
0 0 0 0 0 0 0 0 0 
0 0 0 0 0 0 0 0 0 
0 0 0 0 0 0 0 0 0 
0 0 0 0 0 0 0 0 0 
0 0 0 0 0 0 0 0 0 
0 0 0 0 0 0 0 0 0 
0 0 0 0 0 0 0 0 0 
0 0 0 0 0 0 0 0 0 
0 0 0 0 0 0 0 0 0 
0 0 0 0 0 0 0 0 0 
0 0 0 0 0 0 0 0 0 
0 0 0 0 0 0 0 0 0 
0 0 0 0 0 0 0 0 0 
0 0 0 0 0 0 0 0 0 
0 0 0 0 0 0 0 0 0 
0 0 0 0 0 0 0 0 0 
0 0 0 0 0 0 0 0 0 
0 0 0 0 0 0 0 0 0 
0 0 0 0 0 0 0 0 0 
0 0 0 0 0 0 0 0 0 
0 0 0 0 0 0 0 0 0 
0 0 0 0 0 0 0 0 0 
0 0 0 0 0 0 0 0 0 
0 0 0 0 0 0 0 0 0 
0 0 0 0 0 0 0 0 0 
0 0 0 0 0 0 0 0 0 
0 0 0 0 0 0 0 0 0 
0 0 0 0 0 0 0 0 0 
0 0 0 0 0 0 0 0 0 
0 0 0 0 0 0 0 0 0 
0 0 0 0 0 0 0 0 0 
0 0 0 0 0 0 0 0 0 
0 0 0 0 0 0 0 0 0 
0 0 0 0 0 0 0 0 0 
0 0 0 0 0 0 0 0 0 
0 0 0 0 0 0 0 0 0 
0 0 0 0 0 0 0 0 0 
0 0 0 0 0 0 0 0 0 
0 0 0 0 0 0 0 0 0 
0 0 0 0 0 0 0 0 0 
0 0 0 0 0 0 0 0 0 
0 0 0 0 0 0 0 0 0 
0 0 0 0 0 0 0 0 0 
0 0 0 0 0 0 0 0 0 
0 0 0 0 0 0 0 0 0 
0 0 0 0 0 0 0 0 0 
0 0 0 0 0 0 0 0 0 
0 0 0 0 0 0 0 0 0 
0 0 0 0 0 0 0 0 0 
0 0 0 0 0 0 0 0 0 
0 0 0 0 0 0 0 0 0 
0 0 0 0 0 0 0 0 0 
0 0 0 0 0 0 0 0 0 
0 0 0 0 0 0 0 0 0 
0 0 0 0 0 0 0 0 0 
0 0 0 0 0 0 0 0 0 
0 0 0 0 0 0 0 0 0 
0 0 0 0 0 0 0 0 0 
0 0 0 0 0 0 0 0 0 
0 0 0 0 0 0 0 0 0 
0 0 0 0 0 0 0 0 0 
0 0 0 0 0 0 0 0 0 
0 0 0 0 0 0 0 0 0 
0 0 0 0 0 0 0 0 0 
0 0 0 0 0 0 0 0 0 
0 0 0 0 0 0 0 0 0 
0 0 0 0 0 0 0 0 0 
0 0 0 0 0 0 0 0 0 
0 0 0 0 0 0 0 0 0 
0 0 0 0 0 0 0 0 0 
0 0 0 0 0 0 0 0 0 
0 0 0 0 0 0 0 0 0 
0 0 0 0 0 0 0 0 0 
0 0 0 0 0 0 0 0 0 
0 0 0 0 0 0 0 0 0 
0 0 0 0 0 0 0 0 0 
0 0 0 0 0 0 0 0 0 
0 0 0 0 0 0 0 0 0 
0 0 0 0 0 0 0 0 0 
0 0 0 0 0 0 0 0 0 
0 0 0 0 0 0 0 0 0 
0 0 0 0 0 0 0 0 0 
0 0 0 0 0 0 0 0 0 
0 0 0 0 0 0 0 0 0 
0 0 0 0 0 0 0 0 0 
0 0 0 0 0 0 0 0 0 
0 0 0 0 0 0 0 0 0 
0 0 0 0 0 0 0 0 0 
0 0 0 0 0 0 0 0 0 
0 0 0 0 0 0 0 0 0 
0 0 0 0 0 0 0 0 0 
0 0 0 0 0 0 0 0 0 
0 0 0 0 0 0 0 0 0 
0 0 0 0 0 0 0 0 0 
0 0 0 0 0 0 0 0 0 
0 0 0 0 0 0 0 0 0 
0 0 0 0 0 0 0 0 0 
0 0 0 0 0 0 0 0 0 
0 0 0 0 0 0 0 0 0 
0 0 0 0 0 0 0 0 0 
0 0 0 0 0 0 0 0 0 
0 0 0 0 0 0 0 0 0 
0 0 0 0 0 0 0 0 0 
0 0 0 0 0 0 0 0 0 
0 0 0 0 0 0 0 0 0 
0 0 0 0 0 0 0 0 0 
0 0 0 0 0 0 0 0 0 
0 0 0 0 0 0 0 0 0 
0 0 0 0 0 0 0 0 0 
0 0 0 0 0 0 0 0 0 
0 0 0 0 0 0 0 0 0 
0 0 0 0 0 0 0 0 0 
0 0 0 0 0 0 0 0 0 
0 0 0 0 0 0 0 0 0 
0 0 0 0 0 0 0 0 0 
0 0 0 0 0 0 0 0 0 
0 0 0 0 0 0 0 0 0 
0 0 0 0 0 0 0 0 0 
0 0 0 0 0 0 0 0 0 
0 0 0 0 0 0 0 0 0 
0 0 0 0 0 0 0 0 0 
0 0 0 0 0 0 0 0 0 
0 0 0 0 0 0 0 0 0 
0 0 0 0 0 0 0 0 0 
0 0 0 0 0 0 0 0 0 
0 0 0 0 0 0 0 0 0 
0 0 0 0 0 0 0 0 0 
0 0 0 0 0 0 0 0 0 
0 0 0 0 0 0 0 0 0 
0 0 0 0 0 0 0 0 0 
0 0 0 0 0 0 0 0 0 
0 0 0 0 0 0 0 0 0 
0 0 0 0 0 0 0 0 0 
0 0 0 0 0 0 0 0 0 
0 0 0 0 0 0 0 0 0 
0 0 0 0 0 0 0 0 0 
0 0 0 0 0 0 0 0 0 
0 0 0 0 0 0 0 0 0 
0 0 0 0 0 0 0 0 0 
0 0 0 0 0 0 0 0 0 
0 0 0 0 0 0 0 0 0 
0 0 0 0 0 0 0 0 0 
0 0 0 0 0 0 0 0 0 
0 0 0 0 0 0 0 0 0 
0 0 0 0 0 0 0 0 0 
0 0 0 0 0 0 0 0 0 
0 0 0 0 0 0 0 0 0 
0 0 0 0 0 0 0 0 0 
0 0 0 0 0 0 0 0 0 
0 0 0 0 0 0 0 0 0 
0 0 0 0 0 0 0 0 0 
0 0 0 0 0 0 0 0 0 
0 0 0 0 0 0 0 0 0 
0 0 0 0 0 0 0 0 0 
0 0 0 0 0 0 0 0 0 
0 0 0 0 0 0 0 0 0 
0 0 0 0 0 0 0 0 0 
0 0 0 0 0 0 0 0 0 
0 0 0 0 0 0 0 0 0 
0 0 0 0 0 0 0 0 0 
0 0 0 0 0 0 0 0 0 
0 0 0 0 0 0 0 0 0 
0 0 0 0 0 0 0 0 0 
0 0 0 0 0 0 0 0 0 
0 0 0 0 0 0 0 0 0 
0 0 0 0 0 0 0 0 0 
0 0 0 0 0 0 0 0 0 
0 0 0 0 0 0 0 0 0 
0 0 0 0 0 0 0 0 0 
0 0 0 0 0 0 0 0 0 
0 0 0 0 0 0 0 0 0 
0 0 0 0 0 0 0 0 0 
0 0 0 0 0 0 0 0 0 
0 0 0 0 0 0 0 0 0 
0 0 0 0 0 0 0 0 0 
0 0 0 0 0 0 0 0 0 
0 0 0 0 0 0 0 0 0 
0 0 0 0 0 0 0 0 0 
0 0 0 0 0 0 0 0 0 
0 0 0 0 0 0 0 0 0 
0 0 0 0 0 0 0 0 0 
0 0 0 0 0 0 0 0 0 
0 0 0 0 0 0 0 0 0 
0 0 0 0 0 0 0 0 0 
0 0 0 0 0 0 0 0 0 
0 0 0 0 0 0 0 0 0 
0 0 0 0 0 0 0 0 0 
0 0 0 0 0 0 0 0 0 
0 0 0 0 0 0 0 0 0 
0 0 0 0 0 0 0 0 0 
0 0 0 0 0 0 0 0 0 
0 0 0 0 0 0 0 0 0 
0 0 0 0 0 0 0 0 0 
0 0 0 0 0 0 0 0 0 
0 0 0 0 0 0 0 0 0 
0 0 0 0 0 0 0 0 0 
0 0 0 0 0 0 0 0 0 
0 0 0 0 0 0 0 0 0 
0 0 0 0 0 0 0 0 0 
0 0 0 0 0 0 0 0 0 
0 0 0 0 0 0 0 0 0 
0 0 0 0 0 0 0 0 0 
0 0 0 0 0 0 0 0 0 
0 0 0 0 0 0 0 0 0 
0 0 0 0 0 0 0 0 0 
0 0 0 0 0 0 0 0 0 
0 0 0 0 0 0 0 0 0 
0 0 0 0 0 0 0 0 0 
0 0 0 0 0 0 0 0 0 
0 0 0 0 0 0 0 0 0 
0 0 0 0 0 0 0 0 0 
0 0 0 0 0 0 0 0 0 
0 0 0 0 0 0 0 0 0 
0 0 0 0 0 0 0 0 0 
0 0 0 0 0 0 0 0 0 
0 0 0 0 0 0 0 0 0 
0 0 0 0 0 0 0 0 0 
0 0 0 0 0 0 0 0 0 
0 0 0 0 0 0 0 0 0 
0 0 0 0 0 0 0 0 0 
0 0 0 0 0 0 0 0 0 
0 0 0 0 0 0 0 0 0 
0 0 0 0 0 0 0 0 0 
0 0 0 0 0 0 0 0 0 
0 0 0 0 0 0 0 0 0 
0 0 0 0 0 0 0 0 0 
0 0 0 0 0 0 0 0 0 
0 0 0 0 0 0 0 0 0 
0 0 0 0 0 0 0 0 0 
0 0 0 0 0 0 0 0 0 
0 0 0 0 0 0 0 0 0 
0 0 0 0 0 0 0 0 0 
0 0 0 0 0 0 0 0 0 
0 0 0 0 0 0 0 0 0 
0 0 0 0 0 0 0 0 0 
0 0 0 0 0 0 0 0 0 
0 0 0 0 0 0 0 0 0 
0 0 0 0 0 0 0 0 0 
0 0 0 0 0 0 0 0 0 
0 0 0 0 0 0 0 0 0 
0 0 0 0 0 0 0 0 0 
0 0 0 0 0 0 0 0 0 
0 0 0 0 0 0 0 0 0 
0 0 0 0 0 0 0 0 0 
0 0 0 0 0 0 0 0 0 
0 0 0 0 0 0 0 0 0 
0 0 0 0 0 0 0 0 0 
0 0 0 0 0 0 0 0 0 
0 0 0 0 0 0 0 0 0 
0 0 0 0 0 0 0 0 0 
0 0 0 0 0 0 0 0 0 
0 0 0 0 0 0 0 0 0 
0 0 0 0 0 0 0 0 0 
0 0 0 0 0 0 0 0 0 
0 0 0 0 0 0 0 0 0 
0 0 0 0 0 0 0 0 0 
0 0 0 0 0 0 0 0 0 
0 0 0 0 0 0 0 0 0 
0 0 0 0 0 0 0 0 0 
0 0 0 0 0 0 0 0 0 
0 0 0 0 0 0 0 0 0 
0 0 0 0 0 0 0 0 0 
0 0 0 0 0 0 0 0 0 
0 0 0 0 0 0 0 0 0 
0 0 0 0 0 0 0 0 0 
0 0 0 0 0 0 0 0 0 
0 0 0 0 0 0 0 0 0 
0 0 0 0 0 0 0 0 0 
0 0 0 0 0 0 0 0 0 
0 0 0 0 0 0 0 0 0 
0 0 0 0 0 0 0 0 0 
0 0 0 0 0 0 0 0 0 
0 0 0 0 0 0 0 0 0 
0 0 0 0 0 0 0 0 0 
0 0 0 0 0 0 0 0 0 
0 0 0 0 0 0 0 0 0 
0 0 0 0 0 0 0 0 0 
0 0 0 0 0 0 0 0 0 
0 0 0 0 0 0 0 0 0 
0 0 0 0 0 0 0 0 0 
0 0 0 0 0 0 0 0 0 
0 0 0 0 0 0 0 0 0 
0 0 0 0 0 0 0 0 0 
0 0 0 0 0 0 0 0 0 
0 0 0 0 0 0 0 0 0 
0 0 0 0 0 0 0 0 0 
0 0 0 0 0 0 0 0 0 
0 0 0 0 0 0 0 0 0 
0 0 0 0 0 0 0 0 0 
0 0 0 0 0 0 0 0 0 
0 0 0 0 0 0 0 0 0 
0 0 0 0 0 0 0 0 0 
0 0 0 0 0 0 0 0 0 
0 0 0 0 0 0 0 0 0 
0 0 0 0 0 0 0 0 0 
0 0 0 0 0 0 0 0 0 
0 0 0 0 0 0 0 0 0 
0 0 0 0 0 0 0 0 0 
0 0 0 0 0 0 0 0 0 
0 0 0 0 0 0 0 0 0 
0 0 0 0 0 0 0 0 0 
0 0 0 0 0 0 0 0 0 
0 0 0 0 0 0 0 0 0 
0 0 0 0 0 0 0 0 0 
0 0 0 0 0 0 0 0 0 
0 0 0 0 0 0 0 0 0 
0 0 0 0 0 0 0 0 0 
0 0 0 0 0 0 0 0 0 
0 0 0 0 0 0 0 0 0 
0 0 0 0 0 0 0 0 0 
0 0 0 0 0 0 0 0 0 
0 0 0 0 0 0 0 0 0 
0 0 0 0 0 0 0 0 0 
0 0 0 0 0 0 0 0 0 
0 0 0 0 0 0 0 0 0 
0 0 0 0 0 0 0 0 0 
0 0 0 0 0 0 0 0 0 
0 0 0 0 0 0 0 0 0 
0 0 0 0 0 0 0 0 0 
0 0 0 0 0 0 0 0 0 
0 0 0 0 0 0 0 0 0 
0 0 0 0 0 0 0 0 0 
0 0 0 0 0 0 0 0 0 
0 0 0 0 0 0 0 0 0 
0 0 0 0 0 0 0 0 0 
0 0 0 0 0 0 0 0 0 
0 0 0 0 0 0 0 0 0 
0 0 0 0 0 0 0 0 0 
0 0 0 0 0 0 0 0 0 
0 0 0 0 0 0 0 0 0 
0 0 0 0 0 0 0 0 0 
0 0 0 0 0 0 0 0 0 
0 0 0 0 0 0 0 0 0 
0 0 0 0 0 0 0 0 0 
0 0 0 0 0 0 0 0 0 
0 0 0 0 0 0 0 0 0 
0 0 0 0 0 0 0 0 0 
0 0 0 0 0 0 0 0 0 
0 0 0 0 0 0 0 0 0 
0 0 0 0 0 0 0 0 0 
0 0 0 0 0 0 0 0 0 
0 0 0 0 0 0 0 0 0 
0 0 0 0 0 0 0 0 0 
0 0 0 0 0 0 0 0 0 
0 0 0 0 0 0 0 0 0 
0 0 0 0 0 0 0 0 0 
0 0 0 0 0 0 0 0 0 
0 0 0 0 0 0 0 0 0 
0 0 0 0 0 0 0 0 0 
0 0 0 0 0 0 0 0 0 
0 0 0 0 0 0 0 0 0 
0 0 0 0 0 0 0 0 0 
0 0 0 0 0 0 0 0 0 
0 0 0 0 0 0 0 0 0 
0 0 0 0 0 0 0 0 0 
0 0 0 0 0 0 0 0 0 
0 0 0 0 0 0 0 0 0 
0 0 0 0 0 0 0 0 0 
0 0 0 0 0 0 0 0 0 
0 0 0 0 0 0 0 0 0 
0 0 0 0 0 0 0 0 0 
0 0 0 0 0 0 0 0 0 
0 0 0 0 0 0 0 0 0 
0 0 0 0 0 0 0 0 0 
0 0 0 0 0 0 0 0 0 
0 0 0 0 0 0 0 0 0 
0 0 0 0 0 0 0 0 0 
0 0 0 0 0 0 0 0 0 
0 0 0 0 0 0 0 0 0 
0 0 0 0 0 0 0 0 0 
0 0 0 0 0 0 0 0 0 
0 0 0 0 0 0 0 0 0 
0 0 0 0 0 0 0 0 0 
0 0 0 0 0 0 0 0 0 
0 0 0 0 0 0 0 0 0 
0 0 0 0 0 0 0 0 0 
0 0 0 0 0 0 0 0 0 
0 0 0 0 0 0 0 0 0 
0 0 0 0 0 0 0 0 0 
0 0 0 0 0 0 0 0 0 
0 0 0 0 0 0 0 0 0 
0 0 0 0 0 0 0 0 0 
0 0 0 0 0 0 0 0 0 
0 0 0 0 0 0 0 0 0 
0 0 0 0 0 0 0 0 0 
0 0 0 0 0 0 0 0 0 
0 0 0 0 0 0 0 0 0 
0 0 0 0 0 0 0 0 0 
0 0 0 0 0 0 0 0 0 
0 0 0 0 0 0 0 0 0 
0 0 0 0 0 0 0 0 0 
0 0 0 0 0 0 0 0 0 
0 0 0 0 0 0 0 0 0 
0 0 0 0 0 0 0 0 0 
0 0 0 0 0 0 0 0 0 
0 0 0 0 0 0 0 0 0 
0 0 0 0 0 0 0 0 0 
0 0 0 0 0 0 0 0 0 
0 0 0 0 0 0 0 0 0 
0 0 0 0 0 0 0 0 0 
0 0 0 0 0 0 0 0 0 
0 0 0 0 0 0 0 0 0 
0 0 0 0 0 0 0 0 0 
0 0 0 0 0 0 0 0 0 
0 0 0 0 0 0 0 0 0 
0 0 0 0 0 0 0 0 0 
0 0 0 0 0 0 0 0 0 
0 0 0 0 0 0 0 0 0 
0 0 0 0 0 0 0 0 0 
0 0 0 0 0 0 0 0 0 
0 0 0 0 0 0 0 0 0 
0 0 0 0 0 0 0 0 0 
0 0 0 0 0 0 0 0 0 
0 0 0 0 0 0 0 0 0 
0 0 0 0 0 0 0 0 0 
0 0 0 0 0 0 0 0 0 
0 0 0 0 0 0 0 0 0 
0 0 0 0 0 0 0 0 0 
0 0 0 0 0 0 0 0 0 
0 0 0 0 0 0 0 0 0 
0 0 0 0 0 0 0 0 0 
0 0 0 0 0 0 0 0 0 
0 0 0 0 0 0 0 0 0 
0 0 0 0 0 0 0 0 0 
0 0 0 0 0 0 0 0 0 
0 0 0 0 0 0 0 0 0 
0 0 0 0 0 0 0 0 0 
0 0 0 0 0 0 0 0 0 
0 0 0 0 0 0 0 0 0 
0 0 0 0 0 0 0 0 0 
0 0 0 0 0 0 0 0 0 
0 0 0 0 0 0 0 0 0 
0 0 0 0 0 0 0 0 0 
0 0 0 0 0 0 0 0 0 
0 0 0 0 0 0 0 0 0 
0 0 0 0 0 0 0 0 0 
0 0 0 0 0 0 0 0 0 
0 0 0 0 0 0 0 0 0 
0 0 0 0 0 0 0 0 0 
0 0 0 0 0 0 0 0 0 
0 0 0 0 0 0 0 0 0 
0 0 0 0 0 0 0 0 0 
0 0 0 0 0 0 0 0 0 
0 0 0 0 0 0 0 0 0 
0 0 0 0 0 0 0 0 0 
0 0 0 0 0 0 0 0 0 
0 0 0 0 0 0 0 0 0 
0 0 0 0 0 0 0 0 0 
0 0 0 0 0 0 0 0 0 
0 0 0 0 0 0 0 0 0 
0 0 0 0 0 0 0 0 0 
0 0 0 0 0 0 0 0 0 
0 0 0 0 0 0 0 0 0 
0 0 0 0 0 0 0 0 0 
0 0 0 0 0 0 0 0 0 
0 0 0 0 0 0 0 0 0 
0 0 0 0 0 0 0 0 0 
0 0 0 0 0 0 0 0 0 
0 0 0 0 0 0 0 0 0 
0 0 0 0 0 0 0 0 0 
0 0 0 0 0 0 0 0 0 
0 0 0 0 0 0 0 0 0 
0 0 0 0 0 0 0 0 0 
0 0 0 0 0 0 0 0 0 
0 0 0 0 0 0 0 0 0 
0 0 0 0 0 0 0 0 0 
0 0 0 0 0 0 0 0 0 
0 0 0 0 0 0 0 0 0 
0 0 0 0 0 0 0 0 0 
0 0 0 0 0 0 0 0 0 
0 0 0 0 0 0 0 0 0 
0 0 0 0 0 0 0 0 0 
0 0 0 0 0 0 0 0 0 
0 0 0 0 0 0 0 0 0 
0 0 0 0 0 0 0 0 0 
0 0 0 0 0 0 0 0 0 
0 0 0 0 0 0 0 0 0 
0 0 0 0 0 0 0 0 0 
0 0 0 0 0 0 0 0 0 
0 0 0 0 0 0 0 0 0 
0 0 0 0 0 0 0 0 0 
0 0 0 0 0 0 0 0 0 
0 0 0 0 0 0 0 0 0 
0 0 0 0 0 0 0 0 0 
0 0 0 0 0 0 0 0 0 
0 0 0 0 0 0 0 0 0 
0 0 0 0 0 0 0 0 0 
0 0 0 0 0 0 0 0 0 
0 0 0 0 0 0 0 0 0 
0 0 0 0 0 0 0 0 0 
0 0 0 0 0 0 0 0 0 
0 0 0 0 0 0 0 0 0 
0 0 0 0 0 0 0 0 0 
0 0 0 0 0 0 0 0 0 
0 0 0 0 0 0 0 0 0 
0 0 0 0 0 0 0 0 0 
0 0 0 0 0 0 0 0 0 
0 0 0 0 0 0 0 0 0 
0 0 0 0 0 0 0 0 0 
0 0 0 0 0 0 0 0 0 
0 0 0 0 0 0 0 0 0 
0 0 0 0 0 0 0 0 0 
0 0 0 0 0 0 0 0 0 
0 0 0 0 0 0 0 0 0 
0 0 0 0 0 0 0 0 0 
0 0 0 0 0 0 0 0 0 
0 0 0 0 0 0 0 0 0 
0 0 0 0 0 0 0 0 0 
0 0 0 0 0 0 0 0 0 
0 0 0 0 0 0 0 0 0 
0 0 0 0 0 0 0 0 0 
0 0 0 0 0 0 0 0 0 
0 0 0 0 0 0 0 0 0 
0 0 0 0 0 0 0 0 0 
0 0 0 0 0 0 0 0 0 
0 0 0 0 0 0 0 0 0 
0 0 0 0 0 0 0 0 0 
0 0 0 0 0 0 0 0 0 
0 0 0 0 0 0 0 0 0 
0 0 0 0 0 0 0 0 0 
0 0 0 0 0 0 0 0 0 
0 0 0 0 0 0 0 0 0 
0 0 0 0 0 0 0 0 0 
0 0 0 0 0 0 0 0 0 
0 0 0 0 0 0 0 0 0 
0 0 0 0 0 0 0 0 0 
0 0 0 0 0 0 0 0 0 
0 0 0 0 0 0 0 0 0 
0 0 0 0 0 0 0 0 0 
0 0 0 0 0 0 0 0 0 
0 0 0 0 0 0 0 0 0 
0 0 0 0 0 0 0 0 0 
0 0 0 0 0 0 0 0 0 
0 0 0 0 0 0 0 0 0 
0 0 0 0 0 0 0 0 0 
0 0 0 0 0 0 0 0 0 
0 0 0 0 0 0 0 0 0 
0 0 0 0 0 0 0 0 0 
0 0 0 0 0 0 0 0 0 
0 0 0 0 0 0 0 0 0 
0 0 0 0 0 0 0 0 0 
0 0 0 0 0 0 0 0 0 
0 0 0 0 0 0 0 0 0 
0 0 0 0 0 0 0 0 0 
0 0 0 0 0 0 0 0 0 
0 0 0 0 0 0 0 0 0 
0 0 0 0 0 0 0 0 0 
0 0 0 0 0 0 0 0 0 
0 0 0 0 0 0 0 0 0 
0 0 0 0 0 0 0 0 0 
0 0 0 0 0 0 0 0 0 
0 0 0 0 0 0 0 0 0 
0 0 0 0 0 0 0 0 0 
0 0 0 0 0 0 0 0 0 
0 0 0 0 0 0 0 0 0 
0 0 0 0 0 0 0 0 0 
0 0 0 0 0 0 0 0 0 
0 0 0 0 0 0 0 0 0 
0 0 0 0 0 0 0 0 0 
0 0 0 0 0 0 0 0 0 
0 0 0 0 0 0 0 0 0 
0 0 0 0 0 0 0 0 0 
0 0 0 0 0 0 0 0 0 
0 0 0 0 0 0 0 0 0 
0 0 0 0 0 0 0 0 0 
0 0 0 0 0 0 0 0 0 
0 0 0 0 0 0 0 0 0 
0 0 0 0 0 0 0 0 0 
0 0 0 0 0 0 0 0 0 
0 0 0 0 0 0 0 0 0 
0 0 0 0 0 0 0 0 0 
0 0 0 0 0 0 0 0 0 
0 0 0 0 0 0 0 0 0 
0 0 0 0 0 0 0 0 0 
0 0 0 0 0 0 0 0 0 
0 0 0 0 0 0 0 0 0 
0 0 0 0 0 0 0 0 0 
0 0 0 0 0 0 0 0 0 
0 0 0 0 0 0 0 0 0 
0 0 0 0 0 0 0 0 0 
0 0 0 0 0 0 0 0 0 
0 0 0 0 0 0 0 0 0 
0 0 0 0 0 0 0 0 0 
0 0 0 0 0 0 0 0 0 
0 0 0 0 0 0 0 0 0 
0 0 0 0 0 0 0 0 0 
0 0 0 0 0 0 0 0 0 
0 0 0 0 0 0 0 0 0 
0 0 0 0 0 0 0 0 0 
0 0 0 0 0 0 0 0 0 
0 0 0 0 0 0 0 0 0 
0 0 0 0 0 0 0 0 0 
0 0 0 0 0 0 0 0 0 
0 0 0 0 0 0 0 0 0 
0 0 0 0 0 0 0 0 0 
0 0 0 0 0 0 0 0 0 
0 0 0 0 0 0 0 0 0 
0 0 0 0 0 0 0 0 0 
0 0 0 0 0 0 0 0 0 
0 0 0 0 0 0 0 0 0 
0 0 0 0 0 0 0 0 0 
0 0 0 0 0 0 0 0 0 
0 0 0 0 0 0 0 0 0 
0 0 0 0 0 0 0 0 0 
0 0 0 0 0 0 0 0 0 
0 0 0 0 0 0 0 0 0 
0 0 0 0 0 0 0 0 0 
0 0 0 0 0 0 0 0 0 
0 0 0 0 0 0 0 0 0 
0 0 0 0 0 0 0 0 0 
0 0 0 0 0 0 0 0 0 
0 0 0 0 0 0 0 0 0 
0 0 0 0 0 0 0 0 0 
0 0 0 0 0 0 0 0 0 
0 0 0 0 0 0 0 0 0 
0 0 0 0 0 0 0 0 0 
0 0 0 0 0 0 0 0 0 
0 0 0 0 0 0 0 0 0 
0 0 0 0 0 0 0 0 0 
0 0 0 0 0 0 0 0 0 
0 0 0 0 0 0 0 0 0 
0 0 0 0 0 0 0 0 0 
0 0 0 0 0 0 0 0 0 
0 0 0 0 0 0 0 0 0 
0 0 0 0 0 0 0 0 0 
0 0 0 0 0 0 0 0 0 
0 0 0 0 0 0 0 0 0 
0 0 0 0 0 0 0 0 0 
0 0 0 0 0 0 0 0 0 
0 0 0 0 0 0 0 0 0 
0 0 0 0 0 0 0 0 0 
0 0 0 0 0 0 0 0 0 
0 0 0 0 0 0 0 0 0 
0 0 0 0 0 0 0 0 0 
0 0 0 0 0 0 0 0 0 
0 0 0 0 0 0 0 0 0 
0 0 0 0 0 0 0 0 0 
0 0 0 0 0 0 0 0 0 
0 0 0 0 0 0 0 0 0 
0 0 0 0 0 0 0 0 0 
0 0 0 0 0 0 0 0 0 
0 0 0 0 0 0 0 0 0 
0 0 0 0 0 0 0 0 0 
0 0 0 0 0 0 0 0 0 
0 0 0 0 0 0 0 0 0 
0 0 0 0 0 0 0 0 0 
0 0 0 0 0 0 0 0 0 
0 0 0 0 0 0 0 0 0 
0 0 0 0 0 0 0 0 0 
0 0 0 0 0 0 0 0 0 
0 0 0 0 0 0 0 0 0 
0 0 0 0 0 0 0 0 0 
0 0 0 0 0 0 0 0 0 
0 0 0 0 0 0 0 0 0 
0 0 0 0 0 0 0 0 0 
0 0 0 0 0 0 0 0 0 
0 0 0 0 0 0 0 0 0 
0 0 0 0 0 0 0 0 0 
0 0 0 0 0 0 0 0 0 
0 0 0 0 0 0 0 0 0 
0 0 0 0 0 0 0 0 0 
0 0 0 0 0 0 0 0 0 
0 0 0 0 0 0 0 0 0 
0 0 0 0 0 0 0 0 0 
0 0 0 0 0 0 0 0 0 
0 0 0 0 0 0 0 0 0 
0 0 0 0 0 0 0 0 0 
0 0 0 0 0 0 0 0 0 
0 0 0 0 0 0 0 0 0 
0 0 0 0 0 0 0 0 0 
0 0 0 0 0 0 0 0 0 
0 0 0 0 0 0 0 0 0 
0 0 0 0 0 0 0 0 0 
0 0 0 0 0 0 0 0 0 
0 0 0 0 0 0 0 0 0 
0 0 0 0 0 0 0 0 0 
0 0 0 0 0 0 0 0 0 
0 0 0 0 0 0 0 0 0 
0 0 0 0 0 0 0 0 0 
0 0 0 0 0 0 0 0 0 
0 0 0 0 0 0 0 0 0 
0 0 0 0 0 0 0 0 0 
0 0 0 0 0 0 0 0 0 
0 0 0 0 0 0 0 0 0 
0 0 0 0 0 0 0 0 0 
0 0 0 0 0 0 0 0 0 
0 0 0 0 0 0 0 0 0 
0 0 0 0 0 0 0 0 0 
0 0 0 0 0 0 0 0 0 
0 0 0 0 0 0 0 0 0 
0 0 0 0 0 0 0 0 0 
0 0 0 0 0 0 0 0 0 
0 0 0 0 0 0 0 0 0 
0 0 0 0 0 0 0 0 0 
0 0 0 0 0 0 0 0 0 
0 0 0 0 0 0 0 0 0 
0 0 0 0 0 0 0 0 0 
0 0 0 0 0 0 0 0 0 
0 0 0 0 0 0 0 0 0 
0 0 0 0 0 0 0 0 0 
0 0 0 0 0 0 0 0 0 
0 0 0 0 0 0 0 0 0 
0 0 0 0 0 0 0 0 0 
0 0 0 0 0 0 0 0 0 
0 0 0 0 0 0 0 0 0 
0 0 0 0 0 0 0 0 0 
0 0 0 0 0 0 0 0 0 
0 0 0 0 0 0 0 0 0 
0 0 0 0 0 0 0 0 0 
0 0 0 0 0 0 0 0 0 
0 0 0 0 0 0 0 0 0 
0 0 0 0 0 0 0 0 0 
0 0 0 0 0 0 0 0 0 
0 0 0 0 0 0 0 0 0 
0 0 0 0 0 0 0 0 0 
0 0 0 0 0 0 0 0 0 
0 0 0 0 0 0 0 0 0 
0 0 0 0 0 0 0 0 0 
0 0 0 0 0 0 0 0 0 
0 0 0 0 0 0 0 0 0 
0 0 0 0 0 0 0 0 0 
0 0 0 0 0 0 0 0 0 
0 0 0 0 0 0 0 0 0 
0 0 0 0 0 0 0 0 0 
0 0 0 0 0 0 0 0 0 
0 0 0 0 0 0 0 0 0 
0 0 0 0 0 0 0 0 0 
0 0 0 0 0 0 0 0 0 
0 0 0 0 0 0 0 0 0 
0 0 0 0 0 0 0 0 0 
0 0 0 0 0 0 0 0 0 
0 0 0 0 0 0 0 0 0 
0 0 0 0 0 0 0 0 0 
0 0 0 0 0 0 0 0 0 
0 0 0 0 0 0 0 0 0 
0 0 0 0 0 0 0 0 0 
0 0 0 0 0 0 0 0 0 
0 0 0 0 0 0 0 0 0 
0 0 0 0 0 0 0 0 0 
0 0 0 0 0 0 0 0 0 
0 0 0 0 0 0 0 0 0 
0 0 0 0 0 0 0 0 0 
0 0 0 0 0 0 0 0 0 
0 0 0 0 0 0 0 0 0 
0 0 0 0 0 0 0 0 0 
0 0 0 0 0 0 0 0 0 
0 0 0 0 0 0 0 0 0 
0 0 0 0 0 0 0 0 0 
0 0 0 0 0 0 0 0 0 
0 0 0 0 0 0 0 0 0 
0 0 0 0 0 0 0 0 0 
0 0 0 0 0 0 0 0 0 
0 0 0 0 0 0 0 0 0 
0 0 0 0 0 0 0 0 0 
0 0 0 0 0 0 0 0 0 
0 0 0 0 0 0 0 0 0 
0 0 0 0 0 0 0 0 0 
0 0 0 0 0 0 0 0 0 
0 0 0 0 0 0 0 0 0 
0 0 0 0 0 0 0 0 0 
0 0 0 0 0 0 0 0 0 
0 0 0 0 0 0 0 0 0 
0 0 0 0 0 0 0 0 0 
0 0 0 0 0 0 0 0 0 
0 0 0 0 0 0 0 0 0 
0 0 0 0 0 0 0 0 0 
0 0 0 0 0 0 0 0 0 
0 0 0 0 0 0 0 0 0 
0 0 0 0 0 0 0 0 0 
0 0 0 0 0 0 0 0 0 
0 0 0 0 0 0 0 0 0 
0 0 0 0 0 0 0 0 0 
0 0 0 0 0 0 0 0 0 
0 0 0 0 0 0 0 0 0 
0 0 0 0 0 0 0 0 0 
0 0 0 0 0 0 0 0 0 
0 0 0 0 0 0 0 0 0 
0 0 0 0 0 0 0 0 0 
0 0 0 0 0 0 0 0 0 
0 0 0 0 0 0 0 0 0 
0 0 0 0 0 0 0 0 0 
0 0 0 0 0 0 0 0 0 
0 0 0 0 0 0 0 0 0 
0 0 0 0 0 0 0 0 0 
0 0 0 0 0 0 0 0 0 
0 0 0 0 0 0 0 0 0 
0 0 0 0 0 0 0 0 0 
0 0 0 0 0 0 0 0 0 
0 0 0 0 0 0 0 0 0 
0 0 0 0 0 0 0 0 0 
0 0 0 0 0 0 0 0 0 
0 0 0 0 0 0 0 0 0 
0 0 0 0 0 0 0 0 0 
0 0 0 0 0 0 0 0 0 
0 0 0 0 0 0 0 0 0 
0 0 0 0 0 0 0 0 0 
0 0 0 0 0 0 0 0 0 
0 0 0 0 0 0 0 0 0 
0 0 0 0 0 0 0 0 0 
0 0 0 0 0 0 0 0 0 
0 0 0 0 0 0 0 0 0 
0 0 0 0 0 0 0 0 0 
0 0 0 0 0 0 0 0 0 
0 0 0 0 0 0 0 0 0 
0 0 0 0 0 0 0 0 0 
0 0 0 0 0 0 0 0 0 
0 0 0 0 0 0 0 0 0 
0 0 0 0 0 0 0 0 0 
0 0 0 0 0 0 0 0 0 
0 0 0 0 0 0 0 0 0 
0 0 0 0 0 0 0 0 0 
0 0 0 0 0 0 0 0 0 
0 0 0 0 0 0 0 0 0 
0 0 0 0 0 0 0 0 0 
0 0 0 0 0 0 0 0 0 
0 0 0 0 0 0 0 0 0 
0 0 0 0 0 0 0 0 0 
0 0 0 0 0 0 0 0 0 
0 0 0 0 0 0 0 0 0 
0 0 0 0 0 0 0 0 0 
0 0 0 0 0 0 0 0 0 
0 0 0 0 0 0 0 0 0 
0 0 0 0 0 0 0 0 0 
0 0 0 0 0 0 0 0 0 
0 0 0 0 0 0 0 0 0 
0 0 0 0 0 0 0 0 0 
0 0 0 0 0 0 0 0 0 
0 0 0 0 0 0 0 0 0 
0 0 0 0 0 0 0 0 0 
0 0 0 0 0 0 0 0 0 
0 0 0 0 0 0 0 0 0 
0 0 0 0 0 0 0 0 0 
0 0 0 0 0 0 0 0 0 
0 0 0 0 0 0 0 0 0 
0 0 0 0 0 0 0 0 0 
0 0 0 0 0 0 0 0 0 
0 0 0 0 0 0 0 0 0 
0 0 0 0 0 0 0 0 0 
0 0 0 0 0 0 0 0 0 
0 0 0 0 0 0 0 0 0 
0 0 0 0 0 0 0 0 0 
0 0 0 0 0 0 0 0 0 
0 0 0 0 0 0 0 0 0 
0 0 0 0 0 0 0 0 0 
0 0 0 0 0 0 0 0 0 
0 0 0 0 0 0 0 0 0 
0 0 0 0 0 0 0 0 0 
0 0 0 0 0 0 0 0 0 
0 0 0 0 0 0 0 0 0 
0 0 0 0 0 0 0 0 0 
0 0 0 0 0 0 0 0 0 
0 0 0 0 0 0 0 0 0 
0 0 0 0 0 0 0 0 0 
0 0 0 0 0 0 0 0 0 
0 0 0 0 0 0 0 0 0 
0 0 0 0 0 0 0 0 0 
0 0 0 0 0 0 0 0 0 
0 0 0 0 0 0 0 0 0 
0 0 0 0 0 0 0 0 0 
0 0 0 0 0 0 0 0 0 
0 0 0 0 0 0 0 0 0 
0 0 0 0 0 0 0 0 0 
0 0 0 0 0 0 0 0 0 
0 0 0 0 0 0 0 0 0 
0 0 0 0 0 0 0 0 0 
0 0 0 0 0 0 0 0 0 
0 0 0 0 0 0 0 0 0 
0 0 0 0 0 0 0 0 0 
0 0 0 0 0 0 0 0 0 
0 0 0 0 0 0 0 0 0 
0 0 0 0 0 0 0 0 0 
0 0 0 0 0 0 0 0 0 
0 0 0 0 0 0 0 0 0 
0 0 0 0 0 0 0 0 0 
0 0 0 0 0 0 0 0 0 
0 0 0 0 0 0 0 0 0 
0 0 0 0 0 0 0 0 0 
0 0 0 0 0 0 0 0 0 
0 0 0 0 0 0 0 0 0 
0 0 0 0 0 0 0 0 0 
0 0 0 0 0 0 0 0 0 
0 0 0 0 0 0 0 0 0 
0 0 0 0 0 0 0 0 0 
0 0 0 0 0 0 0 0 0 
0 0 0 0 0 0 0 0 0 
0 0 0 0 0 0 0 0 0 
0 0 0 0 0 0 0 0 0 
0 0 0 0 0 0 0 0 0 
0 0 0 0 0 0 0 0 0 
0 0 0 0 0 0 0 0 0 
0 0 0 0 0 0 0 0 0 
0 0 0 0 0 0 0 0 0 
0 0 0 0 0 0 0 0 0 
0 0 0 0 0 0 0 0 0 
0 0 0 0 0 0 0 0 0 
0 0 0 0 0 0 0 0 0 
0 0 0 0 0 0 0 0 0 
0 0 0 0 0 0 0 0 0 
0 0 0 0 0 0 0 0 0 
0 0 0 0 0 0 0 0 0 
0 0 0 0 0 0 0 0 0 
0 0 0 0 0 0 0 0 0 
0 0 0 0 0 0 0 0 0 
0 0 0 0 0 0 0 0 0 
0 0 0 0 0 0 0 0 0 
0 0 0 0 0 0 0 0 0 
0 0 0 0 0 0 0 0 0 
0 0 0 0 0 0 0 0 0 
0 0 0 0 0 0 0 0 0 
0 0 0 0 0 0 0 0 0 
0 0 0 0 0 0 0 0 0 
0 0 0 0 0 0 0 0 0 
0 0 0 0 0 0 0 0 0 
0 0 0 0 0 0 0 0 0 
0 0 0 0 0 0 0 0 0 
0 0 0 0 0 0 0 0 0 
0 0 0 0 0 0 0 0 0 
0 0 0 0 0 0 0 0 0 
0 0 0 0 0 0 0 0 0 
0 0 0 0 0 0 0 0 0 
0 0 0 0 0 0 0 0 0 
0 0 0 0 0 0 0 0 0 
0 0 0 0 0 0 0 0 0 
0 0 0 0 0 0 0 0 0 
0 0 0 0 0 0 0 0 0 
0 0 0 0 0 0 0 0 0 
0 0 0 0 0 0 0 0 0 
0 0 0 0 0 0 0 0 0 
0 0 0 0 0 0 0 0 0 
0 0 0 0 0 0 0 0 0 
0 0 0 0 0 0 0 0 0 
0 0 0 0 0 0 0 0 0 
0 0 0 0 0 0 0 0 0 
0 0 0 0 0 0 0 0 0 
0 0 0 0 0 0 0 0 0 
0 0 0 0 0 0 0 0 0 
0 0 0 0 0 0 0 0 0 
0 0 0 0 0 0 0 0 0 
0 0 0 0 0 0 0 0 0 
0 0 0 0 0 0 0 0 0 
0 0 0 0 0 0 0 0 0 
0 0 0 0 0 0 0 0 0 
0 0 0 0 0 0 0 0 0 
0 0 0 0 0 0 0 0 0 
0 0 0 0 0 0 0 0 0 
0 0 0 0 0 0 0 0 0 
0 0 0 0 0 0 0 0 0 
0 0 0 0 0 0 0 0 0 
0 0 0 0 0 0 0 0 0 
0 0 0 0 0 0 0 0 0 
0 0 0 0 0 0 0 0 0 
0 0 0 0 0 0 0 0 0 
0 0 0 0 0 0 0 0 0 
0 0 0 0 0 0 0 0 0 
0 0 0 0 0 0 0 0 0 
0 0 0 0 0 0 0 0 0 
0 0 0 0 0 0 0 0 0 
0 0 0 0 0 0 0 0 0 
0 0 0 0 0 0 0 0 0 
0 0 0 0 0 0 0 0 0 
0 0 0 0 0 0 0 0 0 
0 0 0 0 0 0 0 0 0 
0 0 0 0 0 0 0 0 0 
0 0 0 0 0 0 0 0 0 
0 0 0 0 0 0 0 0 0 
0 0 0 0 0 0 0 0 0 
0 0 0 0 0 0 0 0 0 
0 0 0 0 0 0 0 0 0 
0 0 0 0 0 0 0 0 0 
0 0 0 0 0 0 0 0 0 
0 0 0 0 0 0 0 0 0 
0 0 0 0 0 0 0 0 0 
0 0 0 0 0 0 0 0 0 
0 0 0 0 0 0 0 0 0 
0 0 0 0 0 0 0 0 0 
0 0 0 0 0 0 0 0 0 
0 0 0 0 0 0 0 0 0 
0 0 0 0 0 0 0 0 0 
0 0 0 0 0 0 0 0 0 
0 0 0 0 0 0 0 0 0 
0 0 0 0 0 0 0 0 0 
0 0 0 0 0 0 0 0 0 
0 0 0 0 0 0 0 0 0 
0 0 0 0 0 0 0 0 0 
0 0 0 0 0 0 0 0 0 
0 0 0 0 0 0 0 0 0 
0 0 0 0 0 0 0 0 0 
0 0 0 0 0 0 0 0 0 
0 0 0 0 0 0 0 0 0 
0 0 0 0 0 0 0 0 0 
0 0 0 0 0 0 0 0 0 
0 0 0 0 0 0 0 0 0 
0 0 0 0 0 0 0 0 0 
0 0 0 0 0 0 0 0 0 
0 0 0 0 0 0 0 0 0 
0 0 0 0 0 0 0 0 0 
0 0 0 0 0 0 0 0 0 
0 0 0 0 0 0 0 0 0 
0 0 0 0 0 0 0 0 0 
0 0 0 0 0 0 0 0 0 
0 0 0 0 0 0 0 0 0 
0 0 0 0 0 0 0 0 0 
0 0 0 0 0 0 0 0 0 
0 0 0 0 0 0 0 0 0 
0 0 0 0 0 0 0 0 0 
0 0 0 0 0 0 0 0 0 
0 0 0 0 0 0 0 0 0 
0 0 0 0 0 0 0 0 0 
0 0 0 0 0 0 0 0 0 
0 0 0 0 0 0 0 0 0 
0 0 0 0 0 0 0 0 0 
0 0 0 0 0 0 0 0 0 
0 0 0 0 0 0 0 0 0 
0 0 0 0 0 0 0 0 0 
0 0 0 0 0 0 0 0 0 
0 0 0 0 0 0 0 0 0 
0 0 0 0 0 0 0 0 0 
0 0 0 0 0 0 0 0 0 
0 0 0 0 0 0 0 0 0 
0 0 0 0 0 0 0 0 0 
0 0 0 0 0 0 0 0 0 
0 0 0 0 0 0 0 0 0 
0 0 0 0 0 0 0 0 0 
0 0 0 0 0 0 0 0 0 
0 0 0 0 0 0 0 0 0 
0 0 0 0 0 0 0 0 0 
0 0 0 0 0 0 0 0 0 
0 0 0 0 0 0 0 0 0 
0 0 0 0 0 0 0 0 0 
0 0 0 0 0 0 0 0 0 
0 0 0 0 0 0 0 0 0 
0 0 0 0 0 0 0 0 0 
0 0 0 0 0 0 0 0 0 
0 0 0 0 0 0 0 0 0 
0 0 0 0 0 0 0 0 0 
0 0 0 0 0 0 0 0 0 
0 0 0 0 0 0 0 0 0 
0 0 0 0 0 0 0 0 0 
0 0 0 0 0 0 0 0 0 
0 0 0 0 0 0 0 0 0 
0 0 0 0 0 0 0 0 0 
0 0 0 0 0 0 0 0 0 
0 0 0 0 0 0 0 0 0 
0 0 0 0 0 0 0 0 0 
0 0 0 0 0 0 0 0 0 
0 0 0 0 0 0 0 0 0 
0 0 0 0 0 0 0 0 0 
0 0 0 0 0 0 0 0 0 
0 0 0 0 0 0 0 0 0 
0 0 0 0 0 0 0 0 0 
0 0 0 0 0 0 0 0 0 
0 0 0 0 0 0 0 0 0 
0 0 0 0 0 0 0 0 0 
0 0 0 0 0 0 0 0 0 
0 0 0 0 0 0 0 0 0 
0 0 0 0 0 0 0 0 0 
0 0 0 0 0 0 0 0 0 
0 0 0 0 0 0 0 0 0 
0 0 0 0 0 0 0 0 0 
0 0 0 0 0 0 0 0 0 
0 0 0 0 0 0 0 0 0 
0 0 0 0 0 0 0 0 0 
0 0 0 0 0 0 0 0 0 
0 0 0 0 0 0 0 0 0 
0 0 0 0 0 0 0 0 0 
0 0 0 0 0 0 0 0 0 
0 0 0 0 0 0 0 0 0 
0 0 0 0 0 0 0 0 0 
0 0 0 0 0 0 0 0 0 
0 0 0 0 0 0 0 0 0 
0 0 0 0 0 0 0 0 0 
0 0 0 0 0 0 0 0 0 
0 0 0 0 0 0 0 0 0 
0 0 0 0 0 0 0 0 0 
0 0 0 0 0 0 0 0 0 
0 0 0 0 0 0 0 0 0 
0 0 0 0 0 0 0 0 0 
0 0 0 0 0 0 0 0 0 
0 0 0 0 0 0 0 0 0 
0 0 0 0 0 0 0 0 0 
0 0 0 0 0 0 0 0 0 
0 0 0 0 0 0 0 0 0 
0 0 0 0 0 0 0 0 0 
0 0 0 0 0 0 0 0 0 
0 0 0 0 0 0 0 0 0 
0 0 0 0 0 0 0 0 0 
0 0 0 0 0 0 0 0 0 
0 0 0 0 0 0 0 0 0 
0 0 0 0 0 0 0 0 0 
0 0 0 0 0 0 0 0 0 
0 0 0 0 0 0 0 0 0 
0 0 0 0 0 0 0 0 0 
0 0 0 0 0 0 0 0 0 
0 0 0 0 0 0 0 0 0 
0 0 0 0 0 0 0 0 0 
0 0 0 0 0 0 0 0 0 
0 0 0 0 0 0 0 0 0 
0 0 0 0 0 0 0 0 0 
0 0 0 0 0 0 0 0 0 
0 0 0 0 0 0 0 0 0 
0 0 0 0 0 0 0 0 0 
0 0 0 0 0 0 0 0 0 
0 0 0 0 0 0 0 0 0 
0 0 0 0 0 0 0 0 0 
0 0 0 0 0 0 0 0 0 
0 0 0 0 0 0 0 0 0 
0 0 0 0 0 0 0 0 0 
0 0 0 0 0 0 0 0 0 
0 0 0 0 0 0 0 0 0 
0 0 0 0 0 0 0 0 0 
0 0 0 0 0 0 0 0 0 
0 0 0 0 0 0 0 0 0 
0 0 0 0 0 0 0 0 0 
0 0 0 0 0 0 0 0 0 
0 0 0 0 0 0 0 0 0 
0 0 0 0 0 0 0 0 0 
0 0 0 0 0 0 0 0 0 
0 0 0 0 0 0 0 0 0 
0 0 0 0 0 0 0 0 0 
0 0 0 0 0 0 0 0 0 
0 0 0 0 0 0 0 0 0 
0 0 0 0 0 0 0 0 0 
0 0 0 0 0 0 0 0 0 
0 0 0 0 0 0 0 0 0 
0 0 0 0 0 0 0 0 0 
0 0 0 0 0 0 0 0 0 
0 0 0 0 0 0 0 0 0 
0 0 0 0 0 0 0 0 0 
0 0 0 0 0 0 0 0 0 
0 0 0 0 0 0 0 0 0 
0 0 0 0 0 0 0 0 0 
0 0 0 0 0 0 0 0 0 
0 0 0 0 0 0 0 0 0 
0 0 0 0 0 0 0 0 0 
0 0 0 0 0 0 0 0 0 
0 0 0 0 0 0 0 0 0 
0 0 0 0 0 0 0 0 0 
0 0 0 0 0 0 0 0 0 
0 0 0 0 0 0 0 0 0 
0 0 0 0 0 0 0 0 0 
0 0 0 0 0 0 0 0 0 
0 0 0 0 0 0 0 0 0 
0 0 0 0 0 0 0 0 0 
0 0 0 0 0 0 0 0 0 
0 0 0 0 0 0 0 0 0 
0 0 0 0 0 0 0 0 0 
0 0 0 0 0 0 0 0 0 
0 0 0 0 0 0 0 0 0 
0 0 0 0 0 0 0 0 0 
0 0 0 0 0 0 0 0 0 
0 0 0 0 0 0 0 0 0 
0 0 0 0 0 0 0 0 0 
0 0 0 0 0 0 0 0 0 
0 0 0 0 0 0 0 0 0 
0 0 0 0 0 0 0 0 0 
0 0 0 0 0 0 0 0 0 
0 0 0 0 0 0 0 0 0 
0 0 0 0 0 0 0 0 0 
0 0 0 0 0 0 0 0 0 
0 0 0 0 0 0 0 0 0 
0 0 0 0 0 0 0 0 0 
0 0 0 0 0 0 0 0 0 
0 0 0 0 0 0 0 0 0 
0 0 0 0 0 0 0 0 0 
0 0 0 0 0 0 0 0 0 
0 0 0 0 0 0 0 0 0 
0 0 0 0 0 0 0 0 0 
0 0 0 0 0 0 0 0 0 
0 0 0 0 0 0 0 0 0 
0 0 0 0 0 0 0 0 0 
0 0 0 0 0 0 0 0 0 
0 0 0 0 0 0 0 0 0 
0 0 0 0 0 0 0 0 0 
0 0 0 0 0 0 0 0 0 
0 0 0 0 0 0 0 0 0 
0 0 0 0 0 0 0 0 0 
0 0 0 0 0 0 0 0 0 
0 0 0 0 0 0 0 0 0 
0 0 0 0 0 0 0 0 0 
0 0 0 0 0 0 0 0 0 
0 0 0 0 0 0 0 0 0 
0 0 0 0 0 0 0 0 0 
0 0 0 0 0 0 0 0 0 
0 0 0 0 0 0 0 0 0 
0 0 0 0 0 0 0 0 0 
0 0 0 0 0 0 0 0 0 
0 0 0 0 0 0 0 0 0 
0 0 0 0 0 0 0 0 0 
0 0 0 0 0 0 0 0 0 
0 0 0 0 0 0 0 0 0 
0 0 0 0 0 0 0 0 0 
0 0 0 0 0 0 0 0 0 
0 0 0 0 0 0 0 0 0 
0 0 0 0 0 0 0 0 0 
0 0 0 0 0 0 0 0 0 
0 0 0 0 0 0 0 0 0 
0 0 0 0 0 0 0 0 0 
0 0 0 0 0 0 0 0 0 
0 0 0 0 0 0 0 0 0 
0 0 0 0 0 0 0 0 0 
0 0 0 0 0 0 0 0 0 
0 0 0 0 0 0 0 0 0 
0 0 0 0 0 0 0 0 0 
0 0 0 0 0 0 0 0 0 
0 0 0 0 0 0 0 0 0 
0 0 0 0 0 0 0 0 0 
0 0 0 0 0 0 0 0 0 
0 0 0 0 0 0 0 0 0 
0 0 0 0 0 0 0 0 0 
0 0 0 0 0 0 0 0 0 
0 0 0 0 0 0 0 0 0 
0 0 0 0 0 0 0 0 0 
0 0 0 0 0 0 0 0 0 
0 0 0 0 0 0 0 0 0 
0 0 0 0 0 0 0 0 0 
0 0 0 0 0 0 0 0 0 
0 0 0 0 0 0 0 0 0 
0 0 0 0 0 0 0 0 0 
0 0 0 0 0 0 0 0 0 
0 0 0 0 0 0 0 0 0 
0 0 0 0 0 0 0 0 0 
0 0 0 0 0 0 0 0 0 
0 0 0 0 0 0 0 0 0 
0 0 0 0 0 0 0 0 0 
0 0 0 0 0 0 0 0 0 
0 0 0 0 0 0 0 0 0 
0 0 0 0 0 0 0 0 0 
0 0 0 0 0 0 0 0 0 
0 0 0 0 0 0 0 0 0 
0 0 0 0 0 0 0 0 0 
0 0 0 0 0 0 0 0 0 
0 0 0 0 0 0 0 0 0 
0 0 0 0 0 0 0 0 0 
0 0 0 0 0 0 0 0 0 
0 0 0 0 0 0 0 0 0 
0 0 0 0 0 0 0 0 0 
0 0 0 0 0 0 0 0 0 
0 0 0 0 0 0 0 0 0 
0 0 0 0 0 0 0 0 0 
0 0 0 0 0 0 0 0 0 
0 0 0 0 0 0 0 0 0 
0 0 0 0 0 0 0 0 0 
0 0 0 0 0 0 0 0 0 
0 0 0 0 0 0 0 0 0 
0 0 0 0 0 0 0 0 0 
0 0 0 0 0 0 0 0 0 
0 0 0 0 0 0 0 0 0 
0 0 0 0 0 0 0 0 0 
0 0 0 0 0 0 0 0 0 
0 0 0 0 0 0 0 0 0 
0 0 0 0 0 0 0 0 0 
0 0 0 0 0 0 0 0 0 
0 0 0 0 0 0 0 0 0 
0 0 0 0 0 0 0 0 0 
0 0 0 0 0 0 0 0 0 
0 0 0 0 0 0 0 0 0 
0 0 0 0 0 0 0 0 0 
0 0 0 0 0 0 0 0 0 
0 0 0 0 0 0 0 0 0 
0 0 0 0 0 0 0 0 0 
0 0 0 0 0 0 0 0 0 
0 0 0 0 0 0 0 0 0 
0 0 0 0 0 0 0 0 0 
0 0 0 0 0 0 0 0 0 
0 0 0 0 0 0 0 0 0 
0 0 0 0 0 0 0 0 0 
0 0 0 0 0 0 0 0 0 
0 0 0 0 0 0 0 0 0 
0 0 0 0 0 0 0 0 0 
0 0 0 0 0 0 0 0 0 
0 0 0 0 0 0 0 0 0 
0 0 0 0 0 0 0 0 0 
0 0 0 0 0 0 0 0 0 
0 0 0 0 0 0 0 0 0 
0 0 0 0 0 0 0 0 0 
0 0 0 0 0 0 0 0 0 
0 0 0 0 0 0 0 0 0 
0 0 0 0 0 0 0 0 0 
0 0 0 0 0 0 0 0 0 
0 0 0 0 0 0 0 0 0 
0 0 0 0 0 0 0 0 0 
0 0 0 0 0 0 0 0 0 
0 0 0 0 0 0 0 0 0 
0 0 0 0 0 0 0 0 0 
0 0 0 0 0 0 0 0 0 
0 0 0 0 0 0 0 0 0 
0 0 0 0 0 0 0 0 0 
0 0 0 0 0 0 0 0 0 
0 0 0 0 0 0 0 0 0 
0 0 0 0 0 0 0 0 0 
0 0 0 0 0 0 0 0 0 
0 0 0 0 0 0 0 0 0 
0 0 0 0 0 0 0 0 0 
0 0 0 0 0 0 0 0 0 
0 0 0 0 0 0 0 0 0 
0 0 0 0 0 0 0 0 0 
0 0 0 0 0 0 0 0 0 
0 0 0 0 0 0 0 0 0 
0 0 0 0 0 0 0 0 0 
0 0 0 0 0 0 0 0 0 
0 0 0 0 0 0 0 0 0 
0 0 0 0 0 0 0 0 0 
0 0 0 0 0 0 0 0 0 
0 0 0 0 0 0 0 0 0 
0 0 0 0 0 0 0 0 0 
0 0 0 0 0 0 0 0 0 
0 0 0 0 0 0 0 0 0 
0 0 0 0 0 0 0 0 0 
0 0 0 0 0 0 0 0 0 
0 0 0 0 0 0 0 0 0 
0 0 0 0 0 0 0 0 0 
0 0 0 0 0 0 0 0 0 
0 0 0 0 0 0 0 0 0 
0 0 0 0 0 0 0 0 0 
0 0 0 0 0 0 0 0 0 
0 0 0 0 0 0 0 0 0 
0 0 0 0 0 0 0 0 0 
0 0 0 0 0 0 0 0 0 
0 0 0 0 0 0 0 0 0 
0 0 0 0 0 0 0 0 0 
0 0 0 0 0 0 0 0 0 
0 0 0 0 0 0 0 0 0 
0 0 0 0 0 0 0 0 0 
0 0 0 0 0 0 0 0 0 
0 0 0 0 0 0 0 0 0 
0 0 0 0 0 0 0 0 0 
0 0 0 0 0 0 0 0 0 
0 0 0 0 0 0 0 0 0 
0 0 0 0 0 0 0 0 0 
0 0 0 0 0 0 0 0 0 
0 0 0 0 0 0 0 0 0 
0 0 0 0 0 0 0 0 0 
0 0 0 0 0 0 0 0 0 
0 0 0 0 0 0 0 0 0 
0 0 0 0 0 0 0 0 0 
0 0 0 0 0 0 0 0 0 
0 0 0 0 0 0 0 0 0 
0 0 0 0 0 0 0 0 0 
0 0 0 0 0 0 0 0 0 
0 0 0 0 0 0 0 0 0 
0 0 0 0 0 0 0 0 0 
0 0 0 0 0 0 0 0 0 
0 0 0 0 0 0 0 0 0 
0 0 0 0 0 0 0 0 0 
0 0 0 0 0 0 0 0 0 
0 0 0 0 0 0 0 0 0 
0 0 0 0 0 0 0 0 0 
0 0 0 0 0 0 0 0 0 
0 0 0 0 0 0 0 0 0 
0 0 0 0 0 0 0 0 0 
0 0 0 0 0 0 0 0 0 
0 0 0 0 0 0 0 0 0 
0 0 0 0 0 0 0 0 0 
0 0 0 0 0 0 0 0 0 
0 0 0 0 0 0 0 0 0 
0 0 0 0 0 0 0 0 0 
0 0 0 0 0 0 0 0 0 
0 0 0 0 0 0 0 0 0 
0 0 0 0 0 0 0 0 0 
0 0 0 0 0 0 0 0 0 
0 0 0 0 0 0 0 0 0 
0 0 0 0 0 0 0 0 0 
0 0 0 0 0 0 0 0 0 
0 0 0 0 0 0 0 0 0 
0 0 0 0 0 0 0 0 0 
0 0 0 0 0 0 0 0 0 
0 0 0 0 0 0 0 0 0 
0 0 0 0 0 0 0 0 0 
0 0 0 0 0 0 0 0 0 
0 0 0 0 0 0 0 0 0 
0 0 0 0 0 0 0 0 0 
0 0 0 0 0 0 0 0 0 
0 0 0 0 0 0 0 0 0 
0 0 0 0 0 0 0 0 0 
0 0 0 0 0 0 0 0 0 
0 0 0 0 0 0 0 0 0 
0 0 0 0 0 0 0 0 0 
0 0 0 0 0 0 0 0 0 
0 0 0 0 0 0 0 0 0 
0 0 0 0 0 0 0 0 0 
0 0 0 0 0 0 0 0 0 
0 0 0 0 0 0 0 0 0 
0 0 0 0 0 0 0 0 0 
0 0 0 0 0 0 0 0 0 
0 0 0 0 0 0 0 0 0 
0 0 0 0 0 0 0 0 0 
0 0 0 0 0 0 0 0 0 
0 0 0 0 0 0 0 0 0 
0 0 0 0 0 0 0 0 0 
0 0 0 0 0 0 0 0 0 
0 0 0 0 0 0 0 0 0 
0 0 0 0 0 0 0 0 0 
0 0 0 0 0 0 0 0 0 
0 0 0 0 0 0 0 0 0 
0 0 0 0 0 0 0 0 0 
0 0 0 0 0 0 0 0 0 
0 0 0 0 0 0 0 0 0 
0 0 0 0 0 0 0 0 0 
0 0 0 0 0 0 0 0 0 
0 0 0 0 0 0 0 0 0 
0 0 0 0 0 0 0 0 0 
0 0 0 0 0 0 0 0 0 
0 0 0 0 0 0 0 0 0 
0 0 0 0 0 0 0 0 0 
0 0 0 0 0 0 0 0 0 
0 0 0 0 0 0 0 0 0 
0 0 0 0 0 0 0 0 0 
0 0 0 0 0 0 0 0 0 
0 0 0 0 0 0 0 0 0 
0 0 0 0 0 0 0 0 0 
0 0 0 0 0 0 0 0 0 
0 0 0 0 0 0 0 0 0 
0 0 0 0 0 0 0 0 0 
0 0 0 0 0 0 0 0 0 
0 0 0 0 0 0 0 0 0 
0 0 0 0 0 0 0 0 0 
0 0 0 0 0 0 0 0 0 
0 0 0 0 0 0 0 0 0 
0 0 0 0 0 0 0 0 0 
0 0 0 0 0 0 0 0 0 
0 0 0 0 0 0 0 0 0 
0 0 0 0 0 0 0 0 0 
0 0 0 0 0 0 0 0 0 
0 0 0 0 0 0 0 0 0 
0 0 0 0 0 0 0 0 0 
0 0 0 0 0 0 0 0 0 
0 0 0 0 0 0 0 0 0 
0 0 0 0 0 0 0 0 0 
0 0 0 0 0 0 0 0 0 
0 0 0 0 0 0 0 0 0 
0 0 0 0 0 0 0 0 0 
0 0 0 0 0 0 0 0 0 
0 0 0 0 0 0 0 0 0 
0 0 0 0 0 0 0 0 0 
0 0 0 0 0 0 0 0 0 
0 0 0 0 0 0 0 0 0 
0 0 0 0 0 0 0 0 0 
0 0 0 0 0 0 0 0 0 
0 0 0 0 0 0 0 0 0 
0 0 0 0 0 0 0 0 0 
0 0 0 0 0 0 0 0 0 
0 0 0 0 0 0 0 0 0 
0 0 0 0 0 0 0 0 0 
0 0 0 0 0 0 0 0 0 
0 0 0 0 0 0 0 0 0 
0 0 0 0 0 0 0 0 0 
0 0 0 0 0 0 0 0 0 
0 0 0 0 0 0 0 0 0 
0 0 0 0 0 0 0 0 0 
0 0 0 0 0 0 0 0 0 
0 0 0 0 0 0 0 0 0 
0 0 0 0 0 0 0 0 0 
0 0 0 0 0 0 0 0 0 
0 0 0 0 0 0 0 0 0 
0 0 0 0 0 0 0 0 0 
0 0 0 0 0 0 0 0 0 
0 0 0 0 0 0 0 0 0 
0 0 0 0 0 0 0 0 0 
0 0 0 0 0 0 0 0 0 
0 0 0 0 0 0 0 0 0 
0 0 0 0 0 0 0 0 0 
0 0 0 0 0 0 0 0 0 
0 0 0 0 0 0 0 0 0 
0 0 0 0 0 0 0 0 0 
0 0 0 0 0 0 0 0 0 
0 0 0 0 0 0 0 0 0 
0 0 0 0 0 0 0 0 0 
0 0 0 0 0 0 0 0 0 
0 0 0 0 0 0 0 0 0 
0 0 0 0 0 0 0 0 0 
0 0 0 0 0 0 0 0 0 
0 0 0 0 0 0 0 0 0 
0 0 0 0 0 0 0 0 0 
0 0 0 0 0 0 0 0 0 
0 0 0 0 0 0 0 0 0 
0 0 0 0 0 0 0 0 0 
0 0 0 0 0 0 0 0 0 
0 0 0 0 0 0 0 0 0 
0 0 0 0 0 0 0 0 0 
0 0 0 0 0 0 0 0 0 
0 0 0 0 0 0 0 0 0 
0 0 0 0 0 0 0 0 0 
0 0 0 0 0 0 0 0 0 
0 0 0 0 0 0 0 0 0 
0 0 0 0 0 0 0 0 0 
0 0 0 0 0 0 0 0 0 
0 0 0 0 0 0 0 0 0 
0 0 0 0 0 0 0 0 0 
0 0 0 0 0 0 0 0 0 
0 0 0 0 0 0 0 0 0 
0 0 0 0 0 0 0 0 0 
0 0 0 0 0 0 0 0 0 
0 0 0 0 0 0 0 0 0 
0 0 0 0 0 0 0 0 0 
0 0 0 0 0 0 0 0 0 
0 0 0 0 0 0 0 0 0 
0 0 0 0 0 0 0 0 0 
0 0 0 0 0 0 0 0 0 
0 0 0 0 0 0 0 0 0 
0 0 0 0 0 0 0 0 0 
0 0 0 0 0 0 0 0 0 
0 0 0 0 0 0 0 0 0 
0 0 0 0 0 0 0 0 0 
0 0 0 0 0 0 0 0 0 
0 0 0 0 0 0 0 0 0 
0 0 0 0 0 0 0 0 0 
0 0 0 0 0 0 0 0 0 
0 0 0 0 0 0 0 0 0 
0 0 0 0 0 0 0 0 0 
0 0 0 0 0 0 0 0 0 
0 0 0 0 0 0 0 0 0 
0 0 0 0 0 0 0 0 0 
0 0 0 0 0 0 0 0 0 
0 0 0 0 0 0 0 0 0 
0 0 0 0 0 0 0 0 0 
0 0 0 0 0 0 0 0 0 
0 0 0 0 0 0 0 0 0 
0 0 0 0 0 0 0 0 0 
0 0 0 0 0 0 0 0 0 
0 0 0 0 0 0 0 0 0 
0 0 0 0 0 0 0 0 0 
0 0 0 0 0 0 0 0 0 
0 0 0 0 0 0 0 0 0 
0 0 0 0 0 0 0 0 0 
0 0 0 0 0 0 0 0 0 
0 0 0 0 0 0 0 0 0 
0 0 0 0 0 0 0 0 0 
0 0 0 0 0 0 0 0 0 
0 0 0 0 0 0 0 0 0 
0 0 0 0 0 0 0 0 0 
0 0 0 0 0 0 0 0 0 
0 0 0 0 0 0 0 0 0 
0 0 0 0 0 0 0 0 0 
0 0 0 0 0 0 0 0 0 
0 0 0 0 0 0 0 0 0 
0 0 0 0 0 0 0 0 0 
0 0 0 0 0 0 0 0 0 
0 0 0 0 0 0 0 0 0 
0 0 0 0 0 0 0 0 0 
0 0 0 0 0 0 0 0 0 
0 0 0 0 0 0 0 0 0 
0 0 0 0 0 0 0 0 0 
0 0 0 0 0 0 0 0 0 
0 0 0 0 0 0 0 0 0 
0 0 0 0 0 0 0 0 0 
0 0 0 0 0 0 0 0 0 
0 0 0 0 0 0 0 0 0 
0 0 0 0 0 0 0 0 0 
0 0 0 0 0 0 0 0 0 
0 0 0 0 0 0 0 0 0 
0 0 0 0 0 0 0 0 0 
0 0 0 0 0 0 0 0 0 
0 0 0 0 0 0 0 0 0 
0 0 0 0 0 0 0 0 0 
0 0 0 0 0 0 0 0 0 
0 0 0 0 0 0 0 0 0 
0 0 0 0 0 0 0 0 0 
0 0 0 0 0 0 0 0 0 
0 0 0 0 0 0 0 0 0 
0 0 0 0 0 0 0 0 0 
0 0 0 0 0 0 0 0 0 
0 0 0 0 0 0 0 0 0 
0 0 0 0 0 0 0 0 0 
0 0 0 0 0 0 0 0 0 
0 0 0 0 0 0 0 0 0 
0 0 0 0 0 0 0 0 0 
0 0 0 0 0 0 0 0 0 
0 0 0 0 0 0 0 0 0 
0 0 0 0 0 0 0 0 0 
0 0 0 0 0 0 0 0 0 
0 0 0 0 0 0 0 0 0 
0 0 0 0 0 0 0 0 0 
0 0 0 0 0 0 0 0 0 
0 0 0 0 0 0 0 0 0 
0 0 0 0 0 0 0 0 0 
0 0 0 0 0 0 0 0 0 
0 0 0 0 0 0 0 0 0 
0 0 0 0 0 0 0 0 0 
0 0 0 0 0 0 0 0 0 
0 0 0 0 0 0 0 0 0 
0 0 0 0 0 0 0 0 0 
0 0 0 0 0 0 0 0 0 
0 0 0 0 0 0 0 0 0 
0 0 0 0 0 0 0 0 0 
0 0 0 0 0 0 0 0 0 
0 0 0 0 0 0 0 0 0 
0 0 0 0 0 0 0 0 0 
0 0 0 0 0 0 0 0 0 
0 0 0 0 0 0 0 0 0 
0 0 0 0 0 0 0 0 0 
0 0 0 0 0 0 0 0 0 
0 0 0 0 0 0 0 0 0 
0 0 0 0 0 0 0 0 0 
0 0 0 0 0 0 0 0 0 
0 0 0 0 0 0 0 0 0 
0 0 0 0 0 0 0 0 0 
0 0 0 0 0 0 0 0 0 
0 0 0 0 0 0 0 0 0 
0 0 0 0 0 0 0 0 0 
0 0 0 0 0 0 0 0 0 
0 0 0 0 0 0 0 0 0 
0 0 0 0 0 0 0 0 0 
0 0 0 0 0 0 0 0 0 
0 0 0 0 0 0 0 0 0 
0 0 0 0 0 0 0 0 0 
0 0 0 0 0 0 0 0 0 
0 0 0 0 0 0 0 0 0 
0 0 0 0 0 0 0 0 0 
0 0 0 0 0 0 0 0 0 
0 0 0 0 0 0 0 0 0 
0 0 0 0 0 0 0 0 0 
0 0 0 0 0 0 0 0 0 
0 0 0 0 0 0 0 0 0 
0 0 0 0 0 0 0 0 0 
0 0 0 0 0 0 0 0 0 
0 0 0 0 0 0 0 0 0 
0 0 0 0 0 0 0 0 0 
0 0 0 0 0 0 0 0 0 
0 0 0 0 0 0 0 0 0 
0 0 0 0 0 0 0 0 0 
0 0 0 0 0 0 0 0 0 
0 0 0 0 0 0 0 0 0 
0 0 0 0 0 0 0 0 0 
0 0 0 0 0 0 0 0 0 
0 0 0 0 0 0 0 0 0 
0 0 0 0 0 0 0 0 0 
0 0 0 0 0 0 0 0 0 
0 0 0 0 0 0 0 0 0 
0 0 0 0 0 0 0 0 0 
0 0 0 0 0 0 0 0 0 
0 0 0 0 0 0 0 0 0 
0 0 0 0 0 0 0 0 0 
0 0 0 0 0 0 0 0 0 
0 0 0 0 0 0 0 0 0 
0 0 0 0 0 0 0 0 0 
0 0 0 0 0 0 0 0 0 
0 0 0 0 0 0 0 0 0 
0 0 0 0 0 0 0 0 0 
0 0 0 0 0 0 0 0 0 
0 0 0 0 0 0 0 0 0 
0 0 0 0 0 0 0 0 0 
0 0 0 0 0 0 0 0 0 
0 0 0 0 0 0 0 0 0 
0 0 0 0 0 0 0 0 0 
0 0 0 0 0 0 0 0 0 
0 0 0 0 0 0 0 0 0 
0 0 0 0 0 0 0 0 0 
0 0 0 0 0 0 0 0 0 
0 0 0 0 0 0 0 0 0 
0 0 0 0 0 0 0 0 0 
0 0 0 0 0 0 0 0 0 
0 0 0 0 0 0 0 0 0 
0 0 0 0 0 0 0 0 0 
0 0 0 0 0 0 0 0 0 
0 0 0 0 0 0 0 0 0 
0 0 0 0 0 0 0 0 0 
0 0 0 0 0 0 0 0 0 
0 0 0 0 0 0 0 0 0 
0 0 0 0 0 0 0 0 0 
0 0 0 0 0 0 0 0 0 
0 0 0 0 0 0 0 0 0 
0 0 0 0 0 0 0 0 0 
0 0 0 0 0 0 0 0 0 
0 0 0 0 0 0 0 0 0 
0 0 0 0 0 0 0 0 0 
0 0 0 0 0 0 0 0 0 
0 0 0 0 0 0 0 0 0 
0 0 0 0 0 0 0 0 0 
0 0 0 0 0 0 0 0 0 
0 0 0 0 0 0 0 0 0 
0 0 0 0 0 0 0 0 0 
0 0 0 0 0 0 0 0 0 
0 0 0 0 0 0 0 0 0 
0 0 0 0 0 0 0 0 0 
0 0 0 0 0 0 0 0 0 
0 0 0 0 0 0 0 0 0 
0 0 0 0 0 0 0 0 0 
0 0 0 0 0 0 0 0 0 
0 0 0 0 0 0 0 0 0 
0 0 0 0 0 0 0 0 0 
0 0 0 0 0 0 0 0 0 
0 0 0 0 0 0 0 0 0 
0 0 0 0 0 0 0 0 0 
0 0 0 0 0 0 0 0 0 
0 0 0 0 0 0 0 0 0 
0 0 0 0 0 0 0 0 0 
0 0 0 0 0 0 0 0 0 
0 0 0 0 0 0 0 0 0 
0 0 0 0 0 0 0 0 0 
0 0 0 0 0 0 0 0 0 
0 0 0 0 0 0 0 0 0 
0 0 0 0 0 0 0 0 0 
0 0 0 0 0 0 0 0 0 
0 0 0 0 0 0 0 0 0 
0 0 0 0 0 0 0 0 0 
0 0 0 0 0 0 0 0 0 
0 0 0 0 0 0 0 0 0 
0 0 0 0 0 0 0 0 0 
0 0 0 0 0 0 0 0 0 
0 0 0 0 0 0 0 0 0 
0 0 0 0 0 0 0 0 0 
0 0 0 0 0 0 0 0 0 
0 0 0 0 0 0 0 0 0 
0 0 0 0 0 0 0 0 0 
0 0 0 0 0 0 0 0 0 
0 0 0 0 0 0 0 0 0 
0 0 0 0 0 0 0 0 0 
0 0 0 0 0 0 0 0 0 
0 0 0 0 0 0 0 0 0 
0 0 0 0 0 0 0 0 0 
0 0 0 0 0 0 0 0 0 
0 0 0 0 0 0 0 0 0 
0 0 0 0 0 0 0 0 0 
0 0 0 0 0 0 0 0 0 
0 0 0 0 0 0 0 0 0 
0 0 0 0 0 0 0 0 0 
0 0 0 0 0 0 0 0 0 
0 0 0 0 0 0 0 0 0 
0 0 0 0 0 0 0 0 0 
0 0 0 0 0 0 0 0 0 
0 0 0 0 0 0 0 0 0 
0 0 0 0 0 0 0 0 0 
0 0 0 0 0 0 0 0 0 
0 0 0 0 0 0 0 0 0 
0 0 0 0 0 0 0 0 0 
0 0 0 0 0 0 0 0 0 
0 0 0 0 0 0 0 0 0 
0 0 0 0 0 0 0 0 0 
0 0 0 0 0 0 0 0 0 
0 0 0 0 0 0 0 0 0 
0 0 0 0 0 0 0 0 0 
0 0 0 0 0 0 0 0 0 
0 0 0 0 0 0 0 0 0 
0 0 0 0 0 0 0 0 0 
0 0 0 0 0 0 0 0 0 
0 0 0 0 0 0 0 0 0 
0 0 0 0 0 0 0 0 0 
0 0 0 0 0 0 0 0 0 
0 0 0 0 0 0 0 0 0 
0 0 0 0 0 0 0 0 0 
0 0 0 0 0 0 0 0 0 
0 0 0 0 0 0 0 0 0 
0 0 0 0 0 0 0 0 0 
0 0 0 0 0 0 0 0 0 
0 0 0 0 0 0 0 0 0 
0 0 0 0 0 0 0 0 0 
0 0 0 0 0 0 0 0 0 
0 0 0 0 0 0 0 0 0 
0 0 0 0 0 0 0 0 0 
0 0 0 0 0 0 0 0 0 
0 0 0 0 0 0 0 0 0 
0 0 0 0 0 0 0 0 0 
0 0 0 0 0 0 0 0 0 
0 0 0 0 0 0 0 0 0 
0 0 0 0 0 0 0 0 0 
0 0 0 0 0 0 0 0 0 
0 0 0 0 0 0 0 0 0 
0 0 0 0 0 0 0 0 0 
0 0 0 0 0 0 0 0 0 
0 0 0 0 0 0 0 0 0 
0 0 0 0 0 0 0 0 0 
0 0 0 0 0 0 0 0 0 
0 0 0 0 0 0 0 0 0 
0 0 0 0 0 0 0 0 0 
0 0 0 0 0 0 0 0 0 
0 0 0 0 0 0 0 0 0 
0 0 0 0 0 0 0 0 0 
0 0 0 0 0 0 0 0 0 
0 0 0 0 0 0 0 0 0 
0 0 0 0 0 0 0 0 0 
0 0 0 0 0 0 0 0 0 
0 0 0 0 0 0 0 0 0 
0 0 0 0 0 0 0 0 0 
0 0 0 0 0 0 0 0 0 
0 0 0 0 0 0 0 0 0 
0 0 0 0 0 0 0 0 0 
0 0 0 0 0 0 0 0 0 
0 0 0 0 0 0 0 0 0 
0 0 0 0 0 0 0 0 0 
0 0 0 0 0 0 0 0 0 
0 0 0 0 0 0 0 0 0 
0 0 0 0 0 0 0 0 0 
0 0 0 0 0 0 0 0 0 
0 0 0 0 0 0 0 0 0 
0 0 0 0 0 0 0 0 0 
0 0 0 0 0 0 0 0 0 
0 0 0 0 0 0 0 0 0 
0 0 0 0 0 0 0 0 0 
0 0 0 0 0 0 0 0 0 
0 0 0 0 0 0 0 0 0 
0 0 0 0 0 0 0 0 0 
0 0 0 0 0 0 0 0 0 
0 0 0 0 0 0 0 0 0 
0 0 0 0 0 0 0 0 0 
0 0 0 0 0 0 0 0 0 
0 0 0 0 0 0 0 0 0 
0 0 0 0 0 0 0 0 0 
0 0 0 0 0 0 0 0 0 
0 0 0 0 0 0 0 0 0 
0 0 0 0 0 0 0 0 0 
0 0 0 0 0 0 0 0 0 
0 0 0 0 0 0 0 0 0 
0 0 0 0 0 0 0 0 0 
0 0 0 0 0 0 0 0 0 
0 0 0 0 0 0 0 0 0 
0 0 0 0 0 0 0 0 0 
0 0 0 0 0 0 0 0 0 
0 0 0 0 0 0 0 0 0 
0 0 0 0 0 0 0 0 0 
0 0 0 0 0 0 0 0 0 
0 0 0 0 0 0 0 0 0 
0 0 0 0 0 0 0 0 0 
0 0 0 0 0 0 0 0 0 
0 0 0 0 0 0 0 0 0 
0 0 0 0 0 0 0 0 0 
0 0 0 0 0 0 0 0 0 
0 0 0 0 0 0 0 0 0 
0 0 0 0 0 0 0 0 0 
0 0 0 0 0 0 0 0 0 
0 0 0 0 0 0 0 0 0 
0 0 0 0 0 0 0 0 0 
0 0 0 0 0 0 0 0 0 
0 0 0 0 0 0 0 0 0 
0 0 0 0 0 0 0 0 0 
0 0 0 0 0 0 0 0 0 
0 0 0 0 0 0 0 0 0 
0 0 0 0 0 0 0 0 0 
0 0 0 0 0 0 0 0 0 
0 0 0 0 0 0 0 0 0 
0 0 0 0 0 0 0 0 0 
0 0 0 0 0 0 0 0 0 
0 0 0 0 0 0 0 0 0 
0 0 0 0 0 0 0 0 0 
0 0 0 0 0 0 0 0 0 
0 0 0 0 0 0 0 0 0 
0 0 0 0 0 0 0 0 0 
0 0 0 0 0 0 0 0 0 
0 0 0 0 0 0 0 0 0 
0 0 0 0 0 0 0 0 0 
0 0 0 0 0 0 0 0 0 
0 0 0 0 0 0 0 0 0 
0 0 0 0 0 0 0 0 0 
0 0 0 0 0 0 0 0 0 
0 0 0 0 0 0 0 0 0 
0 0 0 0 0 0 0 0 0 
0 0 0 0 0 0 0 0 0 
0 0 0 0 0 0 0 0 0 
0 0 0 0 0 0 0 0 0 
0 0 0 0 0 0 0 0 0 
0 0 0 0 0 0 0 0 0 
0 0 0 0 0 0 0 0 0 
0 0 0 0 0 0 0 0 0 
0 0 0 0 0 0 0 0 0 
0 0 0 0 0 0 0 0 0 
0 0 0 0 0 0 0 0 0 
0 0 0 0 0 0 0 0 0 
0 0 0 0 0 0 0 0 0 
0 0 0 0 0 0 0 0 0 
0 0 0 0 0 0 0 0 0 
0 0 0 0 0 0 0 0 0 
0 0 0 0 0 0 0 0 0 
0 0 0 0 0 0 0 0 0 
0 0 0 0 0 0 0 0 0 
0 0 0 0 0 0 0 0 0 
0 0 0 0 0 0 0 0 0 
0 0 0 0 0 0 0 0 0 
0 0 0 0 0 0 0 0 0 
0 0 0 0 0 0 0 0 0 
0 0 0 0 0 0 0 0 0 
0 0 0 0 0 0 0 0 0 
0 0 0 0 0 0 0 0 0 
0 0 0 0 0 0 0 0 0 
0 0 0 0 0 0 0 0 0 
0 0 0 0 0 0 0 0 0 
0 0 0 0 0 0 0 0 0 
0 0 0 0 0 0 0 0 0 
0 0 0 0 0 0 0 0 0 
0 0 0 0 0 0 0 0 0 
0 0 0 0 0 0 0 0 0 
0 0 0 0 0 0 0 0 0 
0 0 0 0 0 0 0 0 0 
0 0 0 0 0 0 0 0 0 
0 0 0 0 0 0 0 0 0 
0 0 0 0 0 0 0 0 0 
0 0 0 0 0 0 0 0 0 
0 0 0 0 0 0 0 0 0 
0 0 0 0 0 0 0 0 0 
0 0 0 0 0 0 0 0 0 
0 0 0 0 0 0 0 0 0 
0 0 0 0 0 0 0 0 0 
0 0 0 0 0 0 0 0 0 
0 0 0 0 0 0 0 0 0 
0 0 0 0 0 0 0 0 0 
0 0 0 0 0 0 0 0 0 
0 0 0 0 0 0 0 0 0 
0 0 0 0 0 0 0 0 0 
0 0 0 0 0 0 0 0 0 
0 0 0 0 0 0 0 0 0 
0 0 0 0 0 0 0 0 0 
0 0 0 0 0 0 0 0 0 
0 0 0 0 0 0 0 0 0 
0 0 0 0 0 0 0 0 0 
0 0 0 0 0 0 0 0 0 
0 0 0 0 0 0 0 0 0 
0 0 0 0 0 0 0 0 0 
0 0 0 0 0 0 0 0 0 
0 0 0 0 0 0 0 0 0 
0 0 0 0 0 0 0 0 0 
0 0 0 0 0 0 0 0 0 
0 0 0 0 0 0 0 0 0 
0 0 0 0 0 0 0 0 0 
0 0 0 0 0 0 0 0 0 
0 0 0 0 0 0 0 0 0 
0 0 0 0 0 0 0 0 0 
0 0 0 0 0 0 0 0 0 
0 0 0 0 0 0 0 0 0 
0 0 0 0 0 0 0 0 0 
0 0 0 0 0 0 0 0 0 
0 0 0 0 0 0 0 0 0 
0 0 0 0 0 0 0 0 0 
0 0 0 0 0 0 0 0 0 
0 0 0 0 0 0 0 0 0 
0 0 0 0 0 0 0 0 0 
0 0 0 0 0 0 0 0 0 
0 0 0 0 0 0 0 0 0 
0 0 0 0 0 0 0 0 0 
0 0 0 0 0 0 0 0 0 
0 0 0 0 0 0 0 0 0 
0 0 0 0 0 0 0 0 0 
0 0 0 0 0 0 0 0 0 
0 0 0 0 0 0 0 0 0 
0 0 0 0 0 0 0 0 0 
0 0 0 0 0 0 0 0 0 
0 0 0 0 0 0 0 0 0 
0 0 0 0 0 0 0 0 0 
0 0 0 0 0 0 0 0 0 
0 0 0 0 0 0 0 0 0 
0 0 0 0 0 0 0 0 0 
0 0 0 0 0 0 0 0 0 
0 0 0 0 0 0 0 0 0 
0 0 0 0 0 0 0 0 0 
0 0 0 0 0 0 0 0 0 
0 0 0 0 0 0 0 0 0 
0 0 0 0 0 0 0 0 0 
0 0 0 0 0 0 0 0 0 
0 0 0 0 0 0 0 0 0 
0 0 0 0 0 0 0 0 0 
0 0 0 0 0 0 0 0 0 
0 0 0 0 0 0 0 0 0 
0 0 0 0 0 0 0 0 0 
0 0 0 0 0 0 0 0 0 
0 0 0 0 0 0 0 0 0 
0 0 0 0 0 0 0 0 0 
0 0 0 0 0 0 0 0 0 
0 0 0 0 0 0 0 0 0 
0 0 0 0 0 0 0 0 0 
0 0 0 0 0 0 0 0 0 
0 0 0 0 0 0 0 0 0 
0 0 0 0 0 0 0 0 0 
0 0 0 0 0 0 0 0 0 
0 0 0 0 0 0 0 0 0 
0 0 0 0 0 0 0 0 0 
0 0 0 0 0 0 0 0 0 
0 0 0 0 0 0 0 0 0 
0 0 0 0 0 0 0 0 0 
0 0 0 0 0 0 0 0 0 
0 0 0 0 0 0 0 0 0 
0 0 0 0 0 0 0 0 0 
0 0 0 0 0 0 0 0 0 
0 0 0 0 0 0 0 0 0 
0 0 0 0 0 0 0 0 0 
0 0 0 0 0 0 0 0 0 
0 0 0 0 0 0 0 0 0 
0 0 0 0 0 0 0 0 0 
0 0 0 0 0 0 0 0 0 
0 0 0 0 0 0 0 0 0 
0 0 0 0 0 0 0 0 0 
0 0 0 0 0 0 0 0 0 
0 0 0 0 0 0 0 0 0 
0 0 0 0 0 0 0 0 0 
0 0 0 0 0 0 0 0 0 
0 0 0 0 0 0 0 0 0 
0 0 0 0 0 0 0 0 0 
0 0 0 0 0 0 0 0 0 
0 0 0 0 0 0 0 0 0 
0 0 0 0 0 0 0 0 0 
0 0 0 0 0 0 0 0 0 
0 0 0 0 0 0 0 0 0 
0 0 0 0 0 0 0 0 0 
0 0 0 0 0 0 0 0 0 
0 0 0 0 0 0 0 0 0 
0 0 0 0 0 0 0 0 0 
0 0 0 0 0 0 0 0 0 
0 0 0 0 0 0 0 0 0 
0 0 0 0 0 0 0 0 0 
0 0 0 0 0 0 0 0 0 
0 0 0 0 0 0 0 0 0 
0 0 0 0 0 0 0 0 0 
0 0 0 0 0 0 0 0 0 
0 0 0 0 0 0 0 0 0 
0 0 0 0 0 0 0 0 0 
0 0 0 0 0 0 0 0 0 
0 0 0 0 0 0 0 0 0 
0 0 0 0 0 0 0 0 0 
0 0 0 0 0 0 0 0 0 
0 0 0 0 0 0 0 0 0 
0 0 0 0 0 0 0 0 0 
0 0 0 0 0 0 0 0 0 
0 0 0 0 0 0 0 0 0 
0 0 0 0 0 0 0 0 0 
0 0 0 0 0 0 0 0 0 
0 0 0 0 0 0 0 0 0 
0 0 0 0 0 0 0 0 0 
0 0 0 0 0 0 0 0 0 
0 0 0 0 0 0 0 0 0 
0 0 0 0 0 0 0 0 0 
0 0 0 0 0 0 0 0 0 
0 0 0 0 0 0 0 0 0 
0 0 0 0 0 0 0 0 0 
0 0 0 0 0 0 0 0 0 
0 0 0 0 0 0 0 0 0 
0 0 0 0 0 0 0 0 0 
0 0 0 0 0 0 0 0 0 
0 0 0 0 0 0 0 0 0 
0 0 0 0 0 0 0 0 0 
0 0 0 0 0 0 0 0 0 
0 0 0 0 0 0 0 0 0 
0 0 0 0 0 0 0 0 0 
0 0 0 0 0 0 0 0 0 
0 0 0 0 0 0 0 0 0 
0 0 0 0 0 0 0 0 0 
0 0 0 0 0 0 0 0 0 
0 0 0 0 0 0 0 0 0 
0 0 0 0 0 0 0 0 0 
0 0 0 0 0 0 0 0 0 
0 0 0 0 0 0 0 0 0 
0 0 0 0 0 0 0 0 0 
0 0 0 0 0 0 0 0 0 
0 0 0 0 0 0 0 0 0 
0 0 0 0 0 0 0 0 0 
0 0 0 0 0 0 0 0 0 
0 0 0 0 0 0 0 0 0 
0 0 0 0 0 0 0 0 0 
0 0 0 0 0 0 0 0 0 
0 0 0 0 0 0 0 0 0 
0 0 0 0 0 0 0 0 0 
0 0 0 0 0 0 0 0 0 
0 0 0 0 0 0 0 0 0 
0 0 0 0 0 0 0 0 0 
0 0 0 0 0 0 0 0 0 
0 0 0 0 0 0 0 0 0 
0 0 0 0 0 0 0 0 0 
0 0 0 0 0 0 0 0 0 
0 0 0 0 0 0 0 0 0 
0 0 0 0 0 0 0 0 0 
0 0 0 0 0 0 0 0 0 
0 0 0 0 0 0 0 0 0 
0 0 0 0 0 0 0 0 0 
0 0 0 0 0 0 0 0 0 
0 0 0 0 0 0 0 0 0 
0 0 0 0 0 0 0 0 0 
0 0 0 0 0 0 0 0 0 
0 0 0 0 0 0 0 0 0 
0 0 0 0 0 0 0 0 0 
0 0 0 0 0 0 0 0 0 
0 0 0 0 0 0 0 0 0 
0 0 0 0 0 0 0 0 0 
0 0 0 0 0 0 0 0 0 
0 0 0 0 0 0 0 0 0 
0 0 0 0 0 0 0 0 0 
0 0 0 0 0 0 0 0 0 
0 0 0 0 0 0 0 0 0 
0 0 0 0 0 0 0 0 0 
0 0 0 0 0 0 0 0 0 
0 0 0 0 0 0 0 0 0 
0 0 0 0 0 0 0 0 0 
0 0 0 0 0 0 0 0 0 
0 0 0 0 0 0 0 0 0 
0 0 0 0 0 0 0 0 0 
0 0 0 0 0 0 0 0 0 
0 0 0 0 0 0 0 0 0 
0 0 0 0 0 0 0 0 0 
0 0 0 0 0 0 0 0 0 
0 0 0 0 0 0 0 0 0 
0 0 0 0 0 0 0 0 0 
0 0 0 0 0 0 0 0 0 
0 0 0 0 0 0 0 0 0 
0 0 0 0 0 0 0 0 0 
0 0 0 0 0 0 0 0 0 
0 0 0 0 0 0 0 0 0 
0 0 0 0 0 0 0 0 0 
0 0 0 0 0 0 0 0 0 
0 0 0 0 0 0 0 0 0 
0 0 0 0 0 0 0 0 0 
0 0 0 0 0 0 0 0 0 
0 0 0 0 0 0 0 0 0 
0 0 0 0 0 0 0 0 0 
0 0 0 0 0 0 0 0 0 
0 0 0 0 0 0 0 0 0 
0 0 0 0 0 0 0 0 0 
0 0 0 0 0 0 0 0 0 
0 0 0 0 0 0 0 0 0 
0 0 0 0 0 0 0 0 0 
0 0 0 0 0 0 0 0 0 
0 0 0 0 0 0 0 0 0 
0 0 0 0 0 0 0 0 0 
0 0 0 0 0 0 0 0 0 
0 0 0 0 0 0 0 0 0 
0 0 0 0 0 0 0 0 0 
0 0 0 0 0 0 0 0 0 
0 0 0 0 0 0 0 0 0 
0 0 0 0 0 0 0 0 0 
0 0 0 0 0 0 0 0 0 
0 0 0 0 0 0 0 0 0 
0 0 0 0 0 0 0 0 0 
0 0 0 0 0 0 0 0 0 
0 0 0 0 0 0 0 0 0 
0 0 0 0 0 0 0 0 0 
0 0 0 0 0 0 0 0 0 
0 0 0 0 0 0 0 0 0 
0 0 0 0 0 0 0 0 0 
0 0 0 0 0 0 0 0 0 
0 0 0 0 0 0 0 0 0 
0 0 0 0 0 0 0 0 0 
0 0 0 0 0 0 0 0 0 
0 0 0 0 0 0 0 0 0 
0 0 0 0 0 0 0 0 0 
0 0 0 0 0 0 0 0 0 
0 0 0 0 0 0 0 0 0 
0 0 0 0 0 0 0 0 0 
0 0 0 0 0 0 0 0 0 
0 0 0 0 0 0 0 0 0 
0 0 0 0 0 0 0 0 0 
0 0 0 0 0 0 0 0 0 
0 0 0 0 0 0 0 0 0 
0 0 0 0 0 0 0 0 0 
0 0 0 0 0 0 0 0 0 
0 0 0 0 0 0 0 0 0 
0 0 0 0 0 0 0 0 0 
0 0 0 0 0 0 0 0 0 
0 0 0 0 0 0 0 0 0 
0 0 0 0 0 0 0 0 0 
0 0 0 0 0 0 0 0 0 
0 0 0 0 0 0 0 0 0 
0 0 0 0 0 0 0 0 0 
0 0 0 0 0 0 0 0 0 
0 0 0 0 0 0 0 0 0 
0 0 0 0 0 0 0 0 0 
0 0 0 0 0 0 0 0 0 
0 0 0 0 0 0 0 0 0 
0 0 0 0 0 0 0 0 0 
0 0 0 0 0 0 0 0 0 
0 0 0 0 0 0 0 0 0 
0 0 0 0 0 0 0 0 0 
0 0 0 0 0 0 0 0 0 
0 0 0 0 0 0 0 0 0 
0 0 0 0 0 0 0 0 0 
0 0 0 0 0 0 0 0 0 
0 0 0 0 0 0 0 0 0 
0 0 0 0 0 0 0 0 0 
0 0 0 0 0 0 0 0 0 
0 0 0 0 0 0 0 0 0 
0 0 0 0 0 0 0 0 0 
0 0 0 0 0 0 0 0 0 
0 0 0 0 0 0 0 0 0 
0 0 0 0 0 0 0 0 0 
0 0 0 0 0 0 0 0 0 
0 0 0 0 0 0 0 0 0 
0 0 0 0 0 0 0 0 0 
0 0 0 0 0 0 0 0 0 
0 0 0 0 0 0 0 0 0 
0 0 0 0 0 0 0 0 0 
0 0 0 0 0 0 0 0 0 
0 0 0 0 0 0 0 0 0 
0 0 0 0 0 0 0 0 0 
0 0 0 0 0 0 0 0 0 
0 0 0 0 0 0 0 0 0 
0 0 0 0 0 0 0 0 0 
0 0 0 0 0 0 0 0 0 
0 0 0 0 0 0 0 0 0 
0 0 0 0 0 0 0 0 0 
0 0 0 0 0 0 0 0 0 
0 0 0 0 0 0 0 0 0 
0 0 0 0 0 0 0 0 0 
0 0 0 0 0 0 0 0 0 
0 0 0 0 0 0 0 0 0 
0 0 0 0 0 0 0 0 0 
0 0 0 0 0 0 0 0 0 
0 0 0 0 0 0 0 0 0 
0 0 0 0 0 0 0 0 0 
0 0 0 0 0 0 0 0 0 
0 0 0 0 0 0 0 0 0 
0 0 0 0 0 0 0 0 0 
0 0 0 0 0 0 0 0 0 
0 0 0 0 0 0 0 0 0 
0 0 0 0 0 0 0 0 0 
0 0 0 0 0 0 0 0 0 
0 0 0 0 0 0 0 0 0 
0 0 0 0 0 0 0 0 0 
0 0 0 0 0 0 0 0 0 
0 0 0 0 0 0 0 0 0 
0 0 0 0 0 0 0 0 0 
0 0 0 0 0 0 0 0 0 
0 0 0 0 0 0 0 0 0 
0 0 0 0 0 0 0 0 0 
0 0 0 0 0 0 0 0 0 
0 0 0 0 0 0 0 0 0 
0 0 0 0 0 0 0 0 0 
0 0 0 0 0 0 0 0 0 
0 0 0 0 0 0 0 0 0 
0 0 0 0 0 0 0 0 0 
0 0 0 0 0 0 0 0 0 
0 0 0 0 0 0 0 0 0 
0 0 0 0 0 0 0 0 0 
0 0 0 0 0 0 0 0 0 
0 0 0 0 0 0 0 0 0 
0 0 0 0 0 0 0 0 0 
0 0 0 0 0 0 0 0 0 
0 0 0 0 0 0 0 0 0 
0 0 0 0 0 0 0 0 0 
0 0 0 0 0 0 0 0 0 
0 0 0 0 0 0 0 0 0 
0 0 0 0 0 0 0 0 0 
0 0 0 0 0 0 0 0 0 
0 0 0 0 0 0 0 0 0 
0 0 0 0 0 0 0 0 0 
0 0 0 0 0 0 0 0 0 
0 0 0 0 0 0 0 0 0 
0 0 0 0 0 0 0 0 0 
0 0 0 0 0 0 0 0 0 
0 0 0 0 0 0 0 0 0 
0 0 0 0 0 0 0 0 0 
0 0 0 0 0 0 0 0 0 
0 0 0 0 0 0 0 0 0 
0 0 0 0 0 0 0 0 0 
0 0 0 0 0 0 0 0 0 
0 0 0 0 0 0 0 0 0 
0 0 0 0 0 0 0 0 0 
0 0 0 0 0 0 0 0 0 
0 0 0 0 0 0 0 0 0 
0 0 0 0 0 0 0 0 0 
0 0 0 0 0 0 0 0 0 
0 0 0 0 0 0 0 0 0 
0 0 0 0 0 0 0 0 0 
0 0 0 0 0 0 0 0 0 
0 0 0 0 0 0 0 0 0 
0 0 0 0 0 0 0 0 0 
0 0 0 0 0 0 0 0 0 
0 0 0 0 0 0 0 0 0 
0 0 0 0 0 0 0 0 0 
0 0 0 0 0 0 0 0 0 
0 0 0 0 0 0 0 0 0 
0 0 0 0 0 0 0 0 0 
0 0 0 0 0 0 0 0 0 
0 0 0 0 0 0 0 0 0 
0 0 0 0 0 0 0 0 0 
0 0 0 0 0 0 0 0 0 
0 0 0 0 0 0 0 0 0 
0 0 0 0 0 0 0 0 0 
0 0 0 0 0 0 0 0 0 
0 0 0 0 0 0 0 0 0 
0 0 0 0 0 0 0 0 0 
0 0 0 0 0 0 0 0 0 
0 0 0 0 0 0 0 0 0 
0 0 0 0 0 0 0 0 0 
0 0 0 0 0 0 0 0 0 
0 0 0 0 0 0 0 0 0 
0 0 0 0 0 0 0 0 0 
0 0 0 0 0 0 0 0 0 
0 0 0 0 0 0 0 0 0 
0 0 0 0 0 0 0 0 0 
0 0 0 0 0 0 0 0 0 
0 0 0 0 0 0 0 0 0 
0 0 0 0 0 0 0 0 0 
0 0 0 0 0 0 0 0 0 
0 0 0 0 0 0 0 0 0 
0 0 0 0 0 0 0 0 0 
0 0 0 0 0 0 0 0 0 
0 0 0 0 0 0 0 0 0 
0 0 0 0 0 0 0 0 0 
0 0 0 0 0 0 0 0 0 
0 0 0 0 0 0 0 0 0 
0 0 0 0 0 0 0 0 0 
0 0 0 0 0 0 0 0 0 
0 0 0 0 0 0 0 0 0 
0 0 0 0 0 0 0 0 0 
0 0 0 0 0 0 0 0 0 
0 0 0 0 0 0 0 0 0 
0 0 0 0 0 0 0 0 0 
0 0 0 0 0 0 0 0 0 
0 0 0 0 0 0 0 0 0 
0 0 0 0 0 0 0 0 0 
0 0 0 0 0 0 0 0 0 
0 0 0 0 0 0 0 0 0 
0 0 0 0 0 0 0 0 0 
0 0 0 0 0 0 0 0 0 
0 0 0 0 0 0 0 0 0 
0 0 0 0 0 0 0 0 0 
0 0 0 0 0 0 0 0 0 
0 0 0 0 0 0 0 0 0 
0 0 0 0 0 0 0 0 0 
0 0 0 0 0 0 0 0 0 
0 0 0 0 0 0 0 0 0 
0 0 0 0 0 0 0 0 0 
0 0 0 0 0 0 0 0 0 
0 0 0 0 0 0 0 0 0 
0 0 0 0 0 0 0 0 0 
0 0 0 0 0 0 0 0 0 
0 0 0 0 0 0 0 0 0 
0 0 0 0 0 0 0 0 0 
0 0 0 0 0 0 0 0 0 
0 0 0 0 0 0 0 0 0 
0 0 0 0 0 0 0 0 0 
0 0 0 0 0 0 0 0 0 
0 0 0 0 0 0 0 0 0 
0 0 0 0 0 0 0 0 0 
0 0 0 0 0 0 0 0 0 
0 0 0 0 0 0 0 0 0 
0 0 0 0 0 0 0 0 0 
0 0 0 0 0 0 0 0 0 
0 0 0 0 0 0 0 0 0 
0 0 0 0 0 0 0 0 0 
0 0 0 0 0 0 0 0 0 
0 0 0 0 0 0 0 0 0 
0 0 0 0 0 0 0 0 0 
0 0 0 0 0 0 0 0 0 
0 0 0 0 0 0 0 0 0 
0 0 0 0 0 0 0 0 0 
0 0 0 0 0 0 0 0 0 
0 0 0 0 0 0 0 0 0 
0 0 0 0 0 0 0 0 0 
0 0 0 0 0 0 0 0 0 
0 0 0 0 0 0 0 0 0 
0 0 0 0 0 0 0 0 0 
0 0 0 0 0 0 0 0 0 
0 0 0 0 0 0 0 0 0 
0 0 0 0 0 0 0 0 0 
0 0 0 0 0 0 0 0 0 
0 0 0 0 0 0 0 0 0 
0 0 0 0 0 0 0 0 0 
0 0 0 0 0 0 0 0 0 
0 0 0 0 0 0 0 0 0 
0 0 0 0 0 0 0 0 0 
0 0 0 0 0 0 0 0 0 
0 0 0 0 0 0 0 0 0 
0 0 0 0 0 0 0 0 0 
0 0 0 0 0 0 0 0 0 
0 0 0 0 0 0 0 0 0 
0 0 0 0 0 0 0 0 0 
0 0 0 0 0 0 0 0 0 
0 0 0 0 0 0 0 0 0 
0 0 0 0 0 0 0 0 0 
0 0 0 0 0 0 0 0 0 
0 0 0 0 0 0 0 0 0 
0 0 0 0 0 0 0 0 0 
0 0 0 0 0 0 0 0 0 
0 0 0 0 0 0 0 0 0 
0 0 0 0 0 0 0 0 0 
0 0 0 0 0 0 0 0 0 
0 0 0 0 0 0 0 0 0 
0 0 0 0 0 0 0 0 0 
0 0 0 0 0 0 0 0 0 
0 0 0 0 0 0 0 0 0 
0 0 0 0 0 0 0 0 0 
0 0 0 0 0 0 0 0 0 
0 0 0 0 0 0 0 0 0 
0 0 0 0 0 0 0 0 0 
0 0 0 0 0 0 0 0 0 
0 0 0 0 0 0 0 0 0 
0 0 0 0 0 0 0 0 0 
0 0 0 0 0 0 0 0 0 
0 0 0 0 0 0 0 0 0 
0 0 0 0 0 0 0 0 0 
0 0 0 0 0 0 0 0 0 
0 0 0 0 0 0 0 0 0 
0 0 0 0 0 0 0 0 0 
0 0 0 0 0 0 0 0 0 
0 0 0 0 0 0 0 0 0 
0 0 0 0 0 0 0 0 0 
0 0 0 0 0 0 0 0 0 
0 0 0 0 0 0 0 0 0 
0 0 0 0 0 0 0 0 0 
0 0 0 0 0 0 0 0 0 
0 0 0 0 0 0 0 0 0 
0 0 0 0 0 0 0 0 0 
0 0 0 0 0 0 0 0 0 
0 0 0 0 0 0 0 0 0 
0 0 0 0 0 0 0 0 0 
0 0 0 0 0 0 0 0 0 
0 0 0 0 0 0 0 0 0 
0 0 0 0 0 0 0 0 0 
0 0 0 0 0 0 0 0 0 
0 0 0 0 0 0 0 0 0 
0 0 0 0 0 0 0 0 0 
0 0 0 0 0 0 0 0 0 
0 0 0 0 0 0 0 0 0 
0 0 0 0 0 0 0 0 0 
0 0 0 0 0 0 0 0 0 
0 0 0 0 0 0 0 0 0 
0 0 0 0 0 0 0 0 0 
0 0 0 0 0 0 0 0 0 
0 0 0 0 0 0 0 0 0 
0 0 0 0 0 0 0 0 0 
0 0 0 0 0 0 0 0 0 
0 0 0 0 0 0 0 0 0 
0 0 0 0 0 0 0 0 0 
0 0 0 0 0 0 0 0 0 
0 0 0 0 0 0 0 0 0 
0 0 0 0 0 0 0 0 0 
0 0 0 0 0 0 0 0 0 
0 0 0 0 0 0 0 0 0 
0 0 0 0 0 0 0 0 0 
0 0 0 0 0 0 0 0 0 
0 0 0 0 0 0 0 0 0 
0 0 0 0 0 0 0 0 0 
0 0 0 0 0 0 0 0 0 
0 0 0 0 0 0 0 0 0 
0 0 0 0 0 0 0 0 0 
0 0 0 0 0 0 0 0 0 
0 0 0 0 0 0 0 0 0 
0 0 0 0 0 0 0 0 0 
0 0 0 0 0 0 0 0 0 
0 0 0 0 0 0 0 0 0 
0 0 0 0 0 0 0 0 0 
0 0 0 0 0 0 0 0 0 
0 0 0 0 0 0 0 0 0 
0 0 0 0 0 0 0 0 0 
0 0 0 0 0 0 0 0 0 
0 0 0 0 0 0 0 0 0 
0 0 0 0 0 0 0 0 0 
0 0 0 0 0 0 0 0 0 
0 0 0 0 0 0 0 0 0 
0 0 0 0 0 0 0 0 0 
0 0 0 0 0 0 0 0 0 
0 0 0 0 0 0 0 0 0 
0 0 0 0 0 0 0 0 0 
0 0 0 0 0 0 0 0 0 
0 0 0 0 0 0 0 0 0 
0 0 0 0 0 0 0 0 0 
0 0 0 0 0 0 0 0 0 
0 0 0 0 0 0 0 0 0 
0 0 0 0 0 0 0 0 0 
0 0 0 0 0 0 0 0 0 
0 0 0 0 0 0 0 0 0 
0 0 0 0 0 0 0 0 0 
0 0 0 0 0 0 0 0 0 
0 0 0 0 0 0 0 0 0 
0 0 0 0 0 0 0 0 0 
0 0 0 0 0 0 0 0 0 
0 0 0 0 0 0 0 0 0 
0 0 0 0 0 0 0 0 0 
0 0 0 0 0 0 0 0 0 
0 0 0 0 0 0 0 0 0 
0 0 0 0 0 0 0 0 0 
0 0 0 0 0 0 0 0 0 
0 0 0 0 0 0 0 0 0 
0 0 0 0 0 0 0 0 0 
0 0 0 0 0 0 0 0 0 
0 0 0 0 0 0 0 0 0 
0 0 0 0 0 0 0 0 0 
0 0 0 0 0 0 0 0 0 
0 0 0 0 0 0 0 0 0 
0 0 0 0 0 0 0 0 0 
0 0 0 0 0 0 0 0 0 
0 0 0 0 0 0 0 0 0 
0 0 0 0 0 0 0 0 0 
0 0 0 0 0 0 0 0 0 
0 0 0 0 0 0 0 0 0 
0 0 0 0 0 0 0 0 0 
0 0 0 0 0 0 0 0 0 
0 0 0 0 0 0 0 0 0 
0 0 0 0 0 0 0 0 0 
0 0 0 0 0 0 0 0 0 
0 0 0 0 0 0 0 0 0 
0 0 0 0 0 0 0 0 0 
0 0 0 0 0 0 0 0 0 
0 0 0 0 0 0 0 0 0 
0 0 0 0 0 0 0 0 0 
0 0 0 0 0 0 0 0 0 
0 0 0 0 0 0 0 0 0 
0 0 0 0 0 0 0 0 0 
0 0 0 0 0 0 0 0 0 
0 0 0 0 0 0 0 0 0 
0 0 0 0 0 0 0 0 0 
0 0 0 0 0 0 0 0 0 
0 0 0 0 0 0 0 0 0 
0 0 0 0 0 0 0 0 0 
0 0 0 0 0 0 0 0 0 
0 0 0 0 0 0 0 0 0 
0 0 0 0 0 0 0 0 0 
0 0 0 0 0 0 0 0 0 
0 0 0 0 0 0 0 0 0 
0 0 0 0 0 0 0 0 0 
0 0 0 0 0 0 0 0 0 
0 0 0 0 0 0 0 0 0 
0 0 0 0 0 0 0 0 0 
0 0 0 0 0 0 0 0 0 
0 0 0 0 0 0 0 0 0 
0 0 0 0 0 0 0 0 0 
0 0 0 0 0 0 0 0 0 
0 0 0 0 0 0 0 0 0 
0 0 0 0 0 0 0 0 0 
0 0 0 0 0 0 0 0 0 
0 0 0 0 0 0 0 0 0 
0 0 0 0 0 0 0 0 0 
0 0 0 0 0 0 0 0 0 
0 0 0 0 0 0 0 0 0 
0 0 0 0 0 0 0 0 0 
0 0 0 0 0 0 0 0 0 
0 0 0 0 0 0 0 0 0 
0 0 0 0 0 0 0 0 0 
0 0 0 0 0 0 0 0 0 
0 0 0 0 0 0 0 0 0 
0 0 0 0 0 0 0 0 0 
0 0 0 0 0 0 0 0 0 
0 0 0 0 0 0 0 0 0 
0 0 0 0 0 0 0 0 0 
0 0 0 0 0 0 0 0 0 
0 0 0 0 0 0 0 0 0 
0 0 0 0 0 0 0 0 0 
0 0 0 0 0 0 0 0 0 
0 0 0 0 0 0 0 0 0 
0 0 0 0 0 0 0 0 0 
0 0 0 0 0 0 0 0 0 
0 0 0 0 0 0 0 0 0 
0 0 0 0 0 0 0 0 0 
0 0 0 0 0 0 0 0 0 
0 0 0 0 0 0 0 0 0 
0 0 0 0 0 0 0 0 0 
0 0 0 0 0 0 0 0 0 
0 0 0 0 0 0 0 0 0 
0 0 0 0 0 0 0 0 0 
0 0 0 0 0 0 0 0 0 
0 0 0 0 0 0 0 0 0 
0 0 0 0 0 0 0 0 0 
0 0 0 0 0 0 0 0 0 
0 0 0 0 0 0 0 0 0 
0 0 0 0 0 0 0 0 0 
0 0 0 0 0 0 0 0 0 
0 0 0 0 0 0 0 0 0 
0 0 0 0 0 0 0 0 0 
0 0 0 0 0 0 0 0 0 
0 0 0 0 0 0 0 0 0 
0 0 0 0 0 0 0 0 0 
0 0 0 0 0 0 0 0 0 
0 0 0 0 0 0 0 0 0 
0 0 0 0 0 0 0 0 0 
0 0 0 0 0 0 0 0 0 
0 0 0 0 0 0 0 0 0 
0 0 0 0 0 0 0 0 0 
0 0 0 0 0 0 0 0 0 
0 0 0 0 0 0 0 0 0 
0 0 0 0 0 0 0 0 0 
0 0 0 0 0 0 0 0 0 
0 0 0 0 0 0 0 0 0 
0 0 0 0 0 0 0 0 0 
0 0 0 0 0 0 0 0 0 
0 0 0 0 0 0 0 0 0 
0 0 0 0 0 0 0 0 0 
0 0 0 0 0 0 0 0 0 
0 0 0 0 0 0 0 0 0 
0 0 0 0 0 0 0 0 0 
0 0 0 0 0 0 0 0 0 
0 0 0 0 0 0 0 0 0 
0 0 0 0 0 0 0 0 0 
0 0 0 0 0 0 0 0 0 
0 0 0 0 0 0 0 0 0 
0 0 0 0 0 0 0 0 0 
0 0 0 0 0 0 0 0 0 
0 0 0 0 0 0 0 0 0 
0 0 0 0 0 0 0 0 0 
0 0 0 0 0 0 0 0 0 
0 0 0 0 0 0 0 0 0 
0 0 0 0 0 0 0 0 0 
0 0 0 0 0 0 0 0 0 
0 0 0 0 0 0 0 0 0 
0 0 0 0 0 0 0 0 0 
0 0 0 0 0 0 0 0 0 
0 0 0 0 0 0 0 0 0 
0 0 0 0 0 0 0 0 0 
0 0 0 0 0 0 0 0 0 
0 0 0 0 0 0 0 0 0 
0 0 0 0 0 0 0 0 0 
0 0 0 0 0 0 0 0 0 
0 0 0 0 0 0 0 0 0 
0 0 0 0 0 0 0 0 0 
0 0 0 0 0 0 0 0 0 
0 0 0 0 0 0 0 0 0 
0 0 0 0 0 0 0 0 0 
0 0 0 0 0 0 0 0 0 
0 0 0 0 0 0 0 0 0 
0 0 0 0 0 0 0 0 0 
0 0 0 0 0 0 0 0 0 
0 0 0 0 0 0 0 0 0 
0 0 0 0 0 0 0 0 0 
0 0 0 0 0 0 0 0 0 
0 0 0 0 0 0 0 0 0 
0 0 0 0 0 0 0 0 0 
0 0 0 0 0 0 0 0 0 
0 0 0 0 0 0 0 0 0 
0 0 0 0 0 0 0 0 0 
0 0 0 0 0 0 0 0 0 
0 0 0 0 0 0 0 0 0 
0 0 0 0 0 0 0 0 0 
0 0 0 0 0 0 0 0 0 
0 0 0 0 0 0 0 0 0 
0 0 0 0 0 0 0 0 0 
0 0 0 0 0 0 0 0 0 
0 0 0 0 0 0 0 0 0 
0 0 0 0 0 0 0 0 0 
0 0 0 0 0 0 0 0 0 
0 0 0 0 0 0 0 0 0 
0 0 0 0 0 0 0 0 0 
0 0 0 0 0 0 0 0 0 
0 0 0 0 0 0 0 0 0 
0 0 0 0 0 0 0 0 0 
0 0 0 0 0 0 0 0 0 
0 0 0 0 0 0 0 0 0 
0 0 0 0 0 0 0 0 0 
0 0 0 0 0 0 0 0 0 
0 0 0 0 0 0 0 0 0 
0 0 0 0 0 0 0 0 0 
0 0 0 0 0 0 0 0 0 
0 0 0 0 0 0 0 0 0 
0 0 0 0 0 0 0 0 0 
0 0 0 0 0 0 0 0 0 
0 0 0 0 0 0 0 0 0 
0 0 0 0 0 0 0 0 0 
0 0 0 0 0 0 0 0 0 
0 0 0 0 0 0 0 0 0 
0 0 0 0 0 0 0 0 0 
0 0 0 0 0 0 0 0 0 
0 0 0 0 0 0 0 0 0 
0 0 0 0 0 0 0 0 0 
0 0 0 0 0 0 0 0 0 
0 0 0 0 0 0 0 0 0 
0 0 0 0 0 0 0 0 0 
0 0 0 0 0 0 0 0 0 
0 0 0 0 0 0 0 0 0 
0 0 0 0 0 0 0 0 0 
0 0 0 0 0 0 0 0 0 
0 0 0 0 0 0 0 0 0 
0 0 0 0 0 0 0 0 0 
0 0 0 0 0 0 0 0 0 
0 0 0 0 0 0 0 0 0 
0 0 0 0 0 0 0 0 0 
0 0 0 0 0 0 0 0 0 
0 0 0 0 0 0 0 0 0 
0 0 0 0 0 0 0 0 0 
0 0 0 0 0 0 0 0 0 
0 0 0 0 0 0 0 0 0 
0 0 0 0 0 0 0 0 0 
0 0 0 0 0 0 0 0 0 
0 0 0 0 0 0 0 0 0 
0 0 0 0 0 0 0 0 0 
0 0 0 0 0 0 0 0 0 
0 0 0 0 0 0 0 0 0 
0 0 0 0 0 0 0 0 0 
0 0 0 0 0 0 0 0 0 
0 0 0 0 0 0 0 0 0 
0 0 0 0 0 0 0 0 0 
0 0 0 0 0 0 0 0 0 
0 0 0 0 0 0 0 0 0 
0 0 0 0 0 0 0 0 0 
0 0 0 0 0 0 0 0 0 
0 0 0 0 0 0 0 0 0 
0 0 0 0 0 0 0 0 0 
0 0 0 0 0 0 0 0 0 
0 0 0 0 0 0 0 0 0 
0 0 0 0 0 0 0 0 0 
0 0 0 0 0 0 0 0 0 
0 0 0 0 0 0 0 0 0 
0 0 0 0 0 0 0 0 0 
0 0 0 0 0 0 0 0 0 
0 0 0 0 0 0 0 0 0 
0 0 0 0 0 0 0 0 0 
0 0 0 0 0 0 0 0 0 
0 0 0 0 0 0 0 0 0 
0 0 0 0 0 0 0 0 0 
0 0 0 0 0 0 0 0 0 
0 0 0 0 0 0 0 0 0 
0 0 0 0 0 0 0 0 0 
0 0 0 0 0 0 0 0 0 
0 0 0 0 0 0 0 0 0 
0 0 0 0 0 0 0 0 0 
0 0 0 0 0 0 0 0 0 
0 0 0 0 0 0 0 0 0 
0 0 0 0 0 0 0 0 0 
0 0 0 0 0 0 0 0 0 
0 0 0 0 0 0 0 0 0 
0 0 0 0 0 0 0 0 0 
0 0 0 0 0 0 0 0 0 
0 0 0 0 0 0 0 0 0 
0 0 0 0 0 0 0 0 0 
0 0 0 0 0 0 0 0 0 
0 0 0 0 0 0 0 0 0 
0 0 0 0 0 0 0 0 0 
0 0 0 0 0 0 0 0 0 
0 0 0 0 0 0 0 0 0 
0 0 0 0 0 0 0 0 0 
0 0 0 0 0 0 0 0 0 
0 0 0 0 0 0 0 0 0 
0 0 0 0 0 0 0 0 0 
0 0 0 0 0 0 0 0 0 
0 0 0 0 0 0 0 0 0 
0 0 0 0 0 0 0 0 0 
0 0 0 0 0 0 0 0 0 
0 0 0 0 0 0 0 0 0 
0 0 0 0 0 0 0 0 0 
0 0 0 0 0 0 0 0 0 
0 0 0 0 0 0 0 0 0 
0 0 0 0 0 0 0 0 0 
0 0 0 0 0 0 0 0 0 
0 0 0 0 0 0 0 0 0 
0 0 0 0 0 0 0 0 0 
0 0 0 0 0 0 0 0 0 
0 0 0 0 0 0 0 0 0 
0 0 0 0 0 0 0 0 0 
0 0 0 0 0 0 0 0 0 
0 0 0 0 0 0 0 0 0 
0 0 0 0 0 0 0 0 0 
0 0 0 0 0 0 0 0 0 
0 0 0 0 0 0 0 0 0 
0 0 0 0 0 0 0 0 0 
0 0 0 0 0 0 0 0 0 
0 0 0 0 0 0 0 0 0 
0 0 0 0 0 0 0 0 0 
0 0 0 0 0 0 0 0 0 
0 0 0 0 0 0 0 0 0 
0 0 0 0 0 0 0 0 0 
0 0 0 0 0 0 0 0 0 
0 0 0 0 0 0 0 0 0 
0 0 0 0 0 0 0 0 0 
0 0 0 0 0 0 0 0 0 
0 0 0 0 0 0 0 0 0 
0 0 0 0 0 0 0 0 0 
0 0 0 0 0 0 0 0 0 
0 0 0 0 0 0 0 0 0 
0 0 0 0 0 0 0 0 0 
0 0 0 0 0 0 0 0 0 
0 0 0 0 0 0 0 0 0 
0 0 0 0 0 0 0 0 0 
0 0 0 0 0 0 0 0 0 
0 0 0 0 0 0 0 0 0 
0 0 0 0 0 0 0 0 0 
0 0 0 0 0 0 0 0 0 
0 0 0 0 0 0 0 0 0 
0 0 0 0 0 0 0 0 0 
0 0 0 0 0 0 0 0 0 
0 0 0 0 0 0 0 0 0 
0 0 0 0 0 0 0 0 0 
0 0 0 0 0 0 0 0 0 
0 0 0 0 0 0 0 0 0 
0 0 0 0 0 0 0 0 0 
0 0 0 0 0 0 0 0 0 
0 0 0 0 0 0 0 0 0 
0 0 0 0 0 0 0 0 0 
0 0 0 0 0 0 0 0 0 
0 0 0 0 0 0 0 0 0 
0 0 0 0 0 0 0 0 0 
0 0 0 0 0 0 0 0 0 
0 0 0 0 0 0 0 0 0 
0 0 0 0 0 0 0 0 0 
0 0 0 0 0 0 0 0 0 
0 0 0 0 0 0 0 0 0 
0 0 0 0 0 0 0 0 0 
0 0 0 0 0 0 0 0 0 
0 0 0 0 0 0 0 0 0 
0 0 0 0 0 0 0 0 0 
0 0 0 0 0 0 0 0 0 
0 0 0 0 0 0 0 0 0 
0 0 0 0 0 0 0 0 0 
0 0 0 0 0 0 0 0 0 
0 0 0 0 0 0 0 0 0 
0 0 0 0 0 0 0 0 0 
0 0 0 0 0 0 0 0 0 
0 0 0 0 0 0 0 0 0 
0 0 0 0 0 0 0 0 0 
0 0 0 0 0 0 0 0 0 
0 0 0 0 0 0 0 0 0 
0 0 0 0 0 0 0 0 0 
0 0 0 0 0 0 0 0 0 
0 0 0 0 0 0 0 0 0 
0 0 0 0 0 0 0 0 0 
0 0 0 0 0 0 0 0 0 
0 0 0 0 0 0 0 0 0 
0 0 0 0 0 0 0 0 0 
0 0 0 0 0 0 0 0 0 
0 0 0 0 0 0 0 0 0 
0 0 0 0 0 0 0 0 0 
0 0 0 0 0 0 0 0 0 
0 0 0 0 0 0 0 0 0 
0 0 0 0 0 0 0 0 0 
0 0 0 0 0 0 0 0 0 
0 0 0 0 0 0 0 0 0 
0 0 0 0 0 0 0 0 0 
0 0 0 0 0 0 0 0 0 
0 0 0 0 0 0 0 0 0 
0 0 0 0 0 0 0 0 0 
0 0 0 0 0 0 0 0 0 
0 0 0 0 0 0 0 0 0 
0 0 0 0 0 0 0 0 0 
0 0 0 0 0 0 0 0 0 
0 0 0 0 0 0 0 0 0 
0 0 0 0 0 0 0 0 0 
0 0 0 0 0 0 0 0 0 
0 0 0 0 0 0 0 0 0 
0 0 0 0 0 0 0 0 0 
0 0 0 0 0 0 0 0 0 
0 0 0 0 0 0 0 0 0 
0 0 0 0 0 0 0 0 0 
0 0 0 0 0 0 0 0 0 
0 0 0 0 0 0 0 0 0 
0 0 0 0 0 0 0 0 0 
0 0 0 0 0 0 0 0 0 
0 0 0 0 0 0 0 0 0 
0 0 0 0 0 0 0 0 0 
0 0 0 0 0 0 0 0 0 
0 0 0 0 0 0 0 0 0 
0 0 0 0 0 0 0 0 0 
0 0 0 0 0 0 0 0 0 
0 0 0 0 0 0 0 0 0 
0 0 0 0 0 0 0 0 0 
0 0 0 0 0 0 0 0 0 
0 0 0 0 0 0 0 0 0 
0 0 0 0 0 0 0 0 0 
0 0 0 0 0 0 0 0 0 
0 0 0 0 0 0 0 0 0 
0 0 0 0 0 0 0 0 0 
0 0 0 0 0 0 0 0 0 
0 0 0 0 0 0 0 0 0 
0 0 0 0 0 0 0 0 0 
0 0 0 0 0 0 0 0 0 
0 0 0 0 0 0 0 0 0 
0 0 0 0 0 0 0 0 0 
0 0 0 0 0 0 0 0 0 
0 0 0 0 0 0 0 0 0 
0 0 0 0 0 0 0 0 0 
0 0 0 0 0 0 0 0 0 
0 0 0 0 0 0 0 0 0 
0 0 0 0 0 0 0 0 0 
0 0 0 0 0 0 0 0 0 
0 0 0 0 0 0 0 0 0 
0 0 0 0 0 0 0 0 0 
0 0 0 0 0 0 0 0 0 
0 0 0 0 0 0 0 0 0 
0 0 0 0 0 0 0 0 0 
0 0 0 0 0 0 0 0 0 
0 0 0 0 0 0 0 0 0 
0 0 0 0 0 0 0 0 0 
0 0 0 0 0 0 0 0 0 
0 0 0 0 0 0 0 0 0 
0 0 0 0 0 0 0 0 0 
0 0 0 0 0 0 0 0 0 
0 0 0 0 0 0 0 0 0 
0 0 0 0 0 0 0 0 0 
0 0 0 0 0 0 0 0 0 
0 0 0 0 0 0 0 0 0 
0 0 0 0 0 0 0 0 0 
0 0 0 0 0 0 0 0 0 
0 0 0 0 0 0 0 0 0 
0 0 0 0 0 0 0 0 0 
0 0 0 0 0 0 0 0 0 
0 0 0 0 0 0 0 0 0 
0 0 0 0 0 0 0 0 0 
0 0 0 0 0 0 0 0 0 
0 0 0 0 0 0 0 0 0 
0 0 0 0 0 0 0 0 0 
0 0 0 0 0 0 0 0 0 
0 0 0 0 0 0 0 0 0 
0 0 0 0 0 0 0 0 0 
0 0 0 0 0 0 0 0 0 
0 0 0 0 0 0 0 0 0 
0 0 0 0 0 0 0 0 0 
0 0 0 0 0 0 0 0 0 
0 0 0 0 0 0 0 0 0 
0 0 0 0 0 0 0 0 0 
0 0 0 0 0 0 0 0 0 
0 0 0 0 0 0 0 0 0 
0 0 0 0 0 0 0 0 0 
0 0 0 0 0 0 0 0 0 
0 0 0 0 0 0 0 0 0 
0 0 0 0 0 0 0 0 0 
0 0 0 0 0 0 0 0 0 
0 0 0 0 0 0 0 0 0 
0 0 0 0 0 0 0 0 0 
0 0 0 0 0 0 0 0 0 
0 0 0 0 0 0 0 0 0 
0 0 0 0 0 0 0 0 0 
0 0 0 0 0 0 0 0 0 
0 0 0 0 0 0 0 0 0 
0 0 0 0 0 0 0 0 0 
0 0 0 0 0 0 0 0 0 
0 0 0 0 0 0 0 0 0 
0 0 0 0 0 0 0 0 0 
0 0 0 0 0 0 0 0 0 
0 0 0 0 0 0 0 0 0 
0 0 0 0 0 0 0 0 0 
0 0 0 0 0 0 0 0 0 
0 0 0 0 0 0 0 0 0 
0 0 0 0 0 0 0 0 0 
0 0 0 0 0 0 0 0 0 
0 0 0 0 0 0 0 0 0 
0 0 0 0 0 0 0 0 0 
0 0 0 0 0 0 0 0 0 
0 0 0 0 0 0 0 0 0 
0 0 0 0 0 0 0 0 0 
0 0 0 0 0 0 0 0 0 
0 0 0 0 0 0 0 0 0 
0 0 0 0 0 0 0 0 0 
0 0 0 0 0 0 0 0 0 
0 0 0 0 0 0 0 0 0 
0 0 0 0 0 0 0 0 0 
0 0 0 0 0 0 0 0 0 
0 0 0 0 0 0 0 0 0 
0 0 0 0 0 0 0 0 0 
0 0 0 0 0 0 0 0 0 
0 0 0 0 0 0 0 0 0 
0 0 0 0 0 0 0 0 0 
0 0 0 0 0 0 0 0 0 
0 0 0 0 0 0 0 0 0 
0 0 0 0 0 0 0 0 0 
0 0 0 0 0 0 0 0 0 
0 0 0 0 0 0 0 0 0 
0 0 0 0 0 0 0 0 0 
0 0 0 0 0 0 0 0 0 
0 0 0 0 0 0 0 0 0 
0 0 0 0 0 0 0 0 0 
0 0 0 0 0 0 0 0 0 
0 0 0 0 0 0 0 0 0 
0 0 0 0 0 0 0 0 0 
0 0 0 0 0 0 0 0 0 
0 0 0 0 0 0 0 0 0 
0 0 0 0 0 0 0 0 0 
0 0 0 0 0 0 0 0 0 
0 0 0 0 0 0 0 0 0 
0 0 0 0 0 0 0 0 0 
0 0 0 0 0 0 0 0 0 
0 0 0 0 0 0 0 0 0 
0 0 0 0 0 0 0 0 0 
0 0 0 0 0 0 0 0 0 
0 0 0 0 0 0 0 0 0 
0 0 0 0 0 0 0 0 0 
0 0 0 0 0 0 0 0 0 
0 0 0 0 0 0 0 0 0 
0 0 0 0 0 0 0 0 0 
0 0 0 0 0 0 0 0 0 
0 0 0 0 0 0 0 0 0 
0 0 0 0 0 0 0 0 0 
0 0 0 0 0 0 0 0 0 
0 0 0 0 0 0 0 0 0 
0 0 0 0 0 0 0 0 0 
0 0 0 0 0 0 0 0 0 
0 0 0 0 0 0 0 0 0 
0 0 0 0 0 0 0 0 0 
0 0 0 0 0 0 0 0 0 
0 0 0 0 0 0 0 0 0 
0 0 0 0 0 0 0 0 0 
0 0 0 0 0 0 0 0 0 
0 0 0 0 0 0 0 0 0 
0 0 0 0 0 0 0 0 0 
0 0 0 0 0 0 0 0 0 
0 0 0 0 0 0 0 0 0 
0 0 0 0 0 0 0 0 0 
0 0 0 0 0 0 0 0 0 
0 0 0 0 0 0 0 0 0 
0 0 0 0 0 0 0 0 0 
0 0 0 0 0 0 0 0 0 
0 0 0 0 0 0 0 0 0 
0 0 0 0 0 0 0 0 0 
0 0 0 0 0 0 0 0 0 
0 0 0 0 0 0 0 0 0 
0 0 0 0 0 0 0 0 0 
0 0 0 0 0 0 0 0 0 
0 0 0 0 0 0 0 0 0 
0 0 0 0 0 0 0 0 0 
0 0 0 0 0 0 0 0 0 
0 0 0 0 0 0 0 0 0 
0 0 0 0 0 0 0 0 0 
0 0 0 0 0 0 0 0 0 
0 0 0 0 0 0 0 0 0 
0 0 0 0 0 0 0 0 0 
0 0 0 0 0 0 0 0 0 
0 0 0 0 0 0 0 0 0 
0 0 0 0 0 0 0 0 0 
0 0 0 0 0 0 0 0 0 
0 0 0 0 0 0 0 0 0 
0 0 0 0 0 0 0 0 0 
0 0 0 0 0 0 0 0 0 
0 0 0 0 0 0 0 0 0 
0 0 0 0 0 0 0 0 0 
0 0 0 0 0 0 0 0 0 
0 0 0 0 0 0 0 0 0 
0 0 0 0 0 0 0 0 0 
0 0 0 0 0 0 0 0 0 
0 0 0 0 0 0 0 0 0 
0 0 0 0 0 0 0 0 0 
0 0 0 0 0 0 0 0 0 
0 0 0 0 0 0 0 0 0 
0 0 0 0 0 0 0 0 0 
0 0 0 0 0 0 0 0 0 
0 0 0 0 0 0 0 0 0 
0 0 0 0 0 0 0 0 0 
0 0 0 0 0 0 0 0 0 
0 0 0 0 0 0 0 0 0 
0 0 0 0 0 0 0 0 0 
0 0 0 0 0 0 0 0 0 
0 0 0 0 0 0 0 0 0 
0 0 0 0 0 0 0 0 0 
0 0 0 0 0 0 0 0 0 
0 0 0 0 0 0 0 0 0 
0 0 0 0 0 0 0 0 0 
0 0 0 0 0 0 0 0 0 
0 0 0 0 0 0 0 0 0 
0 0 0 0 0 0 0 0 0 
0 0 0 0 0 0 0 0 0 
0 0 0 0 0 0 0 0 0 
0 0 0 0 0 0 0 0 0 
0 0 0 0 0 0 0 0 0 
0 0 0 0 0 0 0 0 0 
0 0 0 0 0 0 0 0 0 
0 0 0 0 0 0 0 0 0 
0 0 0 0 0 0 0 0 0 
0 0 0 0 0 0 0 0 0 
0 0 0 0 0 0 0 0 0 
0 0 0 0 0 0 0 0 0 
0 0 0 0 0 0 0 0 0 
0 0 0 0 0 0 0 0 0 
0 0 0 0 0 0 0 0 0 
0 0 0 0 0 0 0 0 0 
0 0 0 0 0 0 0 0 0 
0 0 0 0 0 0 0 0 0 
0 0 0 0 0 0 0 0 0 
0 0 0 0 0 0 0 0 0 
0 0 0 0 0 0 0 0 0 
0 0 0 0 0 0 0 0 0 
0 0 0 0 0 0 0 0 0 
0 0 0 0 0 0 0 0 0 
0 0 0 0 0 0 0 0 0 
0 0 0 0 0 0 0 0 0 
0 0 0 0 0 0 0 0 0 
0 0 0 0 0 0 0 0 0 
0 0 0 0 0 0 0 0 0 
0 0 0 0 0 0 0 0 0 
0 0 0 0 0 0 0 0 0 
0 0 0 0 0 0 0 0 0 
0 0 0 0 0 0 0 0 0 
0 0 0 0 0 0 0 0 0 
0 0 0 0 0 0 0 0 0 
0 0 0 0 0 0 0 0 0 
0 0 0 0 0 0 0 0 0 
0 0 0 0 0 0 0 0 0 
0 0 0 0 0 0 0 0 0 
0 0 0 0 0 0 0 0 0 
0 0 0 0 0 0 0 0 0 
0 0 0 0 0 0 0 0 0 
0 0 0 0 0 0 0 0 0 
0 0 0 0 0 0 0 0 0 
0 0 0 0 0 0 0 0 0 
0 0 0 0 0 0 0 0 0 
0 0 0 0 0 0 0 0 0 
0 0 0 0 0 0 0 0 0 
0 0 0 0 0 0 0 0 0 
0 0 0 0 0 0 0 0 0 
0 0 0 0 0 0 0 0 0 
0 0 0 0 0 0 0 0 0 
0 0 0 0 0 0 0 0 0 
0 0 0 0 0 0 0 0 0 
0 0 0 0 0 0 0 0 0 
0 0 0 0 0 0 0 0 0 
0 0 0 0 0 0 0 0 0 
0 0 0 0 0 0 0 0 0 
0 0 0 0 0 0 0 0 0 
0 0 0 0 0 0 0 0 0 
0 0 0 0 0 0 0 0 0 
0 0 0 0 0 0 0 0 0 
0 0 0 0 0 0 0 0 0 
0 0 0 0 0 0 0 0 0 
0 0 0 0 0 0 0 0 0 
0 0 0 0 0 0 0 0 0 
0 0 0 0 0 0 0 0 0 
0 0 0 0 0 0 0 0 0 
0 0 0 0 0 0 0 0 0 
0 0 0 0 0 0 0 0 0 
0 0 0 0 0 0 0 0 0 
0 0 0 0 0 0 0 0 0 
0 0 0 0 0 0 0 0 0 
0 0 0 0 0 0 0 0 0 
0 0 0 0 0 0 0 0 0 
0 0 0 0 0 0 0 0 0 
0 0 0 0 0 0 0 0 0 
0 0 0 0 0 0 0 0 0 
0 0 0 0 0 0 0 0 0 
0 0 0 0 0 0 0 0 0 
0 0 0 0 0 0 0 0 0 
0 0 0 0 0 0 0 0 0 
0 0 0 0 0 0 0 0 0 
0 0 0 0 0 0 0 0 0 
0 0 0 0 0 0 0 0 0 
0 0 0 0 0 0 0 0 0 
0 0 0 0 0 0 0 0 0 
0 0 0 0 0 0 0 0 0 
0 0 0 0 0 0 0 0 0 
0 0 0 0 0 0 0 0 0 
0 0 0 0 0 0 0 0 0 
0 0 0 0 0 0 0 0 0 
0 0 0 0 0 0 0 0 0 
0 0 0 0 0 0 0 0 0 
0 0 0 0 0 0 0 0 0 
0 0 0 0 0 0 0 0 0 
0 0 0 0 0 0 0 0 0 
0 0 0 0 0 0 0 0 0 
0 0 0 0 0 0 0 0 0 
0 0 0 0 0 0 0 0 0 
0 0 0 0 0 0 0 0 0 
0 0 0 0 0 0 0 0 0 
0 0 0 0 0 0 0 0 0 
0 0 0 0 0 0 0 0 0 
0 0 0 0 0 0 0 0 0 
0 0 0 0 0 0 0 0 0 
0 0 0 0 0 0 0 0 0 
0 0 0 0 0 0 0 0 0 
0 0 0 0 0 0 0 0 0 
0 0 0 0 0 0 0 0 0 
0 0 0 0 0 0 0 0 0 
0 0 0 0 0 0 0 0 0 
0 0 0 0 0 0 0 0 0 
0 0 0 0 0 0 0 0 0 
0 0 0 0 0 0 0 0 0 
0 0 0 0 0 0 0 0 0 
0 0 0 0 0 0 0 0 0 
0 0 0 0 0 0 0 0 0 
0 0 0 0 0 0 0 0 0 
0 0 0 0 0 0 0 0 0 
0 0 0 0 0 0 0 0 0 
0 0 0 0 0 0 0 0 0 
0 0 0 0 0 0 0 0 0 
0 0 0 0 0 0 0 0 0 
0 0 0 0 0 0 0 0 0 
0 0 0 0 0 0 0 0 0 
0 0 0 0 0 0 0 0 0 
0 0 0 0 0 0 0 0 0 
0 0 0 0 0 0 0 0 0 
0 0 0 0 0 0 0 0 0 
0 0 0 0 0 0 0 0 0 
0 0 0 0 0 0 0 0 0 
0 0 0 0 0 0 0 0 0 
0 0 0 0 0 0 0 0 0 
0 0 0 0 0 0 0 0 0 
0 0 0 0 0 0 0 0 0 
0 0 0 0 0 0 0 0 0 
0 0 0 0 0 0 0 0 0 
0 0 0 0 0 0 0 0 0 
0 0 0 0 0 0 0 0 0 
0 0 0 0 0 0 0 0 0 
0 0 0 0 0 0 0 0 0 
0 0 0 0 0 0 0 0 0 
0 0 0 0 0 0 0 0 0 
0 0 0 0 0 0 0 0 0 
0 0 0 0 0 0 0 0 0 
0 0 0 0 0 0 0 0 0 
0 0 0 0 0 0 0 0 0 
0 0 0 0 0 0 0 0 0 
0 0 0 0 0 0 0 0 0 
0 0 0 0 0 0 0 0 0 
0 0 0 0 0 0 0 0 0 
0 0 0 0 0 0 0 0 0 
0 0 0 0 0 0 0 0 0 
0 0 0 0 0 0 0 0 0 
0 0 0 0 0 0 0 0 0 
0 0 0 0 0 0 0 0 0 
0 0 0 0 0 0 0 0 0 
0 0 0 0 0 0 0 0 0 
0 0 0 0 0 0 0 0 0 
0 0 0 0 0 0 0 0 0 
0 0 0 0 0 0 0 0 0 
0 0 0 0 0 0 0 0 0 
0 0 0 0 0 0 0 0 0 
0 0 0 0 0 0 0 0 0 
0 0 0 0 0 0 0 0 0 
0 0 0 0 0 0 0 0 0 
0 0 0 0 0 0 0 0 0 
0 0 0 0 0 0 0 0 0 
0 0 0 0 0 0 0 0 0 
0 0 0 0 0 0 0 0 0 
0 0 0 0 0 0 0 0 0 
0 0 0 0 0 0 0 0 0 
0 0 0 0 0 0 0 0 0 
0 0 0 0 0 0 0 0 0 
0 0 0 0 0 0 0 0 0 
0 0 0 0 0 0 0 0 0 
0 0 0 0 0 0 0 0 0 
0 0 0 0 0 0 0 0 0 
0 0 0 0 0 0 0 0 0 
0 0 0 0 0 0 0 0 0 
0 0 0 0 0 0 0 0 0 
0 0 0 0 0 0 0 0 0 
0 0 0 0 0 0 0 0 0 
0 0 0 0 0 0 0 0 0 
0 0 0 0 0 0 0 0 0 
0 0 0 0 0 0 0 0 0 
0 0 0 0 0 0 0 0 0 
0 0 0 0 0 0 0 0 0 
0 0 0 0 0 0 0 0 0 
0 0 0 0 0 0 0 0 0 
0 0 0 0 0 0 0 0 0 
0 0 0 0 0 0 0 0 0 
0 0 0 0 0 0 0 0 0 
0 0 0 0 0 0 0 0 0 
0 0 0 0 0 0 0 0 0 
0 0 0 0 0 0 0 0 0 
0 0 0 0 0 0 0 0 0 
0 0 0 0 0 0 0 0 0 
0 0 0 0 0 0 0 0 0 
0 0 0 0 0 0 0 0 0 
0 0 0 0 0 0 0 0 0 
0 0 0 0 0 0 0 0 0 
0 0 0 0 0 0 0 0 0 
0 0 0 0 0 0 0 0 0 
0 0 0 0 0 0 0 0 0 
0 0 0 0 0 0 0 0 0 
0 0 0 0 0 0 0 0 0 
0 0 0 0 0 0 0 0 0 
0 0 0 0 0 0 0 0 0 
0 0 0 0 0 0 0 0 0 
0 0 0 0 0 0 0 0 0 
0 0 0 0 0 0 0 0 0 
0 0 0 0 0 0 0 0 0 
0 0 0 0 0 0 0 0 0 
0 0 0 0 0 0 0 0 0 
0 0 0 0 0 0 0 0 0 
0 0 0 0 0 0 0 0 0 
0 0 0 0 0 0 0 0 0 
0 0 0 0 0 0 0 0 0 
0 0 0 0 0 0 0 0 0 
0 0 0 0 0 0 0 0 0 
0 0 0 0 0 0 0 0 0 
0 0 0 0 0 0 0 0 0 
0 0 0 0 0 0 0 0 0 
0 0 0 0 0 0 0 0 0 
0 0 0 0 0 0 0 0 0 
0 0 0 0 0 0 0 0 0 
0 0 0 0 0 0 0 0 0 
0 0 0 0 0 0 0 0 0 
0 0 0 0 0 0 0 0 0 
0 0 0 0 0 0 0 0 0 
0 0 0 0 0 0 0 0 0 
0 0 0 0 0 0 0 0 0 
0 0 0 0 0 0 0 0 0 
0 0 0 0 0 0 0 0 0 
0 0 0 0 0 0 0 0 0 
0 0 0 0 0 0 0 0 0 
0 0 0 0 0 0 0 0 0 
0 0 0 0 0 0 0 0 0 
0 0 0 0 0 0 0 0 0 
0 0 0 0 0 0 0 0 0 
0 0 0 0 0 0 0 0 0 
0 0 0 0 0 0 0 0 0 
0 0 0 0 0 0 0 0 0 
0 0 0 0 0 0 0 0 0 
0 0 0 0 0 0 0 0 0 
0 0 0 0 0 0 0 0 0 
0 0 0 0 0 0 0 0 0 
0 0 0 0 0 0 0 0 0 
0 0 0 0 0 0 0 0 0 
0 0 0 0 0 0 0 0 0 
0 0 0 0 0 0 0 0 0 
0 0 0 0 0 0 0 0 0 
0 0 0 0 0 0 0 0 0 
0 0 0 0 0 0 0 0 0 
0 0 0 0 0 0 0 0 0 
0 0 0 0 0 0 0 0 0 
0 0 0 0 0 0 0 0 0 
0 0 0 0 0 0 0 0 0 
0 0 0 0 0 0 0 0 0 
0 0 0 0 0 0 0 0 0 
0 0 0 0 0 0 0 0 0 
0 0 0 0 0 0 0 0 0 
0 0 0 0 0 0 0 0 0 
0 0 0 0 0 0 0 0 0 
0 0 0 0 0 0 0 0 0 
0 0 0 0 0 0 0 0 0 
0 0 0 0 0 0 0 0 0 
0 0 0 0 0 0 0 0 0 
0 0 0 0 0 0 0 0 0 
0 0 0 0 0 0 0 0 0 
0 0 0 0 0 0 0 0 0 
0 0 0 0 0 0 0 0 0 
0 0 0 0 0 0 0 0 0 
0 0 0 0 0 0 0 0 0 
0 0 0 0 0 0 0 0 0 
0 0 0 0 0 0 0 0 0 
0 0 0 0 0 0 0 0 0 
0 0 0 0 0 0 0 0 0 
0 0 0 0 0 0 0 0 0 
0 0 0 0 0 0 0 0 0 
0 0 0 0 0 0 0 0 0 
0 0 0 0 0 0 0 0 0 
0 0 0 0 0 0 0 0 0 
0 0 0 0 0 0 0 0 0 
0 0 0 0 0 0 0 0 0 
0 0 0 0 0 0 0 0 0 
0 0 0 0 0 0 0 0 0 
0 0 0 0 0 0 0 0 0 
0 0 0 0 0 0 0 0 0 
0 0 0 0 0 0 0 0 0 
0 0 0 0 0 0 0 0 0 
0 0 0 0 0 0 0 0 0 
0 0 0 0 0 0 0 0 0 
0 0 0 0 0 0 0 0 0 
0 0 0 0 0 0 0 0 0 
0 0 0 0 0 0 0 0 0 
0 0 0 0 0 0 0 0 0 
0 0 0 0 0 0 0 0 0 
0 0 0 0 0 0 0 0 0 
0 0 0 0 0 0 0 0 0 
0 0 0 0 0 0 0 0 0 
0 0 0 0 0 0 0 0 0 
0 0 0 0 0 0 0 0 0 
0 0 0 0 0 0 0 0 0 
0 0 0 0 0 0 0 0 0 
0 0 0 0 0 0 0 0 0 
0 0 0 0 0 0 0 0 0 
0 0 0 0 0 0 0 0 0 
0 0 0 0 0 0 0 0 0 
0 0 0 0 0 0 0 0 0 
0 0 0 0 0 0 0 0 0 
0 0 0 0 0 0 0 0 0 
0 0 0 0 0 0 0 0 0 
0 0 0 0 0 0 0 0 0 
0 0 0 0 0 0 0 0 0 
0 0 0 0 0 0 0 0 0 
0 0 0 0 0 0 0 0 0 
0 0 0 0 0 0 0 0 0 
0 0 0 0 0 0 0 0 0 
0 0 0 0 0 0 0 0 0 
0 0 0 0 0 0 0 0 0 
0 0 0 0 0 0 0 0 0 
0 0 0 0 0 0 0 0 0 
0 0 0 0 0 0 0 0 0 
0 0 0 0 0 0 0 0 0 
0 0 0 0 0 0 0 0 0 
0 0 0 0 0 0 0 0 0 
0 0 0 0 0 0 0 0 0 
0 0 0 0 0 0 0 0 0 
0 0 0 0 0 0 0 0 0 
0 0 0 0 0 0 0 0 0 
0 0 0 0 0 0 0 0 0 
0 0 0 0 0 0 0 0 0 
0 0 0 0 0 0 0 0 0 
0 0 0 0 0 0 0 0 0 
0 0 0 0 0 0 0 0 0 
0 0 0 0 0 0 0 0 0 
0 0 0 0 0 0 0 0 0 
0 0 0 0 0 0 0 0 0 
0 0 0 0 0 0 0 0 0 
0 0 0 0 0 0 0 0 0 
0 0 0 0 0 0 0 0 0 
0 0 0 0 0 0 0 0 0 
0 0 0 0 0 0 0 0 0 
0 0 0 0 0 0 0 0 0 
0 0 0 0 0 0 0 0 0 
0 0 0 0 0 0 0 0 0 
0 0 0 0 0 0 0 0 0 
0 0 0 0 0 0 0 0 0 
0 0 0 0 0 0 0 0 0 
0 0 0 0 0 0 0 0 0 
0 0 0 0 0 0 0 0 0 
0 0 0 0 0 0 0 0 0 
0 0 0 0 0 0 0 0 0 
0 0 0 0 0 0 0 0 0 
0 0 0 0 0 0 0 0 0 
0 0 0 0 0 0 0 0 0 
0 0 0 0 0 0 0 0 0 
0 0 0 0 0 0 0 0 0 
0 0 0 0 0 0 0 0 0 
0 0 0 0 0 0 0 0 0 
0 0 0 0 0 0 0 0 0 
0 0 0 0 0 0 0 0 0 
0 0 0 0 0 0 0 0 0 
0 0 0 0 0 0 0 0 0 
0 0 0 0 0 0 0 0 0 
0 0 0 0 0 0 0 0 0 
0 0 0 0 0 0 0 0 0 
0 0 0 0 0 0 0 0 0 
0 0 0 0 0 0 0 0 0 
0 0 0 0 0 0 0 0 0 
0 0 0 0 0 0 0 0 0 
0 0 0 0 0 0 0 0 0 
0 0 0 0 0 0 0 0 0 
0 0 0 0 0 0 0 0 0 
0 0 0 0 0 0 0 0 0 
0 0 0 0 0 0 0 0 0 
0 0 0 0 0 0 0 0 0 
0 0 0 0 0 0 0 0 0 
0 0 0 0 0 0 0 0 0 
0 0 0 0 0 0 0 0 0 
0 0 0 0 0 0 0 0 0 
0 0 0 0 0 0 0 0 0 
0 0 0 0 0 0 0 0 0 
0 0 0 0 0 0 0 0 0 
0 0 0 0 0 0 0 0 0 
0 0 0 0 0 0 0 0 0 
0 0 0 0 0 0 0 0 0 
0 0 0 0 0 0 0 0 0 
0 0 0 0 0 0 0 0 0 
0 0 0 0 0 0 0 0 0 
0 0 0 0 0 0 0 0 0 
0 0 0 0 0 0 0 0 0 
0 0 0 0 0 0 0 0 0 
0 0 0 0 0 0 0 0 0 
0 0 0 0 0 0 0 0 0 
0 0 0 0 0 0 0 0 0 
0 0 0 0 0 0 0 0 0 
0 0 0 0 0 0 0 0 0 
0 0 0 0 0 0 0 0 0 
0 0 0 0 0 0 0 0 0 
0 0 0 0 0 0 0 0 0 
0 0 0 0 0 0 0 0 0 
0 0 0 0 0 0 0 0 0 
0 0 0 0 0 0 0 0 0 
0 0 0 0 0 0 0 0 0 
0 0 0 0 0 0 0 0 0 
0 0 0 0 0 0 0 0 0 
0 0 0 0 0 0 0 0 0 
0 0 0 0 0 0 0 0 0 
0 0 0 0 0 0 0 0 0 
0 0 0 0 0 0 0 0 0 
0 0 0 0 0 0 0 0 0 
0 0 0 0 0 0 0 0 0 
0 0 0 0 0 0 0 0 0 
0 0 0 0 0 0 0 0 0 
0 0 0 0 0 0 0 0 0 
0 0 0 0 0 0 0 0 0 
0 0 0 0 0 0 0 0 0 
0 0 0 0 0 0 0 0 0 
0 0 0 0 0 0 0 0 0 
0 0 0 0 0 0 0 0 0 
0 0 0 0 0 0 0 0 0 
0 0 0 0 0 0 0 0 0 
0 0 0 0 0 0 0 0 0 
0 0 0 0 0 0 0 0 0 
0 0 0 0 0 0 0 0 0 
0 0 0 0 0 0 0 0 0 
0 0 0 0 0 0 0 0 0 
0 0 0 0 0 0 0 0 0 
0 0 0 0 0 0 0 0 0 
0 0 0 0 0 0 0 0 0 
0 0 0 0 0 0 0 0 0 
0 0 0 0 0 0 0 0 0 
0 0 0 0 0 0 0 0 0 
0 0 0 0 0 0 0 0 0 
0 0 0 0 0 0 0 0 0 
0 0 0 0 0 0 0 0 0 
0 0 0 0 0 0 0 0 0 
0 0 0 0 0 0 0 0 0 
0 0 0 0 0 0 0 0 0 
0 0 0 0 0 0 0 0 0 
0 0 0 0 0 0 0 0 0 
0 0 0 0 0 0 0 0 0 
0 0 0 0 0 0 0 0 0 
0 0 0 0 0 0 0 0 0 
0 0 0 0 0 0 0 0 0 
0 0 0 0 0 0 0 0 0 
0 0 0 0 0 0 0 0 0 
0 0 0 0 0 0 0 0 0 
0 0 0 0 0 0 0 0 0 
0 0 0 0 0 0 0 0 0 
0 0 0 0 0 0 0 0 0 
0 0 0 0 0 0 0 0 0 
0 0 0 0 0 0 0 0 0 
0 0 0 0 0 0 0 0 0 
0 0 0 0 0 0 0 0 0 
0 0 0 0 0 0 0 0 0 
0 0 0 0 0 0 0 0 0 
0 0 0 0 0 0 0 0 0 
0 0 0 0 0 0 0 0 0 
0 0 0 0 0 0 0 0 0 
0 0 0 0 0 0 0 0 0 
0 0 0 0 0 0 0 0 0 
0 0 0 0 0 0 0 0 0 
0 0 0 0 0 0 0 0 0 
0 0 0 0 0 0 0 0 0 
0 0 0 0 0 0 0 0 0 
0 0 0 0 0 0 0 0 0 
0 0 0 0 0 0 0 0 0 
0 0 0 0 0 0 0 0 0 
0 0 0 0 0 0 0 0 0 
0 0 0 0 0 0 0 0 0 
0 0 0 0 0 0 0 0 0 
0 0 0 0 0 0 0 0 0 
0 0 0 0 0 0 0 0 0 
0 0 0 0 0 0 0 0 0 
0 0 0 0 0 0 0 0 0 
0 0 0 0 0 0 0 0 0 
0 0 0 0 0 0 0 0 0 
0 0 0 0 0 0 0 0 0 
0 0 0 0 0 0 0 0 0 
0 0 0 0 0 0 0 0 0 
0 0 0 0 0 0 0 0 0 
0 0 0 0 0 0 0 0 0 
0 0 0 0 0 0 0 0 0 
0 0 0 0 0 0 0 0 0 
0 0 0 0 0 0 0 0 0 
0 0 0 0 0 0 0 0 0 
0 0 0 0 0 0 0 0 0 
0 0 0 0 0 0 0 0 0 
0 0 0 0 0 0 0 0 0 
0 0 0 0 0 0 0 0 0 
0 0 0 0 0 0 0 0 0 
0 0 0 0 0 0 0 0 0 
0 0 0 0 0 0 0 0 0 
0 0 0 0 0 0 0 0 0 
0 0 0 0 0 0 0 0 0 
0 0 0 0 0 0 0 0 0 
0 0 0 0 0 0 0 0 0 
0 0 0 0 0 0 0 0 0 
0 0 0 0 0 0 0 0 0 
0 0 0 0 0 0 0 0 0 
0 0 0 0 0 0 0 0 0 
0 0 0 0 0 0 0 0 0 
0 0 0 0 0 0 0 0 0 
0 0 0 0 0 0 0 0 0 
0 0 0 0 0 0 0 0 0 
0 0 0 0 0 0 0 0 0 
0 0 0 0 0 0 0 0 0 
0 0 0 0 0 0 0 0 0 
0 0 0 0 0 0 0 0 0 
0 0 0 0 0 0 0 0 0 
0 0 0 0 0 0 0 0 0 
0 0 0 0 0 0 0 0 0 
0 0 0 0 0 0 0 0 0 
0 0 0 0 0 0 0 0 0 
0 0 0 0 0 0 0 0 0 
0 0 0 0 0 0 0 0 0 
0 0 0 0 0 0 0 0 0 
0 0 0 0 0 0 0 0 0 
0 0 0 0 0 0 0 0 0 
0 0 0 0 0 0 0 0 0 
0 0 0 0 0 0 0 0 0 
0 0 0 0 0 0 0 0 0 
0 0 0 0 0 0 0 0 0 
0 0 0 0 0 0 0 0 0 
0 0 0 0 0 0 0 0 0 
0 0 0 0 0 0 0 0 0 
0 0 0 0 0 0 0 0 0 
0 0 0 0 0 0 0 0 0 
0 0 0 0 0 0 0 0 0 
0 0 0 0 0 0 0 0 0 
0 0 0 0 0 0 0 0 0 
0 0 0 0 0 0 0 0 0 
0 0 0 0 0 0 0 0 0 
0 0 0 0 0 0 0 0 0 
0 0 0 0 0 0 0 0 0 
0 0 0 0 0 0 0 0 0 
0 0 0 0 0 0 0 0 0 
0 0 0 0 0 0 0 0 0 
0 0 0 0 0 0 0 0 0 
0 0 0 0 0 0 0 0 0 
0 0 0 0 0 0 0 0 0 
0 0 0 0 0 0 0 0 0 
0 0 0 0 0 0 0 0 0 
0 0 0 0 0 0 0 0 0 
0 0 0 0 0 0 0 0 0 
0 0 0 0 0 0 0 0 0 
0 0 0 0 0 0 0 0 0 
0 0 0 0 0 0 0 0 0 
0 0 0 0 0 0 0 0 0 
0 0 0 0 0 0 0 0 0 
0 0 0 0 0 0 0 0 0 
0 0 0 0 0 0 0 0 0 
0 0 0 0 0 0 0 0 0 
0 0 0 0 0 0 0 0 0 
0 0 0 0 0 0 0 0 0 
0 0 0 0 0 0 0 0 0 
0 0 0 0 0 0 0 0 0 
0 0 0 0 0 0 0 0 0 
0 0 0 0 0 0 0 0 0 
0 0 0 0 0 0 0 0 0 
0 0 0 0 0 0 0 0 0 
0 0 0 0 0 0 0 0 0 
0 0 0 0 0 0 0 0 0 
0 0 0 0 0 0 0 0 0 
0 0 0 0 0 0 0 0 0 
0 0 0 0 0 0 0 0 0 
0 0 0 0 0 0 0 0 0 
0 0 0 0 0 0 0 0 0 
0 0 0 0 0 0 0 0 0 
0 0 0 0 0 0 0 0 0 
0 0 0 0 0 0 0 0 0 
0 0 0 0 0 0 0 0 0 
0 0 0 0 0 0 0 0 0 
0 0 0 0 0 0 0 0 0 
0 0 0 0 0 0 0 0 0 
0 0 0 0 0 0 0 0 0 
0 0 0 0 0 0 0 0 0 
0 0 0 0 0 0 0 0 0 
0 0 0 0 0 0 0 0 0 
0 0 0 0 0 0 0 0 0 
0 0 0 0 0 0 0 0 0 
0 0 0 0 0 0 0 0 0 
0 0 0 0 0 0 0 0 0 
0 0 0 0 0 0 0 0 0 
0 0 0 0 0 0 0 0 0 
0 0 0 0 0 0 0 0 0 
0 0 0 0 0 0 0 0 0 
0 0 0 0 0 0 0 0 0 
0 0 0 0 0 0 0 0 0 
0 0 0 0 0 0 0 0 0 
0 0 0 0 0 0 0 0 0 
0 0 0 0 0 0 0 0 0 
0 0 0 0 0 0 0 0 0 
0 0 0 0 0 0 0 0 0 
0 0 0 0 0 0 0 0 0 
0 0 0 0 0 0 0 0 0 
0 0 0 0 0 0 0 0 0 
0 0 0 0 0 0 0 0 0 
0 0 0 0 0 0 0 0 0 
0 0 0 0 0 0 0 0 0 
0 0 0 0 0 0 0 0 0 
0 0 0 0 0 0 0 0 0 
0 0 0 0 0 0 0 0 0 
0 0 0 0 0 0 0 0 0 
0 0 0 0 0 0 0 0 0 
0 0 0 0 0 0 0 0 0 
0 0 0 0 0 0 0 0 0 
0 0 0 0 0 0 0 0 0 
0 0 0 0 0 0 0 0 0 
0 0 0 0 0 0 0 0 0 
0 0 0 0 0 0 0 0 0 
0 0 0 0 0 0 0 0 0 
0 0 0 0 0 0 0 0 0 
0 0 0 0 0 0 0 0 0 
0 0 0 0 0 0 0 0 0 
0 0 0 0 0 0 0 0 0 
0 0 0 0 0 0 0 0 0 
0 0 0 0 0 0 0 0 0 
0 0 0 0 0 0 0 0 0 
0 0 0 0 0 0 0 0 0 
0 0 0 0 0 0 0 0 0 
0 0 0 0 0 0 0 0 0 
0 0 0 0 0 0 0 0 0 
0 0 0 0 0 0 0 0 0 
0 0 0 0 0 0 0 0 0 
0 0 0 0 0 0 0 0 0 
0 0 0 0 0 0 0 0 0 
0 0 0 0 0 0 0 0 0 
0 0 0 0 0 0 0 0 0 
0 0 0 0 0 0 0 0 0 
0 0 0 0 0 0 0 0 0 
0 0 0 0 0 0 0 0 0 
0 0 0 0 0 0 0 0 0 
0 0 0 0 0 0 0 0 0 
0 0 0 0 0 0 0 0 0 
0 0 0 0 0 0 0 0 0 
0 0 0 0 0 0 0 0 0 
0 0 0 0 0 0 0 0 0 
0 0 0 0 0 0 0 0 0 
0 0 0 0 0 0 0 0 0 
0 0 0 0 0 0 0 0 0 
0 0 0 0 0 0 0 0 0 
0 0 0 0 0 0 0 0 0 
0 0 0 0 0 0 0 0 0 
0 0 0 0 0 0 0 0 0 
0 0 0 0 0 0 0 0 0 
0 0 0 0 0 0 0 0 0 
0 0 0 0 0 0 0 0 0 
0 0 0 0 0 0 0 0 0 
0 0 0 0 0 0 0 0 0 
0 0 0 0 0 0 0 0 0 
0 0 0 0 0 0 0 0 0 
0 0 0 0 0 0 0 0 0 
0 0 0 0 0 0 0 0 0 
0 0 0 0 0 0 0 0 0 
0 0 0 0 0 0 0 0 0 
0 0 0 0 0 0 0 0 0 
0 0 0 0 0 0 0 0 0 
0 0 0 0 0 0 0 0 0 
0 0 0 0 0 0 0 0 0 
0 0 0 0 0 0 0 0 0 
0 0 0 0 0 0 0 0 0 
0 0 0 0 0 0 0 0 0 
0 0 0 0 0 0 0 0 0 
0 0 0 0 0 0 0 0 0 
0 0 0 0 0 0 0 0 0 
0 0 0 0 0 0 0 0 0 
0 0 0 0 0 0 0 0 0 
0 0 0 0 0 0 0 0 0 
0 0 0 0 0 0 0 0 0 
0 0 0 0 0 0 0 0 0 
0 0 0 0 0 0 0 0 0 
0 0 0 0 0 0 0 0 0 
0 0 0 0 0 0 0 0 0 
0 0 0 0 0 0 0 0 0 
0 0 0 0 0 0 0 0 0 
0 0 0 0 0 0 0 0 0 
0 0 0 0 0 0 0 0 0 
0 0 0 0 0 0 0 0 0 
0 0 0 0 0 0 0 0 0 
0 0 0 0 0 0 0 0 0 
0 0 0 0 0 0 0 0 0 
0 0 0 0 0 0 0 0 0 
0 0 0 0 0 0 0 0 0 
0 0 0 0 0 0 0 0 0 
0 0 0 0 0 0 0 0 0 
0 0 0 0 0 0 0 0 0 
0 0 0 0 0 0 0 0 0 
0 0 0 0 0 0 0 0 0 
0 0 0 0 0 0 0 0 0 
0 0 0 0 0 0 0 0 0 
0 0 0 0 0 0 0 0 0 
0 0 0 0 0 0 0 0 0 
0 0 0 0 0 0 0 0 0 
0 0 0 0 0 0 0 0 0 
0 0 0 0 0 0 0 0 0 
0 0 0 0 0 0 0 0 0 
0 0 0 0 0 0 0 0 0 
0 0 0 0 0 0 0 0 0 
0 0 0 0 0 0 0 0 0 
0 0 0 0 0 0 0 0 0 
0 0 0 0 0 0 0 0 0 
0 0 0 0 0 0 0 0 0 
0 0 0 0 0 0 0 0 0 
0 0 0 0 0 0 0 0 0 
0 0 0 0 0 0 0 0 0 
0 0 0 0 0 0 0 0 0 
0 0 0 0 0 0 0 0 0 
0 0 0 0 0 0 0 0 0 
0 0 0 0 0 0 0 0 0 
0 0 0 0 0 0 0 0 0 
0 0 0 0 0 0 0 0 0 
0 0 0 0 0 0 0 0 0 
0 0 0 0 0 0 0 0 0 
0 0 0 0 0 0 0 0 0 
0 0 0 0 0 0 0 0 0 
0 0 0 0 0 0 0 0 0 
0 0 0 0 0 0 0 0 0 
0 0 0 0 0 0 0 0 0 
0 0 0 0 0 0 0 0 0 
0 0 0 0 0 0 0 0 0 
0 0 0 0 0 0 0 0 0 
0 0 0 0 0 0 0 0 0 
0 0 0 0 0 0 0 0 0 
0 0 0 0 0 0 0 0 0 
0 0 0 0 0 0 0 0 0 
0 0 0 0 0 0 0 0 0 
0 0 0 0 0 0 0 0 0 
0 0 0 0 0 0 0 0 0 
0 0 0 0 0 0 0 0 0 
0 0 0 0 0 0 0 0 0 
0 0 0 0 0 0 0 0 0 
0 0 0 0 0 0 0 0 0 
0 0 0 0 0 0 0 0 0 
0 0 0 0 0 0 0 0 0 
0 0 0 0 0 0 0 0 0 
0 0 0 0 0 0 0 0 0 
0 0 0 0 0 0 0 0 0 
0 0 0 0 0 0 0 0 0 
0 0 0 0 0 0 0 0 0 
0 0 0 0 0 0 0 0 0 
0 0 0 0 0 0 0 0 0 
0 0 0 0 0 0 0 0 0 
0 0 0 0 0 0 0 0 0 
0 0 0 0 0 0 0 0 0 
0 0 0 0 0 0 0 0 0 
0 0 0 0 0 0 0 0 0 
0 0 0 0 0 0 0 0 0 
0 0 0 0 0 0 0 0 0 
0 0 0 0 0 0 0 0 0 
0 0 0 0 0 0 0 0 0 
0 0 0 0 0 0 0 0 0 
0 0 0 0 0 0 0 0 0 
0 0 0 0 0 0 0 0 0 
0 0 0 0 0 0 0 0 0 
0 0 0 0 0 0 0 0 0 
0 0 0 0 0 0 0 0 0 
0 0 0 0 0 0 0 0 0 
0 0 0 0 0 0 0 0 0 
0 0 0 0 0 0 0 0 0 
0 0 0 0 0 0 0 0 0 
0 0 0 0 0 0 0 0 0 
0 0 0 0 0 0 0 0 0 
0 0 0 0 0 0 0 0 0 
0 0 0 0 0 0 0 0 0 
0 0 0 0 0 0 0 0 0 
0 0 0 0 0 0 0 0 0 
0 0 0 0 0 0 0 0 0 
0 0 0 0 0 0 0 0 0 
0 0 0 0 0 0 0 0 0 
0 0 0 0 0 0 0 0 0 
0 0 0 0 0 0 0 0 0 
0 0 0 0 0 0 0 0 0 
0 0 0 0 0 0 0 0 0 
0 0 0 0 0 0 0 0 0 
0 0 0 0 0 0 0 0 0 
0 0 0 0 0 0 0 0 0 
0 0 0 0 0 0 0 0 0 
0 0 0 0 0 0 0 0 0 
0 0 0 0 0 0 0 0 0 
0 0 0 0 0 0 0 0 0 
0 0 0 0 0 0 0 0 0 
0 0 0 0 0 0 0 0 0 
0 0 0 0 0 0 0 0 0 
0 0 0 0 0 0 0 0 0 
0 0 0 0 0 0 0 0 0 
0 0 0 0 0 0 0 0 0 
0 0 0 0 0 0 0 0 0 
0 0 0 0 0 0 0 0 0 
0 0 0 0 0 0 0 0 0 
0 0 0 0 0 0 0 0 0 
0 0 0 0 0 0 0 0 0 
0 0 0 0 0 0 0 0 0 
0 0 0 0 0 0 0 0 0 
0 0 0 0 0 0 0 0 0 
0 0 0 0 0 0 0 0 0 
0 0 0 0 0 0 0 0 0 
0 0 0 0 0 0 0 0 0 
0 0 0 0 0 0 0 0 0 
0 0 0 0 0 0 0 0 0 
0 0 0 0 0 0 0 0 0 
0 0 0 0 0 0 0 0 0 
0 0 0 0 0 0 0 0 0 
0 0 0 0 0 0 0 0 0 
0 0 0 0 0 0 0 0 0 
0 0 0 0 0 0 0 0 0 
0 0 0 0 0 0 0 0 0 
0 0 0 0 0 0 0 0 0 
0 0 0 0 0 0 0 0 0 
0 0 0 0 0 0 0 0 0 
0 0 0 0 0 0 0 0 0 
0 0 0 0 0 0 0 0 0 
0 0 0 0 0 0 0 0 0 
0 0 0 0 0 0 0 0 0 
0 0 0 0 0 0 0 0 0 
0 0 0 0 0 0 0 0 0 
0 0 0 0 0 0 0 0 0 
0 0 0 0 0 0 0 0 0 
0 0 0 0 0 0 0 0 0 
0 0 0 0 0 0 0 0 0 
0 0 0 0 0 0 0 0 0 
0 0 0 0 0 0 0 0 0 
0 0 0 0 0 0 0 0 0 
0 0 0 0 0 0 0 0 0 
0 0 0 0 0 0 0 0 0 
0 0 0 0 0 0 0 0 0 
0 0 0 0 0 0 0 0 0 
0 0 0 0 0 0 0 0 0 
0 0 0 0 0 0 0 0 0 
0 0 0 0 0 0 0 0 0 
0 0 0 0 0 0 0 0 0 
0 0 0 0 0 0 0 0 0 
0 0 0 0 0 0 0 0 0 
0 0 0 0 0 0 0 0 0 
0 0 0 0 0 0 0 0 0 
0 0 0 0 0 0 0 0 0 
0 0 0 0 0 0 0 0 0 
0 0 0 0 0 0 0 0 0 
0 0 0 0 0 0 0 0 0 
0 0 0 0 0 0 0 0 0 
0 0 0 0 0 0 0 0 0 
0 0 0 0 0 0 0 0 0 
0 0 0 0 0 0 0 0 0 
0 0 0 0 0 0 0 0 0 
0 0 0 0 0 0 0 0 0 
0 0 0 0 0 0 0 0 0 
0 0 0 0 0 0 0 0 0 
0 0 0 0 0 0 0 0 0 
0 0 0 0 0 0 0 0 0 
0 0 0 0 0 0 0 0 0 
0 0 0 0 0 0 0 0 0 
0 0 0 0 0 0 0 0 0 
0 0 0 0 0 0 0 0 0 
0 0 0 0 0 0 0 0 0 
0 0 0 0 0 0 0 0 0 
0 0 0 0 0 0 0 0 0 
0 0 0 0 0 0 0 0 0 
0 0 0 0 0 0 0 0 0 
0 0 0 0 0 0 0 0 0 
0 0 0 0 0 0 0 0 0 
0 0 0 0 0 0 0 0 0 
0 0 0 0 0 0 0 0 0 
0 0 0 0 0 0 0 0 0 
0 0 0 0 0 0 0 0 0 
0 0 0 0 0 0 0 0 0 
0 0 0 0 0 0 0 0 0 
0 0 0 0 0 0 0 0 0 
0 0 0 0 0 0 0 0 0 
0 0 0 0 0 0 0 0 0 
0 0 0 0 0 0 0 0 0 
0 0 0 0 0 0 0 0 0 
0 0 0 0 0 0 0 0 0 
0 0 0 0 0 0 0 0 0 
0 0 0 0 0 0 0 0 0 
0 0 0 0 0 0 0 0 0 
0 0 0 0 0 0 0 0 0 
0 0 0 0 0 0 0 0 0 
0 0 0 0 0 0 0 0 0 
0 0 0 0 0 0 0 0 0 
0 0 0 0 0 0 0 0 0 
0 0 0 0 0 0 0 0 0 
0 0 0 0 0 0 0 0 0 
0 0 0 0 0 0 0 0 0 
0 0 0 0 0 0 0 0 0 
0 0 0 0 0 0 0 0 0 
0 0 0 0 0 0 0 0 0 
0 0 0 0 0 0 0 0 0 
0 0 0 0 0 0 0 0 0 
0 0 0 0 0 0 0 0 0 
0 0 0 0 0 0 0 0 0 
0 0 0 0 0 0 0 0 0 
0 0 0 0 0 0 0 0 0 
0 0 0 0 0 0 0 0 0 
0 0 0 0 0 0 0 0 0 
0 0 0 0 0 0 0 0 0 
0 0 0 0 0 0 0 0 0 
0 0 0 0 0 0 0 0 0 
0 0 0 0 0 0 0 0 0 
0 0 0 0 0 0 0 0 0 
0 0 0 0 0 0 0 0 0 
0 0 0 0 0 0 0 0 0 
0 0 0 0 0 0 0 0 0 
0 0 0 0 0 0 0 0 0 
0 0 0 0 0 0 0 0 0 
0 0 0 0 0 0 0 0 0 
0 0 0 0 0 0 0 0 0 
0 0 0 0 0 0 0 0 0 
0 0 0 0 0 0 0 0 0 
0 0 0 0 0 0 0 0 0 
0 0 0 0 0 0 0 0 0 
0 0 0 0 0 0 0 0 0 
0 0 0 0 0 0 0 0 0 
0 0 0 0 0 0 0 0 0 
0 0 0 0 0 0 0 0 0 
0 0 0 0 0 0 0 0 0 
0 0 0 0 0 0 0 0 0 
0 0 0 0 0 0 0 0 0 
0 0 0 0 0 0 0 0 0 
0 0 0 0 0 0 0 0 0 
0 0 0 0 0 0 0 0 0 
0 0 0 0 0 0 0 0 0 
0 0 0 0 0 0 0 0 0 
0 0 0 0 0 0 0 0 0 
0 0 0 0 0 0 0 0 0 
0 0 0 0 0 0 0 0 0 
0 0 0 0 0 0 0 0 0 
0 0 0 0 0 0 0 0 0 
0 0 0 0 0 0 0 0 0 
0 0 0 0 0 0 0 0 0 
0 0 0 0 0 0 0 0 0 
0 0 0 0 0 0 0 0 0 
0 0 0 0 0 0 0 0 0 
0 0 0 0 0 0 0 0 0 
0 0 0 0 0 0 0 0 0 
0 0 0 0 0 0 0 0 0 
0 0 0 0 0 0 0 0 0 
0 0 0 0 0 0 0 0 0 
0 0 0 0 0 0 0 0 0 
0 0 0 0 0 0 0 0 0 
0 0 0 0 0 0 0 0 0 
0 0 0 0 0 0 0 0 0 
0 0 0 0 0 0 0 0 0 
0 0 0 0 0 0 0 0 0 
0 0 0 0 0 0 0 0 0 
0 0 0 0 0 0 0 0 0 
0 0 0 0 0 0 0 0 0 
0 0 0 0 0 0 0 0 0 
0 0 0 0 0 0 0 0 0 
0 0 0 0 0 0 0 0 0 
0 0 0 0 0 0 0 0 0 
0 0 0 0 0 0 0 0 0 
0 0 0 0 0 0 0 0 0 
0 0 0 0 0 0 0 0 0 
0 0 0 0 0 0 0 0 0 
0 0 0 0 0 0 0 0 0 
0 0 0 0 0 0 0 0 0 
0 0 0 0 0 0 0 0 0 
0 0 0 0 0 0 0 0 0 
0 0 0 0 0 0 0 0 0 
0 0 0 0 0 0 0 0 0 
0 0 0 0 0 0 0 0 0 
0 0 0 0 0 0 0 0 0 
0 0 0 0 0 0 0 0 0 
0 0 0 0 0 0 0 0 0 
0 0 0 0 0 0 0 0 0 
0 0 0 0 0 0 0 0 0 
0 0 0 0 0 0 0 0 0 
0 0 0 0 0 0 0 0 0 
0 0 0 0 0 0 0 0 0 
0 0 0 0 0 0 0 0 0 
0 0 0 0 0 0 0 0 0 
0 0 0 0 0 0 0 0 0 
0 0 0 0 0 0 0 0 0 
0 0 0 0 0 0 0 0 0 
0 0 0 0 0 0 0 0 0 
0 0 0 0 0 0 0 0 0 
0 0 0 0 0 0 0 0 0 
0 0 0 0 0 0 0 0 0 
0 0 0 0 0 0 0 0 0 
0 0 0 0 0 0 0 0 0 
0 0 0 0 0 0 0 0 0 
0 0 0 0 0 0 0 0 0 
0 0 0 0 0 0 0 0 0 
0 0 0 0 0 0 0 0 0 
0 0 0 0 0 0 0 0 0 
0 0 0 0 0 0 0 0 0 
0 0 0 0 0 0 0 0 0 
0 0 0 0 0 0 0 0 0 
0 0 0 0 0 0 0 0 0 
0 0 0 0 0 0 0 0 0 
0 0 0 0 0 0 0 0 0 
0 0 0 0 0 0 0 0 0 
0 0 0 0 0 0 0 0 0 
0 0 0 0 0 0 0 0 0 
0 0 0 0 0 0 0 0 0 
0 0 0 0 0 0 0 0 0 
0 0 0 0 0 0 0 0 0 
0 0 0 0 0 0 0 0 0 
0 0 0 0 0 0 0 0 0 
0 0 0 0 0 0 0 0 0 
0 0 0 0 0 0 0 0 0 
0 0 0 0 0 0 0 0 0 
0 0 0 0 0 0 0 0 0 
0 0 0 0 0 0 0 0 0 
0 0 0 0 0 0 0 0 0 
0 0 0 0 0 0 0 0 0 
0 0 0 0 0 0 0 0 0 
0 0 0 0 0 0 0 0 0 
0 0 0 0 0 0 0 0 0 
0 0 0 0 0 0 0 0 0 
0 0 0 0 0 0 0 0 0 
0 0 0 0 0 0 0 0 0 
0 0 0 0 0 0 0 0 0 
0 0 0 0 0 0 0 0 0 
0 0 0 0 0 0 0 0 0 
0 0 0 0 0 0 0 0 0 
0 0 0 0 0 0 0 0 0 
0 0 0 0 0 0 0 0 0 
0 0 0 0 0 0 0 0 0 
0 0 0 0 0 0 0 0 0 
0 0 0 0 0 0 0 0 0 
0 0 0 0 0 0 0 0 0 
0 0 0 0 0 0 0 0 0 
0 0 0 0 0 0 0 0 0 
0 0 0 0 0 0 0 0 0 
0 0 0 0 0 0 0 0 0 
0 0 0 0 0 0 0 0 0 
0 0 0 0 0 0 0 0 0 
0 0 0 0 0 0 0 0 0 
0 0 0 0 0 0 0 0 0 
0 0 0 0 0 0 0 0 0 
0 0 0 0 0 0 0 0 0 
0 0 0 0 0 0 0 0 0 
0 0 0 0 0 0 0 0 0 
0 0 0 0 0 0 0 0 0 
0 0 0 0 0 0 0 0 0 
0 0 0 0 0 0 0 0 0 
0 0 0 0 0 0 0 0 0 
0 0 0 0 0 0 0 0 0 
0 0 0 0 0 0 0 0 0 
0 0 0 0 0 0 0 0 0 
0 0 0 0 0 0 0 0 0 
0 0 0 0 0 0 0 0 0 
0 0 0 0 0 0 0 0 0 
0 0 0 0 0 0 0 0 0 
0 0 0 0 0 0 0 0 0 
0 0 0 0 0 0 0 0 0 
0 0 0 0 0 0 0 0 0 
0 0 0 0 0 0 0 0 0 
0 0 0 0 0 0 0 0 0 
0 0 0 0 0 0 0 0 0 
0 0 0 0 0 0 0 0 0 
0 0 0 0 0 0 0 0 0 
0 0 0 0 0 0 0 0 0 
0 0 0 0 0 0 0 0 0 
0 0 0 0 0 0 0 0 0 
0 0 0 0 0 0 0 0 0 
0 0 0 0 0 0 0 0 0 
0 0 0 0 0 0 0 0 0 
0 0 0 0 0 0 0 0 0 
0 0 0 0 0 0 0 0 0 
0 0 0 0 0 0 0 0 0 
0 0 0 0 0 0 0 0 0 
0 0 0 0 0 0 0 0 0 
0 0 0 0 0 0 0 0 0 
0 0 0 0 0 0 0 0 0 
0 0 0 0 0 0 0 0 0 
0 0 0 0 0 0 0 0 0 
0 0 0 0 0 0 0 0 0 
0 0 0 0 0 0 0 0 0 
0 0 0 0 0 0 0 0 0 
0 0 0 0 0 0 0 0 0 
0 0 0 0 0 0 0 0 0 
0 0 0 0 0 0 0 0 0 
0 0 0 0 0 0 0 0 0 
0 0 0 0 0 0 0 0 0 
0 0 0 0 0 0 0 0 0 
0 0 0 0 0 0 0 0 0 
0 0 0 0 0 0 0 0 0 
0 0 0 0 0 0 0 0 0 
0 0 0 0 0 0 0 0 0 
0 0 0 0 0 0 0 0 0 
0 0 0 0 0 0 0 0 0 
0 0 0 0 0 0 0 0 0 
0 0 0 0 0 0 0 0 0 
0 0 0 0 0 0 0 0 0 
0 0 0 0 0 0 0 0 0 
0 0 0 0 0 0 0 0 0 
0 0 0 0 0 0 0 0 0 
0 0 0 0 0 0 0 0 0 
0 0 0 0 0 0 0 0 0 
0 0 0 0 0 0 0 0 0 
0 0 0 0 0 0 0 0 0 
0 0 0 0 0 0 0 0 0 
0 0 0 0 0 0 0 0 0 
0 0 0 0 0 0 0 0 0 
0 0 0 0 0 0 0 0 0 
0 0 0 0 0 0 0 0 0 
0 0 0 0 0 0 0 0 0 
0 0 0 0 0 0 0 0 0 
0 0 0 0 0 0 0 0 0 
0 0 0 0 0 0 0 0 0 
0 0 0 0 0 0 0 0 0 
0 0 0 0 0 0 0 0 0 
0 0 0 0 0 0 0 0 0 
0 0 0 0 0 0 0 0 0 
0 0 0 0 0 0 0 0 0 
0 0 0 0 0 0 0 0 0 
0 0 0 0 0 0 0 0 0 
0 0 0 0 0 0 0 0 0 
0 0 0 0 0 0 0 0 0 
0 0 0 0 0 0 0 0 0 
0 0 0 0 0 0 0 0 0 
0 0 0 0 0 0 0 0 0 
0 0 0 0 0 0 0 0 0 
0 0 0 0 0 0 0 0 0 
0 0 0 0 0 0 0 0 0 
0 0 0 0 0 0 0 0 0 
0 0 0 0 0 0 0 0 0 
0 0 0 0 0 0 0 0 0 
0 0 0 0 0 0 0 0 0 
0 0 0 0 0 0 0 0 0 
0 0 0 0 0 0 0 0 0 
0 0 0 0 0 0 0 0 0 
0 0 0 0 0 0 0 0 0 
0 0 0 0 0 0 0 0 0 
0 0 0 0 0 0 0 0 0 
0 0 0 0 0 0 0 0 0 
0 0 0 0 0 0 0 0 0 
0 0 0 0 0 0 0 0 0 
0 0 0 0 0 0 0 0 0 
0 0 0 0 0 0 0 0 0 
0 0 0 0 0 0 0 0 0 
0 0 0 0 0 0 0 0 0 
0 0 0 0 0 0 0 0 0 
0 0 0 0 0 0 0 0 0 
0 0 0 0 0 0 0 0 0 
0 0 0 0 0 0 0 0 0 
0 0 0 0 0 0 0 0 0 
0 0 0 0 0 0 0 0 0 
0 0 0 0 0 0 0 0 0 
0 0 0 0 0 0 0 0 0 
0 0 0 0 0 0 0 0 0 
0 0 0 0 0 0 0 0 0 
0 0 0 0 0 0 0 0 0 
0 0 0 0 0 0 0 0 0 
0 0 0 0 0 0 0 0 0 
0 0 0 0 0 0 0 0 0 
0 0 0 0 0 0 0 0 0 
0 0 0 0 0 0 0 0 0 
0 0 0 0 0 0 0 0 0 
0 0 0 0 0 0 0 0 0 
0 0 0 0 0 0 0 0 0 
0 0 0 0 0 0 0 0 0 
0 0 0 0 0 0 0 0 0 
0 0 0 0 0 0 0 0 0 
0 0 0 0 0 0 0 0 0 
0 0 0 0 0 0 0 0 0 
0 0 0 0 0 0 0 0 0 
0 0 0 0 0 0 0 0 0 
0 0 0 0 0 0 0 0 0 
0 0 0 0 0 0 0 0 0 
0 0 0 0 0 0 0 0 0 
0 0 0 0 0 0 0 0 0 
0 0 0 0 0 0 0 0 0 
0 0 0 0 0 0 0 0 0 
0 0 0 0 0 0 0 0 0 
0 0 0 0 0 0 0 0 0 
0 0 0 0 0 0 0 0 0 
0 0 0 0 0 0 0 0 0 
0 0 0 0 0 0 0 0 0 
0 0 0 0 0 0 0 0 0 
0 0 0 0 0 0 0 0 0 
0 0 0 0 0 0 0 0 0 
0 0 0 0 0 0 0 0 0 
0 0 0 0 0 0 0 0 0 
0 0 0 0 0 0 0 0 0 
0 0 0 0 0 0 0 0 0 
0 0 0 0 0 0 0 0 0 
0 0 0 0 0 0 0 0 0 
0 0 0 0 0 0 0 0 0 
0 0 0 0 0 0 0 0 0 
0 0 0 0 0 0 0 0 0 
0 0 0 0 0 0 0 0 0 
0 0 0 0 0 0 0 0 0 
0 0 0 0 0 0 0 0 0 
0 0 0 0 0 0 0 0 0 
0 0 0 0 0 0 0 0 0 
0 0 0 0 0 0 0 0 0 
0 0 0 0 0 0 0 0 0 
0 0 0 0 0 0 0 0 0 
0 0 0 0 0 0 0 0 0 
0 0 0 0 0 0 0 0 0 
0 0 0 0 0 0 0 0 0 
0 0 0 0 0 0 0 0 0 
0 0 0 0 0 0 0 0 0 
0 0 0 0 0 0 0 0 0 
0 0 0 0 0 0 0 0 0 
0 0 0 0 0 0 0 0 0 
0 0 0 0 0 0 0 0 0 
0 0 0 0 0 0 0 0 0 
0 0 0 0 0 0 0 0 0 
0 0 0 0 0 0 0 0 0 
0 0 0 0 0 0 0 0 0 
0 0 0 0 0 0 0 0 0 
0 0 0 0 0 0 0 0 0 
0 0 0 0 0 0 0 0 0 
0 0 0 0 0 0 0 0 0 
0 0 0 0 0 0 0 0 0 
0 0 0 0 0 0 0 0 0 
0 0 0 0 0 0 0 0 0 
0 0 0 0 0 0 0 0 0 
0 0 0 0 0 0 0 0 0 
0 0 0 0 0 0 0 0 0 
0 0 0 0 0 0 0 0 0 
0 0 0 0 0 0 0 0 0 
0 0 0 0 0 0 0 0 0 
0 0 0 0 0 0 0 0 0 
0 0 0 0 0 0 0 0 0 
0 0 0 0 0 0 0 0 0 
0 0 0 0 0 0 0 0 0 
0 0 0 0 0 0 0 0 0 
0 0 0 0 0 0 0 0 0 
0 0 0 0 0 0 0 0 0 
0 0 0 0 0 0 0 0 0 
0 0 0 0 0 0 0 0 0 
0 0 0 0 0 0 0 0 0 
0 0 0 0 0 0 0 0 0 
0 0 0 0 0 0 0 0 0 
0 0 0 0 0 0 0 0 0 
0 0 0 0 0 0 0 0 0 
0 0 0 0 0 0 0 0 0 
0 0 0 0 0 0 0 0 0 
0 0 0 0 0 0 0 0 0 
0 0 0 0 0 0 0 0 0 
0 0 0 0 0 0 0 0 0 
0 0 0 0 0 0 0 0 0 
0 0 0 0 0 0 0 0 0 
0 0 0 0 0 0 0 0 0 
0 0 0 0 0 0 0 0 0 
0 0 0 0 0 0 0 0 0 
0 0 0 0 0 0 0 0 0 
0 0 0 0 0 0 0 0 0 
0 0 0 0 0 0 0 0 0 
0 0 0 0 0 0 0 0 0 
0 0 0 0 0 0 0 0 0 
0 0 0 0 0 0 0 0 0 
0 0 0 0 0 0 0 0 0 
0 0 0 0 0 0 0 0 0 
0 0 0 0 0 0 0 0 0 
0 0 0 0 0 0 0 0 0 
0 0 0 0 0 0 0 0 0 
0 0 0 0 0 0 0 0 0 
0 0 0 0 0 0 0 0 0 
0 0 0 0 0 0 0 0 0 
0 0 0 0 0 0 0 0 0 
0 0 0 0 0 0 0 0 0 
0 0 0 0 0 0 0 0 0 
0 0 0 0 0 0 0 0 0 
0 0 0 0 0 0 0 0 0 
0 0 0 0 0 0 0 0 0 
0 0 0 0 0 0 0 0 0 
0 0 0 0 0 0 0 0 0 
0 0 0 0 0 0 0 0 0 
0 0 0 0 0 0 0 0 0 
0 0 0 0 0 0 0 0 0 
0 0 0 0 0 0 0 0 0 
0 0 0 0 0 0 0 0 0 
0 0 0 0 0 0 0 0 0 
0 0 0 0 0 0 0 0 0 
0 0 0 0 0 0 0 0 0 
0 0 0 0 0 0 0 0 0 
0 0 0 0 0 0 0 0 0 
0 0 0 0 0 0 0 0 0 
0 0 0 0 0 0 0 0 0 
0 0 0 0 0 0 0 0 0 
0 0 0 0 0 0 0 0 0 
0 0 0 0 0 0 0 0 0 
0 0 0 0 0 0 0 0 0 
0 0 0 0 0 0 0 0 0 
0 0 0 0 0 0 0 0 0 
0 0 0 0 0 0 0 0 0 
0 0 0 0 0 0 0 0 0 
0 0 0 0 0 0 0 0 0 
0 0 0 0 0 0 0 0 0 
0 0 0 0 0 0 0 0 0 
0 0 0 0 0 0 0 0 0 
0 0 0 0 0 0 0 0 0 
0 0 0 0 0 0 0 0 0 
0 0 0 0 0 0 0 0 0 
0 0 0 0 0 0 0 0 0 
0 0 0 0 0 0 0 0 0 
0 0 0 0 0 0 0 0 0 
0 0 0 0 0 0 0 0 0 
0 0 0 0 0 0 0 0 0 
0 0 0 0 0 0 0 0 0 
0 0 0 0 0 0 0 0 0 
0 0 0 0 0 0 0 0 0 
0 0 0 0 0 0 0 0 0 
0 0 0 0 0 0 0 0 0 
0 0 0 0 0 0 0 0 0 
0 0 0 0 0 0 0 0 0 
0 0 0 0 0 0 0 0 0 
0 0 0 0 0 0 0 0 0 
0 0 0 0 0 0 0 0 0 
0 0 0 0 0 0 0 0 0 
0 0 0 0 0 0 0 0 0 
0 0 0 0 0 0 0 0 0 
0 0 0 0 0 0 0 0 0 
0 0 0 0 0 0 0 0 0 
0 0 0 0 0 0 0 0 0 
0 0 0 0 0 0 0 0 0 
0 0 0 0 0 0 0 0 0 
0 0 0 0 0 0 0 0 0 
0 0 0 0 0 0 0 0 0 
0 0 0 0 0 0 0 0 0 
0 0 0 0 0 0 0 0 0 
0 0 0 0 0 0 0 0 0 
0 0 0 0 0 0 0 0 0 
0 0 0 0 0 0 0 0 0 
0 0 0 0 0 0 0 0 0 
0 0 0 0 0 0 0 0 0 
0 0 0 0 0 0 0 0 0 
0 0 0 0 0 0 0 0 0 
0 0 0 0 0 0 0 0 0 
0 0 0 0 0 0 0 0 0 
0 0 0 0 0 0 0 0 0 
0 0 0 0 0 0 0 0 0 
0 0 0 0 0 0 0 0 0 
0 0 0 0 0 0 0 0 0 
0 0 0 0 0 0 0 0 0 
0 0 0 0 0 0 0 0 0 
0 0 0 0 0 0 0 0 0 
0 0 0 0 0 0 0 0 0 
0 0 0 0 0 0 0 0 0 
0 0 0 0 0 0 0 0 0 
0 0 0 0 0 0 0 0 0 
0 0 0 0 0 0 0 0 0 
0 0 0 0 0 0 0 0 0 
0 0 0 0 0 0 0 0 0 
0 0 0 0 0 0 0 0 0 
0 0 0 0 0 0 0 0 0 
0 0 0 0 0 0 0 0 0 
0 0 0 0 0 0 0 0 0 
0 0 0 0 0 0 0 0 0 
0 0 0 0 0 0 0 0 0 
0 0 0 0 0 0 0 0 0 
0 0 0 0 0 0 0 0 0 
0 0 0 0 0 0 0 0 0 
0 0 0 0 0 0 0 0 0 
0 0 0 0 0 0 0 0 0 
0 0 0 0 0 0 0 0 0 
0 0 0 0 0 0 0 0 0 
0 0 0 0 0 0 0 0 0 
0 0 0 0 0 0 0 0 0 
0 0 0 0 0 0 0 0 0 
0 0 0 0 0 0 0 0 0 
0 0 0 0 0 0 0 0 0 
0 0 0 0 0 0 0 0 0 
0 0 0 0 0 0 0 0 0 
0 0 0 0 0 0 0 0 0 
0 0 0 0 0 0 0 0 0 
0 0 0 0 0 0 0 0 0 
0 0 0 0 0 0 0 0 0 
0 0 0 0 0 0 0 0 0 
0 0 0 0 0 0 0 0 0 
0 0 0 0 0 0 0 0 0 
0 0 0 0 0 0 0 0 0 
0 0 0 0 0 0 0 0 0 
0 0 0 0 0 0 0 0 0 
0 0 0 0 0 0 0 0 0 
0 0 0 0 0 0 0 0 0 
0 0 0 0 0 0 0 0 0 
0 0 0 0 0 0 0 0 0 
0 0 0 0 0 0 0 0 0 
0 0 0 0 0 0 0 0 0 
0 0 0 0 0 0 0 0 0 
0 0 0 0 0 0 0 0 0 
0 0 0 0 0 0 0 0 0 
0 0 0 0 0 0 0 0 0 
0 0 0 0 0 0 0 0 0 
0 0 0 0 0 0 0 0 0 
0 0 0 0 0 0 0 0 0 
0 0 0 0 0 0 0 0 0 
0 0 0 0 0 0 0 0 0 
0 0 0 0 0 0 0 0 0 
0 0 0 0 0 0 0 0 0 
0 0 0 0 0 0 0 0 0 
0 0 0 0 0 0 0 0 0 
0 0 0 0 0 0 0 0 0 
0 0 0 0 0 0 0 0 0 
0 0 0 0 0 0 0 0 0 
0 0 0 0 0 0 0 0 0 
0 0 0 0 0 0 0 0 0 
0 0 0 0 0 0 0 0 0 
0 0 0 0 0 0 0 0 0 
0 0 0 0 0 0 0 0 0 
0 0 0 0 0 0 0 0 0 
0 0 0 0 0 0 0 0 0 
0 0 0 0 0 0 0 0 0 
0 0 0 0 0 0 0 0 0 
0 0 0 0 0 0 0 0 0 
0 0 0 0 0 0 0 0 0 
0 0 0 0 0 0 0 0 0 
0 0 0 0 0 0 0 0 0 
0 0 0 0 0 0 0 0 0 
0 0 0 0 0 0 0 0 0 
0 0 0 0 0 0 0 0 0 
0 0 0 0 0 0 0 0 0 
0 0 0 0 0 0 0 0 0 
0 0 0 0 0 0 0 0 0 
0 0 0 0 0 0 0 0 0 
0 0 0 0 0 0 0 0 0 
0 0 0 0 0 0 0 0 0 
0 0 0 0 0 0 0 0 0 
0 0 0 0 0 0 0 0 0 
0 0 0 0 0 0 0 0 0 
0 0 0 0 0 0 0 0 0 
0 0 0 0 0 0 0 0 0 
0 0 0 0 0 0 0 0 0 
0 0 0 0 0 0 0 0 0 
0 0 0 0 0 0 0 0 0 
0 0 0 0 0 0 0 0 0 
0 0 0 0 0 0 0 0 0 
0 0 0 0 0 0 0 0 0 
0 0 0 0 0 0 0 0 0 
0 0 0 0 0 0 0 0 0 
0 0 0 0 0 0 0 0 0 
0 0 0 0 0 0 0 0 0 
0 0 0 0 0 0 0 0 0 
0 0 0 0 0 0 0 0 0 
0 0 0 0 0 0 0 0 0 
0 0 0 0 0 0 0 0 0 
0 0 0 0 0 0 0 0 0 
0 0 0 0 0 0 0 0 0 
0 0 0 0 0 0 0 0 0 
0 0 0 0 0 0 0 0 0 
0 0 0 0 0 0 0 0 0 
0 0 0 0 0 0 0 0 0 
0 0 0 0 0 0 0 0 0 
0 0 0 0 0 0 0 0 0 
0 0 0 0 0 0 0 0 0 
0 0 0 0 0 0 0 0 0 
0 0 0 0 0 0 0 0 0 
0 0 0 0 0 0 0 0 0 
0 0 0 0 0 0 0 0 0 
0 0 0 0 0 0 0 0 0 
0 0 0 0 0 0 0 0 0 
0 0 0 0 0 0 0 0 0 
0 0 0 0 0 0 0 0 0 
0 0 0 0 0 0 0 0 0 
0 0 0 0 0 0 0 0 0 
0 0 0 0 0 0 0 0 0 
0 0 0 0 0 0 0 0 0 
0 0 0 0 0 0 0 0 0 
0 0 0 0 0 0 0 0 0 
0 0 0 0 0 0 0 0 0 
0 0 0 0 0 0 0 0 0 
0 0 0 0 0 0 0 0 0 
0 0 0 0 0 0 0 0 0 
0 0 0 0 0 0 0 0 0 
0 0 0 0 0 0 0 0 0 
0 0 0 0 0 0 0 0 0 
0 0 0 0 0 0 0 0 0 
0 0 0 0 0 0 0 0 0 
0 0 0 0 0 0 0 0 0 
0 0 0 0 0 0 0 0 0 
0 0 0 0 0 0 0 0 0 
0 0 0 0 0 0 0 0 0 
0 0 0 0 0 0 0 0 0 
0 0 0 0 0 0 0 0 0 
0 0 0 0 0 0 0 0 0 
0 0 0 0 0 0 0 0 0 
0 0 0 0 0 0 0 0 0 
0 0 0 0 0 0 0 0 0 
0 0 0 0 0 0 0 0 0 
0 0 0 0 0 0 0 0 0 
0 0 0 0 0 0 0 0 0 
0 0 0 0 0 0 0 0 0 
0 0 0 0 0 0 0 0 0 
0 0 0 0 0 0 0 0 0 
0 0 0 0 0 0 0 0 0 
0 0 0 0 0 0 0 0 0 
0 0 0 0 0 0 0 0 0 
0 0 0 0 0 0 0 0 0 
0 0 0 0 0 0 0 0 0 
0 0 0 0 0 0 0 0 0 
0 0 0 0 0 0 0 0 0 
0 0 0 0 0 0 0 0 0 
0 0 0 0 0 0 0 0 0 
0 0 0 0 0 0 0 0 0 
0 0 0 0 0 0 0 0 0 
0 0 0 0 0 0 0 0 0 
0 0 0 0 0 0 0 0 0 
0 0 0 0 0 0 0 0 0 
0 0 0 0 0 0 0 0 0 
0 0 0 0 0 0 0 0 0 
0 0 0 0 0 0 0 0 0 
0 0 0 0 0 0 0 0 0 
0 0 0 0 0 0 0 0 0 
0 0 0 0 0 0 0 0 0 
0 0 0 0 0 0 0 0 0 
0 0 0 0 0 0 0 0 0 
0 0 0 0 0 0 0 0 0 
0 0 0 0 0 0 0 0 0 
0 0 0 0 0 0 0 0 0 
0 0 0 0 0 0 0 0 0 
0 0 0 0 0 0 0 0 0 
0 0 0 0 0 0 0 0 0 
0 0 0 0 0 0 0 0 0 
0 0 0 0 0 0 0 0 0 
0 0 0 0 0 0 0 0 0 
0 0 0 0 0 0 0 0 0 
0 0 0 0 0 0 0 0 0 
0 0 0 0 0 0 0 0 0 
0 0 0 0 0 0 0 0 0 
0 0 0 0 0 0 0 0 0 
0 0 0 0 0 0 0 0 0 
0 0 0 0 0 0 0 0 0 
0 0 0 0 0 0 0 0 0 
0 0 0 0 0 0 0 0 0 
0 0 0 0 0 0 0 0 0 
0 0 0 0 0 0 0 0 0 
0 0 0 0 0 0 0 0 0 
0 0 0 0 0 0 0 0 0 
0 0 0 0 0 0 0 0 0 
0 0 0 0 0 0 0 0 0 
0 0 0 0 0 0 0 0 0 
0 0 0 0 0 0 0 0 0 
0 0 0 0 0 0 0 0 0 
0 0 0 0 0 0 0 0 0 
0 0 0 0 0 0 0 0 0 
0 0 0 0 0 0 0 0 0 
0 0 0 0 0 0 0 0 0 
0 0 0 0 0 0 0 0 0 
0 0 0 0 0 0 0 0 0 
0 0 0 0 0 0 0 0 0 
0 0 0 0 0 0 0 0 0 
0 0 0 0 0 0 0 0 0 
0 0 0 0 0 0 0 0 0 
0 0 0 0 0 0 0 0 0 
0 0 0 0 0 0 0 0 0 
0 0 0 0 0 0 0 0 0 
0 0 0 0 0 0 0 0 0 
0 0 0 0 0 0 0 0 0 
0 0 0 0 0 0 0 0 0 
0 0 0 0 0 0 0 0 0 
0 0 0 0 0 0 0 0 0 
0 0 0 0 0 0 0 0 0 
0 0 0 0 0 0 0 0 0 
0 0 0 0 0 0 0 0 0 
0 0 0 0 0 0 0 0 0 
0 0 0 0 0 0 0 0 0 
0 0 0 0 0 0 0 0 0 
0 0 0 0 0 0 0 0 0 
0 0 0 0 0 0 0 0 0 
0 0 0 0 0 0 0 0 0 
0 0 0 0 0 0 0 0 0 
0 0 0 0 0 0 0 0 0 
0 0 0 0 0 0 0 0 0 
0 0 0 0 0 0 0 0 0 
0 0 0 0 0 0 0 0 0 
0 0 0 0 0 0 0 0 0 
0 0 0 0 0 0 0 0 0 
0 0 0 0 0 0 0 0 0 
0 0 0 0 0 0 0 0 0 
0 0 0 0 0 0 0 0 0 
0 0 0 0 0 0 0 0 0 
0 0 0 0 0 0 0 0 0 
0 0 0 0 0 0 0 0 0 
0 0 0 0 0 0 0 0 0 
0 0 0 0 0 0 0 0 0 
0 0 0 0 0 0 0 0 0 
0 0 0 0 0 0 0 0 0 
0 0 0 0 0 0 0 0 0 
0 0 0 0 0 0 0 0 0 
0 0 0 0 0 0 0 0 0 
0 0 0 0 0 0 0 0 0 
0 0 0 0 0 0 0 0 0 
0 0 0 0 0 0 0 0 0 
0 0 0 0 0 0 0 0 0 
0 0 0 0 0 0 0 0 0 
0 0 0 0 0 0 0 0 0 
0 0 0 0 0 0 0 0 0 
0 0 0 0 0 0 0 0 0 
0 0 0 0 0 0 0 0 0 
0 0 0 0 0 0 0 0 0 
0 0 0 0 0 0 0 0 0 
0 0 0 0 0 0 0 0 0 
0 0 0 0 0 0 0 0 0 
0 0 0 0 0 0 0 0 0 
0 0 0 0 0 0 0 0 0 
0 0 0 0 0 0 0 0 0 
0 0 0 0 0 0 0 0 0 
0 0 0 0 0 0 0 0 0 
0 0 0 0 0 0 0 0 0 
0 0 0 0 0 0 0 0 0 
0 0 0 0 0 0 0 0 0 
0 0 0 0 0 0 0 0 0 
0 0 0 0 0 0 0 0 0 
0 0 0 0 0 0 0 0 0 
0 0 0 0 0 0 0 0 0 
0 0 0 0 0 0 0 0 0 
0 0 0 0 0 0 0 0 0 
0 0 0 0 0 0 0 0 0 
0 0 0 0 0 0 0 0 0 
0 0 0 0 0 0 0 0 0 
0 0 0 0 0 0 0 0 0 
0 0 0 0 0 0 0 0 0 
0 0 0 0 0 0 0 0 0 
0 0 0 0 0 0 0 0 0 
0 0 0 0 0 0 0 0 0 
0 0 0 0 0 0 0 0 0 
0 0 0 0 0 0 0 0 0 
0 0 0 0 0 0 0 0 0 
0 0 0 0 0 0 0 0 0 
0 0 0 0 0 0 0 0 0 
0 0 0 0 0 0 0 0 0 
0 0 0 0 0 0 0 0 0 
0 0 0 0 0 0 0 0 0 
0 0 0 0 0 0 0 0 0 
0 0 0 0 0 0 0 0 0 
0 0 0 0 0 0 0 0 0 
0 0 0 0 0 0 0 0 0 
0 0 0 0 0 0 0 0 0 
0 0 0 0 0 0 0 0 0 
0 0 0 0 0 0 0 0 0 
0 0 0 0 0 0 0 0 0 
0 0 0 0 0 0 0 0 0 
0 0 0 0 0 0 0 0 0 
0 0 0 0 0 0 0 0 0 
0 0 0 0 0 0 0 0 0 
0 0 0 0 0 0 0 0 0 
0 0 0 0 0 0 0 0 0 
0 0 0 0 0 0 0 0 0 
0 0 0 0 0 0 0 0 0 
0 0 0 0 0 0 0 0 0 
0 0 0 0 0 0 0 0 0 
0 0 0 0 0 0 0 0 0 
0 0 0 0 0 0 0 0 0 
0 0 0 0 0 0 0 0 0 
0 0 0 0 0 0 0 0 0 
0 0 0 0 0 0 0 0 0 
0 0 0 0 0 0 0 0 0 
0 0 0 0 0 0 0 0 0 
0 0 0 0 0 0 0 0 0 
0 0 0 0 0 0 0 0 0 
0 0 0 0 0 0 0 0 0 
0 0 0 0 0 0 0 0 0 
0 0 0 0 0 0 0 0 0 
0 0 0 0 0 0 0 0 0 
0 0 0 0 0 0 0 0 0 
0 0 0 0 0 0 0 0 0 
0 0 0 0 0 0 0 0 0 
0 0 0 0 0 0 0 0 0 
0 0 0 0 0 0 0 0 0 
0 0 0 0 0 0 0 0 0 
0 0 0 0 0 0 0 0 0 
0 0 0 0 0 0 0 0 0 
0 0 0 0 0 0 0 0 0 
0 0 0 0 0 0 0 0 0 
0 0 0 0 0 0 0 0 0 
0 0 0 0 0 0 0 0 0 
0 0 0 0 0 0 0 0 0 
0 0 0 0 0 0 0 0 0 
0 0 0 0 0 0 0 0 0 
0 0 0 0 0 0 0 0 0 
0 0 0 0 0 0 0 0 0 
0 0 0 0 0 0 0 0 0 
0 0 0 0 0 0 0 0 0 
0 0 0 0 0 0 0 0 0 
0 0 0 0 0 0 0 0 0 
0 0 0 0 0 0 0 0 0 
0 0 0 0 0 0 0 0 0 
0 0 0 0 0 0 0 0 0 
0 0 0 0 0 0 0 0 0 
0 0 0 0 0 0 0 0 0 
0 0 0 0 0 0 0 0 0 
0 0 0 0 0 0 0 0 0 
0 0 0 0 0 0 0 0 0 
0 0 0 0 0 0 0 0 0 
0 0 0 0 0 0 0 0 0 
0 0 0 0 0 0 0 0 0 
0 0 0 0 0 0 0 0 0 
0 0 0 0 0 0 0 0 0 
0 0 0 0 0 0 0 0 0 
0 0 0 0 0 0 0 0 0 
0 0 0 0 0 0 0 0 0 
0 0 0 0 0 0 0 0 0 
0 0 0 0 0 0 0 0 0 
0 0 0 0 0 0 0 0 0 
0 0 0 0 0 0 0 0 0 
0 0 0 0 0 0 0 0 0 
0 0 0 0 0 0 0 0 0 
0 0 0 0 0 0 0 0 0 
0 0 0 0 0 0 0 0 0 
0 0 0 0 0 0 0 0 0 
0 0 0 0 0 0 0 0 0 
0 0 0 0 0 0 0 0 0 
0 0 0 0 0 0 0 0 0 
0 0 0 0 0 0 0 0 0 
0 0 0 0 0 0 0 0 0 
0 0 0 0 0 0 0 0 0 
0 0 0 0 0 0 0 0 0 
0 0 0 0 0 0 0 0 0 
0 0 0 0 0 0 0 0 0 
0 0 0 0 0 0 0 0 0 
0 0 0 0 0 0 0 0 0 
0 0 0 0 0 0 0 0 0 
0 0 0 0 0 0 0 0 0 
0 0 0 0 0 0 0 0 0 
0 0 0 0 0 0 0 0 0 
0 0 0 0 0 0 0 0 0 
0 0 0 0 0 0 0 0 0 
0 0 0 0 0 0 0 0 0 
0 0 0 0 0 0 0 0 0 
0 0 0 0 0 0 0 0 0 
0 0 0 0 0 0 0 0 0 
0 0 0 0 0 0 0 0 0 
0 0 0 0 0 0 0 0 0 
0 0 0 0 0 0 0 0 0 
0 0 0 0 0 0 0 0 0 
0 0 0 0 0 0 0 0 0 
0 0 0 0 0 0 0 0 0 
0 0 0 0 0 0 0 0 0 
0 0 0 0 0 0 0 0 0 
0 0 0 0 0 0 0 0 0 
0 0 0 0 0 0 0 0 0 
0 0 0 0 0 0 0 0 0 
0 0 0 0 0 0 0 0 0 
0 0 0 0 0 0 0 0 0 
0 0 0 0 0 0 0 0 0 
0 0 0 0 0 0 0 0 0 
0 0 0 0 0 0 0 0 0 
0 0 0 0 0 0 0 0 0 
0 0 0 0 0 0 0 0 0 
0 0 0 0 0 0 0 0 0 
0 0 0 0 0 0 0 0 0 
0 0 0 0 0 0 0 0 0 
0 0 0 0 0 0 0 0 0 
0 0 0 0 0 0 0 0 0 
0 0 0 0 0 0 0 0 0 
0 0 0 0 0 0 0 0 0 
0 0 0 0 0 0 0 0 0 
0 0 0 0 0 0 0 0 0 
0 0 0 0 0 0 0 0 0 
0 0 0 0 0 0 0 0 0 
0 0 0 0 0 0 0 0 0 
0 0 0 0 0 0 0 0 0 
0 0 0 0 0 0 0 0 0 
0 0 0 0 0 0 0 0 0 
0 0 0 0 0 0 0 0 0 
0 0 0 0 0 0 0 0 0 
0 0 0 0 0 0 0 0 0 
0 0 0 0 0 0 0 0 0 
0 0 0 0 0 0 0 0 0 
0 0 0 0 0 0 0 0 0 
0 0 0 0 0 0 0 0 0 
0 0 0 0 0 0 0 0 0 
0 0 0 0 0 0 0 0 0 
0 0 0 0 0 0 0 0 0 
0 0 0 0 0 0 0 0 0 
0 0 0 0 0 0 0 0 0 
0 0 0 0 0 0 0 0 0 
0 0 0 0 0 0 0 0 0 
0 0 0 0 0 0 0 0 0 
0 0 0 0 0 0 0 0 0 
0 0 0 0 0 0 0 0 0 
0 0 0 0 0 0 0 0 0 
0 0 0 0 0 0 0 0 0 
0 0 0 0 0 0 0 0 0 
0 0 0 0 0 0 0 0 0 
0 0 0 0 0 0 0 0 0 
0 0 0 0 0 0 0 0 0 
0 0 0 0 0 0 0 0 0 
0 0 0 0 0 0 0 0 0 
0 0 0 0 0 0 0 0 0 
0 0 0 0 0 0 0 0 0 
0 0 0 0 0 0 0 0 0 
0 0 0 0 0 0 0 0 0 
0 0 0 0 0 0 0 0 0 
0 0 0 0 0 0 0 0 0 
0 0 0 0 0 0 0 0 0 
0 0 0 0 0 0 0 0 0 
0 0 0 0 0 0 0 0 0 
0 0 0 0 0 0 0 0 0 
0 0 0 0 0 0 0 0 0 
0 0 0 0 0 0 0 0 0 
0 0 0 0 0 0 0 0 0 
0 0 0 0 0 0 0 0 0 
0 0 0 0 0 0 0 0 0 
0 0 0 0 0 0 0 0 0 
0 0 0 0 0 0 0 0 0 
0 0 0 0 0 0 0 0 0 
0 0 0 0 0 0 0 0 0 
0 0 0 0 0 0 0 0 0 
0 0 0 0 0 0 0 0 0 
0 0 0 0 0 0 0 0 0 
0 0 0 0 0 0 0 0 0 
0 0 0 0 0 0 0 0 0 
0 0 0 0 0 0 0 0 0 
0 0 0 0 0 0 0 0 0 
0 0 0 0 0 0 0 0 0 
0 0 0 0 0 0 0 0 0 
0 0 0 0 0 0 0 0 0 
0 0 0 0 0 0 0 0 0 
0 0 0 0 0 0 0 0 0 
0 0 0 0 0 0 0 0 0 
0 0 0 0 0 0 0 0 0 
0 0 0 0 0 0 0 0 0 
0 0 0 0 0 0 0 0 0 
0 0 0 0 0 0 0 0 0 
0 0 0 0 0 0 0 0 0 
0 0 0 0 0 0 0 0 0 
0 0 0 0 0 0 0 0 0 
0 0 0 0 0 0 0 0 0 
0 0 0 0 0 0 0 0 0 
0 0 0 0 0 0 0 0 0 
0 0 0 0 0 0 0 0 0 
0 0 0 0 0 0 0 0 0 
0 0 0 0 0 0 0 0 0 
0 0 0 0 0 0 0 0 0 
0 0 0 0 0 0 0 0 0 
0 0 0 0 0 0 0 0 0 
0 0 0 0 0 0 0 0 0 
0 0 0 0 0 0 0 0 0 
0 0 0 0 0 0 0 0 0 
0 0 0 0 0 0 0 0 0 
0 0 0 0 0 0 0 0 0 
0 0 0 0 0 0 0 0 0 
0 0 0 0 0 0 0 0 0 
0 0 0 0 0 0 0 0 0 
0 0 0 0 0 0 0 0 0 
0 0 0 0 0 0 0 0 0 
0 0 0 0 0 0 0 0 0 
0 0 0 0 0 0 0 0 0 
0 0 0 0 0 0 0 0 0 
0 0 0 0 0 0 0 0 0 
0 0 0 0 0 0 0 0 0 
0 0 0 0 0 0 0 0 0 
0 0 0 0 0 0 0 0 0 
0 0 0 0 0 0 0 0 0 
0 0 0 0 0 0 0 0 0 
0 0 0 0 0 0 0 0 0 
0 0 0 0 0 0 0 0 0 
0 0 0 0 0 0 0 0 0 
0 0 0 0 0 0 0 0 0 
0 0 0 0 0 0 0 0 0 
0 0 0 0 0 0 0 0 0 
0 0 0 0 0 0 0 0 0 
0 0 0 0 0 0 0 0 0 
0 0 0 0 0 0 0 0 0 
0 0 0 0 0 0 0 0 0 
0 0 0 0 0 0 0 0 0 
0 0 0 0 0 0 0 0 0 
0 0 0 0 0 0 0 0 0 
0 0 0 0 0 0 0 0 0 
0 0 0 0 0 0 0 0 0 
0 0 0 0 0 0 0 0 0 
0 0 0 0 0 0 0 0 0 
0 0 0 0 0 0 0 0 0 
0 0 0 0 0 0 0 0 0 
0 0 0 0 0 0 0 0 0 
0 0 0 0 0 0 0 0 0 
0 0 0 0 0 0 0 0 0 
0 0 0 0 0 0 0 0 0 
0 0 0 0 0 0 0 0 0 
0 0 0 0 0 0 0 0 0 
0 0 0 0 0 0 0 0 0 
0 0 0 0 0 0 0 0 0 
0 0 0 0 0 0 0 0 0 
0 0 0 0 0 0 0 0 0 
0 0 0 0 0 0 0 0 0 
0 0 0 0 0 0 0 0 0 
0 0 0 0 0 0 0 0 0 
0 0 0 0 0 0 0 0 0 
0 0 0 0 0 0 0 0 0 
0 0 0 0 0 0 0 0 0 
0 0 0 0 0 0 0 0 0 
0 0 0 0 0 0 0 0 0 
0 0 0 0 0 0 0 0 0 
0 0 0 0 0 0 0 0 0 
0 0 0 0 0 0 0 0 0 
0 0 0 0 0 0 0 0 0 
0 0 0 0 0 0 0 0 0 
0 0 0 0 0 0 0 0 0 
0 0 0 0 0 0 0 0 0 
0 0 0 0 0 0 0 0 0 
0 0 0 0 0 0 0 0 0 
0 0 0 0 0 0 0 0 0 
0 0 0 0 0 0 0 0 0 
0 0 0 0 0 0 0 0 0 
0 0 0 0 0 0 0 0 0 
0 0 0 0 0 0 0 0 0 
0 0 0 0 0 0 0 0 0 
0 0 0 0 0 0 0 0 0 
0 0 0 0 0 0 0 0 0 
0 0 0 0 0 0 0 0 0 
0 0 0 0 0 0 0 0 0 
0 0 0 0 0 0 0 0 0 
0 0 0 0 0 0 0 0 0 
0 0 0 0 0 0 0 0 0 
0 0 0 0 0 0 0 0 0 
0 0 0 0 0 0 0 0 0 
0 0 0 0 0 0 0 0 0 
0 0 0 0 0 0 0 0 0 
0 0 0 0 0 0 0 0 0 
0 0 0 0 0 0 0 0 0 
0 0 0 0 0 0 0 0 0 
0 0 0 0 0 0 0 0 0 
0 0 0 0 0 0 0 0 0 
0 0 0 0 0 0 0 0 0 
0 0 0 0 0 0 0 0 0 
0 0 0 0 0 0 0 0 0 
0 0 0 0 0 0 0 0 0 
0 0 0 0 0 0 0 0 0 
0 0 0 0 0 0 0 0 0 
0 0 0 0 0 0 0 0 0 
0 0 0 0 0 0 0 0 0 
0 0 0 0 0 0 0 0 0 
0 0 0 0 0 0 0 0 0 
0 0 0 0 0 0 0 0 0 
0 0 0 0 0 0 0 0 0 
0 0 0 0 0 0 0 0 0 
0 0 0 0 0 0 0 0 0 
0 0 0 0 0 0 0 0 0 
0 0 0 0 0 0 0 0 0 
0 0 0 0 0 0 0 0 0 
0 0 0 0 0 0 0 0 0 
0 0 0 0 0 0 0 0 0 
0 0 0 0 0 0 0 0 0 
0 0 0 0 0 0 0 0 0 
0 0 0 0 0 0 0 0 0 
0 0 0 0 0 0 0 0 0 
0 0 0 0 0 0 0 0 0 
0 0 0 0 0 0 0 0 0 
0 0 0 0 0 0 0 0 0 
0 0 0 0 0 0 0 0 0 
0 0 0 0 0 0 0 0 0 
0 0 0 0 0 0 0 0 0 
0 0 0 0 0 0 0 0 0 
0 0 0 0 0 0 0 0 0 
0 0 0 0 0 0 0 0 0 
0 0 0 0 0 0 0 0 0 
0 0 0 0 0 0 0 0 0 
0 0 0 0 0 0 0 0 0 
0 0 0 0 0 0 0 0 0 
0 0 0 0 0 0 0 0 0 
0 0 0 0 0 0 0 0 0 
0 0 0 0 0 0 0 0 0 
0 0 0 0 0 0 0 0 0 
0 0 0 0 0 0 0 0 0 
0 0 0 0 0 0 0 0 0 
0 0 0 0 0 0 0 0 0 
0 0 0 0 0 0 0 0 0 
0 0 0 0 0 0 0 0 0 
0 0 0 0 0 0 0 0 0 
0 0 0 0 0 0 0 0 0 
0 0 0 0 0 0 0 0 0 
0 0 0 0 0 0 0 0 0 
0 0 0 0 0 0 0 0 0 
0 0 0 0 0 0 0 0 0 
0 0 0 0 0 0 0 0 0 
0 0 0 0 0 0 0 0 0 
0 0 0 0 0 0 0 0 0 
0 0 0 0 0 0 0 0 0 
0 0 0 0 0 0 0 0 0 
0 0 0 0 0 0 0 0 0 
0 0 0 0 0 0 0 0 0 
0 0 0 0 0 0 0 0 0 
0 0 0 0 0 0 0 0 0 
0 0 0 0 0 0 0 0 0 
0 0 0 0 0 0 0 0 0 
0 0 0 0 0 0 0 0 0 
0 0 0 0 0 0 0 0 0 
0 0 0 0 0 0 0 0 0 
0 0 0 0 0 0 0 0 0 
0 0 0 0 0 0 0 0 0 
0 0 0 0 0 0 0 0 0 
0 0 0 0 0 0 0 0 0 
0 0 0 0 0 0 0 0 0 
0 0 0 0 0 0 0 0 0 
0 0 0 0 0 0 0 0 0 
0 0 0 0 0 0 0 0 0 
0 0 0 0 0 0 0 0 0 
0 0 0 0 0 0 0 0 0 
0 0 0 0 0 0 0 0 0 
0 0 0 0 0 0 0 0 0 
0 0 0 0 0 0 0 0 0 
0 0 0 0 0 0 0 0 0 
0 0 0 0 0 0 0 0 0 
0 0 0 0 0 0 0 0 0 
0 0 0 0 0 0 0 0 0 
0 0 0 0 0 0 0 0 0 
0 0 0 0 0 0 0 0 0 
0 0 0 0 0 0 0 0 0 
0 0 0 0 0 0 0 0 0 
0 0 0 0 0 0 0 0 0 
0 0 0 0 0 0 0 0 0 
0 0 0 0 0 0 0 0 0 
0 0 0 0 0 0 0 0 0 
0 0 0 0 0 0 0 0 0 
0 0 0 0 0 0 0 0 0 
0 0 0 0 0 0 0 0 0 
0 0 0 0 0 0 0 0 0 
0 0 0 0 0 0 0 0 0 
0 0 0 0 0 0 0 0 0 
0 0 0 0 0 0 0 0 0 
0 0 0 0 0 0 0 0 0 
0 0 0 0 0 0 0 0 0 
0 0 0 0 0 0 0 0 0 
0 0 0 0 0 0 0 0 0 
0 0 0 0 0 0 0 0 0 
0 0 0 0 0 0 0 0 0 
0 0 0 0 0 0 0 0 0 
0 0 0 0 0 0 0 0 0 
0 0 0 0 0 0 0 0 0 
0 0 0 0 0 0 0 0 0 
0 0 0 0 0 0 0 0 0 
0 0 0 0 0 0 0 0 0 
0 0 0 0 0 0 0 0 0 
0 0 0 0 0 0 0 0 0 
0 0 0 0 0 0 0 0 0 
0 0 0 0 0 0 0 0 0 
0 0 0 0 0 0 0 0 0 
0 0 0 0 0 0 0 0 0 
0 0 0 0 0 0 0 0 0 
0 0 0 0 0 0 0 0 0 
0 0 0 0 0 0 0 0 0 
0 0 0 0 0 0 0 0 0 
0 0 0 0 0 0 0 0 0 
0 0 0 0 0 0 0 0 0 
0 0 0 0 0 0 0 0 0 
0 0 0 0 0 0 0 0 0 
0 0 0 0 0 0 0 0 0 
0 0 0 0 0 0 0 0 0 
0 0 0 0 0 0 0 0 0 
0 0 0 0 0 0 0 0 0 
0 0 0 0 0 0 0 0 0 
0 0 0 0 0 0 0 0 0 
0 0 0 0 0 0 0 0 0 
0 0 0 0 0 0 0 0 0 
0 0 0 0 0 0 0 0 0 
0 0 0 0 0 0 0 0 0 
0 0 0 0 0 0 0 0 0 
0 0 0 0 0 0 0 0 0 
0 0 0 0 0 0 0 0 0 
0 0 0 0 0 0 0 0 0 
0 0 0 0 0 0 0 0 0 
0 0 0 0 0 0 0 0 0 
0 0 0 0 0 0 0 0 0 
0 0 0 0 0 0 0 0 0 
0 0 0 0 0 0 0 0 0 
0 0 0 0 0 0 0 0 0 
0 0 0 0 0 0 0 0 0 
0 0 0 0 0 0 0 0 0 
0 0 0 0 0 0 0 0 0 
0 0 0 0 0 0 0 0 0 
0 0 0 0 0 0 0 0 0 
0 0 0 0 0 0 0 0 0 
0 0 0 0 0 0 0 0 0 
0 0 0 0 0 0 0 0 0 
0 0 0 0 0 0 0 0 0 
0 0 0 0 0 0 0 0 0 
0 0 0 0 0 0 0 0 0 
0 0 0 0 0 0 0 0 0 
0 0 0 0 0 0 0 0 0 
0 0 0 0 0 0 0 0 0 
0 0 0 0 0 0 0 0 0 
0 0 0 0 0 0 0 0 0 
0 0 0 0 0 0 0 0 0 
0 0 0 0 0 0 0 0 0 
0 0 0 0 0 0 0 0 0 
0 0 0 0 0 0 0 0 0 
0 0 0 0 0 0 0 0 0 
0 0 0 0 0 0 0 0 0 
0 0 0 0 0 0 0 0 0 
0 0 0 0 0 0 0 0 0 
0 0 0 0 0 0 0 0 0 
0 0 0 0 0 0 0 0 0 
0 0 0 0 0 0 0 0 0 
0 0 0 0 0 0 0 0 0 
0 0 0 0 0 0 0 0 0 
0 0 0 0 0 0 0 0 0 
0 0 0 0 0 0 0 0 0 
0 0 0 0 0 0 0 0 0 
0 0 0 0 0 0 0 0 0 
0 0 0 0 0 0 0 0 0 
0 0 0 0 0 0 0 0 0 
0 0 0 0 0 0 0 0 0 
0 0 0 0 0 0 0 0 0 
0 0 0 0 0 0 0 0 0 
0 0 0 0 0 0 0 0 0 
0 0 0 0 0 0 0 0 0 
0 0 0 0 0 0 0 0 0 
0 0 0 0 0 0 0 0 0 
0 0 0 0 0 0 0 0 0 
0 0 0 0 0 0 0 0 0 
0 0 0 0 0 0 0 0 0 
0 0 0 0 0 0 0 0 0 
0 0 0 0 0 0 0 0 0 
0 0 0 0 0 0 0 0 0 
0 0 0 0 0 0 0 0 0 
0 0 0 0 0 0 0 0 0 
0 0 0 0 0 0 0 0 0 
0 0 0 0 0 0 0 0 0 
0 0 0 0 0 0 0 0 0 
0 0 0 0 0 0 0 0 0 
0 0 0 0 0 0 0 0 0 
0 0 0 0 0 0 0 0 0 
0 0 0 0 0 0 0 0 0 
0 0 0 0 0 0 0 0 0 
0 0 0 0 0 0 0 0 0 
0 0 0 0 0 0 0 0 0 
0 0 0 0 0 0 0 0 0 
0 0 0 0 0 0 0 0 0 
0 0 0 0 0 0 0 0 0 
0 0 0 0 0 0 0 0 0 
0 0 0 0 0 0 0 0 0 
0 0 0 0 0 0 0 0 0 
0 0 0 0 0 0 0 0 0 
0 0 0 0 0 0 0 0 0 
0 0 0 0 0 0 0 0 0 
0 0 0 0 0 0 0 0 0 
0 0 0 0 0 0 0 0 0 
0 0 0 0 0 0 0 0 0 
0 0 0 0 0 0 0 0 0 
0 0 0 0 0 0 0 0 0 
0 0 0 0 0 0 0 0 0 
0 0 0 0 0 0 0 0 0 
0 0 0 0 0 0 0 0 0 
0 0 0 0 0 0 0 0 0 
0 0 0 0 0 0 0 0 0 
0 0 0 0 0 0 0 0 0 
0 0 0 0 0 0 0 0 0 
0 0 0 0 0 0 0 0 0 
0 0 0 0 0 0 0 0 0 
0 0 0 0 0 0 0 0 0 
0 0 0 0 0 0 0 0 0 
0 0 0 0 0 0 0 0 0 
0 0 0 0 0 0 0 0 0 
0 0 0 0 0 0 0 0 0 
0 0 0 0 0 0 0 0 0 
0 0 0 0 0 0 0 0 0 
0 0 0 0 0 0 0 0 0 
0 0 0 0 0 0 0 0 0 
0 0 0 0 0 0 0 0 0 
0 0 0 0 0 0 0 0 0 
0 0 0 0 0 0 0 0 0 
0 0 0 0 0 0 0 0 0 
0 0 0 0 0 0 0 0 0 
0 0 0 0 0 0 0 0 0 
0 0 0 0 0 0 0 0 0 
0 0 0 0 0 0 0 0 0 
0 0 0 0 0 0 0 0 0 
0 0 0 0 0 0 0 0 0 
0 0 0 0 0 0 0 0 0 
0 0 0 0 0 0 0 0 0 
0 0 0 0 0 0 0 0 0 
0 0 0 0 0 0 0 0 0 
0 0 0 0 0 0 0 0 0 
0 0 0 0 0 0 0 0 0 
0 0 0 0 0 0 0 0 0 
0 0 0 0 0 0 0 0 0 
0 0 0 0 0 0 0 0 0 
0 0 0 0 0 0 0 0 0 
0 0 0 0 0 0 0 0 0 
0 0 0 0 0 0 0 0 0 
0 0 0 0 0 0 0 0 0 
0 0 0 0 0 0 0 0 0 
0 0 0 0 0 0 0 0 0 
0 0 0 0 0 0 0 0 0 
0 0 0 0 0 0 0 0 0 
0 0 0 0 0 0 0 0 0 
0 0 0 0 0 0 0 0 0 
0 0 0 0 0 0 0 0 0 
0 0 0 0 0 0 0 0 0 
0 0 0 0 0 0 0 0 0 
0 0 0 0 0 0 0 0 0 
0 0 0 0 0 0 0 0 0 
0 0 0 0 0 0 0 0 0 
0 0 0 0 0 0 0 0 0 
0 0 0 0 0 0 0 0 0 
0 0 0 0 0 0 0 0 0 
0 0 0 0 0 0 0 0 0 
0 0 0 0 0 0 0 0 0 
0 0 0 0 0 0 0 0 0 
0 0 0 0 0 0 0 0 0 
0 0 0 0 0 0 0 0 0 
0 0 0 0 0 0 0 0 0 
0 0 0 0 0 0 0 0 0 
0 0 0 0 0 0 0 0 0 
0 0 0 0 0 0 0 0 0 
0 0 0 0 0 0 0 0 0 
0 0 0 0 0 0 0 0 0 
0 0 0 0 0 0 0 0 0 
0 0 0 0 0 0 0 0 0 
0 0 0 0 0 0 0 0 0 
0 0 0 0 0 0 0 0 0 
0 0 0 0 0 0 0 0 0 
0 0 0 0 0 0 0 0 0 
0 0 0 0 0 0 0 0 0 
0 0 0 0 0 0 0 0 0 
0 0 0 0 0 0 0 0 0 
0 0 0 0 0 0 0 0 0 
0 0 0 0 0 0 0 0 0 
0 0 0 0 0 0 0 0 0 
0 0 0 0 0 0 0 0 0 
0 0 0 0 0 0 0 0 0 
0 0 0 0 0 0 0 0 0 
0 0 0 0 0 0 0 0 0 
0 0 0 0 0 0 0 0 0 
0 0 0 0 0 0 0 0 0 
0 0 0 0 0 0 0 0 0 
0 0 0 0 0 0 0 0 0 
0 0 0 0 0 0 0 0 0 
0 0 0 0 0 0 0 0 0 
0 0 0 0 0 0 0 0 0 
0 0 0 0 0 0 0 0 0 
0 0 0 0 0 0 0 0 0 
0 0 0 0 0 0 0 0 0 
0 0 0 0 0 0 0 0 0 
0 0 0 0 0 0 0 0 0 
0 0 0 0 0 0 0 0 0 
0 0 0 0 0 0 0 0 0 
0 0 0 0 0 0 0 0 0 
0 0 0 0 0 0 0 0 0 
0 0 0 0 0 0 0 0 0 
0 0 0 0 0 0 0 0 0 
0 0 0 0 0 0 0 0 0 
0 0 0 0 0 0 0 0 0 
0 0 0 0 0 0 0 0 0 
0 0 0 0 0 0 0 0 0 
0 0 0 0 0 0 0 0 0 
0 0 0 0 0 0 0 0 0 
0 0 0 0 0 0 0 0 0 
0 0 0 0 0 0 0 0 0 
0 0 0 0 0 0 0 0 0 
0 0 0 0 0 0 0 0 0 
0 0 0 0 0 0 0 0 0 
0 0 0 0 0 0 0 0 0 
0 0 0 0 0 0 0 0 0 
0 0 0 0 0 0 0 0 0 
0 0 0 0 0 0 0 0 0 
0 0 0 0 0 0 0 0 0 
0 0 0 0 0 0 0 0 0 
0 0 0 0 0 0 0 0 0 
0 0 0 0 0 0 0 0 0 
0 0 0 0 0 0 0 0 0 
0 0 0 0 0 0 0 0 0 
0 0 0 0 0 0 0 0 0 
0 0 0 0 0 0 0 0 0 
0 0 0 0 0 0 0 0 0 
0 0 0 0 0 0 0 0 0 
0 0 0 0 0 0 0 0 0 
0 0 0 0 0 0 0 0 0 
0 0 0 0 0 0 0 0 0 
0 0 0 0 0 0 0 0 0 
0 0 0 0 0 0 0 0 0 
0 0 0 0 0 0 0 0 0 
0 0 0 0 0 0 0 0 0 
0 0 0 0 0 0 0 0 0 
0 0 0 0 0 0 0 0 0 
0 0 0 0 0 0 0 0 0 
0 0 0 0 0 0 0 0 0 
0 0 0 0 0 0 0 0 0 
0 0 0 0 0 0 0 0 0 
0 0 0 0 0 0 0 0 0 
0 0 0 0 0 0 0 0 0 
0 0 0 0 0 0 0 0 0 
0 0 0 0 0 0 0 0 0 
0 0 0 0 0 0 0 0 0 
0 0 0 0 0 0 0 0 0 
0 0 0 0 0 0 0 0 0 
0 0 0 0 0 0 0 0 0 
0 0 0 0 0 0 0 0 0 
0 0 0 0 0 0 0 0 0 
0 0 0 0 0 0 0 0 0 
0 0 0 0 0 0 0 0 0 
0 0 0 0 0 0 0 0 0 
0 0 0 0 0 0 0 0 0 
0 0 0 0 0 0 0 0 0 
0 0 0 0 0 0 0 0 0 
0 0 0 0 0 0 0 0 0 
0 0 0 0 0 0 0 0 0 
0 0 0 0 0 0 0 0 0 
0 0 0 0 0 0 0 0 0 
0 0 0 0 0 0 0 0 0 
0 0 0 0 0 0 0 0 0 
0 0 0 0 0 0 0 0 0 
0 0 0 0 0 0 0 0 0 
0 0 0 0 0 0 0 0 0 
0 0 0 0 0 0 0 0 0 
0 0 0 0 0 0 0 0 0 
0 0 0 0 0 0 0 0 0 
0 0 0 0 0 0 0 0 0 
0 0 0 0 0 0 0 0 0 
0 0 0 0 0 0 0 0 0 
0 0 0 0 0 0 0 0 0 
0 0 0 0 0 0 0 0 0 
0 0 0 0 0 0 0 0 0 
0 0 0 0 0 0 0 0 0 
0 0 0 0 0 0 0 0 0 
0 0 0 0 0 0 0 0 0 
0 0 0 0 0 0 0 0 0 
0 0 0 0 0 0 0 0 0 
0 0 0 0 0 0 0 0 0 
0 0 0 0 0 0 0 0 0 
0 0 0 0 0 0 0 0 0 
0 0 0 0 0 0 0 0 0 
0 0 0 0 0 0 0 0 0 
0 0 0 0 0 0 0 0 0 
0 0 0 0 0 0 0 0 0 
0 0 0 0 0 0 0 0 0 
0 0 0 0 0 0 0 0 0 
0 0 0 0 0 0 0 0 0 
0 0 0 0 0 0 0 0 0 
0 0 0 0 0 0 0 0 0 
0 0 0 0 0 0 0 0 0 
0 0 0 0 0 0 0 0 0 
0 0 0 0 0 0 0 0 0 
0 0 0 0 0 0 0 0 0 
0 0 0 0 0 0 0 0 0 
0 0 0 0 0 0 0 0 0 
0 0 0 0 0 0 0 0 0 
0 0 0 0 0 0 0 0 0 
0 0 0 0 0 0 0 0 0 
0 0 0 0 0 0 0 0 0 
0 0 0 0 0 0 0 0 0 
0 0 0 0 0 0 0 0 0 
0 0 0 0 0 0 0 0 0 
0 0 0 0 0 0 0 0 0 
0 0 0 0 0 0 0 0 0 
0 0 0 0 0 0 0 0 0 
0 0 0 0 0 0 0 0 0 
0 0 0 0 0 0 0 0 0 
0 0 0 0 0 0 0 0 0 
0 0 0 0 0 0 0 0 0 
0 0 0 0 0 0 0 0 0 
0 0 0 0 0 0 0 0 0 
0 0 0 0 0 0 0 0 0 
0 0 0 0 0 0 0 0 0 
0 0 0 0 0 0 0 0 0 
0 0 0 0 0 0 0 0 0 
0 0 0 0 0 0 0 0 0 
0 0 0 0 0 0 0 0 0 
0 0 0 0 0 0 0 0 0 
0 0 0 0 0 0 0 0 0 
0 0 0 0 0 0 0 0 0 
0 0 0 0 0 0 0 0 0 
0 0 0 0 0 0 0 0 0 
0 0 0 0 0 0 0 0 0 
0 0 0 0 0 0 0 0 0 
0 0 0 0 0 0 0 0 0 
0 0 0 0 0 0 0 0 0 
0 0 0 0 0 0 0 0 0 
0 0 0 0 0 0 0 0 0 
0 0 0 0 0 0 0 0 0 
0 0 0 0 0 0 0 0 0 
0 0 0 0 0 0 0 0 0 
0 0 0 0 0 0 0 0 0 
0 0 0 0 0 0 0 0 0 
0 0 0 0 0 0 0 0 0 
0 0 0 0 0 0 0 0 0 
0 0 0 0 0 0 0 0 0 
0 0 0 0 0 0 0 0 0 
0 0 0 0 0 0 0 0 0 
0 0 0 0 0 0 0 0 0 
0 0 0 0 0 0 0 0 0 
0 0 0 0 0 0 0 0 0 
0 0 0 0 0 0 0 0 0 
0 0 0 0 0 0 0 0 0 
0 0 0 0 0 0 0 0 0 
0 0 0 0 0 0 0 0 0 
0 0 0 0 0 0 0 0 0 
0 0 0 0 0 0 0 0 0 
0 0 0 0 0 0 0 0 0 
0 0 0 0 0 0 0 0 0 
0 0 0 0 0 0 0 0 0 
0 0 0 0 0 0 0 0 0 
0 0 0 0 0 0 0 0 0 
0 0 0 0 0 0 0 0 0 
0 0 0 0 0 0 0 0 0 
0 0 0 0 0 0 0 0 0 
0 0 0 0 0 0 0 0 0 
0 0 0 0 0 0 0 0 0 
0 0 0 0 0 0 0 0 0 
0 0 0 0 0 0 0 0 0 
0 0 0 0 0 0 0 0 0 
0 0 0 0 0 0 0 0 0 
0 0 0 0 0 0 0 0 0 
0 0 0 0 0 0 0 0 0 
0 0 0 0 0 0 0 0 0 
0 0 0 0 0 0 0 0 0 
0 0 0 0 0 0 0 0 0 
0 0 0 0 0 0 0 0 0 
0 0 0 0 0 0 0 0 0 
0 0 0 0 0 0 0 0 0 
0 0 0 0 0 0 0 0 0 
0 0 0 0 0 0 0 0 0 
0 0 0 0 0 0 0 0 0 
0 0 0 0 0 0 0 0 0 
0 0 0 0 0 0 0 0 0 
0 0 0 0 0 0 0 0 0 
0 0 0 0 0 0 0 0 0 
0 0 0 0 0 0 0 0 0 
0 0 0 0 0 0 0 0 0 
0 0 0 0 0 0 0 0 0 
0 0 0 0 0 0 0 0 0 
0 0 0 0 0 0 0 0 0 
0 0 0 0 0 0 0 0 0 
0 0 0 0 0 0 0 0 0 
0 0 0 0 0 0 0 0 0 
0 0 0 0 0 0 0 0 0 
0 0 0 0 0 0 0 0 0 
0 0 0 0 0 0 0 0 0 
0 0 0 0 0 0 0 0 0 
0 0 0 0 0 0 0 0 0 
0 0 0 0 0 0 0 0 0 
0 0 0 0 0 0 0 0 0 
0 0 0 0 0 0 0 0 0 
0 0 0 0 0 0 0 0 0 
0 0 0 0 0 0 0 0 0 
0 0 0 0 0 0 0 0 0 
0 0 0 0 0 0 0 0 0 
0 0 0 0 0 0 0 0 0 
0 0 0 0 0 0 0 0 0 
0 0 0 0 0 0 0 0 0 
0 0 0 0 0 0 0 0 0 
0 0 0 0 0 0 0 0 0 
0 0 0 0 0 0 0 0 0 
0 0 0 0 0 0 0 0 0 
0 0 0 0 0 0 0 0 0 
0 0 0 0 0 0 0 0 0 
0 0 0 0 0 0 0 0 0 
0 0 0 0 0 0 0 0 0 
0 0 0 0 0 0 0 0 0 
0 0 0 0 0 0 0 0 0 
0 0 0 0 0 0 0 0 0 
0 0 0 0 0 0 0 0 0 
0 0 0 0 0 0 0 0 0 
0 0 0 0 0 0 0 0 0 
0 0 0 0 0 0 0 0 0 
0 0 0 0 0 0 0 0 0 
0 0 0 0 0 0 0 0 0 
0 0 0 0 0 0 0 0 0 
0 0 0 0 0 0 0 0 0 
0 0 0 0 0 0 0 0 0 
0 0 0 0 0 0 0 0 0 
0 0 0 0 0 0 0 0 0 
0 0 0 0 0 0 0 0 0 
0 0 0 0 0 0 0 0 0 
0 0 0 0 0 0 0 0 0 
0 0 0 0 0 0 0 0 0 
0 0 0 0 0 0 0 0 0 
0 0 0 0 0 0 0 0 0 
0 0 0 0 0 0 0 0 0 
0 0 0 0 0 0 0 0 0 
0 0 0 0 0 0 0 0 0 
0 0 0 0 0 0 0 0 0 
0 0 0 0 0 0 0 0 0 
0 0 0 0 0 0 0 0 0 
0 0 0 0 0 0 0 0 0 
0 0 0 0 0 0 0 0 0 
0 0 0 0 0 0 0 0 0 
0 0 0 0 0 0 0 0 0 
0 0 0 0 0 0 0 0 0 
0 0 0 0 0 0 0 0 0 
0 0 0 0 0 0 0 0 0 
0 0 0 0 0 0 0 0 0 
0 0 0 0 0 0 0 0 0 
0 0 0 0 0 0 0 0 0 
0 0 0 0 0 0 0 0 0 
0 0 0 0 0 0 0 0 0 
0 0 0 0 0 0 0 0 0 
0 0 0 0 0 0 0 0 0 
0 0 0 0 0 0 0 0 0 
0 0 0 0 0 0 0 0 0 
0 0 0 0 0 0 0 0 0 
0 0 0 0 0 0 0 0 0 
0 0 0 0 0 0 0 0 0 
0 0 0 0 0 0 0 0 0 
0 0 0 0 0 0 0 0 0 
0 0 0 0 0 0 0 0 0 
0 0 0 0 0 0 0 0 0 
0 0 0 0 0 0 0 0 0 
0 0 0 0 0 0 0 0 0 
0 0 0 0 0 0 0 0 0 
0 0 0 0 0 0 0 0 0 
0 0 0 0 0 0 0 0 0 
0 0 0 0 0 0 0 0 0 
0 0 0 0 0 0 0 0 0 
0 0 0 0 0 0 0 0 0 
0 0 0 0 0 0 0 0 0 
0 0 0 0 0 0 0 0 0 
0 0 0 0 0 0 0 0 0 
0 0 0 0 0 0 0 0 0 
0 0 0 0 0 0 0 0 0 
0 0 0 0 0 0 0 0 0 
0 0 0 0 0 0 0 0 0 
0 0 0 0 0 0 0 0 0 
0 0 0 0 0 0 0 0 0 
0 0 0 0 0 0 0 0 0 
0 0 0 0 0 0 0 0 0 
0 0 0 0 0 0 0 0 0 
0 0 0 0 0 0 0 0 0 
0 0 0 0 0 0 0 0 0 
0 0 0 0 0 0 0 0 0 
0 0 0 0 0 0 0 0 0 
0 0 0 0 0 0 0 0 0 
0 0 0 0 0 0 0 0 0 
0 0 0 0 0 0 0 0 0 
0 0 0 0 0 0 0 0 0 
0 0 0 0 0 0 0 0 0 
0 0 0 0 0 0 0 0 0 
0 0 0 0 0 0 0 0 0 
0 0 0 0 0 0 0 0 0 
0 0 0 0 0 0 0 0 0 
0 0 0 0 0 0 0 0 0 
0 0 0 0 0 0 0 0 0 
0 0 0 0 0 0 0 0 0 
0 0 0 0 0 0 0 0 0 
0 0 0 0 0 0 0 0 0 
0 0 0 0 0 0 0 0 0 
0 0 0 0 0 0 0 0 0 
0 0 0 0 0 0 0 0 0 
0 0 0 0 0 0 0 0 0 
0 0 0 0 0 0 0 0 0 
0 0 0 0 0 0 0 0 0 
0 0 0 0 0 0 0 0 0 
0 0 0 0 0 0 0 0 0 
0 0 0 0 0 0 0 0 0 
0 0 0 0 0 0 0 0 0 
0 0 0 0 0 0 0 0 0 
0 0 0 0 0 0 0 0 0 
0 0 0 0 0 0 0 0 0 
0 0 0 0 0 0 0 0 0 
0 0 0 0 0 0 0 0 0 
0 0 0 0 0 0 0 0 0 
0 0 0 0 0 0 0 0 0 
0 0 0 0 0 0 0 0 0 
0 0 0 0 0 0 0 0 0 
0 0 0 0 0 0 0 0 0 
0 0 0 0 0 0 0 0 0 
0 0 0 0 0 0 0 0 0 
0 0 0 0 0 0 0 0 0 
0 0 0 0 0 0 0 0 0 
0 0 0 0 0 0 0 0 0 
0 0 0 0 0 0 0 0 0 
0 0 0 0 0 0 0 0 0 
0 0 0 0 0 0 0 0 0 
0 0 0 0 0 0 0 0 0 
0 0 0 0 0 0 0 0 0 
0 0 0 0 0 0 0 0 0 
0 0 0 0 0 0 0 0 0 
0 0 0 0 0 0 0 0 0 
0 0 0 0 0 0 0 0 0 
0 0 0 0 0 0 0 0 0 
0 0 0 0 0 0 0 0 0 
0 0 0 0 0 0 0 0 0 
0 0 0 0 0 0 0 0 0 
0 0 0 0 0 0 0 0 0 
0 0 0 0 0 0 0 0 0 
0 0 0 0 0 0 0 0 0 
0 0 0 0 0 0 0 0 0 
0 0 0 0 0 0 0 0 0 
0 0 0 0 0 0 0 0 0 
0 0 0 0 0 0 0 0 0 
0 0 0 0 0 0 0 0 0 
0 0 0 0 0 0 0 0 0 
0 0 0 0 0 0 0 0 0 
0 0 0 0 0 0 0 0 0 
0 0 0 0 0 0 0 0 0 
0 0 0 0 0 0 0 0 0 
0 0 0 0 0 0 0 0 0 
0 0 0 0 0 0 0 0 0 
0 0 0 0 0 0 0 0 0 
0 0 0 0 0 0 0 0 0 
0 0 0 0 0 0 0 0 0 
0 0 0 0 0 0 0 0 0 
0 0 0 0 0 0 0 0 0 
0 0 0 0 0 0 0 0 0 
0 0 0 0 0 0 0 0 0 
0 0 0 0 0 0 0 0 0 
0 0 0 0 0 0 0 0 0 
0 0 0 0 0 0 0 0 0 
0 0 0 0 0 0 0 0 0 
0 0 0 0 0 0 0 0 0 
0 0 0 0 0 0 0 0 0 
0 0 0 0 0 0 0 0 0 
0 0 0 0 0 0 0 0 0 
0 0 0 0 0 0 0 0 0 
0 0 0 0 0 0 0 0 0 
0 0 0 0 0 0 0 0 0 
0 0 0 0 0 0 0 0 0 
0 0 0 0 0 0 0 0 0 
0 0 0 0 0 0 0 0 0 
0 0 0 0 0 0 0 0 0 
0 0 0 0 0 0 0 0 0 
0 0 0 0 0 0 0 0 0 
0 0 0 0 0 0 0 0 0 
0 0 0 0 0 0 0 0 0 
0 0 0 0 0 0 0 0 0 
0 0 0 0 0 0 0 0 0 
0 0 0 0 0 0 0 0 0 
0 0 0 0 0 0 0 0 0 
0 0 0 0 0 0 0 0 0 
0 0 0 0 0 0 0 0 0 
0 0 0 0 0 0 0 0 0 
0 0 0 0 0 0 0 0 0 
0 0 0 0 0 0 0 0 0 
0 0 0 0 0 0 0 0 0 
0 0 0 0 0 0 0 0 0 
0 0 0 0 0 0 0 0 0 
0 0 0 0 0 0 0 0 0 
0 0 0 0 0 0 0 0 0 
0 0 0 0 0 0 0 0 0 
0 0 0 0 0 0 0 0 0 
0 0 0 0 0 0 0 0 0 
0 0 0 0 0 0 0 0 0 
0 0 0 0 0 0 0 0 0 
0 0 0 0 0 0 0 0 0 
0 0 0 0 0 0 0 0 0 
0 0 0 0 0 0 0 0 0 
0 0 0 0 0 0 0 0 0 
0 0 0 0 0 0 0 0 0 
0 0 0 0 0 0 0 0 0 
0 0 0 0 0 0 0 0 0 
0 0 0 0 0 0 0 0 0 
0 0 0 0 0 0 0 0 0 
0 0 0 0 0 0 0 0 0 
0 0 0 0 0 0 0 0 0 
0 0 0 0 0 0 0 0 0 
0 0 0 0 0 0 0 0 0 
0 0 0 0 0 0 0 0 0 
0 0 0 0 0 0 0 0 0 
0 0 0 0 0 0 0 0 0 
0 0 0 0 0 0 0 0 0 
0 0 0 0 0 0 0 0 0 
0 0 0 0 0 0 0 0 0 
0 0 0 0 0 0 0 0 0 
0 0 0 0 0 0 0 0 0 
0 0 0 0 0 0 0 0 0 
0 0 0 0 0 0 0 0 0 
0 0 0 0 0 0 0 0 0 
0 0 0 0 0 0 0 0 0 
0 0 0 0 0 0 0 0 0 
0 0 0 0 0 0 0 0 0 
0 0 0 0 0 0 0 0 0 
0 0 0 0 0 0 0 0 0 
0 0 0 0 0 0 0 0 0 
0 0 0 0 0 0 0 0 0 
0 0 0 0 0 0 0 0 0 
0 0 0 0 0 0 0 0 0 
0 0 0 0 0 0 0 0 0 
0 0 0 0 0 0 0 0 0 
0 0 0 0 0 0 0 0 0 
0 0 0 0 0 0 0 0 0 
0 0 0 0 0 0 0 0 0 
0 0 0 0 0 0 0 0 0 
0 0 0 0 0 0 0 0 0 
0 0 0 0 0 0 0 0 0 
0 0 0 0 0 0 0 0 0 
0 0 0 0 0 0 0 0 0 
0 0 0 0 0 0 0 0 0 
0 0 0 0 0 0 0 0 0 
0 0 0 0 0 0 0 0 0 
0 0 0 0 0 0 0 0 0 
0 0 0 0 0 0 0 0 0 
0 0 0 0 0 0 0 0 0 
0 0 0 0 0 0 0 0 0 
0 0 0 0 0 0 0 0 0 
0 0 0 0 0 0 0 0 0 
0 0 0 0 0 0 0 0 0 
0 0 0 0 0 0 0 0 0 
0 0 0 0 0 0 0 0 0 
0 0 0 0 0 0 0 0 0 
0 0 0 0 0 0 0 0 0 
0 0 0 0 0 0 0 0 0 
0 0 0 0 0 0 0 0 0 
0 0 0 0 0 0 0 0 0 
0 0 0 0 0 0 0 0 0 
0 0 0 0 0 0 0 0 0 
0 0 0 0 0 0 0 0 0 
0 0 0 0 0 0 0 0 0 
0 0 0 0 0 0 0 0 0 
0 0 0 0 0 0 0 0 0 
0 0 0 0 0 0 0 0 0 
0 0 0 0 0 0 0 0 0 
0 0 0 0 0 0 0 0 0 
0 0 0 0 0 0 0 0 0 
0 0 0 0 0 0 0 0 0 
0 0 0 0 0 0 0 0 0 
0 0 0 0 0 0 0 0 0 
0 0 0 0 0 0 0 0 0 
0 0 0 0 0 0 0 0 0 
0 0 0 0 0 0 0 0 0 
0 0 0 0 0 0 0 0 0 
0 0 0 0 0 0 0 0 0 
0 0 0 0 0 0 0 0 0 
0 0 0 0 0 0 0 0 0 
0 0 0 0 0 0 0 0 0 
0 0 0 0 0 0 0 0 0 
0 0 0 0 0 0 0 0 0 
0 0 0 0 0 0 0 0 0 
0 0 0 0 0 0 0 0 0 
0 0 0 0 0 0 0 0 0 
0 0 0 0 0 0 0 0 0 
0 0 0 0 0 0 0 0 0 
0 0 0 0 0 0 0 0 0 
0 0 0 0 0 0 0 0 0 
0 0 0 0 0 0 0 0 0 
0 0 0 0 0 0 0 0 0 
0 0 0 0 0 0 0 0 0 
0 0 0 0 0 0 0 0 0 
0 0 0 0 0 0 0 0 0 
0 0 0 0 0 0 0 0 0 
0 0 0 0 0 0 0 0 0 
0 0 0 0 0 0 0 0 0 
0 0 0 0 0 0 0 0 0 
0 0 0 0 0 0 0 0 0 
0 0 0 0 0 0 0 0 0 
0 0 0 0 0 0 0 0 0 
0 0 0 0 0 0 0 0 0 
0 0 0 0 0 0 0 0 0 
0 0 0 0 0 0 0 0 0 
0 0 0 0 0 0 0 0 0 
0 0 0 0 0 0 0 0 0 
0 0 0 0 0 0 0 0 0 
0 0 0 0 0 0 0 0 0 
0 0 0 0 0 0 0 0 0 
0 0 0 0 0 0 0 0 0 
0 0 0 0 0 0 0 0 0 
0 0 0 0 0 0 0 0 0 
0 0 0 0 0 0 0 0 0 
0 0 0 0 0 0 0 0 0 
0 0 0 0 0 0 0 0 0 
0 0 0 0 0 0 0 0 0 
0 0 0 0 0 0 0 0 0 
0 0 0 0 0 0 0 0 0 
0 0 0 0 0 0 0 0 0 
0 0 0 0 0 0 0 0 0 
0 0 0 0 0 0 0 0 0 
0 0 0 0 0 0 0 0 0 
0 0 0 0 0 0 0 0 0 
0 0 0 0 0 0 0 0 0 
0 0 0 0 0 0 0 0 0 
0 0 0 0 0 0 0 0 0 
0 0 0 0 0 0 0 0 0 
0 0 0 0 0 0 0 0 0 
0 0 0 0 0 0 0 0 0 
0 0 0 0 0 0 0 0 0 
0 0 0 0 0 0 0 0 0 
0 0 0 0 0 0 0 0 0 
0 0 0 0 0 0 0 0 0 
0 0 0 0 0 0 0 0 0 
0 0 0 0 0 0 0 0 0 
0 0 0 0 0 0 0 0 0 
0 0 0 0 0 0 0 0 0 
0 0 0 0 0 0 0 0 0 
0 0 0 0 0 0 0 0 0 
0 0 0 0 0 0 0 0 0 
0 0 0 0 0 0 0 0 0 
0 0 0 0 0 0 0 0 0 
0 0 0 0 0 0 0 0 0 
0 0 0 0 0 0 0 0 0 
0 0 0 0 0 0 0 0 0 
0 0 0 0 0 0 0 0 0 
0 0 0 0 0 0 0 0 0 
0 0 0 0 0 0 0 0 0 
0 0 0 0 0 0 0 0 0 
0 0 0 0 0 0 0 0 0 
0 0 0 0 0 0 0 0 0 
0 0 0 0 0 0 0 0 0 
0 0 0 0 0 0 0 0 0 
0 0 0 0 0 0 0 0 0 
0 0 0 0 0 0 0 0 0 
0 0 0 0 0 0 0 0 0 
0 0 0 0 0 0 0 0 0 
0 0 0 0 0 0 0 0 0 
0 0 0 0 0 0 0 0 0 
0 0 0 0 0 0 0 0 0 
0 0 0 0 0 0 0 0 0 
0 0 0 0 0 0 0 0 0 
0 0 0 0 0 0 0 0 0 
0 0 0 0 0 0 0 0 0 
0 0 0 0 0 0 0 0 0 
0 0 0 0 0 0 0 0 0 
0 0 0 0 0 0 0 0 0 
0 0 0 0 0 0 0 0 0 
0 0 0 0 0 0 0 0 0 
0 0 0 0 0 0 0 0 0 
0 0 0 0 0 0 0 0 0 
0 0 0 0 0 0 0 0 0 
0 0 0 0 0 0 0 0 0 
0 0 0 0 0 0 0 0 0 
0 0 0 0 0 0 0 0 0 
0 0 0 0 0 0 0 0 0 
0 0 0 0 0 0 0 0 0 
0 0 0 0 0 0 0 0 0 
0 0 0 0 0 0 0 0 0 
0 0 0 0 0 0 0 0 0 
0 0 0 0 0 0 0 0 0 
0 0 0 0 0 0 0 0 0 
0 0 0 0 0 0 0 0 0 
0 0 0 0 0 0 0 0 0 
0 0 0 0 0 0 0 0 0 
0 0 0 0 0 0 0 0 0 
0 0 0 0 0 0 0 0 0 
0 0 0 0 0 0 0 0 0 
0 0 0 0 0 0 0 0 0 
0 0 0 0 0 0 0 0 0 
0 0 0 0 0 0 0 0 0 
0 0 0 0 0 0 0 0 0 
0 0 0 0 0 0 0 0 0 
0 0 0 0 0 0 0 0 0 
0 0 0 0 0 0 0 0 0 
0 0 0 0 0 0 0 0 0 
0 0 0 0 0 0 0 0 0 
0 0 0 0 0 0 0 0 0 
0 0 0 0 0 0 0 0 0 
0 0 0 0 0 0 0 0 0 
0 0 0 0 0 0 0 0 0 
0 0 0 0 0 0 0 0 0 
0 0 0 0 0 0 0 0 0 
0 0 0 0 0 0 0 0 0 
0 0 0 0 0 0 0 0 0 
0 0 0 0 0 0 0 0 0 
0 0 0 0 0 0 0 0 0 
0 0 0 0 0 0 0 0 0 
0 0 0 0 0 0 0 0 0 
0 0 0 0 0 0 0 0 0 
0 0 0 0 0 0 0 0 0 
0 0 0 0 0 0 0 0 0 
0 0 0 0 0 0 0 0 0 
0 0 0 0 0 0 0 0 0 
0 0 0 0 0 0 0 0 0 
0 0 0 0 0 0 0 0 0 
0 0 0 0 0 0 0 0 0 
0 0 0 0 0 0 0 0 0 
0 0 0 0 0 0 0 0 0 
0 0 0 0 0 0 0 0 0 
0 0 0 0 0 0 0 0 0 
0 0 0 0 0 0 0 0 0 
0 0 0 0 0 0 0 0 0 
0 0 0 0 0 0 0 0 0 
0 0 0 0 0 0 0 0 0 
0 0 0 0 0 0 0 0 0 
0 0 0 0 0 0 0 0 0 
0 0 0 0 0 0 0 0 0 
0 0 0 0 0 0 0 0 0 
0 0 0 0 0 0 0 0 0 
0 0 0 0 0 0 0 0 0 
0 0 0 0 0 0 0 0 0 
0 0 0 0 0 0 0 0 0 
0 0 0 0 0 0 0 0 0 
0 0 0 0 0 0 0 0 0 
0 0 0 0 0 0 0 0 0 
0 0 0 0 0 0 0 0 0 
0 0 0 0 0 0 0 0 0 
0 0 0 0 0 0 0 0 0 
0 0 0 0 0 0 0 0 0 
0 0 0 0 0 0 0 0 0 
0 0 0 0 0 0 0 0 0 
0 0 0 0 0 0 0 0 0 
0 0 0 0 0 0 0 0 0 
0 0 0 0 0 0 0 0 0 
0 0 0 0 0 0 0 0 0 
0 0 0 0 0 0 0 0 0 
0 0 0 0 0 0 0 0 0 
0 0 0 0 0 0 0 0 0 
0 0 0 0 0 0 0 0 0 
0 0 0 0 0 0 0 0 0 
0 0 0 0 0 0 0 0 0 
0 0 0 0 0 0 0 0 0 
0 0 0 0 0 0 0 0 0 
0 0 0 0 0 0 0 0 0 
0 0 0 0 0 0 0 0 0 
0 0 0 0 0 0 0 0 0 
0 0 0 0 0 0 0 0 0 
0 0 0 0 0 0 0 0 0 
0 0 0 0 0 0 0 0 0 
0 0 0 0 0 0 0 0 0 
0 0 0 0 0 0 0 0 0 
0 0 0 0 0 0 0 0 0 
0 0 0 0 0 0 0 0 0 
0 0 0 0 0 0 0 0 0 
0 0 0 0 0 0 0 0 0 
0 0 0 0 0 0 0 0 0 
0 0 0 0 0 0 0 0 0 
0 0 0 0 0 0 0 0 0 
0 0 0 0 0 0 0 0 0 
0 0 0 0 0 0 0 0 0 
0 0 0 0 0 0 0 0 0 
0 0 0 0 0 0 0 0 0 
0 0 0 0 0 0 0 0 0 
0 0 0 0 0 0 0 0 0 
0 0 0 0 0 0 0 0 0 
0 0 0 0 0 0 0 0 0 
0 0 0 0 0 0 0 0 0 
0 0 0 0 0 0 0 0 0 
0 0 0 0 0 0 0 0 0 
0 0 0 0 0 0 0 0 0 
0 0 0 0 0 0 0 0 0 
0 0 0 0 0 0 0 0 0 
0 0 0 0 0 0 0 0 0 
0 0 0 0 0 0 0 0 0 
0 0 0 0 0 0 0 0 0 
0 0 0 0 0 0 0 0 0 
0 0 0 0 0 0 0 0 0 
0 0 0 0 0 0 0 0 0 
0 0 0 0 0 0 0 0 0 
0 0 0 0 0 0 0 0 0 
0 0 0 0 0 0 0 0 0 
0 0 0 0 0 0 0 0 0 
0 0 0 0 0 0 0 0 0 
0 0 0 0 0 0 0 0 0 
0 0 0 0 0 0 0 0 0 
0 0 0 0 0 0 0 0 0 
0 0 0 0 0 0 0 0 0 
0 0 0 0 0 0 0 0 0 
0 0 0 0 0 0 0 0 0 
0 0 0 0 0 0 0 0 0 
0 0 0 0 0 0 0 0 0 
0 0 0 0 0 0 0 0 0 
0 0 0 0 0 0 0 0 0 
0 0 0 0 0 0 0 0 0 
0 0 0 0 0 0 0 0 0 
0 0 0 0 0 0 0 0 0 
0 0 0 0 0 0 0 0 0 
0 0 0 0 0 0 0 0 0 
0 0 0 0 0 0 0 0 0 
0 0 0 0 0 0 0 0 0 
0 0 0 0 0 0 0 0 0 
0 0 0 0 0 0 0 0 0 
0 0 0 0 0 0 0 0 0 
0 0 0 0 0 0 0 0 0 
0 0 0 0 0 0 0 0 0 
0 0 0 0 0 0 0 0 0 
0 0 0 0 0 0 0 0 0 
0 0 0 0 0 0 0 0 0 
0 0 0 0 0 0 0 0 0 
0 0 0 0 0 0 0 0 0 
0 0 0 0 0 0 0 0 0 
0 0 0 0 0 0 0 0 0 
0 0 0 0 0 0 0 0 0 
0 0 0 0 0 0 0 0 0 
0 0 0 0 0 0 0 0 0 
0 0 0 0 0 0 0 0 0 
0 0 0 0 0 0 0 0 0 
0 0 0 0 0 0 0 0 0 
0 0 0 0 0 0 0 0 0 
0 0 0 0 0 0 0 0 0 
0 0 0 0 0 0 0 0 0 
0 0 0 0 0 0 0 0 0 
0 0 0 0 0 0 0 0 0 
0 0 0 0 0 0 0 0 0 
0 0 0 0 0 0 0 0 0 
0 0 0 0 0 0 0 0 0 
0 0 0 0 0 0 0 0 0 
0 0 0 0 0 0 0 0 0 
0 0 0 0 0 0 0 0 0 
0 0 0 0 0 0 0 0 0 
0 0 0 0 0 0 0 0 0 
0 0 0 0 0 0 0 0 0 
0 0 0 0 0 0 0 0 0 
0 0 0 0 0 0 0 0 0 
0 0 0 0 0 0 0 0 0 
0 0 0 0 0 0 0 0 0 
0 0 0 0 0 0 0 0 0 
0 0 0 0 0 0 0 0 0 
0 0 0 0 0 0 0 0 0 
0 0 0 0 0 0 0 0 0 
0 0 0 0 0 0 0 0 0 
0 0 0 0 0 0 0 0 0 
0 0 0 0 0 0 0 0 0 
0 0 0 0 0 0 0 0 0 
0 0 0 0 0 0 0 0 0 
0 0 0 0 0 0 0 0 0 
0 0 0 0 0 0 0 0 0 
0 0 0 0 0 0 0 0 0 
0 0 0 0 0 0 0 0 0 
0 0 0 0 0 0 0 0 0 
0 0 0 0 0 0 0 0 0 
0 0 0 0 0 0 0 0 0 
0 0 0 0 0 0 0 0 0 
0 0 0 0 0 0 0 0 0 
0 0 0 0 0 0 0 0 0 
0 0 0 0 0 0 0 0 0 
0 0 0 0 0 0 0 0 0 
0 0 0 0 0 0 0 0 0 
0 0 0 0 0 0 0 0 0 
0 0 0 0 0 0 0 0 0 
0 0 0 0 0 0 0 0 0 
0 0 0 0 0 0 0 0 0 
0 0 0 0 0 0 0 0 0 
0 0 0 0 0 0 0 0 0 
0 0 0 0 0 0 0 0 0 
0 0 0 0 0 0 0 0 0 
0 0 0 0 0 0 0 0 0 
0 0 0 0 0 0 0 0 0 
0 0 0 0 0 0 0 0 0 
0 0 0 0 0 0 0 0 0 
0 0 0 0 0 0 0 0 0 
0 0 0 0 0 0 0 0 0 
0 0 0 0 0 0 0 0 0 
0 0 0 0 0 0 0 0 0 
0 0 0 0 0 0 0 0 0 
0 0 0 0 0 0 0 0 0 
0 0 0 0 0 0 0 0 0 
0 0 0 0 0 0 0 0 0 
0 0 0 0 0 0 0 0 0 
0 0 0 0 0 0 0 0 0 
0 0 0 0 0 0 0 0 0 
0 0 0 0 0 0 0 0 0 
0 0 0 0 0 0 0 0 0 
0 0 0 0 0 0 0 0 0 
0 0 0 0 0 0 0 0 0 
0 0 0 0 0 0 0 0 0 
0 0 0 0 0 0 0 0 0 
0 0 0 0 0 0 0 0 0 
0 0 0 0 0 0 0 0 0 
0 0 0 0 0 0 0 0 0 
0 0 0 0 0 0 0 0 0 
0 0 0 0 0 0 0 0 0 
0 0 0 0 0 0 0 0 0 
0 0 0 0 0 0 0 0 0 
0 0 0 0 0 0 0 0 0 
0 0 0 0 0 0 0 0 0 
0 0 0 0 0 0 0 0 0 
0 0 0 0 0 0 0 0 0 
0 0 0 0 0 0 0 0 0 
0 0 0 0 0 0 0 0 0 
0 0 0 0 0 0 0 0 0 
0 0 0 0 0 0 0 0 0 
0 0 0 0 0 0 0 0 0 
0 0 0 0 0 0 0 0 0 
0 0 0 0 0 0 0 0 0 
0 0 0 0 0 0 0 0 0 
0 0 0 0 0 0 0 0 0 
0 0 0 0 0 0 0 0 0 
0 0 0 0 0 0 0 0 0 
0 0 0 0 0 0 0 0 0 
0 0 0 0 0 0 0 0 0 
0 0 0 0 0 0 0 0 0 
0 0 0 0 0 0 0 0 0 
0 0 0 0 0 0 0 0 0 
0 0 0 0 0 0 0 0 0 
0 0 0 0 0 0 0 0 0 
0 0 0 0 0 0 0 0 0 
0 0 0 0 0 0 0 0 0 
0 0 0 0 0 0 0 0 0 
0 0 0 0 0 0 0 0 0 
0 0 0 0 0 0 0 0 0 
0 0 0 0 0 0 0 0 0 
0 0 0 0 0 0 0 0 0 
0 0 0 0 0 0 0 0 0 
0 0 0 0 0 0 0 0 0 
0 0 0 0 0 0 0 0 0 
0 0 0 0 0 0 0 0 0 
0 0 0 0 0 0 0 0 0 
0 0 0 0 0 0 0 0 0 
0 0 0 0 0 0 0 0 0 
0 0 0 0 0 0 0 0 0 
0 0 0 0 0 0 0 0 0 
0 0 0 0 0 0 0 0 0 
0 0 0 0 0 0 0 0 0 
0 0 0 0 0 0 0 0 0 
0 0 0 0 0 0 0 0 0 
0 0 0 0 0 0 0 0 0 
0 0 0 0 0 0 0 0 0 
0 0 0 0 0 0 0 0 0 
0 0 0 0 0 0 0 0 0 
0 0 0 0 0 0 0 0 0 
0 0 0 0 0 0 0 0 0 
0 0 0 0 0 0 0 0 0 
0 0 0 0 0 0 0 0 0 
0 0 0 0 0 0 0 0 0 
0 0 0 0 0 0 0 0 0 
0 0 0 0 0 0 0 0 0 
0 0 0 0 0 0 0 0 0 
0 0 0 0 0 0 0 0 0 
0 0 0 0 0 0 0 0 0 
0 0 0 0 0 0 0 0 0 
0 0 0 0 0 0 0 0 0 
0 0 0 0 0 0 0 0 0 
0 0 0 0 0 0 0 0 0 
0 0 0 0 0 0 0 0 0 
0 0 0 0 0 0 0 0 0 
0 0 0 0 0 0 0 0 0 
0 0 0 0 0 0 0 0 0 
0 0 0 0 0 0 0 0 0 
0 0 0 0 0 0 0 0 0 
0 0 0 0 0 0 0 0 0 
0 0 0 0 0 0 0 0 0 
0 0 0 0 0 0 0 0 0 
0 0 0 0 0 0 0 0 0 
0 0 0 0 0 0 0 0 0 
0 0 0 0 0 0 0 0 0 
0 0 0 0 0 0 0 0 0 
0 0 0 0 0 0 0 0 0 
0 0 0 0 0 0 0 0 0 
0 0 0 0 0 0 0 0 0 
0 0 0 0 0 0 0 0 0 
0 0 0 0 0 0 0 0 0 
0 0 0 0 0 0 0 0 0 
0 0 0 0 0 0 0 0 0 
0 0 0 0 0 0 0 0 0 
0 0 0 0 0 0 0 0 0 
0 0 0 0 0 0 0 0 0 
0 0 0 0 0 0 0 0 0 
0 0 0 0 0 0 0 0 0 
0 0 0 0 0 0 0 0 0 
0 0 0 0 0 0 0 0 0 
0 0 0 0 0 0 0 0 0 
0 0 0 0 0 0 0 0 0 
0 0 0 0 0 0 0 0 0 
0 0 0 0 0 0 0 0 0 
0 0 0 0 0 0 0 0 0 
0 0 0 0 0 0 0 0 0 
0 0 0 0 0 0 0 0 0 
0 0 0 0 0 0 0 0 0 
0 0 0 0 0 0 0 0 0 
0 0 0 0 0 0 0 0 0 
0 0 0 0 0 0 0 0 0 
0 0 0 0 0 0 0 0 0 
0 0 0 0 0 0 0 0 0 
0 0 0 0 0 0 0 0 0 
0 0 0 0 0 0 0 0 0 
0 0 0 0 0 0 0 0 0 
0 0 0 0 0 0 0 0 0 
0 0 0 0 0 0 0 0 0 
0 0 0 0 0 0 0 0 0 
0 0 0 0 0 0 0 0 0 
0 0 0 0 0 0 0 0 0 
0 0 0 0 0 0 0 0 0 
0 0 0 0 0 0 0 0 0 
0 0 0 0 0 0 0 0 0 
0 0 0 0 0 0 0 0 0 
0 0 0 0 0 0 0 0 0 
0 0 0 0 0 0 0 0 0 
0 0 0 0 0 0 0 0 0 
0 0 0 0 0 0 0 0 0 
0 0 0 0 0 0 0 0 0 
0 0 0 0 0 0 0 0 0 
0 0 0 0 0 0 0 0 0 
0 0 0 0 0 0 0 0 0 
0 0 0 0 0 0 0 0 0 
0 0 0 0 0 0 0 0 0 
0 0 0 0 0 0 0 0 0 
0 0 0 0 0 0 0 0 0 
0 0 0 0 0 0 0 0 0 
0 0 0 0 0 0 0 0 0 
0 0 0 0 0 0 0 0 0 
0 0 0 0 0 0 0 0 0 
0 0 0 0 0 0 0 0 0 
0 0 0 0 0 0 0 0 0 
0 0 0 0 0 0 0 0 0 
0 0 0 0 0 0 0 0 0 
0 0 0 0 0 0 0 0 0 
0 0 0 0 0 0 0 0 0 
0 0 0 0 0 0 0 0 0 
0 0 0 0 0 0 0 0 0 
0 0 0 0 0 0 0 0 0 
0 0 0 0 0 0 0 0 0 
0 0 0 0 0 0 0 0 0 
0 0 0 0 0 0 0 0 0 
0 0 0 0 0 0 0 0 0 
0 0 0 0 0 0 0 0 0 
0 0 0 0 0 0 0 0 0 
0 0 0 0 0 0 0 0 0 
0 0 0 0 0 0 0 0 0 
0 0 0 0 0 0 0 0 0 
0 0 0 0 0 0 0 0 0 
0 0 0 0 0 0 0 0 0 
0 0 0 0 0 0 0 0 0 
0 0 0 0 0 0 0 0 0 
0 0 0 0 0 0 0 0 0 
0 0 0 0 0 0 0 0 0 
0 0 0 0 0 0 0 0 0 
0 0 0 0 0 0 0 0 0 
0 0 0 0 0 0 0 0 0 
0 0 0 0 0 0 0 0 0 
0 0 0 0 0 0 0 0 0 
0 0 0 0 0 0 0 0 0 
0 0 0 0 0 0 0 0 0 
0 0 0 0 0 0 0 0 0 
0 0 0 0 0 0 0 0 0 
0 0 0 0 0 0 0 0 0 
0 0 0 0 0 0 0 0 0 
0 0 0 0 0 0 0 0 0 
0 0 0 0 0 0 0 0 0 
0 0 0 0 0 0 0 0 0 
0 0 0 0 0 0 0 0 0 
0 0 0 0 0 0 0 0 0 
0 0 0 0 0 0 0 0 0 
0 0 0 0 0 0 0 0 0 
0 0 0 0 0 0 0 0 0 
0 0 0 0 0 0 0 0 0 
0 0 0 0 0 0 0 0 0 
0 0 0 0 0 0 0 0 0 
0 0 0 0 0 0 0 0 0 
0 0 0 0 0 0 0 0 0 
0 0 0 0 0 0 0 0 0 
0 0 0 0 0 0 0 0 0 
0 0 0 0 0 0 0 0 0 
0 0 0 0 0 0 0 0 0 
0 0 0 0 0 0 0 0 0 
0 0 0 0 0 0 0 0 0 
0 0 0 0 0 0 0 0 0 
0 0 0 0 0 0 0 0 0 
0 0 0 0 0 0 0 0 0 
0 0 0 0 0 0 0 0 0 
0 0 0 0 0 0 0 0 0 
0 0 0 0 0 0 0 0 0 
0 0 0 0 0 0 0 0 0 
0 0 0 0 0 0 0 0 0 
0 0 0 0 0 0 0 0 0 
0 0 0 0 0 0 0 0 0 
0 0 0 0 0 0 0 0 0 
0 0 0 0 0 0 0 0 0 
0 0 0 0 0 0 0 0 0 
0 0 0 0 0 0 0 0 0 
0 0 0 0 0 0 0 0 0 
0 0 0 0 0 0 0 0 0 
0 0 0 0 0 0 0 0 0 
0 0 0 0 0 0 0 0 0 
0 0 0 0 0 0 0 0 0 
0 0 0 0 0 0 0 0 0 
0 0 0 0 0 0 0 0 0 
0 0 0 0 0 0 0 0 0 
0 0 0 0 0 0 0 0 0 
0 0 0 0 0 0 0 0 0 
0 0 0 0 0 0 0 0 0 
0 0 0 0 0 0 0 0 0 
0 0 0 0 0 0 0 0 0 
0 0 0 0 0 0 0 0 0 
0 0 0 0 0 0 0 0 0 
0 0 0 0 0 0 0 0 0 
0 0 0 0 0 0 0 0 0 
0 0 0 0 0 0 0 0 0 
0 0 0 0 0 0 0 0 0 
0 0 0 0 0 0 0 0 0 
0 0 0 0 0 0 0 0 0 
0 0 0 0 0 0 0 0 0 
0 0 0 0 0 0 0 0 0 
0 0 0 0 0 0 0 0 0 
0 0 0 0 0 0 0 0 0 
0 0 0 0 0 0 0 0 0 
0 0 0 0 0 0 0 0 0 
0 0 0 0 0 0 0 0 0 
0 0 0 0 0 0 0 0 0 
0 0 0 0 0 0 0 0 0 
0 0 0 0 0 0 0 0 0 
0 0 0 0 0 0 0 0 0 
0 0 0 0 0 0 0 0 0 
0 0 0 0 0 0 0 0 0 
0 0 0 0 0 0 0 0 0 
0 0 0 0 0 0 0 0 0 
0 0 0 0 0 0 0 0 0 
0 0 0 0 0 0 0 0 0 
0 0 0 0 0 0 0 0 0 
0 0 0 0 0 0 0 0 0 
0 0 0 0 0 0 0 0 0 
0 0 0 0 0 0 0 0 0 
0 0 0 0 0 0 0 0 0 
0 0 0 0 0 0 0 0 0 
0 0 0 0 0 0 0 0 0 
0 0 0 0 0 0 0 0 0 
0 0 0 0 0 0 0 0 0 
0 0 0 0 0 0 0 0 0 
0 0 0 0 0 0 0 0 0 
0 0 0 0 0 0 0 0 0 
0 0 0 0 0 0 0 0 0 
0 0 0 0 0 0 0 0 0 
0 0 0 0 0 0 0 0 0 
0 0 0 0 0 0 0 0 0 
0 0 0 0 0 0 0 0 0 
0 0 0 0 0 0 0 0 0 
0 0 0 0 0 0 0 0 0 
0 0 0 0 0 0 0 0 0 
0 0 0 0 0 0 0 0 0 
0 0 0 0 0 0 0 0 0 
0 0 0 0 0 0 0 0 0 
0 0 0 0 0 0 0 0 0 
0 0 0 0 0 0 0 0 0 
0 0 0 0 0 0 0 0 0 
0 0 0 0 0 0 0 0 0 
0 0 0 0 0 0 0 0 0 
0 0 0 0 0 0 0 0 0 
0 0 0 0 0 0 0 0 0 
0 0 0 0 0 0 0 0 0 
0 0 0 0 0 0 0 0 0 
0 0 0 0 0 0 0 0 0 
0 0 0 0 0 0 0 0 0 
0 0 0 0 0 0 0 0 0 
0 0 0 0 0 0 0 0 0 
0 0 0 0 0 0 0 0 0 
0 0 0 0 0 0 0 0 0 
0 0 0 0 0 0 0 0 0 
0 0 0 0 0 0 0 0 0 
0 0 0 0 0 0 0 0 0 
0 0 0 0 0 0 0 0 0 
0 0 0 0 0 0 0 0 0 
0 0 0 0 0 0 0 0 0 
0 0 0 0 0 0 0 0 0 
0 0 0 0 0 0 0 0 0 
0 0 0 0 0 0 0 0 0 
0 0 0 0 0 0 0 0 0 
0 0 0 0 0 0 0 0 0 
0 0 0 0 0 0 0 0 0 
0 0 0 0 0 0 0 0 0 
0 0 0 0 0 0 0 0 0 
0 0 0 0 0 0 0 0 0 
0 0 0 0 0 0 0 0 0 
0 0 0 0 0 0 0 0 0 
0 0 0 0 0 0 0 0 0 
0 0 0 0 0 0 0 0 0 
0 0 0 0 0 0 0 0 0 
0 0 0 0 0 0 0 0 0 
0 0 0 0 0 0 0 0 0 
0 0 0 0 0 0 0 0 0 
0 0 0 0 0 0 0 0 0 
0 0 0 0 0 0 0 0 0 
0 0 0 0 0 0 0 0 0 
0 0 0 0 0 0 0 0 0 
0 0 0 0 0 0 0 0 0 
0 0 0 0 0 0 0 0 0 
0 0 0 0 0 0 0 0 0 
0 0 0 0 0 0 0 0 0 
0 0 0 0 0 0 0 0 0 
0 0 0 0 0 0 0 0 0 
0 0 0 0 0 0 0 0 0 
0 0 0 0 0 0 0 0 0 
0 0 0 0 0 0 0 0 0 
0 0 0 0 0 0 0 0 0 
0 0 0 0 0 0 0 0 0 
0 0 0 0 0 0 0 0 0 
0 0 0 0 0 0 0 0 0 
0 0 0 0 0 0 0 0 0 
0 0 0 0 0 0 0 0 0 
0 0 0 0 0 0 0 0 0 
0 0 0 0 0 0 0 0 0 
0 0 0 0 0 0 0 0 0 
0 0 0 0 0 0 0 0 0 
0 0 0 0 0 0 0 0 0 
0 0 0 0 0 0 0 0 0 
0 0 0 0 0 0 0 0 0 
0 0 0 0 0 0 0 0 0 
0 0 0 0 0 0 0 0 0 
0 0 0 0 0 0 0 0 0 
0 0 0 0 0 0 0 0 0 
0 0 0 0 0 0 0 0 0 
0 0 0 0 0 0 0 0 0 
0 0 0 0 0 0 0 0 0 
0 0 0 0 0 0 0 0 0 
0 0 0 0 0 0 0 0 0 
0 0 0 0 0 0 0 0 0 
0 0 0 0 0 0 0 0 0 
0 0 0 0 0 0 0 0 0 
0 0 0 0 0 0 0 0 0 
0 0 0 0 0 0 0 0 0 
0 0 0 0 0 0 0 0 0 
0 0 0 0 0 0 0 0 0 
0 0 0 0 0 0 0 0 0 
0 0 0 0 0 0 0 0 0 
0 0 0 0 0 0 0 0 0 
0 0 0 0 0 0 0 0 0 
0 0 0 0 0 0 0 0 0 
0 0 0 0 0 0 0 0 0 
0 0 0 0 0 0 0 0 0 
0 0 0 0 0 0 0 0 0 
0 0 0 0 0 0 0 0 0 
0 0 0 0 0 0 0 0 0 
0 0 0 0 0 0 0 0 0 
0 0 0 0 0 0 0 0 0 
0 0 0 0 0 0 0 0 0 
0 0 0 0 0 0 0 0 0 
0 0 0 0 0 0 0 0 0 
0 0 0 0 0 0 0 0 0 
0 0 0 0 0 0 0 0 0 
0 0 0 0 0 0 0 0 0 
0 0 0 0 0 0 0 0 0 
0 0 0 0 0 0 0 0 0 
0 0 0 0 0 0 0 0 0 
0 0 0 0 0 0 0 0 0 
0 0 0 0 0 0 0 0 0 
0 0 0 0 0 0 0 0 0 
0 0 0 0 0 0 0 0 0 
0 0 0 0 0 0 0 0 0 
0 0 0 0 0 0 0 0 0 
0 0 0 0 0 0 0 0 0 
0 0 0 0 0 0 0 0 0 
0 0 0 0 0 0 0 0 0 
0 0 0 0 0 0 0 0 0 
0 0 0 0 0 0 0 0 0 
0 0 0 0 0 0 0 0 0 
0 0 0 0 0 0 0 0 0 
0 0 0 0 0 0 0 0 0 
0 0 0 0 0 0 0 0 0 
0 0 0 0 0 0 0 0 0 
0 0 0 0 0 0 0 0 0 
0 0 0 0 0 0 0 0 0 
0 0 0 0 0 0 0 0 0 
0 0 0 0 0 0 0 0 0 
0 0 0 0 0 0 0 0 0 
0 0 0 0 0 0 0 0 0 
0 0 0 0 0 0 0 0 0 
0 0 0 0 0 0 0 0 0 
0 0 0 0 0 0 0 0 0 
0 0 0 0 0 0 0 0 0 
0 0 0 0 0 0 0 0 0 
0 0 0 0 0 0 0 0 0 
0 0 0 0 0 0 0 0 0 
0 0 0 0 0 0 0 0 0 
0 0 0 0 0 0 0 0 0 
0 0 0 0 0 0 0 0 0 
0 0 0 0 0 0 0 0 0 
0 0 0 0 0 0 0 0 0 
0 0 0 0 0 0 0 0 0 
0 0 0 0 0 0 0 0 0 
0 0 0 0 0 0 0 0 0 
0 0 0 0 0 0 0 0 0 
0 0 0 0 0 0 0 0 0 
0 0 0 0 0 0 0 0 0 
0 0 0 0 0 0 0 0 0 
0 0 0 0 0 0 0 0 0 
0 0 0 0 0 0 0 0 0 
0 0 0 0 0 0 0 0 0 
0 0 0 0 0 0 0 0 0 
0 0 0 0 0 0 0 0 0 
0 0 0 0 0 0 0 0 0 
0 0 0 0 0 0 0 0 0 
0 0 0 0 0 0 0 0 0 
0 0 0 0 0 0 0 0 0 
0 0 0 0 0 0 0 0 0 
0 0 0 0 0 0 0 0 0 
0 0 0 0 0 0 0 0 0 
0 0 0 0 0 0 0 0 0 
0 0 0 0 0 0 0 0 0 
0 0 0 0 0 0 0 0 0 
0 0 0 0 0 0 0 0 0 
0 0 0 0 0 0 0 0 0 
0 0 0 0 0 0 0 0 0 
0 0 0 0 0 0 0 0 0 
0 0 0 0 0 0 0 0 0 
0 0 0 0 0 0 0 0 0 
0 0 0 0 0 0 0 0 0 
0 0 0 0 0 0 0 0 0 
0 0 0 0 0 0 0 0 0 
0 0 0 0 0 0 0 0 0 
0 0 0 0 0 0 0 0 0 
0 0 0 0 0 0 0 0 0 
0 0 0 0 0 0 0 0 0 
0 0 0 0 0 0 0 0 0 
0 0 0 0 0 0 0 0 0 
0 0 0 0 0 0 0 0 0 
0 0 0 0 0 0 0 0 0 
0 0 0 0 0 0 0 0 0 
0 0 0 0 0 0 0 0 0 
0 0 0 0 0 0 0 0 0 
0 0 0 0 0 0 0 0 0 
0 0 0 0 0 0 0 0 0 
0 0 0 0 0 0 0 0 0 
0 0 0 0 0 0 0 0 0 
0 0 0 0 0 0 0 0 0 
0 0 0 0 0 0 0 0 0 
0 0 0 0 0 0 0 0 0 
0 0 0 0 0 0 0 0 0 
0 0 0 0 0 0 0 0 0 
0 0 0 0 0 0 0 0 0 
0 0 0 0 0 0 0 0 0 
0 0 0 0 0 0 0 0 0 
0 0 0 0 0 0 0 0 0 
0 0 0 0 0 0 0 0 0 
0 0 0 0 0 0 0 0 0 
0 0 0 0 0 0 0 0 0 
0 0 0 0 0 0 0 0 0 
0 0 0 0 0 0 0 0 0 
0 0 0 0 0 0 0 0 0 
0 0 0 0 0 0 0 0 0 
0 0 0 0 0 0 0 0 0 
0 0 0 0 0 0 0 0 0 
0 0 0 0 0 0 0 0 0 
0 0 0 0 0 0 0 0 0 
0 0 0 0 0 0 0 0 0 
0 0 0 0 0 0 0 0 0 
0 0 0 0 0 0 0 0 0 
0 0 0 0 0 0 0 0 0 
0 0 0 0 0 0 0 0 0 
0 0 0 0 0 0 0 0 0 
0 0 0 0 0 0 0 0 0 
0 0 0 0 0 0 0 0 0 
0 0 0 0 0 0 0 0 0 
0 0 0 0 0 0 0 0 0 
0 0 0 0 0 0 0 0 0 
0 0 0 0 0 0 0 0 0 
0 0 0 0 0 0 0 0 0 
0 0 0 0 0 0 0 0 0 
0 0 0 0 0 0 0 0 0 
0 0 0 0 0 0 0 0 0 
0 0 0 0 0 0 0 0 0 
0 0 0 0 0 0 0 0 0 
0 0 0 0 0 0 0 0 0 
0 0 0 0 0 0 0 0 0 
0 0 0 0 0 0 0 0 0 
0 0 0 0 0 0 0 0 0 
0 0 0 0 0 0 0 0 0 
0 0 0 0 0 0 0 0 0 
0 0 0 0 0 0 0 0 0 
0 0 0 0 0 0 0 0 0 
0 0 0 0 0 0 0 0 0 
0 0 0 0 0 0 0 0 0 
0 0 0 0 0 0 0 0 0 
0 0 0 0 0 0 0 0 0 
0 0 0 0 0 0 0 0 0 
0 0 0 0 0 0 0 0 0 
0 0 0 0 0 0 0 0 0 
0 0 0 0 0 0 0 0 0 
0 0 0 0 0 0 0 0 0 
0 0 0 0 0 0 0 0 0 
0 0 0 0 0 0 0 0 0 
0 0 0 0 0 0 0 0 0 
0 0 0 0 0 0 0 0 0 
0 0 0 0 0 0 0 0 0 
0 0 0 0 0 0 0 0 0 
0 0 0 0 0 0 0 0 0 
0 0 0 0 0 0 0 0 0 
0 0 0 0 0 0 0 0 0 
0 0 0 0 0 0 0 0 0 
0 0 0 0 0 0 0 0 0 
0 0 0 0 0 0 0 0 0 
0 0 0 0 0 0 0 0 0 
0 0 0 0 0 0 0 0 0 
0 0 0 0 0 0 0 0 0 
0 0 0 0 0 0 0 0 0 
0 0 0 0 0 0 0 0 0 
0 0 0 0 0 0 0 0 0 
0 0 0 0 0 0 0 0 0 
0 0 0 0 0 0 0 0 0 
0 0 0 0 0 0 0 0 0 
0 0 0 0 0 0 0 0 0 
0 0 0 0 0 0 0 0 0 
0 0 0 0 0 0 0 0 0 
0 0 0 0 0 0 0 0 0 
0 0 0 0 0 0 0 0 0 
0 0 0 0 0 0 0 0 0 
0 0 0 0 0 0 0 0 0 
0 0 0 0 0 0 0 0 0 
0 0 0 0 0 0 0 0 0 
0 0 0 0 0 0 0 0 0 
0 0 0 0 0 0 0 0 0 
0 0 0 0 0 0 0 0 0 
0 0 0 0 0 0 0 0 0 
0 0 0 0 0 0 0 0 0 
0 0 0 0 0 0 0 0 0 
0 0 0 0 0 0 0 0 0 
0 0 0 0 0 0 0 0 0 
0 0 0 0 0 0 0 0 0 
0 0 0 0 0 0 0 0 0 
0 0 0 0 0 0 0 0 0 
0 0 0 0 0 0 0 0 0 
0 0 0 0 0 0 0 0 0 
0 0 0 0 0 0 0 0 0 
0 0 0 0 0 0 0 0 0 
0 0 0 0 0 0 0 0 0 
0 0 0 0 0 0 0 0 0 
0 0 0 0 0 0 0 0 0 
0 0 0 0 0 0 0 0 0 
0 0 0 0 0 0 0 0 0 
0 0 0 0 0 0 0 0 0 
0 0 0 0 0 0 0 0 0 
0 0 0 0 0 0 0 0 0 
0 0 0 0 0 0 0 0 0 
0 0 0 0 0 0 0 0 0 
0 0 0 0 0 0 0 0 0 
0 0 0 0 0 0 0 0 0 
0 0 0 0 0 0 0 0 0 
0 0 0 0 0 0 0 0 0 
0 0 0 0 0 0 0 0 0 
0 0 0 0 0 0 0 0 0 
0 0 0 0 0 0 0 0 0 
0 0 0 0 0 0 0 0 0 
0 0 0 0 0 0 0 0 0 
0 0 0 0 0 0 0 0 0 
0 0 0 0 0 0 0 0 0 
0 0 0 0 0 0 0 0 0 
0 0 0 0 0 0 0 0 0 
0 0 0 0 0 0 0 0 0 
0 0 0 0 0 0 0 0 0 
0 0 0 0 0 0 0 0 0 
0 0 0 0 0 0 0 0 0 
0 0 0 0 0 0 0 0 0 
0 0 0 0 0 0 0 0 0 
0 0 0 0 0 0 0 0 0 
0 0 0 0 0 0 0 0 0 
0 0 0 0 0 0 0 0 0 
0 0 0 0 0 0 0 0 0 
0 0 0 0 0 0 0 0 0 
0 0 0 0 0 0 0 0 0 
0 0 0 0 0 0 0 0 0 
0 0 0 0 0 0 0 0 0 
0 0 0 0 0 0 0 0 0 
0 0 0 0 0 0 0 0 0 
0 0 0 0 0 0 0 0 0 
0 0 0 0 0 0 0 0 0 
0 0 0 0 0 0 0 0 0 
0 0 0 0 0 0 0 0 0 
0 0 0 0 0 0 0 0 0 
0 0 0 0 0 0 0 0 0 
0 0 0 0 0 0 0 0 0 
0 0 0 0 0 0 0 0 0 
0 0 0 0 0 0 0 0 0 
0 0 0 0 0 0 0 0 0 
0 0 0 0 0 0 0 0 0 
0 0 0 0 0 0 0 0 0 
0 0 0 0 0 0 0 0 0 
0 0 0 0 0 0 0 0 0 
0 0 0 0 0 0 0 0 0 
0 0 0 0 0 0 0 0 0 
0 0 0 0 0 0 0 0 0 
0 0 0 0 0 0 0 0 0 
0 0 0 0 0 0 0 0 0 
0 0 0 0 0 0 0 0 0 
0 0 0 0 0 0 0 0 0 
0 0 0 0 0 0 0 0 0 
0 0 0 0 0 0 0 0 0 
0 0 0 0 0 0 0 0 0 
0 0 0 0 0 0 0 0 0 
0 0 0 0 0 0 0 0 0 
0 0 0 0 0 0 0 0 0 
0 0 0 0 0 0 0 0 0 
0 0 0 0 0 0 0 0 0 
0 0 0 0 0 0 0 0 0 
0 0 0 0 0 0 0 0 0 
0 0 0 0 0 0 0 0 0 
0 0 0 0 0 0 0 0 0 
0 0 0 0 0 0 0 0 0 
0 0 0 0 0 0 0 0 0 
0 0 0 0 0 0 0 0 0 
0 0 0 0 0 0 0 0 0 
0 0 0 0 0 0 0 0 0 
0 0 0 0 0 0 0 0 0 
0 0 0 0 0 0 0 0 0 
0 0 0 0 0 0 0 0 0 
0 0 0 0 0 0 0 0 0 
0 0 0 0 0 0 0 0 0 
0 0 0 0 0 0 0 0 0 
0 0 0 0 0 0 0 0 0 
0 0 0 0 0 0 0 0 0 
0 0 0 0 0 0 0 0 0 
0 0 0 0 0 0 0 0 0 
0 0 0 0 0 0 0 0 0 
0 0 0 0 0 0 0 0 0 
0 0 0 0 0 0 0 0 0 
0 0 0 0 0 0 0 0 0 
0 0 0 0 0 0 0 0 0 
0 0 0 0 0 0 0 0 0 
0 0 0 0 0 0 0 0 0 
0 0 0 0 0 0 0 0 0 
0 0 0 0 0 0 0 0 0 
0 0 0 0 0 0 0 0 0 
0 0 0 0 0 0 0 0 0 
0 0 0 0 0 0 0 0 0 
0 0 0 0 0 0 0 0 0 
0 0 0 0 0 0 0 0 0 
0 0 0 0 0 0 0 0 0 
0 0 0 0 0 0 0 0 0 
0 0 0 0 0 0 0 0 0 
0 0 0 0 0 0 0 0 0 
0 0 0 0 0 0 0 0 0 
0 0 0 0 0 0 0 0 0 
0 0 0 0 0 0 0 0 0 
0 0 0 0 0 0 0 0 0 
0 0 0 0 0 0 0 0 0 
0 0 0 0 0 0 0 0 0 
0 0 0 0 0 0 0 0 0 
0 0 0 0 0 0 0 0 0 
0 0 0 0 0 0 0 0 0 
0 0 0 0 0 0 0 0 0 
0 0 0 0 0 0 0 0 0 
0 0 0 0 0 0 0 0 0 
0 0 0 0 0 0 0 0 0 
0 0 0 0 0 0 0 0 0 
0 0 0 0 0 0 0 0 0 
0 0 0 0 0 0 0 0 0 
0 0 0 0 0 0 0 0 0 
0 0 0 0 0 0 0 0 0 
0 0 0 0 0 0 0 0 0 
0 0 0 0 0 0 0 0 0 
0 0 0 0 0 0 0 0 0 
0 0 0 0 0 0 0 0 0 
0 0 0 0 0 0 0 0 0 
0 0 0 0 0 0 0 0 0 
0 0 0 0 0 0 0 0 0 
0 0 0 0 0 0 0 0 0 
0 0 0 0 0 0 0 0 0 
0 0 0 0 0 0 0 0 0 
0 0 0 0 0 0 0 0 0 
0 0 0 0 0 0 0 0 0 
0 0 0 0 0 0 0 0 0 
0 0 0 0 0 0 0 0 0 
0 0 0 0 0 0 0 0 0 
0 0 0 0 0 0 0 0 0 
0 0 0 0 0 0 0 0 0 
0 0 0 0 0 0 0 0 0 
0 0 0 0 0 0 0 0 0 
0 0 0 0 0 0 0 0 0 
0 0 0 0 0 0 0 0 0 
0 0 0 0 0 0 0 0 0 
0 0 0 0 0 0 0 0 0 
0 0 0 0 0 0 0 0 0 
0 0 0 0 0 0 0 0 0 
0 0 0 0 0 0 0 0 0 
0 0 0 0 0 0 0 0 0 
0 0 0 0 0 0 0 0 0 
0 0 0 0 0 0 0 0 0 
0 0 0 0 0 0 0 0 0 
0 0 0 0 0 0 0 0 0 
0 0 0 0 0 0 0 0 0 
0 0 0 0 0 0 0 0 0 
0 0 0 0 0 0 0 0 0 
0 0 0 0 0 0 0 0 0 
0 0 0 0 0 0 0 0 0 
0 0 0 0 0 0 0 0 0 
0 0 0 0 0 0 0 0 0 
0 0 0 0 0 0 0 0 0 
0 0 0 0 0 0 0 0 0 
0 0 0 0 0 0 0 0 0 
0 0 0 0 0 0 0 0 0 
0 0 0 0 0 0 0 0 0 
0 0 0 0 0 0 0 0 0 
0 0 0 0 0 0 0 0 0 
0 0 0 0 0 0 0 0 0 
0 0 0 0 0 0 0 0 0 
0 0 0 0 0 0 0 0 0 
0 0 0 0 0 0 0 0 0 
0 0 0 0 0 0 0 0 0 
0 0 0 0 0 0 0 0 0 
0 0 0 0 0 0 0 0 0 
0 0 0 0 0 0 0 0 0 
0 0 0 0 0 0 0 0 0 
0 0 0 0 0 0 0 0 0 
0 0 0 0 0 0 0 0 0 
0 0 0 0 0 0 0 0 0 
0 0 0 0 0 0 0 0 0 
0 0 0 0 0 0 0 0 0 
0 0 0 0 0 0 0 0 0 
0 0 0 0 0 0 0 0 0 
0 0 0 0 0 0 0 0 0 
0 0 0 0 0 0 0 0 0 
0 0 0 0 0 0 0 0 0 
0 0 0 0 0 0 0 0 0 
0 0 0 0 0 0 0 0 0 
0 0 0 0 0 0 0 0 0 
0 0 0 0 0 0 0 0 0 
0 0 0 0 0 0 0 0 0 
0 0 0 0 0 0 0 0 0 
0 0 0 0 0 0 0 0 0 
0 0 0 0 0 0 0 0 0 
0 0 0 0 0 0 0 0 0 
0 0 0 0 0 0 0 0 0 
0 0 0 0 0 0 0 0 0 
0 0 0 0 0 0 0 0 0 
0 0 0 0 0 0 0 0 0 
0 0 0 0 0 0 0 0 0 
0 0 0 0 0 0 0 0 0 
0 0 0 0 0 0 0 0 0 
0 0 0 0 0 0 0 0 0 
0 0 0 0 0 0 0 0 0 
0 0 0 0 0 0 0 0 0 
0 0 0 0 0 0 0 0 0 
0 0 0 0 0 0 0 0 0 
0 0 0 0 0 0 0 0 0 
0 0 0 0 0 0 0 0 0 
0 0 0 0 0 0 0 0 0 
0 0 0 0 0 0 0 0 0 
0 0 0 0 0 0 0 0 0 
0 0 0 0 0 0 0 0 0 
0 0 0 0 0 0 0 0 0 
0 0 0 0 0 0 0 0 0 
0 0 0 0 0 0 0 0 0 
0 0 0 0 0 0 0 0 0 
0 0 0 0 0 0 0 0 0 
0 0 0 0 0 0 0 0 0 
0 0 0 0 0 0 0 0 0 
0 0 0 0 0 0 0 0 0 
0 0 0 0 0 0 0 0 0 
0 0 0 0 0 0 0 0 0 
0 0 0 0 0 0 0 0 0 
0 0 0 0 0 0 0 0 0 
0 0 0 0 0 0 0 0 0 
0 0 0 0 0 0 0 0 0 
0 0 0 0 0 0 0 0 0 
0 0 0 0 0 0 0 0 0 
0 0 0 0 0 0 0 0 0 
0 0 0 0 0 0 0 0 0 
0 0 0 0 0 0 0 0 0 
0 0 0 0 0 0 0 0 0 
0 0 0 0 0 0 0 0 0 
0 0 0 0 0 0 0 0 0 
0 0 0 0 0 0 0 0 0 
0 0 0 0 0 0 0 0 0 
0 0 0 0 0 0 0 0 0 
0 0 0 0 0 0 0 0 0 
0 0 0 0 0 0 0 0 0 
0 0 0 0 0 0 0 0 0 
0 0 0 0 0 0 0 0 0 
0 0 0 0 0 0 0 0 0 
0 0 0 0 0 0 0 0 0 
0 0 0 0 0 0 0 0 0 
0 0 0 0 0 0 0 0 0 
0 0 0 0 0 0 0 0 0 
0 0 0 0 0 0 0 0 0 
0 0 0 0 0 0 0 0 0 
0 0 0 0 0 0 0 0 0 
0 0 0 0 0 0 0 0 0 
0 0 0 0 0 0 0 0 0 
0 0 0 0 0 0 0 0 0 
0 0 0 0 0 0 0 0 0 
0 0 0 0 0 0 0 0 0 
0 0 0 0 0 0 0 0 0 
0 0 0 0 0 0 0 0 0 
0 0 0 0 0 0 0 0 0 
0 0 0 0 0 0 0 0 0 
0 0 0 0 0 0 0 0 0 
0 0 0 0 0 0 0 0 0 
0 0 0 0 0 0 0 0 0 
0 0 0 0 0 0 0 0 0 
0 0 0 0 0 0 0 0 0 
0 0 0 0 0 0 0 0 0 
0 0 0 0 0 0 0 0 0 
0 0 0 0 0 0 0 0 0 
0 0 0 0 0 0 0 0 0 
0 0 0 0 0 0 0 0 0 
0 0 0 0 0 0 0 0 0 
0 0 0 0 0 0 0 0 0 
0 0 0 0 0 0 0 0 0 
0 0 0 0 0 0 0 0 0 
0 0 0 0 0 0 0 0 0 
0 0 0 0 0 0 0 0 0 
0 0 0 0 0 0 0 0 0 
0 0 0 0 0 0 0 0 0 
0 0 0 0 0 0 0 0 0 
0 0 0 0 0 0 0 0 0 
0 0 0 0 0 0 0 0 0 
0 0 0 0 0 0 0 0 0 
0 0 0 0 0 0 0 0 0 
0 0 0 0 0 0 0 0 0 
0 0 0 0 0 0 0 0 0 
0 0 0 0 0 0 0 0 0 
0 0 0 0 0 0 0 0 0 
0 0 0 0 0 0 0 0 0 
0 0 0 0 0 0 0 0 0 
0 0 0 0 0 0 0 0 0 
0 0 0 0 0 0 0 0 0 
0 0 0 0 0 0 0 0 0 
0 0 0 0 0 0 0 0 0 
0 0 0 0 0 0 0 0 0 
0 0 0 0 0 0 0 0 0 
0 0 0 0 0 0 0 0 0 
0 0 0 0 0 0 0 0 0 
0 0 0 0 0 0 0 0 0 
0 0 0 0 0 0 0 0 0 
0 0 0 0 0 0 0 0 0 
0 0 0 0 0 0 0 0 0 
0 0 0 0 0 0 0 0 0 
0 0 0 0 0 0 0 0 0 
0 0 0 0 0 0 0 0 0 
0 0 0 0 0 0 0 0 0 
0 0 0 0 0 0 0 0 0 
0 0 0 0 0 0 0 0 0 
0 0 0 0 0 0 0 0 0 
0 0 0 0 0 0 0 0 0 
0 0 0 0 0 0 0 0 0 
0 0 0 0 0 0 0 0 0 
0 0 0 0 0 0 0 0 0 
0 0 0 0 0 0 0 0 0 
0 0 0 0 0 0 0 0 0 
0 0 0 0 0 0 0 0 0 
0 0 0 0 0 0 0 0 0 
0 0 0 0 0 0 0 0 0 
0 0 0 0 0 0 0 0 0 
0 0 0 0 0 0 0 0 0 
0 0 0 0 0 0 0 0 0 
0 0 0 0 0 0 0 0 0 
0 0 0 0 0 0 0 0 0 
0 0 0 0 0 0 0 0 0 
0 0 0 0 0 0 0 0 0 
0 0 0 0 0 0 0 0 0 
0 0 0 0 0 0 0 0 0 
0 0 0 0 0 0 0 0 0 
0 0 0 0 0 0 0 0 0 
0 0 0 0 0 0 0 0 0 
0 0 0 0 0 0 0 0 0 
0 0 0 0 0 0 0 0 0 
0 0 0 0 0 0 0 0 0 
0 0 0 0 0 0 0 0 0 
0 0 0 0 0 0 0 0 0 
0 0 0 0 0 0 0 0 0 
0 0 0 0 0 0 0 0 0 
0 0 0 0 0 0 0 0 0 
0 0 0 0 0 0 0 0 0 
0 0 0 0 0 0 0 0 0 
0 0 0 0 0 0 0 0 0 
0 0 0 0 0 0 0 0 0 
0 0 0 0 0 0 0 0 0 
0 0 0 0 0 0 0 0 0 
0 0 0 0 0 0 0 0 0 
0 0 0 0 0 0 0 0 0 
0 0 0 0 0 0 0 0 0 
0 0 0 0 0 0 0 0 0 
0 0 0 0 0 0 0 0 0 
0 0 0 0 0 0 0 0 0 
0 0 0 0 0 0 0 0 0 
0 0 0 0 0 0 0 0 0 
0 0 0 0 0 0 0 0 0 
0 0 0 0 0 0 0 0 0 
0 0 0 0 0 0 0 0 0 
0 0 0 0 0 0 0 0 0 
0 0 0 0 0 0 0 0 0 
0 0 0 0 0 0 0 0 0 
0 0 0 0 0 0 0 0 0 
0 0 0 0 0 0 0 0 0 
0 0 0 0 0 0 0 0 0 
0 0 0 0 0 0 0 0 0 
0 0 0 0 0 0 0 0 0 
0 0 0 0 0 0 0 0 0 
0 0 0 0 0 0 0 0 0 
0 0 0 0 0 0 0 0 0 
0 0 0 0 0 0 0 0 0 
0 0 0 0 0 0 0 0 0 
0 0 0 0 0 0 0 0 0 
0 0 0 0 0 0 0 0 0 
0 0 0 0 0 0 0 0 0 
0 0 0 0 0 0 0 0 0 
0 0 0 0 0 0 0 0 0 
0 0 0 0 0 0 0 0 0 
0 0 0 0 0 0 0 0 0 
0 0 0 0 0 0 0 0 0 
0 0 0 0 0 0 0 0 0 
0 0 0 0 0 0 0 0 0 
0 0 0 0 0 0 0 0 0 
0 0 0 0 0 0 0 0 0 
0 0 0 0 0 0 0 0 0 
0 0 0 0 0 0 0 0 0 
0 0 0 0 0 0 0 0 0 
0 0 0 0 0 0 0 0 0 
0 0 0 0 0 0 0 0 0 
0 0 0 0 0 0 0 0 0 
0 0 0 0 0 0 0 0 0 
0 0 0 0 0 0 0 0 0 
0 0 0 0 0 0 0 0 0 
0 0 0 0 0 0 0 0 0 
0 0 0 0 0 0 0 0 0 
0 0 0 0 0 0 0 0 0 
0 0 0 0 0 0 0 0 0 
0 0 0 0 0 0 0 0 0 
0 0 0 0 0 0 0 0 0 
0 0 0 0 0 0 0 0 0 
0 0 0 0 0 0 0 0 0 
0 0 0 0 0 0 0 0 0 
0 0 0 0 0 0 0 0 0 
0 0 0 0 0 0 0 0 0 
0 0 0 0 0 0 0 0 0 
0 0 0 0 0 0 0 0 0 
0 0 0 0 0 0 0 0 0 
0 0 0 0 0 0 0 0 0 
0 0 0 0 0 0 0 0 0 
0 0 0 0 0 0 0 0 0 
0 0 0 0 0 0 0 0 0 
0 0 0 0 0 0 0 0 0 
0 0 0 0 0 0 0 0 0 
0 0 0 0 0 0 0 0 0 
0 0 0 0 0 0 0 0 0 
0 0 0 0 0 0 0 0 0 
0 0 0 0 0 0 0 0 0 
0 0 0 0 0 0 0 0 0 
0 0 0 0 0 0 0 0 0 
0 0 0 0 0 0 0 0 0 
0 0 0 0 0 0 0 0 0 
0 0 0 0 0 0 0 0 0 
0 0 0 0 0 0 0 0 0 
0 0 0 0 0 0 0 0 0 
0 0 0 0 0 0 0 0 0 
0 0 0 0 0 0 0 0 0 
0 0 0 0 0 0 0 0 0 
0 0 0 0 0 0 0 0 0 
0 0 0 0 0 0 0 0 0 
0 0 0 0 0 0 0 0 0 
0 0 0 0 0 0 0 0 0 
0 0 0 0 0 0 0 0 0 
0 0 0 0 0 0 0 0 0 
0 0 0 0 0 0 0 0 0 
0 0 0 0 0 0 0 0 0 
0 0 0 0 0 0 0 0 0 
0 0 0 0 0 0 0 0 0 
0 0 0 0 0 0 0 0 0 
0 0 0 0 0 0 0 0 0 
0 0 0 0 0 0 0 0 0 
0 0 0 0 0 0 0 0 0 
0 0 0 0 0 0 0 0 0 
0 0 0 0 0 0 0 0 0 
0 0 0 0 0 0 0 0 0 
0 0 0 0 0 0 0 0 0 
0 0 0 0 0 0 0 0 0 
0 0 0 0 0 0 0 0 0 
0 0 0 0 0 0 0 0 0 
0 0 0 0 0 0 0 0 0 
0 0 0 0 0 0 0 0 0 
0 0 0 0 0 0 0 0 0 
0 0 0 0 0 0 0 0 0 
0 0 0 0 0 0 0 0 0 
0 0 0 0 0 0 0 0 0 
0 0 0 0 0 0 0 0 0 
0 0 0 0 0 0 0 0 0 
0 0 0 0 0 0 0 0 0 
0 0 0 0 0 0 0 0 0 
0 0 0 0 0 0 0 0 0 
0 0 0 0 0 0 0 0 0 
0 0 0 0 0 0 0 0 0 
0 0 0 0 0 0 0 0 0 
0 0 0 0 0 0 0 0 0 
0 0 0 0 0 0 0 0 0 
0 0 0 0 0 0 0 0 0 
0 0 0 0 0 0 0 0 0 
0 0 0 0 0 0 0 0 0 
0 0 0 0 0 0 0 0 0 
0 0 0 0 0 0 0 0 0 
0 0 0 0 0 0 0 0 0 
0 0 0 0 0 0 0 0 0 
0 0 0 0 0 0 0 0 0 
0 0 0 0 0 0 0 0 0 
0 0 0 0 0 0 0 0 0 
0 0 0 0 0 0 0 0 0 
0 0 0 0 0 0 0 0 0 
0 0 0 0 0 0 0 0 0 
0 0 0 0 0 0 0 0 0 
0 0 0 0 0 0 0 0 0 
0 0 0 0 0 0 0 0 0 
0 0 0 0 0 0 0 0 0 
0 0 0 0 0 0 0 0 0 
0 0 0 0 0 0 0 0 0 
0 0 0 0 0 0 0 0 0 
0 0 0 0 0 0 0 0 0 
0 0 0 0 0 0 0 0 0 
0 0 0 0 0 0 0 0 0 
0 0 0 0 0 0 0 0 0 
0 0 0 0 0 0 0 0 0 
0 0 0 0 0 0 0 0 0 
0 0 0 0 0 0 0 0 0 
0 0 0 0 0 0 0 0 0 
0 0 0 0 0 0 0 0 0 
0 0 0 0 0 0 0 0 0 
0 0 0 0 0 0 0 0 0 
0 0 0 0 0 0 0 0 0 
0 0 0 0 0 0 0 0 0 
0 0 0 0 0 0 0 0 0 
0 0 0 0 0 0 0 0 0 
0 0 0 0 0 0 0 0 0 
0 0 0 0 0 0 0 0 0 
0 0 0 0 0 0 0 0 0 
0 0 0 0 0 0 0 0 0 
0 0 0 0 0 0 0 0 0 
0 0 0 0 0 0 0 0 0 
0 0 0 0 0 0 0 0 0 
0 0 0 0 0 0 0 0 0 
0 0 0 0 0 0 0 0 0 
0 0 0 0 0 0 0 0 0 
0 0 0 0 0 0 0 0 0 
0 0 0 0 0 0 0 0 0 
0 0 0 0 0 0 0 0 0 
0 0 0 0 0 0 0 0 0 
0 0 0 0 0 0 0 0 0 
0 0 0 0 0 0 0 0 0 
0 0 0 0 0 0 0 0 0 
0 0 0 0 0 0 0 0 0 
0 0 0 0 0 0 0 0 0 
0 0 0 0 0 0 0 0 0 
0 0 0 0 0 0 0 0 0 
0 0 0 0 0 0 0 0 0 
0 0 0 0 0 0 0 0 0 
0 0 0 0 0 0 0 0 0 
0 0 0 0 0 0 0 0 0 
0 0 0 0 0 0 0 0 0 
0 0 0 0 0 0 0 0 0 
0 0 0 0 0 0 0 0 0 
0 0 0 0 0 0 0 0 0 
0 0 0 0 0 0 0 0 0 
0 0 0 0 0 0 0 0 0 
0 0 0 0 0 0 0 0 0 
0 0 0 0 0 0 0 0 0 
0 0 0 0 0 0 0 0 0 
0 0 0 0 0 0 0 0 0 
0 0 0 0 0 0 0 0 0 
0 0 0 0 0 0 0 0 0 
0 0 0 0 0 0 0 0 0 
0 0 0 0 0 0 0 0 0 
0 0 0 0 0 0 0 0 0 
0 0 0 0 0 0 0 0 0 
0 0 0 0 0 0 0 0 0 
0 0 0 0 0 0 0 0 0 
0 0 0 0 0 0 0 0 0 
0 0 0 0 0 0 0 0 0 
0 0 0 0 0 0 0 0 0 
0 0 0 0 0 0 0 0 0 
0 0 0 0 0 0 0 0 0 
0 0 0 0 0 0 0 0 0 
0 0 0 0 0 0 0 0 0 
0 0 0 0 0 0 0 0 0 
0 0 0 0 0 0 0 0 0 
0 0 0 0 0 0 0 0 0 
0 0 0 0 0 0 0 0 0 
0 0 0 0 0 0 0 0 0 
0 0 0 0 0 0 0 0 0 
0 0 0 0 0 0 0 0 0 
0 0 0 0 0 0 0 0 0 
0 0 0 0 0 0 0 0 0 
0 0 0 0 0 0 0 0 0 
0 0 0 0 0 0 0 0 0 
0 0 0 0 0 0 0 0 0 
0 0 0 0 0 0 0 0 0 
0 0 0 0 0 0 0 0 0 
0 0 0 0 0 0 0 0 0 
0 0 0 0 0 0 0 0 0 
0 0 0 0 0 0 0 0 0 
0 0 0 0 0 0 0 0 0 
0 0 0 0 0 0 0 0 0 
0 0 0 0 0 0 0 0 0 
0 0 0 0 0 0 0 0 0 
0 0 0 0 0 0 0 0 0 
0 0 0 0 0 0 0 0 0 
0 0 0 0 0 0 0 0 0 
0 0 0 0 0 0 0 0 0 
0 0 0 0 0 0 0 0 0 
0 0 0 0 0 0 0 0 0 
0 0 0 0 0 0 0 0 0 
0 0 0 0 0 0 0 0 0 
0 0 0 0 0 0 0 0 0 
0 0 0 0 0 0 0 0 0 
0 0 0 0 0 0 0 0 0 
0 0 0 0 0 0 0 0 0 
0 0 0 0 0 0 0 0 0 
0 0 0 0 0 0 0 0 0 
0 0 0 0 0 0 0 0 0 
0 0 0 0 0 0 0 0 0 
0 0 0 0 0 0 0 0 0 
0 0 0 0 0 0 0 0 0 
0 0 0 0 0 0 0 0 0 
0 0 0 0 0 0 0 0 0 
0 0 0 0 0 0 0 0 0 
0 0 0 0 0 0 0 0 0 
0 0 0 0 0 0 0 0 0 
0 0 0 0 0 0 0 0 0 
0 0 0 0 0 0 0 0 0 
0 0 0 0 0 0 0 0 0 
0 0 0 0 0 0 0 0 0 
0 0 0 0 0 0 0 0 0 
0 0 0 0 0 0 0 0 0 
0 0 0 0 0 0 0 0 0 
0 0 0 0 0 0 0 0 0 
0 0 0 0 0 0 0 0 0 
0 0 0 0 0 0 0 0 0 
0 0 0 0 0 0 0 0 0 
0 0 0 0 0 0 0 0 0 
0 0 0 0 0 0 0 0 0 
0 0 0 0 0 0 0 0 0 
0 0 0 0 0 0 0 0 0 
0 0 0 0 0 0 0 0 0 
0 0 0 0 0 0 0 0 0 
0 0 0 0 0 0 0 0 0 
0 0 0 0 0 0 0 0 0 
0 0 0 0 0 0 0 0 0 
0 0 0 0 0 0 0 0 0 
0 0 0 0 0 0 0 0 0 
0 0 0 0 0 0 0 0 0 
0 0 0 0 0 0 0 0 0 
0 0 0 0 0 0 0 0 0 
0 0 0 0 0 0 0 0 0 
0 0 0 0 0 0 0 0 0 
0 0 0 0 0 0 0 0 0 
0 0 0 0 0 0 0 0 0 
0 0 0 0 0 0 0 0 0 
0 0 0 0 0 0 0 0 0 
0 0 0 0 0 0 0 0 0 
0 0 0 0 0 0 0 0 0 
0 0 0 0 0 0 0 0 0 
0 0 0 0 0 0 0 0 0 
0 0 0 0 0 0 0 0 0 
0 0 0 0 0 0 0 0 0 
0 0 0 0 0 0 0 0 0 
0 0 0 0 0 0 0 0 0 
0 0 0 0 0 0 0 0 0 
0 0 0 0 0 0 0 0 0 
0 0 0 0 0 0 0 0 0 
0 0 0 0 0 0 0 0 0 
0 0 0 0 0 0 0 0 0 
0 0 0 0 0 0 0 0 0 
0 0 0 0 0 0 0 0 0 
0 0 0 0 0 0 0 0 0 
0 0 0 0 0 0 0 0 0 
0 0 0 0 0 0 0 0 0 
0 0 0 0 0 0 0 0 0 
0 0 0 0 0 0 0 0 0 
0 0 0 0 0 0 0 0 0 
0 0 0 0 0 0 0 0 0 
0 0 0 0 0 0 0 0 0 
0 0 0 0 0 0 0 0 0 
0 0 0 0 0 0 0 0 0 
0 0 0 0 0 0 0 0 0 
0 0 0 0 0 0 0 0 0 
0 0 0 0 0 0 0 0 0 
0 0 0 0 0 0 0 0 0 
0 0 0 0 0 0 0 0 0 
0 0 0 0 0 0 0 0 0 
0 0 0 0 0 0 0 0 0 
0 0 0 0 0 0 0 0 0 
0 0 0 0 0 0 0 0 0 
0 0 0 0 0 0 0 0 0 
0 0 0 0 0 0 0 0 0 
0 0 0 0 0 0 0 0 0 
0 0 0 0 0 0 0 0 0 
0 0 0 0 0 0 0 0 0 
0 0 0 0 0 0 0 0 0 
0 0 0 0 0 0 0 0 0 
0 0 0 0 0 0 0 0 0 
0 0 0 0 0 0 0 0 0 
0 0 0 0 0 0 0 0 0 
0 0 0 0 0 0 0 0 0 
0 0 0 0 0 0 0 0 0 
0 0 0 0 0 0 0 0 0 
0 0 0 0 0 0 0 0 0 
0 0 0 0 0 0 0 0 0 
0 0 0 0 0 0 0 0 0 
0 0 0 0 0 0 0 0 0 
0 0 0 0 0 0 0 0 0 
0 0 0 0 0 0 0 0 0 
0 0 0 0 0 0 0 0 0 
0 0 0 0 0 0 0 0 0 
0 0 0 0 0 0 0 0 0 
0 0 0 0 0 0 0 0 0 
0 0 0 0 0 0 0 0 0 
0 0 0 0 0 0 0 0 0 
0 0 0 0 0 0 0 0 0 
0 0 0 0 0 0 0 0 0 
0 0 0 0 0 0 0 0 0 
0 0 0 0 0 0 0 0 0 
0 0 0 0 0 0 0 0 0 
0 0 0 0 0 0 0 0 0 
0 0 0 0 0 0 0 0 0 
0 0 0 0 0 0 0 0 0 
0 0 0 0 0 0 0 0 0 
0 0 0 0 0 0 0 0 0 
0 0 0 0 0 0 0 0 0 
0 0 0 0 0 0 0 0 0 
0 0 0 0 0 0 0 0 0 
0 0 0 0 0 0 0 0 0 
0 0 0 0 0 0 0 0 0 
0 0 0 0 0 0 0 0 0 
0 0 0 0 0 0 0 0 0 
0 0 0 0 0 0 0 0 0 
0 0 0 0 0 0 0 0 0 
0 0 0 0 0 0 0 0 0 
0 0 0 0 0 0 0 0 0 
0 0 0 0 0 0 0 0 0 
0 0 0 0 0 0 0 0 0 
0 0 0 0 0 0 0 0 0 
0 0 0 0 0 0 0 0 0 
0 0 0 0 0 0 0 0 0 
0 0 0 0 0 0 0 0 0 
0 0 0 0 0 0 0 0 0 
0 0 0 0 0 0 0 0 0 
0 0 0 0 0 0 0 0 0 
0 0 0 0 0 0 0 0 0 
0 0 0 0 0 0 0 0 0 
0 0 0 0 0 0 0 0 0 
0 0 0 0 0 0 0 0 0 
0 0 0 0 0 0 0 0 0 
0 0 0 0 0 0 0 0 0 
0 0 0 0 0 0 0 0 0 
0 0 0 0 0 0 0 0 0 
0 0 0 0 0 0 0 0 0 
0 0 0 0 0 0 0 0 0 
0 0 0 0 0 0 0 0 0 
0 0 0 0 0 0 0 0 0 
0 0 0 0 0 0 0 0 0 
0 0 0 0 0 0 0 0 0 
0 0 0 0 0 0 0 0 0 
0 0 0 0 0 0 0 0 0 
0 0 0 0 0 0 0 0 0 
0 0 0 0 0 0 0 0 0 
0 0 0 0 0 0 0 0 0 
0 0 0 0 0 0 0 0 0 
0 0 0 0 0 0 0 0 0 
0 0 0 0 0 0 0 0 0 
0 0 0 0 0 0 0 0 0 
0 0 0 0 0 0 0 0 0 
0 0 0 0 0 0 0 0 0 
0 0 0 0 0 0 0 0 0 
0 0 0 0 0 0 0 0 0 
0 0 0 0 0 0 0 0 0 
0 0 0 0 0 0 0 0 0 
0 0 0 0 0 0 0 0 0 
0 0 0 0 0 0 0 0 0 
0 0 0 0 0 0 0 0 0 
0 0 0 0 0 0 0 0 0 
0 0 0 0 0 0 0 0 0 
0 0 0 0 0 0 0 0 0 
0 0 0 0 0 0 0 0 0 
0 0 0 0 0 0 0 0 0 
0 0 0 0 0 0 0 0 0 
0 0 0 0 0 0 0 0 0 
0 0 0 0 0 0 0 0 0 
0 0 0 0 0 0 0 0 0 
0 0 0 0 0 0 0 0 0 
0 0 0 0 0 0 0 0 0 
0 0 0 0 0 0 0 0 0 
0 0 0 0 0 0 0 0 0 
0 0 0 0 0 0 0 0 0 
0 0 0 0 0 0 0 0 0 
0 0 0 0 0 0 0 0 0 
0 0 0 0 0 0 0 0 0 
0 0 0 0 0 0 0 0 0 
0 0 0 0 0 0 0 0 0 
0 0 0 0 0 0 0 0 0 
0 0 0 0 0 0 0 0 0 
0 0 0 0 0 0 0 0 0 
0 0 0 0 0 0 0 0 0 
0 0 0 0 0 0 0 0 0 
0 0 0 0 0 0 0 0 0 
0 0 0 0 0 0 0 0 0 
0 0 0 0 0 0 0 0 0 
0 0 0 0 0 0 0 0 0 
0 0 0 0 0 0 0 0 0 
0 0 0 0 0 0 0 0 0 
0 0 0 0 0 0 0 0 0 
0 0 0 0 0 0 0 0 0 
0 0 0 0 0 0 0 0 0 
0 0 0 0 0 0 0 0 0 
0 0 0 0 0 0 0 0 0 
0 0 0 0 0 0 0 0 0 
0 0 0 0 0 0 0 0 0 
0 0 0 0 0 0 0 0 0 
0 0 0 0 0 0 0 0 0 
0 0 0 0 0 0 0 0 0 
0 0 0 0 0 0 0 0 0 
0 0 0 0 0 0 0 0 0 
0 0 0 0 0 0 0 0 0 
0 0 0 0 0 0 0 0 0 
0 0 0 0 0 0 0 0 0 
0 0 0 0 0 0 0 0 0 
0 0 0 0 0 0 0 0 0 
0 0 0 0 0 0 0 0 0 
0 0 0 0 0 0 0 0 0 
0 0 0 0 0 0 0 0 0 
0 0 0 0 0 0 0 0 0 
0 0 0 0 0 0 0 0 0 
0 0 0 0 0 0 0 0 0 
0 0 0 0 0 0 0 0 0 
0 0 0 0 0 0 0 0 0 
0 0 0 0 0 0 0 0 0 
0 0 0 0 0 0 0 0 0 
0 0 0 0 0 0 0 0 0 
0 0 0 0 0 0 0 0 0 
0 0 0 0 0 0 0 0 0 
0 0 0 0 0 0 0 0 0 
0 0 0 0 0 0 0 0 0 
0 0 0 0 0 0 0 0 0 
0 0 0 0 0 0 0 0 0 
0 0 0 0 0 0 0 0 0 
0 0 0 0 0 0 0 0 0 
0 0 0 0 0 0 0 0 0 
0 0 0 0 0 0 0 0 0 
0 0 0 0 0 0 0 0 0 
0 0 0 0 0 0 0 0 0 
0 0 0 0 0 0 0 0 0 
0 0 0 0 0 0 0 0 0 
0 0 0 0 0 0 0 0 0 
0 0 0 0 0 0 0 0 0 
0 0 0 0 0 0 0 0 0 
0 0 0 0 0 0 0 0 0 
0 0 0 0 0 0 0 0 0 
0 0 0 0 0 0 0 0 0 
0 0 0 0 0 0 0 0 0 
0 0 0 0 0 0 0 0 0 
0 0 0 0 0 0 0 0 0 
0 0 0 0 0 0 0 0 0 
0 0 0 0 0 0 0 0 0 
0 0 0 0 0 0 0 0 0 
0 0 0 0 0 0 0 0 0 
0 0 0 0 0 0 0 0 0 
0 0 0 0 0 0 0 0 0 
0 0 0 0 0 0 0 0 0 
0 0 0 0 0 0 0 0 0 
0 0 0 0 0 0 0 0 0 
0 0 0 0 0 0 0 0 0 
0 0 0 0 0 0 0 0 0 
0 0 0 0 0 0 0 0 0 
0 0 0 0 0 0 0 0 0 
0 0 0 0 0 0 0 0 0 
0 0 0 0 0 0 0 0 0 
0 0 0 0 0 0 0 0 0 
0 0 0 0 0 0 0 0 0 
0 0 0 0 0 0 0 0 0 
0 0 0 0 0 0 0 0 0 
0 0 0 0 0 0 0 0 0 
0 0 0 0 0 0 0 0 0 
0 0 0 0 0 0 0 0 0 
0 0 0 0 0 0 0 0 0 
0 0 0 0 0 0 0 0 0 
0 0 0 0 0 0 0 0 0 
0 0 0 0 0 0 0 0 0 
0 0 0 0 0 0 0 0 0 
0 0 0 0 0 0 0 0 0 
0 0 0 0 0 0 0 0 0 
0 0 0 0 0 0 0 0 0 
0 0 0 0 0 0 0 0 0 
0 0 0 0 0 0 0 0 0 
0 0 0 0 0 0 0 0 0 
0 0 0 0 0 0 0 0 0 
0 0 0 0 0 0 0 0 0 
0 0 0 0 0 0 0 0 0 
0 0 0 0 0 0 0 0 0 
0 0 0 0 0 0 0 0 0 
0 0 0 0 0 0 0 0 0 
0 0 0 0 0 0 0 0 0 
0 0 0 0 0 0 0 0 0 
0 0 0 0 0 0 0 0 0 
0 0 0 0 0 0 0 0 0 
0 0 0 0 0 0 0 0 0 
0 0 0 0 0 0 0 0 0 
0 0 0 0 0 0 0 0 0 
0 0 0 0 0 0 0 0 0 
0 0 0 0 0 0 0 0 0 
0 0 0 0 0 0 0 0 0 
0 0 0 0 0 0 0 0 0 
0 0 0 0 0 0 0 0 0 
0 0 0 0 0 0 0 0 0 
0 0 0 0 0 0 0 0 0 
0 0 0 0 0 0 0 0 0 
0 0 0 0 0 0 0 0 0 
0 0 0 0 0 0 0 0 0 
0 0 0 0 0 0 0 0 0 
0 0 0 0 0 0 0 0 0 
0 0 0 0 0 0 0 0 0 
0 0 0 0 0 0 0 0 0 
0 0 0 0 0 0 0 0 0 
0 0 0 0 0 0 0 0 0 
0 0 0 0 0 0 0 0 0 
0 0 0 0 0 0 0 0 0 
0 0 0 0 0 0 0 0 0 
0 0 0 0 0 0 0 0 0 
0 0 0 0 0 0 0 0 0 
0 0 0 0 0 0 0 0 0 
0 0 0 0 0 0 0 0 0 
0 0 0 0 0 0 0 0 0 
0 0 0 0 0 0 0 0 0 
0 0 0 0 0 0 0 0 0 
0 0 0 0 0 0 0 0 0 
0 0 0 0 0 0 0 0 0 
0 0 0 0 0 0 0 0 0 
0 0 0 0 0 0 0 0 0 
0 0 0 0 0 0 0 0 0 
0 0 0 0 0 0 0 0 0 
0 0 0 0 0 0 0 0 0 
0 0 0 0 0 0 0 0 0 
0 0 0 0 0 0 0 0 0 
0 0 0 0 0 0 0 0 0 
0 0 0 0 0 0 0 0 0 
0 0 0 0 0 0 0 0 0 
0 0 0 0 0 0 0 0 0 
0 0 0 0 0 0 0 0 0 
0 0 0 0 0 0 0 0 0 
0 0 0 0 0 0 0 0 0 
0 0 0 0 0 0 0 0 0 
0 0 0 0 0 0 0 0 0 
0 0 0 0 0 0 0 0 0 
0 0 0 0 0 0 0 0 0 
0 0 0 0 0 0 0 0 0 
0 0 0 0 0 0 0 0 0 
0 0 0 0 0 0 0 0 0 
0 0 0 0 0 0 0 0 0 
0 0 0 0 0 0 0 0 0 
0 0 0 0 0 0 0 0 0 
0 0 0 0 0 0 0 0 0 
0 0 0 0 0 0 0 0 0 
0 0 0 0 0 0 0 0 0 
0 0 0 0 0 0 0 0 0 
0 0 0 0 0 0 0 0 0 
0 0 0 0 0 0 0 0 0 
0 0 0 0 0 0 0 0 0 
0 0 0 0 0 0 0 0 0 
0 0 0 0 0 0 0 0 0 
0 0 0 0 0 0 0 0 0 
0 0 0 0 0 0 0 0 0 
0 0 0 0 0 0 0 0 0 
0 0 0 0 0 0 0 0 0 
0 0 0 0 0 0 0 0 0 
0 0 0 0 0 0 0 0 0 
0 0 0 0 0 0 0 0 0 
0 0 0 0 0 0 0 0 0 
0 0 0 0 0 0 0 0 0 
0 0 0 0 0 0 0 0 0 
0 0 0 0 0 0 0 0 0 
0 0 0 0 0 0 0 0 0 
0 0 0 0 0 0 0 0 0 
0 0 0 0 0 0 0 0 0 
0 0 0 0 0 0 0 0 0 
0 0 0 0 0 0 0 0 0 
0 0 0 0 0 0 0 0 0 
0 0 0 0 0 0 0 0 0 
0 0 0 0 0 0 0 0 0 
0 0 0 0 0 0 0 0 0 
0 0 0 0 0 0 0 0 0 
0 0 0 0 0 0 0 0 0 
0 0 0 0 0 0 0 0 0 
0 0 0 0 0 0 0 0 0 
0 0 0 0 0 0 0 0 0 
0 0 0 0 0 0 0 0 0 
0 0 0 0 0 0 0 0 0 
0 0 0 0 0 0 0 0 0 
0 0 0 0 0 0 0 0 0 
0 0 0 0 0 0 0 0 0 
0 0 0 0 0 0 0 0 0 
0 0 0 0 0 0 0 0 0 
0 0 0 0 0 0 0 0 0 
0 0 0 0 0 0 0 0 0 
0 0 0 0 0 0 0 0 0 
0 0 0 0 0 0 0 0 0 
0 0 0 0 0 0 0 0 0 
0 0 0 0 0 0 0 0 0 
0 0 0 0 0 0 0 0 0 
0 0 0 0 0 0 0 0 0 
0 0 0 0 0 0 0 0 0 
0 0 0 0 0 0 0 0 0 
0 0 0 0 0 0 0 0 0 
0 0 0 0 0 0 0 0 0 
0 0 0 0 0 0 0 0 0 
0 0 0 0 0 0 0 0 0 
0 0 0 0 0 0 0 0 0 
0 0 0 0 0 0 0 0 0 
0 0 0 0 0 0 0 0 0 
0 0 0 0 0 0 0 0 0 
0 0 0 0 0 0 0 0 0 
0 0 0 0 0 0 0 0 0 
0 0 0 0 0 0 0 0 0 
0 0 0 0 0 0 0 0 0 
0 0 0 0 0 0 0 0 0 
0 0 0 0 0 0 0 0 0 
0 0 0 0 0 0 0 0 0 
0 0 0 0 0 0 0 0 0 
0 0 0 0 0 0 0 0 0 
0 0 0 0 0 0 0 0 0 
0 0 0 0 0 0 0 0 0 
0 0 0 0 0 0 0 0 0 
0 0 0 0 0 0 0 0 0 
0 0 0 0 0 0 0 0 0 
0 0 0 0 0 0 0 0 0 
0 0 0 0 0 0 0 0 0 
0 0 0 0 0 0 0 0 0 
0 0 0 0 0 0 0 0 0 
0 0 0 0 0 0 0 0 0 
0 0 0 0 0 0 0 0 0 
0 0 0 0 0 0 0 0 0 
0 0 0 0 0 0 0 0 0 
0 0 0 0 0 0 0 0 0 
0 0 0 0 0 0 0 0 0 
0 0 0 0 0 0 0 0 0 
0 0 0 0 0 0 0 0 0 
0 0 0 0 0 0 0 0 0 
0 0 0 0 0 0 0 0 0 
0 0 0 0 0 0 0 0 0 
0 0 0 0 0 0 0 0 0 
0 0 0 0 0 0 0 0 0 
0 0 0 0 0 0 0 0 0 
0 0 0 0 0 0 0 0 0 
0 0 0 0 0 0 0 0 0 
0 0 0 0 0 0 0 0 0 
0 0 0 0 0 0 0 0 0 
0 0 0 0 0 0 0 0 0 
0 0 0 0 0 0 0 0 0 
0 0 0 0 0 0 0 0 0 
0 0 0 0 0 0 0 0 0 
0 0 0 0 0 0 0 0 0 
0 0 0 0 0 0 0 0 0 
0 0 0 0 0 0 0 0 0 
0 0 0 0 0 0 0 0 0 
0 0 0 0 0 0 0 0 0 
0 0 0 0 0 0 0 0 0 
0 0 0 0 0 0 0 0 0 
0 0 0 0 0 0 0 0 0 
0 0 0 0 0 0 0 0 0 
0 0 0 0 0 0 0 0 0 
0 0 0 0 0 0 0 0 0 
0 0 0 0 0 0 0 0 0 
0 0 0 0 0 0 0 0 0 
0 0 0 0 0 0 0 0 0 
0 0 0 0 0 0 0 0 0 
0 0 0 0 0 0 0 0 0 
0 0 0 0 0 0 0 0 0 
0 0 0 0 0 0 0 0 0 
0 0 0 0 0 0 0 0 0 
0 0 0 0 0 0 0 0 0 
0 0 0 0 0 0 0 0 0 
0 0 0 0 0 0 0 0 0 
0 0 0 0 0 0 0 0 0 
0 0 0 0 0 0 0 0 0 
0 0 0 0 0 0 0 0 0 
0 0 0 0 0 0 0 0 0 
0 0 0 0 0 0 0 0 0 
0 0 0 0 0 0 0 0 0 
0 0 0 0 0 0 0 0 0 
0 0 0 0 0 0 0 0 0 
0 0 0 0 0 0 0 0 0 
0 0 0 0 0 0 0 0 0 
0 0 0 0 0 0 0 0 0 
0 0 0 0 0 0 0 0 0 
0 0 0 0 0 0 0 0 0 
0 0 0 0 0 0 0 0 0 
0 0 0 0 0 0 0 0 0 
0 0 0 0 0 0 0 0 0 
0 0 0 0 0 0 0 0 0 
0 0 0 0 0 0 0 0 0 
0 0 0 0 0 0 0 0 0 
0 0 0 0 0 0 0 0 0 
0 0 0 0 0 0 0 0 0 
0 0 0 0 0 0 0 0 0 
0 0 0 0 0 0 0 0 0 
0 0 0 0 0 0 0 0 0 
0 0 0 0 0 0 0 0 0 
0 0 0 0 0 0 0 0 0 
0 0 0 0 0 0 0 0 0 
0 0 0 0 0 0 0 0 0 
0 0 0 0 0 0 0 0 0 
0 0 0 0 0 0 0 0 0 
0 0 0 0 0 0 0 0 0 
0 0 0 0 0 0 0 0 0 
0 0 0 0 0 0 0 0 0 
0 0 0 0 0 0 0 0 0 
0 0 0 0 0 0 0 0 0 
0 0 0 0 0 0 0 0 0 
0 0 0 0 0 0 0 0 0 
0 0 0 0 0 0 0 0 0 
0 0 0 0 0 0 0 0 0 
0 0 0 0 0 0 0 0 0 
0 0 0 0 0 0 0 0 0 
0 0 0 0 0 0 0 0 0 
0 0 0 0 0 0 0 0 0 
0 0 0 0 0 0 0 0 0 
0 0 0 0 0 0 0 0 0 
0 0 0 0 0 0 0 0 0 
0 0 0 0 0 0 0 0 0 
0 0 0 0 0 0 0 0 0 
0 0 0 0 0 0 0 0 0 
0 0 0 0 0 0 0 0 0 
0 0 0 0 0 0 0 0 0 
0 0 0 0 0 0 0 0 0 
0 0 0 0 0 0 0 0 0 
0 0 0 0 0 0 0 0 0 
0 0 0 0 0 0 0 0 0 
0 0 0 0 0 0 0 0 0 
0 0 0 0 0 0 0 0 0 
0 0 0 0 0 0 0 0 0 
0 0 0 0 0 0 0 0 0 
0 0 0 0 0 0 0 0 0 
0 0 0 0 0 0 0 0 0 
0 0 0 0 0 0 0 0 0 
0 0 0 0 0 0 0 0 0 
0 0 0 0 0 0 0 0 0 
0 0 0 0 0 0 0 0 0 
0 0 0 0 0 0 0 0 0 
0 0 0 0 0 0 0 0 0 
0 0 0 0 0 0 0 0 0 
0 0 0 0 0 0 0 0 0 
0 0 0 0 0 0 0 0 0 
0 0 0 0 0 0 0 0 0 
0 0 0 0 0 0 0 0 0 
0 0 0 0 0 0 0 0 0 
0 0 0 0 0 0 0 0 0 
0 0 0 0 0 0 0 0 0 
0 0 0 0 0 0 0 0 0 
0 0 0 0 0 0 0 0 0 
0 0 0 0 0 0 0 0 0 
0 0 0 0 0 0 0 0 0 
0 0 0 0 0 0 0 0 0 
0 0 0 0 0 0 0 0 0 
0 0 0 0 0 0 0 0 0 
0 0 0 0 0 0 0 0 0 
0 0 0 0 0 0 0 0 0 
0 0 0 0 0 0 0 0 0 
0 0 0 0 0 0 0 0 0 
0 0 0 0 0 0 0 0 0 
0 0 0 0 0 0 0 0 0 
0 0 0 0 0 0 0 0 0 
0 0 0 0 0 0 0 0 0 
0 0 0 0 0 0 0 0 0 
0 0 0 0 0 0 0 0 0 
0 0 0 0 0 0 0 0 0 
0 0 0 0 0 0 0 0 0 
0 0 0 0 0 0 0 0 0 
0 0 0 0 0 0 0 0 0 
0 0 0 0 0 0 0 0 0 
0 0 0 0 0 0 0 0 0 
0 0 0 0 0 0 0 0 0 
0 0 0 0 0 0 0 0 0 
0 0 0 0 0 0 0 0 0 
0 0 0 0 0 0 0 0 0 
0 0 0 0 0 0 0 0 0 
0 0 0 0 0 0 0 0 0 
0 0 0 0 0 0 0 0 0 
0 0 0 0 0 0 0 0 0 
0 0 0 0 0 0 0 0 0 
0 0 0 0 0 0 0 0 0 
0 0 0 0 0 0 0 0 0 
0 0 0 0 0 0 0 0 0 
0 0 0 0 0 0 0 0 0 
0 0 0 0 0 0 0 0 0 
0 0 0 0 0 0 0 0 0 
0 0 0 0 0 0 0 0 0 
0 0 0 0 0 0 0 0 0 
0 0 0 0 0 0 0 0 0 
0 0 0 0 0 0 0 0 0 
0 0 0 0 0 0 0 0 0 
0 0 0 0 0 0 0 0 0 
0 0 0 0 0 0 0 0 0 
0 0 0 0 0 0 0 0 0 
0 0 0 0 0 0 0 0 0 
0 0 0 0 0 0 0 0 0 
0 0 0 0 0 0 0 0 0 
0 0 0 0 0 0 0 0 0 
0 0 0 0 0 0 0 0 0 
0 0 0 0 0 0 0 0 0 
0 0 0 0 0 0 0 0 0 
0 0 0 0 0 0 0 0 0 
0 0 0 0 0 0 0 0 0 
0 0 0 0 0 0 0 0 0 
0 0 0 0 0 0 0 0 0 
0 0 0 0 0 0 0 0 0 
0 0 0 0 0 0 0 0 0 
0 0 0 0 0 0 0 0 0 
0 0 0 0 0 0 0 0 0 
0 0 0 0 0 0 0 0 0 
0 0 0 0 0 0 0 0 0 
0 0 0 0 0 0 0 0 0 
0 0 0 0 0 0 0 0 0 
0 0 0 0 0 0 0 0 0 
0 0 0 0 0 0 0 0 0 
0 0 0 0 0 0 0 0 0 
0 0 0 0 0 0 0 0 0 
0 0 0 0 0 0 0 0 0 
0 0 0 0 0 0 0 0 0 
0 0 0 0 0 0 0 0 0 
0 0 0 0 0 0 0 0 0 
0 0 0 0 0 0 0 0 0 
0 0 0 0 0 0 0 0 0 
0 0 0 0 0 0 0 0 0 
0 0 0 0 0 0 0 0 0 
0 0 0 0 0 0 0 0 0 
0 0 0 0 0 0 0 0 0 
0 0 0 0 0 0 0 0 0 
0 0 0 0 0 0 0 0 0 
0 0 0 0 0 0 0 0 0 
0 0 0 0 0 0 0 0 0 
0 0 0 0 0 0 0 0 0 
0 0 0 0 0 0 0 0 0 
0 0 0 0 0 0 0 0 0 
0 0 0 0 0 0 0 0 0 
0 0 0 0 0 0 0 0 0 
0 0 0 0 0 0 0 0 0 
0 0 0 0 0 0 0 0 0 
0 0 0 0 0 0 0 0 0 
0 0 0 0 0 0 0 0 0 
0 0 0 0 0 0 0 0 0 
0 0 0 0 0 0 0 0 0 
0 0 0 0 0 0 0 0 0 
0 0 0 0 0 0 0 0 0 
0 0 0 0 0 0 0 0 0 
0 0 0 0 0 0 0 0 0 
0 0 0 0 0 0 0 0 0 
0 0 0 0 0 0 0 0 0 
0 0 0 0 0 0 0 0 0 
0 0 0 0 0 0 0 0 0 
0 0 0 0 0 0 0 0 0 
0 0 0 0 0 0 0 0 0 
0 0 0 0 0 0 0 0 0 
0 0 0 0 0 0 0 0 0 
0 0 0 0 0 0 0 0 0 
0 0 0 0 0 0 0 0 0 
0 0 0 0 0 0 0 0 0 
0 0 0 0 0 0 0 0 0 
0 0 0 0 0 0 0 0 0 
0 0 0 0 0 0 0 0 0 
0 0 0 0 0 0 0 0 0 
0 0 0 0 0 0 0 0 0 
0 0 0 0 0 0 0 0 0 
0 0 0 0 0 0 0 0 0 
0 0 0 0 0 0 0 0 0 
0 0 0 0 0 0 0 0 0 
0 0 0 0 0 0 0 0 0 
0 0 0 0 0 0 0 0 0 
0 0 0 0 0 0 0 0 0 
0 0 0 0 0 0 0 0 0 
0 0 0 0 0 0 0 0 0 
0 0 0 0 0 0 0 0 0 
0 0 0 0 0 0 0 0 0 
0 0 0 0 0 0 0 0 0 
0 0 0 0 0 0 0 0 0 
0 0 0 0 0 0 0 0 0 
0 0 0 0 0 0 0 0 0 
0 0 0 0 0 0 0 0 0 
0 0 0 0 0 0 0 0 0 
0 0 0 0 0 0 0 0 0 
0 0 0 0 0 0 0 0 0 
0 0 0 0 0 0 0 0 0 
0 0 0 0 0 0 0 0 0 
0 0 0 0 0 0 0 0 0 
0 0 0 0 0 0 0 0 0 
0 0 0 0 0 0 0 0 0 
0 0 0 0 0 0 0 0 0 
0 0 0 0 0 0 0 0 0 
0 0 0 0 0 0 0 0 0 
0 0 0 0 0 0 0 0 0 
0 0 0 0 0 0 0 0 0 
0 0 0 0 0 0 0 0 0 
0 0 0 0 0 0 0 0 0 
0 0 0 0 0 0 0 0 0 
0 0 0 0 0 0 0 0 0 
0 0 0 0 0 0 0 0 0 
0 0 0 0 0 0 0 0 0 
0 0 0 0 0 0 0 0 0 
0 0 0 0 0 0 0 0 0 
0 0 0 0 0 0 0 0 0 
0 0 0 0 0 0 0 0 0 
0 0 0 0 0 0 0 0 0 
0 0 0 0 0 0 0 0 0 
0 0 0 0 0 0 0 0 0 
0 0 0 0 0 0 0 0 0 
0 0 0 0 0 0 0 0 0 
0 0 0 0 0 0 0 0 0 
0 0 0 0 0 0 0 0 0 
0 0 0 0 0 0 0 0 0 
0 0 0 0 0 0 0 0 0 
0 0 0 0 0 0 0 0 0 
0 0 0 0 0 0 0 0 0 
0 0 0 0 0 0 0 0 0 
0 0 0 0 0 0 0 0 0 
0 0 0 0 0 0 0 0 0 
0 0 0 0 0 0 0 0 0 
0 0 0 0 0 0 0 0 0 
0 0 0 0 0 0 0 0 0 
0 0 0 0 0 0 0 0 0 
0 0 0 0 0 0 0 0 0 
0 0 0 0 0 0 0 0 0 
0 0 0 0 0 0 0 0 0 
0 0 0 0 0 0 0 0 0 
0 0 0 0 0 0 0 0 0 
0 0 0 0 0 0 0 0 0 
0 0 0 0 0 0 0 0 0 
0 0 0 0 0 0 0 0 0 
0 0 0 0 0 0 0 0 0 
0 0 0 0 0 0 0 0 0 
0 0 0 0 0 0 0 0 0 
0 0 0 0 0 0 0 0 0 
0 0 0 0 0 0 0 0 0 
0 0 0 0 0 0 0 0 0 
0 0 0 0 0 0 0 0 0 
0 0 0 0 0 0 0 0 0 
0 0 0 0 0 0 0 0 0 
0 0 0 0 0 0 0 0 0 
0 0 0 0 0 0 0 0 0 
0 0 0 0 0 0 0 0 0 
0 0 0 0 0 0 0 0 0 
0 0 0 0 0 0 0 0 0 
0 0 0 0 0 0 0 0 0 
0 0 0 0 0 0 0 0 0 
0 0 0 0 0 0 0 0 0 
0 0 0 0 0 0 0 0 0 
0 0 0 0 0 0 0 0 0 
0 0 0 0 0 0 0 0 0 
0 0 0 0 0 0 0 0 0 
0 0 0 0 0 0 0 0 0 
0 0 0 0 0 0 0 0 0 
0 0 0 0 0 0 0 0 0 
0 0 0 0 0 0 0 0 0 
0 0 0 0 0 0 0 0 0 
0 0 0 0 0 0 0 0 0 
0 0 0 0 0 0 0 0 0 
0 0 0 0 0 0 0 0 0 
0 0 0 0 0 0 0 0 0 
0 0 0 0 0 0 0 0 0 
0 0 0 0 0 0 0 0 0 
0 0 0 0 0 0 0 0 0 
0 0 0 0 0 0 0 0 0 
0 0 0 0 0 0 0 0 0 
0 0 0 0 0 0 0 0 0 
0 0 0 0 0 0 0 0 0 
0 0 0 0 0 0 0 0 0 
0 0 0 0 0 0 0 0 0 
0 0 0 0 0 0 0 0 0 
0 0 0 0 0 0 0 0 0 
0 0 0 0 0 0 0 0 0 
0 0 0 0 0 0 0 0 0 
0 0 0 0 0 0 0 0 0 
0 0 0 0 0 0 0 0 0 
0 0 0 0 0 0 0 0 0 
0 0 0 0 0 0 0 0 0 
0 0 0 0 0 0 0 0 0 
0 0 0 0 0 0 0 0 0 
0 0 0 0 0 0 0 0 0 
0 0 0 0 0 0 0 0 0 
0 0 0 0 0 0 0 0 0 
0 0 0 0 0 0 0 0 0 
0 0 0 0 0 0 0 0 0 
0 0 0 0 0 0 0 0 0 
0 0 0 0 0 0 0 0 0 
0 0 0 0 0 0 0 0 0 
0 0 0 0 0 0 0 0 0 
0 0 0 0 0 0 0 0 0 
0 0 0 0 0 0 0 0 0 
0 0 0 0 0 0 0 0 0 
0 0 0 0 0 0 0 0 0 
0 0 0 0 0 0 0 0 0 
0 0 0 0 0 0 0 0 0 
0 0 0 0 0 0 0 0 0 
0 0 0 0 0 0 0 0 0 
0 0 0 0 0 0 0 0 0 
0 0 0 0 0 0 0 0 0 
0 0 0 0 0 0 0 0 0 
0 0 0 0 0 0 0 0 0 
0 0 0 0 0 0 0 0 0 
0 0 0 0 0 0 0 0 0 
0 0 0 0 0 0 0 0 0 
0 0 0 0 0 0 0 0 0 
0 0 0 0 0 0 0 0 0 
0 0 0 0 0 0 0 0 0 
0 0 0 0 0 0 0 0 0 
0 0 0 0 0 0 0 0 0 
0 0 0 0 0 0 0 0 0 
0 0 0 0 0 0 0 0 0 
0 0 0 0 0 0 0 0 0 
0 0 0 0 0 0 0 0 0 
0 0 0 0 0 0 0 0 0 
0 0 0 0 0 0 0 0 0 
0 0 0 0 0 0 0 0 0 
0 0 0 0 0 0 0 0 0 
0 0 0 0 0 0 0 0 0 
0 0 0 0 0 0 0 0 0 
0 0 0 0 0 0 0 0 0 
0 0 0 0 0 0 0 0 0 
0 0 0 0 0 0 0 0 0 
0 0 0 0 0 0 0 0 0 
0 0 0 0 0 0 0 0 0 
0 0 0 0 0 0 0 0 0 
0 0 0 0 0 0 0 0 0 
0 0 0 0 0 0 0 0 0 
0 0 0 0 0 0 0 0 0 
0 0 0 0 0 0 0 0 0 
0 0 0 0 0 0 0 0 0 
0 0 0 0 0 0 0 0 0 
0 0 0 0 0 0 0 0 0 
0 0 0 0 0 0 0 0 0 
0 0 0 0 0 0 0 0 0 
0 0 0 0 0 0 0 0 0 
0 0 0 0 0 0 0 0 0 
0 0 0 0 0 0 0 0 0 
0 0 0 0 0 0 0 0 0 
0 0 0 0 0 0 0 0 0 
0 0 0 0 0 0 0 0 0 
0 0 0 0 0 0 0 0 0 
0 0 0 0 0 0 0 0 0 
0 0 0 0 0 0 0 0 0 
0 0 0 0 0 0 0 0 0 
0 0 0 0 0 0 0 0 0 
0 0 0 0 0 0 0 0 0 
0 0 0 0 0 0 0 0 0 
0 0 0 0 0 0 0 0 0 
0 0 0 0 0 0 0 0 0 
0 0 0 0 0 0 0 0 0 
0 0 0 0 0 0 0 0 0 
0 0 0 0 0 0 0 0 0 
0 0 0 0 0 0 0 0 0 
0 0 0 0 0 0 0 0 0 
0 0 0 0 0 0 0 0 0 
0 0 0 0 0 0 0 0 0 
0 0 0 0 0 0 0 0 0 
0 0 0 0 0 0 0 0 0 
0 0 0 0 0 0 0 0 0 
0 0 0 0 0 0 0 0 0 
0 0 0 0 0 0 0 0 0 
0 0 0 0 0 0 0 0 0 
0 0 0 0 0 0 0 0 0 
0 0 0 0 0 0 0 0 0 
0 0 0 0 0 0 0 0 0 
0 0 0 0 0 0 0 0 0 
0 0 0 0 0 0 0 0 0 
0 0 0 0 0 0 0 0 0 
0 0 0 0 0 0 0 0 0 
0 0 0 0 0 0 0 0 0 
0 0 0 0 0 0 0 0 0 
0 0 0 0 0 0 0 0 0 
0 0 0 0 0 0 0 0 0 
0 0 0 0 0 0 0 0 0 
0 0 0 0 0 0 0 0 0 
0 0 0 0 0 0 0 0 0 
0 0 0 0 0 0 0 0 0 
0 0 0 0 0 0 0 0 0 
0 0 0 0 0 0 0 0 0 
0 0 0 0 0 0 0 0 0 
0 0 0 0 0 0 0 0 0 
0 0 0 0 0 0 0 0 0 
0 0 0 0 0 0 0 0 0 
0 0 0 0 0 0 0 0 0 
0 0 0 0 0 0 0 0 0 
0 0 0 0 0 0 0 0 0 
0 0 0 0 0 0 0 0 0 
0 0 0 0 0 0 0 0 0 
0 0 0 0 0 0 0 0 0 
0 0 0 0 0 0 0 0 0 
0 0 0 0 0 0 0 0 0 
0 0 0 0 0 0 0 0 0 
0 0 0 0 0 0 0 0 0 
0 0 0 0 0 0 0 0 0 
0 0 0 0 0 0 0 0 0 
0 0 0 0 0 0 0 0 0 
0 0 0 0 0 0 0 0 0 
0 0 0 0 0 0 0 0 0 
0 0 0 0 0 0 0 0 0 
0 0 0 0 0 0 0 0 0 
0 0 0 0 0 0 0 0 0 
0 0 0 0 0 0 0 0 0 
0 0 0 0 0 0 0 0 0 
0 0 0 0 0 0 0 0 0 
0 0 0 0 0 0 0 0 0 
0 0 0 0 0 0 0 0 0 
0 0 0 0 0 0 0 0 0 
0 0 0 0 0 0 0 0 0 
0 0 0 0 0 0 0 0 0 
0 0 0 0 0 0 0 0 0 
0 0 0 0 0 0 0 0 0 
0 0 0 0 0 0 0 0 0 
0 0 0 0 0 0 0 0 0 
0 0 0 0 0 0 0 0 0 
0 0 0 0 0 0 0 0 0 
0 0 0 0 0 0 0 0 0 
0 0 0 0 0 0 0 0 0 
0 0 0 0 0 0 0 0 0 
0 0 0 0 0 0 0 0 0 
0 0 0 0 0 0 0 0 0 
0 0 0 0 0 0 0 0 0 
0 0 0 0 0 0 0 0 0 
0 0 0 0 0 0 0 0 0 
0 0 0 0 0 0 0 0 0 
0 0 0 0 0 0 0 0 0 
0 0 0 0 0 0 0 0 0 
0 0 0 0 0 0 0 0 0 
0 0 0 0 0 0 0 0 0 
0 0 0 0 0 0 0 0 0 
0 0 0 0 0 0 0 0 0 
0 0 0 0 0 0 0 0 0 
0 0 0 0 0 0 0 0 0 
0 0 0 0 0 0 0 0 0 
0 0 0 0 0 0 0 0 0 
0 0 0 0 0 0 0 0 0 
0 0 0 0 0 0 0 0 0 
0 0 0 0 0 0 0 0 0 
0 0 0 0 0 0 0 0 0 
0 0 0 0 0 0 0 0 0 
0 0 0 0 0 0 0 0 0 
0 0 0 0 0 0 0 0 0 
0 0 0 0 0 0 0 0 0 
0 0 0 0 0 0 0 0 0 
0 0 0 0 0 0 0 0 0 
0 0 0 0 0 0 0 0 0 
0 0 0 0 0 0 0 0 0 
0 0 0 0 0 0 0 0 0 
0 0 0 0 0 0 0 0 0 
0 0 0 0 0 0 0 0 0 
0 0 0 0 0 0 0 0 0 
0 0 0 0 0 0 0 0 0 
0 0 0 0 0 0 0 0 0 
0 0 0 0 0 0 0 0 0 
0 0 0 0 0 0 0 0 0 
0 0 0 0 0 0 0 0 0 
0 0 0 0 0 0 0 0 0 
0 0 0 0 0 0 0 0 0 
0 0 0 0 0 0 0 0 0 
0 0 0 0 0 0 0 0 0 
0 0 0 0 0 0 0 0 0 
0 0 0 0 0 0 0 0 0 
0 0 0 0 0 0 0 0 0 
0 0 0 0 0 0 0 0 0 
0 0 0 0 0 0 0 0 0 
0 0 0 0 0 0 0 0 0 
0 0 0 0 0 0 0 0 0 
0 0 0 0 0 0 0 0 0 
0 0 0 0 0 0 0 0 0 
0 0 0 0 0 0 0 0 0 
0 0 0 0 0 0 0 0 0 
0 0 0 0 0 0 0 0 0 
0 0 0 0 0 0 0 0 0 
0 0 0 0 0 0 0 0 0 
0 0 0 0 0 0 0 0 0 
0 0 0 0 0 0 0 0 0 
0 0 0 0 0 0 0 0 0 
0 0 0 0 0 0 0 0 0 
0 0 0 0 0 0 0 0 0 
0 0 0 0 0 0 0 0 0 
0 0 0 0 0 0 0 0 0 
0 0 0 0 0 0 0 0 0 
0 0 0 0 0 0 0 0 0 
0 0 0 0 0 0 0 0 0 
0 0 0 0 0 0 0 0 0 
0 0 0 0 0 0 0 0 0 
0 0 0 0 0 0 0 0 0 
0 0 0 0 0 0 0 0 0 
0 0 0 0 0 0 0 0 0 
0 0 0 0 0 0 0 0 0 
0 0 0 0 0 0 0 0 0 
0 0 0 0 0 0 0 0 0 
0 0 0 0 0 0 0 0 0 
0 0 0 0 0 0 0 0 0 
0 0 0 0 0 0 0 0 0 
0 0 0 0 0 0 0 0 0 
0 0 0 0 0 0 0 0 0 
0 0 0 0 0 0 0 0 0 
0 0 0 0 0 0 0 0 0 
0 0 0 0 0 0 0 0 0 
0 0 0 0 0 0 0 0 0 
0 0 0 0 0 0 0 0 0 
0 0 0 0 0 0 0 0 0 
0 0 0 0 0 0 0 0 0 
0 0 0 0 0 0 0 0 0 
0 0 0 0 0 0 0 0 0 
0 0 0 0 0 0 0 0 0 
0 0 0 0 0 0 0 0 0 
0 0 0 0 0 0 0 0 0 
0 0 0 0 0 0 0 0 0 
0 0 0 0 0 0 0 0 0 
0 0 0 0 0 0 0 0 0 
0 0 0 0 0 0 0 0 0 
0 0 0 0 0 0 0 0 0 
0 0 0 0 0 0 0 0 0 
0 0 0 0 0 0 0 0 0 
0 0 0 0 0 0 0 0 0 
0 0 0 0 0 0 0 0 0 
0 0 0 0 0 0 0 0 0 
0 0 0 0 0 0 0 0 0 
0 0 0 0 0 0 0 0 0 
0 0 0 0 0 0 0 0 0 
0 0 0 0 0 0 0 0 0 
0 0 0 0 0 0 0 0 0 
0 0 0 0 0 0 0 0 0 
0 0 0 0 0 0 0 0 0 
0 0 0 0 0 0 0 0 0 
0 0 0 0 0 0 0 0 0 
0 0 0 0 0 0 0 0 0 
0 0 0 0 0 0 0 0 0 
0 0 0 0 0 0 0 0 0 
0 0 0 0 0 0 0 0 0 
0 0 0 0 0 0 0 0 0 
0 0 0 0 0 0 0 0 0 
0 0 0 0 0 0 0 0 0 
0 0 0 0 0 0 0 0 0 
0 0 0 0 0 0 0 0 0 
0 0 0 0 0 0 0 0 0 
0 0 0 0 0 0 0 0 0 
0 0 0 0 0 0 0 0 0 
0 0 0 0 0 0 0 0 0 
0 0 0 0 0 0 0 0 0 
0 0 0 0 0 0 0 0 0 
0 0 0 0 0 0 0 0 0 
0 0 0 0 0 0 0 0 0 
0 0 0 0 0 0 0 0 0 
0 0 0 0 0 0 0 0 0 
0 0 0 0 0 0 0 0 0 
0 0 0 0 0 0 0 0 0 
0 0 0 0 0 0 0 0 0 
0 0 0 0 0 0 0 0 0 
0 0 0 0 0 0 0 0 0 
0 0 0 0 0 0 0 0 0 
0 0 0 0 0 0 0 0 0 
0 0 0 0 0 0 0 0 0 
0 0 0 0 0 0 0 0 0 
0 0 0 0 0 0 0 0 0 
0 0 0 0 0 0 0 0 0 
0 0 0 0 0 0 0 0 0 
0 0 0 0 0 0 0 0 0 
0 0 0 0 0 0 0 0 0 
0 0 0 0 0 0 0 0 0 
0 0 0 0 0 0 0 0 0 
0 0 0 0 0 0 0 0 0 
0 0 0 0 0 0 0 0 0 
0 0 0 0 0 0 0 0 0 
0 0 0 0 0 0 0 0 0 
0 0 0 0 0 0 0 0 0 
0 0 0 0 0 0 0 0 0 
0 0 0 0 0 0 0 0 0 
0 0 0 0 0 0 0 0 0 
0 0 0 0 0 0 0 0 0 
0 0 0 0 0 0 0 0 0 
0 0 0 0 0 0 0 0 0 
0 0 0 0 0 0 0 0 0 
0 0 0 0 0 0 0 0 0 
0 0 0 0 0 0 0 0 0 
0 0 0 0 0 0 0 0 0 
0 0 0 0 0 0 0 0 0 
0 0 0 0 0 0 0 0 0 
0 0 0 0 0 0 0 0 0 
0 0 0 0 0 0 0 0 0 
0 0 0 0 0 0 0 0 0 
0 0 0 0 0 0 0 0 0 
0 0 0 0 0 0 0 0 0 
0 0 0 0 0 0 0 0 0 
0 0 0 0 0 0 0 0 0 
0 0 0 0 0 0 0 0 0 
0 0 0 0 0 0 0 0 0 
0 0 0 0 0 0 0 0 0 
0 0 0 0 0 0 0 0 0 
0 0 0 0 0 0 0 0 0 
0 0 0 0 0 0 0 0 0 
0 0 0 0 0 0 0 0 0 
0 0 0 0 0 0 0 0 0 
0 0 0 0 0 0 0 0 0 
0 0 0 0 0 0 0 0 0 
0 0 0 0 0 0 0 0 0 
0 0 0 0 0 0 0 0 0 
0 0 0 0 0 0 0 0 0 
0 0 0 0 0 0 0 0 0 
0 0 0 0 0 0 0 0 0 
0 0 0 0 0 0 0 0 0 
0 0 0 0 0 0 0 0 0 
0 0 0 0 0 0 0 0 0 
0 0 0 0 0 0 0 0 0 
0 0 0 0 0 0 0 0 0 
0 0 0 0 0 0 0 0 0 
0 0 0 0 0 0 0 0 0 
0 0 0 0 0 0 0 0 0 
0 0 0 0 0 0 0 0 0 
0 0 0 0 0 0 0 0 0 
0 0 0 0 0 0 0 0 0 
0 0 0 0 0 0 0 0 0 
0 0 0 0 0 0 0 0 0 
0 0 0 0 0 0 0 0 0 
0 0 0 0 0 0 0 0 0 
0 0 0 0 0 0 0 0 0 
0 0 0 0 0 0 0 0 0 
0 0 0 0 0 0 0 0 0 
0 0 0 0 0 0 0 0 0 
0 0 0 0 0 0 0 0 0 
0 0 0 0 0 0 0 0 0 
0 0 0 0 0 0 0 0 0 
0 0 0 0 0 0 0 0 0 
0 0 0 0 0 0 0 0 0 
0 0 0 0 0 0 0 0 0 
0 0 0 0 0 0 0 0 0 
0 0 0 0 0 0 0 0 0 
0 0 0 0 0 0 0 0 0 
0 0 0 0 0 0 0 0 0 
0 0 0 0 0 0 0 0 0 
0 0 0 0 0 0 0 0 0 
0 0 0 0 0 0 0 0 0 
0 0 0 0 0 0 0 0 0 
0 0 0 0 0 0 0 0 0 
0 0 0 0 0 0 0 0 0 
0 0 0 0 0 0 0 0 0 
0 0 0 0 0 0 0 0 0 
0 0 0 0 0 0 0 0 0 
0 0 0 0 0 0 0 0 0 
0 0 0 0 0 0 0 0 0 
0 0 0 0 0 0 0 0 0 
0 0 0 0 0 0 0 0 0 
0 0 0 0 0 0 0 0 0 
0 0 0 0 0 0 0 0 0 
0 0 0 0 0 0 0 0 0 
0 0 0 0 0 0 0 0 0 
0 0 0 0 0 0 0 0 0 
0 0 0 0 0 0 0 0 0 
0 0 0 0 0 0 0 0 0 
0 0 0 0 0 0 0 0 0 
0 0 0 0 0 0 0 0 0 
0 0 0 0 0 0 0 0 0 
0 0 0 0 0 0 0 0 0 
0 0 0 0 0 0 0 0 0 
0 0 0 0 0 0 0 0 0 
0 0 0 0 0 0 0 0 0 
0 0 0 0 0 0 0 0 0 
0 0 0 0 0 0 0 0 0 
0 0 0 0 0 0 0 0 0 
0 0 0 0 0 0 0 0 0 
0 0 0 0 0 0 0 0 0 
0 0 0 0 0 0 0 0 0 
0 0 0 0 0 0 0 0 0 
0 0 0 0 0 0 0 0 0 
0 0 0 0 0 0 0 0 0 
0 0 0 0 0 0 0 0 0 
0 0 0 0 0 0 0 0 0 
0 0 0 0 0 0 0 0 0 
0 0 0 0 0 0 0 0 0 
0 0 0 0 0 0 0 0 0 
0 0 0 0 0 0 0 0 0 
0 0 0 0 0 0 0 0 0 
0 0 0 0 0 0 0 0 0 
0 0 0 0 0 0 0 0 0 
0 0 0 0 0 0 0 0 0 
0 0 0 0 0 0 0 0 0 
0 0 0 0 0 0 0 0 0 
0 0 0 0 0 0 0 0 0 
0 0 0 0 0 0 0 0 0 
0 0 0 0 0 0 0 0 0 
0 0 0 0 0 0 0 0 0 
0 0 0 0 0 0 0 0 0 
0 0 0 0 0 0 0 0 0 
0 0 0 0 0 0 0 0 0 
0 0 0 0 0 0 0 0 0 
0 0 0 0 0 0 0 0 0 
0 0 0 0 0 0 0 0 0 
0 0 0 0 0 0 0 0 0 
0 0 0 0 0 0 0 0 0 
0 0 0 0 0 0 0 0 0 
0 0 0 0 0 0 0 0 0 
0 0 0 0 0 0 0 0 0 
0 0 0 0 0 0 0 0 0 
0 0 0 0 0 0 0 0 0 
0 0 0 0 0 0 0 0 0 
0 0 0 0 0 0 0 0 0 
0 0 0 0 0 0 0 0 0 
0 0 0 0 0 0 0 0 0 
0 0 0 0 0 0 0 0 0 
0 0 0 0 0 0 0 0 0 
0 0 0 0 0 0 0 0 0 
0 0 0 0 0 0 0 0 0 
0 0 0 0 0 0 0 0 0 
0 0 0 0 0 0 0 0 0 
0 0 0 0 0 0 0 0 0 
0 0 0 0 0 0 0 0 0 
0 0 0 0 0 0 0 0 0 
0 0 0 0 0 0 0 0 0 
0 0 0 0 0 0 0 0 0 
0 0 0 0 0 0 0 0 0 
0 0 0 0 0 0 0 0 0 
0 0 0 0 0 0 0 0 0 
0 0 0 0 0 0 0 0 0 
0 0 0 0 0 0 0 0 0 
0 0 0 0 0 0 0 0 0 
0 0 0 0 0 0 0 0 0 
0 0 0 0 0 0 0 0 0 
0 0 0 0 0 0 0 0 0 
0 0 0 0 0 0 0 0 0 
0 0 0 0 0 0 0 0 0 
0 0 0 0 0 0 0 0 0 
0 0 0 0 0 0 0 0 0 
0 0 0 0 0 0 0 0 0 
0 0 0 0 0 0 0 0 0 
0 0 0 0 0 0 0 0 0 
0 0 0 0 0 0 0 0 0 
0 0 0 0 0 0 0 0 0 
0 0 0 0 0 0 0 0 0 
0 0 0 0 0 0 0 0 0 
0 0 0 0 0 0 0 0 0 
0 0 0 0 0 0 0 0 0 
0 0 0 0 0 0 0 0 0 
0 0 0 0 0 0 0 0 0 
0 0 0 0 0 0 0 0 0 
0 0 0 0 0 0 0 0 0 
0 0 0 0 0 0 0 0 0 
0 0 0 0 0 0 0 0 0 
0 0 0 0 0 0 0 0 0 
0 0 0 0 0 0 0 0 0 
0 0 0 0 0 0 0 0 0 
0 0 0 0 0 0 0 0 0 
0 0 0 0 0 0 0 0 0 
0 0 0 0 0 0 0 0 0 
0 0 0 0 0 0 0 0 0 
0 0 0 0 0 0 0 0 0 
0 0 0 0 0 0 0 0 0 
0 0 0 0 0 0 0 0 0 
0 0 0 0 0 0 0 0 0 
0 0 0 0 0 0 0 0 0 
0 0 0 0 0 0 0 0 0 
0 0 0 0 0 0 0 0 0 
0 0 0 0 0 0 0 0 0 
0 0 0 0 0 0 0 0 0 
0 0 0 0 0 0 0 0 0 
0 0 0 0 0 0 0 0 0 
0 0 0 0 0 0 0 0 0 
0 0 0 0 0 0 0 0 0 
0 0 0 0 0 0 0 0 0 
0 0 0 0 0 0 0 0 0 
0 0 0 0 0 0 0 0 0 
0 0 0 0 0 0 0 0 0 
0 0 0 0 0 0 0 0 0 
0 0 0 0 0 0 0 0 0 
0 0 0 0 0 0 0 0 0 
0 0 0 0 0 0 0 0 0 
0 0 0 0 0 0 0 0 0 
0 0 0 0 0 0 0 0 0 
0 0 0 0 0 0 0 0 0 
0 0 0 0 0 0 0 0 0 
0 0 0 0 0 0 0 0 0 
0 0 0 0 0 0 0 0 0 
0 0 0 0 0 0 0 0 0 
0 0 0 0 0 0 0 0 0 
0 0 0 0 0 0 0 0 0 
0 0 0 0 0 0 0 0 0 
0 0 0 0 0 0 0 0 0 
0 0 0 0 0 0 0 0 0 
0 0 0 0 0 0 0 0 0 
0 0 0 0 0 0 0 0 0 
0 0 0 0 0 0 0 0 0 
0 0 0 0 0 0 0 0 0 
0 0 0 0 0 0 0 0 0 
0 0 0 0 0 0 0 0 0 
0 0 0 0 0 0 0 0 0 
0 0 0 0 0 0 0 0 0 
0 0 0 0 0 0 0 0 0 
0 0 0 0 0 0 0 0 0 
0 0 0 0 0 0 0 0 0 
0 0 0 0 0 0 0 0 0 
0 0 0 0 0 0 0 0 0 
0 0 0 0 0 0 0 0 0 
0 0 0 0 0 0 0 0 0 
0 0 0 0 0 0 0 0 0 
0 0 0 0 0 0 0 0 0 
0 0 0 0 0 0 0 0 0 
0 0 0 0 0 0 0 0 0 
0 0 0 0 0 0 0 0 0 
0 0 0 0 0 0 0 0 0 
0 0 0 0 0 0 0 0 0 
0 0 0 0 0 0 0 0 0 
0 0 0 0 0 0 0 0 0 
0 0 0 0 0 0 0 0 0 
0 0 0 0 0 0 0 0 0 
0 0 0 0 0 0 0 0 0 
0 0 0 0 0 0 0 0 0 
0 0 0 0 0 0 0 0 0 
0 0 0 0 0 0 0 0 0 
0 0 0 0 0 0 0 0 0 
0 0 0 0 0 0 0 0 0 
0 0 0 0 0 0 0 0 0 
0 0 0 0 0 0 0 0 0 
0 0 0 0 0 0 0 0 0 
0 0 0 0 0 0 0 0 0 
0 0 0 0 0 0 0 0 0 
0 0 0 0 0 0 0 0 0 
0 0 0 0 0 0 0 0 0 
0 0 0 0 0 0 0 0 0 
0 0 0 0 0 0 0 0 0 
0 0 0 0 0 0 0 0 0 
0 0 0 0 0 0 0 0 0 
0 0 0 0 0 0 0 0 0 
0 0 0 0 0 0 0 0 0 
0 0 0 0 0 0 0 0 0 
0 0 0 0 0 0 0 0 0 
0 0 0 0 0 0 0 0 0 
0 0 0 0 0 0 0 0 0 
0 0 0 0 0 0 0 0 0 
0 0 0 0 0 0 0 0 0 
0 0 0 0 0 0 0 0 0 
0 0 0 0 0 0 0 0 0 
0 0 0 0 0 0 0 0 0 
0 0 0 0 0 0 0 0 0 
0 0 0 0 0 0 0 0 0 
0 0 0 0 0 0 0 0 0 
0 0 0 0 0 0 0 0 0 
0 0 0 0 0 0 0 0 0 
0 0 0 0 0 0 0 0 0 
0 0 0 0 0 0 0 0 0 
0 0 0 0 0 0 0 0 0 
0 0 0 0 0 0 0 0 0 
0 0 0 0 0 0 0 0 0 
0 0 0 0 0 0 0 0 0 
0 0 0 0 0 0 0 0 0 
0 0 0 0 0 0 0 0 0 
0 0 0 0 0 0 0 0 0 
0 0 0 0 0 0 0 0 0 
0 0 0 0 0 0 0 0 0 
0 0 0 0 0 0 0 0 0 
0 0 0 0 0 0 0 0 0 
0 0 0 0 0 0 0 0 0 
0 0 0 0 0 0 0 0 0 
0 0 0 0 0 0 0 0 0 
0 0 0 0 0 0 0 0 0 
0 0 0 0 0 0 0 0 0 
0 0 0 0 0 0 0 0 0 
0 0 0 0 0 0 0 0 0 
0 0 0 0 0 0 0 0 0 
0 0 0 0 0 0 0 0 0 
0 0 0 0 0 0 0 0 0 
0 0 0 0 0 0 0 0 0 
0 0 0 0 0 0 0 0 0 
0 0 0 0 0 0 0 0 0 
0 0 0 0 0 0 0 0 0 
0 0 0 0 0 0 0 0 0 
0 0 0 0 0 0 0 0 0 
0 0 0 0 0 0 0 0 0 
0 0 0 0 0 0 0 0 0 
0 0 0 0 0 0 0 0 0 
0 0 0 0 0 0 0 0 0 
0 0 0 0 0 0 0 0 0 
0 0 0 0 0 0 0 0 0 
0 0 0 0 0 0 0 0 0 
0 0 0 0 0 0 0 0 0 
0 0 0 0 0 0 0 0 0 
0 0 0 0 0 0 0 0 0 
0 0 0 0 0 0 0 0 0 
0 0 0 0 0 0 0 0 0 
0 0 0 0 0 0 0 0 0 
0 0 0 0 0 0 0 0 0 
0 0 0 0 0 0 0 0 0 
0 0 0 0 0 0 0 0 0 
0 0 0 0 0 0 0 0 0 
0 0 0 0 0 0 0 0 0 
0 0 0 0 0 0 0 0 0 
0 0 0 0 0 0 0 0 0 
0 0 0 0 0 0 0 0 0 
0 0 0 0 0 0 0 0 0 
0 0 0 0 0 0 0 0 0 
0 0 0 0 0 0 0 0 0 
0 0 0 0 0 0 0 0 0 
0 0 0 0 0 0 0 0 0 
0 0 0 0 0 0 0 0 0 
0 0 0 0 0 0 0 0 0 
0 0 0 0 0 0 0 0 0 
0 0 0 0 0 0 0 0 0 
0 0 0 0 0 0 0 0 0 
0 0 0 0 0 0 0 0 0 
0 0 0 0 0 0 0 0 0 
0 0 0 0 0 0 0 0 0 
0 0 0 0 0 0 0 0 0 
0 0 0 0 0 0 0 0 0 
0 0 0 0 0 0 0 0 0 
0 0 0 0 0 0 0 0 0 
0 0 0 0 0 0 0 0 0 
0 0 0 0 0 0 0 0 0 
0 0 0 0 0 0 0 0 0 
0 0 0 0 0 0 0 0 0 
0 0 0 0 0 0 0 0 0 
0 0 0 0 0 0 0 0 0 
0 0 0 0 0 0 0 0 0 
0 0 0 0 0 0 0 0 0 
0 0 0 0 0 0 0 0 0 
0 0 0 0 0 0 0 0 0 
0 0 0 0 0 0 0 0 0 
0 0 0 0 0 0 0 0 0 
0 0 0 0 0 0 0 0 0 
0 0 0 0 0 0 0 0 0 
0 0 0 0 0 0 0 0 0 
0 0 0 0 0 0 0 0 0 
0 0 0 0 0 0 0 0 0 
0 0 0 0 0 0 0 0 0 
0 0 0 0 0 0 0 0 0 
0 0 0 0 0 0 0 0 0 
0 0 0 0 0 0 0 0 0 
0 0 0 0 0 0 0 0 0 
0 0 0 0 0 0 0 0 0 
0 0 0 0 0 0 0 0 0 
0 0 0 0 0 0 0 0 0 
0 0 0 0 0 0 0 0 0 
0 0 0 0 0 0 0 0 0 
0 0 0 0 0 0 0 0 0 
0 0 0 0 0 0 0 0 0 
0 0 0 0 0 0 0 0 0 
0 0 0 0 0 0 0 0 0 
0 0 0 0 0 0 0 0 0 
0 0 0 0 0 0 0 0 0 
0 0 0 0 0 0 0 0 0 
0 0 0 0 0 0 0 0 0 
0 0 0 0 0 0 0 0 0 
0 0 0 0 0 0 0 0 0 
0 0 0 0 0 0 0 0 0 
0 0 0 0 0 0 0 0 0 
0 0 0 0 0 0 0 0 0 
0 0 0 0 0 0 0 0 0 
0 0 0 0 0 0 0 0 0 
0 0 0 0 0 0 0 0 0 
0 0 0 0 0 0 0 0 0 
0 0 0 0 0 0 0 0 0 
0 0 0 0 0 0 0 0 0 
0 0 0 0 0 0 0 0 0 
0 0 0 0 0 0 0 0 0 
0 0 0 0 0 0 0 0 0 
0 0 0 0 0 0 0 0 0 
0 0 0 0 0 0 0 0 0 
0 0 0 0 0 0 0 0 0 
0 0 0 0 0 0 0 0 0 
0 0 0 0 0 0 0 0 0 
0 0 0 0 0 0 0 0 0 
0 0 0 0 0 0 0 0 0 
0 0 0 0 0 0 0 0 0 
0 0 0 0 0 0 0 0 0 
0 0 0 0 0 0 0 0 0 
0 0 0 0 0 0 0 0 0 
0 0 0 0 0 0 0 0 0 
0 0 0 0 0 0 0 0 0 
0 0 0 0 0 0 0 0 0 
0 0 0 0 0 0 0 0 0 
0 0 0 0 0 0 0 0 0 
0 0 0 0 0 0 0 0 0 
0 0 0 0 0 0 0 0 0 
0 0 0 0 0 0 0 0 0 
0 0 0 0 0 0 0 0 0 
0 0 0 0 0 0 0 0 0 
0 0 0 0 0 0 0 0 0 
0 0 0 0 0 0 0 0 0 
0 0 0 0 0 0 0 0 0 
0 0 0 0 0 0 0 0 0 
0 0 0 0 0 0 0 0 0 
0 0 0 0 0 0 0 0 0 
0 0 0 0 0 0 0 0 0 
0 0 0 0 0 0 0 0 0 
0 0 0 0 0 0 0 0 0 
0 0 0 0 0 0 0 0 0 
0 0 0 0 0 0 0 0 0 
0 0 0 0 0 0 0 0 0 
0 0 0 0 0 0 0 0 0 
0 0 0 0 0 0 0 0 0 
0 0 0 0 0 0 0 0 0 
0 0 0 0 0 0 0 0 0 
0 0 0 0 0 0 0 0 0 
0 0 0 0 0 0 0 0 0 
0 0 0 0 0 0 0 0 0 
0 0 0 0 0 0 0 0 0 
0 0 0 0 0 0 0 0 0 
0 0 0 0 0 0 0 0 0 
0 0 0 0 0 0 0 0 0 
0 0 0 0 0 0 0 0 0 
0 0 0 0 0 0 0 0 0 
0 0 0 0 0 0 0 0 0 
0 0 0 0 0 0 0 0 0 
0 0 0 0 0 0 0 0 0 
0 0 0 0 0 0 0 0 0 
0 0 0 0 0 0 0 0 0 
0 0 0 0 0 0 0 0 0 
0 0 0 0 0 0 0 0 0 
0 0 0 0 0 0 0 0 0 
0 0 0 0 0 0 0 0 0 
0 0 0 0 0 0 0 0 0 
0 0 0 0 0 0 0 0 0 
0 0 0 0 0 0 0 0 0 
0 0 0 0 0 0 0 0 0 
0 0 0 0 0 0 0 0 0 
0 0 0 0 0 0 0 0 0 
0 0 0 0 0 0 0 0 0 
0 0 0 0 0 0 0 0 0 
0 0 0 0 0 0 0 0 0 
0 0 0 0 0 0 0 0 0 
0 0 0 0 0 0 0 0 0 
0 0 0 0 0 0 0 0 0 
0 0 0 0 0 0 0 0 0 
0 0 0 0 0 0 0 0 0 
0 0 0 0 0 0 0 0 0 
0 0 0 0 0 0 0 0 0 
0 0 0 0 0 0 0 0 0 
0 0 0 0 0 0 0 0 0 
0 0 0 0 0 0 0 0 0 
0 0 0 0 0 0 0 0 0 
0 0 0 0 0 0 0 0 0 
0 0 0 0 0 0 0 0 0 
0 0 0 0 0 0 0 0 0 
0 0 0 0 0 0 0 0 0 
0 0 0 0 0 0 0 0 0 
0 0 0 0 0 0 0 0 0 
0 0 0 0 0 0 0 0 0 
0 0 0 0 0 0 0 0 0 
0 0 0 0 0 0 0 0 0 
0 0 0 0 0 0 0 0 0 
0 0 0 0 0 0 0 0 0 
0 0 0 0 0 0 0 0 0 
0 0 0 0 0 0 0 0 0 
0 0 0 0 0 0 0 0 0 
0 0 0 0 0 0 0 0 0 
0 0 0 0 0 0 0 0 0 
0 0 0 0 0 0 0 0 0 
0 0 0 0 0 0 0 0 0 
0 0 0 0 0 0 0 0 0 
0 0 0 0 0 0 0 0 0 
0 0 0 0 0 0 0 0 0 
0 0 0 0 0 0 0 0 0 
0 0 0 0 0 0 0 0 0 
0 0 0 0 0 0 0 0 0 
0 0 0 0 0 0 0 0 0 
0 0 0 0 0 0 0 0 0 
0 0 0 0 0 0 0 0 0 
0 0 0 0 0 0 0 0 0 
0 0 0 0 0 0 0 0 0 
0 0 0 0 0 0 0 0 0 
0 0 0 0 0 0 0 0 0 
0 0 0 0 0 0 0 0 0 
0 0 0 0 0 0 0 0 0 
0 0 0 0 0 0 0 0 0 
0 0 0 0 0 0 0 0 0 
0 0 0 0 0 0 0 0 0 
0 0 0 0 0 0 0 0 0 
0 0 0 0 0 0 0 0 0 
0 0 0 0 0 0 0 0 0 
0 0 0 0 0 0 0 0 0 
0 0 0 0 0 0 0 0 0 
0 0 0 0 0 0 0 0 0 
0 0 0 0 0 0 0 0 0 
0 0 0 0 0 0 0 0 0 
0 0 0 0 0 0 0 0 0 
0 0 0 0 0 0 0 0 0 
0 0 0 0 0 0 0 0 0 
0 0 0 0 0 0 0 0 0 
0 0 0 0 0 0 0 0 0 
0 0 0 0 0 0 0 0 0 
0 0 0 0 0 0 0 0 0 
0 0 0 0 0 0 0 0 0 
0 0 0 0 0 0 0 0 0 
0 0 0 0 0 0 0 0 0 
0 0 0 0 0 0 0 0 0 
0 0 0 0 0 0 0 0 0 
0 0 0 0 0 0 0 0 0 
0 0 0 0 0 0 0 0 0 
0 0 0 0 0 0 0 0 0 
0 0 0 0 0 0 0 0 0 
0 0 0 0 0 0 0 0 0 
0 0 0 0 0 0 0 0 0 
0 0 0 0 0 0 0 0 0 
0 0 0 0 0 0 0 0 0 
0 0 0 0 0 0 0 0 0 
0 0 0 0 0 0 0 0 0 
0 0 0 0 0 0 0 0 0 
0 0 0 0 0 0 0 0 0 
0 0 0 0 0 0 0 0 0 
0 0 0 0 0 0 0 0 0 
0 0 0 0 0 0 0 0 0 
0 0 0 0 0 0 0 0 0 
0 0 0 0 0 0 0 0 0 
0 0 0 0 0 0 0 0 0 
0 0 0 0 0 0 0 0 0 
0 0 0 0 0 0 0 0 0 
0 0 0 0 0 0 0 0 0 
0 0 0 0 0 0 0 0 0 
0 0 0 0 0 0 0 0 0 
0 0 0 0 0 0 0 0 0 
0 0 0 0 0 0 0 0 0 
0 0 0 0 0 0 0 0 0 
0 0 0 0 0 0 0 0 0 
0 0 0 0 0 0 0 0 0 
0 0 0 0 0 0 0 0 0 
0 0 0 0 0 0 0 0 0 
0 0 0 0 0 0 0 0 0 
0 0 0 0 0 0 0 0 0 
0 0 0 0 0 0 0 0 0 
0 0 0 0 0 0 0 0 0 
0 0 0 0 0 0 0 0 0 
0 0 0 0 0 0 0 0 0 
0 0 0 0 0 0 0 0 0 
0 0 0 0 0 0 0 0 0 
0 0 0 0 0 0 0 0 0 
0 0 0 0 0 0 0 0 0 
0 0 0 0 0 0 0 0 0 
0 0 0 0 0 0 0 0 0 
0 0 0 0 0 0 0 0 0 
0 0 0 0 0 0 0 0 0 
0 0 0 0 0 0 0 0 0 
0 0 0 0 0 0 0 0 0 
0 0 0 0 0 0 0 0 0 
0 0 0 0 0 0 0 0 0 
0 0 0 0 0 0 0 0 0 
0 0 0 0 0 0 0 0 0 
0 0 0 0 0 0 0 0 0 
0 0 0 0 0 0 0 0 0 
0 0 0 0 0 0 0 0 0 
0 0 0 0 0 0 0 0 0 
0 0 0 0 0 0 0 0 0 
0 0 0 0 0 0 0 0 0 
0 0 0 0 0 0 0 0 0 
0 0 0 0 0 0 0 0 0 
0 0 0 0 0 0 0 0 0 
0 0 0 0 0 0 0 0 0 
0 0 0 0 0 0 0 0 0 
0 0 0 0 0 0 0 0 0 
0 0 0 0 0 0 0 0 0 
0 0 0 0 0 0 0 0 0 
0 0 0 0 0 0 0 0 0 
0 0 0 0 0 0 0 0 0 
0 0 0 0 0 0 0 0 0 
0 0 0 0 0 0 0 0 0 
0 0 0 0 0 0 0 0 0 
0 0 0 0 0 0 0 0 0 
0 0 0 0 0 0 0 0 0 
0 0 0 0 0 0 0 0 0 
0 0 0 0 0 0 0 0 0 
0 0 0 0 0 0 0 0 0 
0 0 0 0 0 0 0 0 0 
0 0 0 0 0 0 0 0 0 
0 0 0 0 0 0 0 0 0 
0 0 0 0 0 0 0 0 0 
0 0 0 0 0 0 0 0 0 
0 0 0 0 0 0 0 0 0 
0 0 0 0 0 0 0 0 0 
0 0 0 0 0 0 0 0 0 
0 0 0 0 0 0 0 0 0 
0 0 0 0 0 0 0 0 0 
0 0 0 0 0 0 0 0 0 
0 0 0 0 0 0 0 0 0 
0 0 0 0 0 0 0 0 0 
0 0 0 0 0 0 0 0 0 
0 0 0 0 0 0 0 0 0 
0 0 0 0 0 0 0 0 0 
0 0 0 0 0 0 0 0 0 
0 0 0 0 0 0 0 0 0 
0 0 0 0 0 0 0 0 0 
0 0 0 0 0 0 0 0 0 
0 0 0 0 0 0 0 0 0 
0 0 0 0 0 0 0 0 0 
0 0 0 0 0 0 0 0 0 
0 0 0 0 0 0 0 0 0 
0 0 0 0 0 0 0 0 0 
0 0 0 0 0 0 0 0 0 
0 0 0 0 0 0 0 0 0 
0 0 0 0 0 0 0 0 0 
0 0 0 0 0 0 0 0 0 
0 0 0 0 0 0 0 0 0 
0 0 0 0 0 0 0 0 0 
0 0 0 0 0 0 0 0 0 
0 0 0 0 0 0 0 0 0 
0 0 0 0 0 0 0 0 0 
0 0 0 0 0 0 0 0 0 
0 0 0 0 0 0 0 0 0 
0 0 0 0 0 0 0 0 0 
0 0 0 0 0 0 0 0 0 
0 0 0 0 0 0 0 0 0 
0 0 0 0 0 0 0 0 0 
0 0 0 0 0 0 0 0 0 
0 0 0 0 0 0 0 0 0 
0 0 0 0 0 0 0 0 0 
0 0 0 0 0 0 0 0 0 
0 0 0 0 0 0 0 0 0 
0 0 0 0 0 0 0 0 0 
0 0 0 0 0 0 0 0 0 
0 0 0 0 0 0 0 0 0 
0 0 0 0 0 0 0 0 0 
0 0 0 0 0 0 0 0 0 
0 0 0 0 0 0 0 0 0 
0 0 0 0 0 0 0 0 0 
0 0 0 0 0 0 0 0 0 
0 0 0 0 0 0 0 0 0 
0 0 0 0 0 0 0 0 0 
0 0 0 0 0 0 0 0 0 
0 0 0 0 0 0 0 0 0 
0 0 0 0 0 0 0 0 0 
0 0 0 0 0 0 0 0 0 
0 0 0 0 0 0 0 0 0 
0 0 0 0 0 0 0 0 0 
0 0 0 0 0 0 0 0 0 
0 0 0 0 0 0 0 0 0 
0 0 0 0 0 0 0 0 0 
0 0 0 0 0 0 0 0 0 
0 0 0 0 0 0 0 0 0 
0 0 0 0 0 0 0 0 0 
0 0 0 0 0 0 0 0 0 
0 0 0 0 0 0 0 0 0 
0 0 0 0 0 0 0 0 0 
0 0 0 0 0 0 0 0 0 
0 0 0 0 0 0 0 0 0 
0 0 0 0 0 0 0 0 0 
0 0 0 0 0 0 0 0 0 
0 0 0 0 0 0 0 0 0 
0 0 0 0 0 0 0 0 0 
0 0 0 0 0 0 0 0 0 
0 0 0 0 0 0 0 0 0 
0 0 0 0 0 0 0 0 0 
0 0 0 0 0 0 0 0 0 
0 0 0 0 0 0 0 0 0 
0 0 0 0 0 0 0 0 0 
0 0 0 0 0 0 0 0 0 
0 0 0 0 0 0 0 0 0 
0 0 0 0 0 0 0 0 0 
0 0 0 0 0 0 0 0 0 
0 0 0 0 0 0 0 0 0 
0 0 0 0 0 0 0 0 0 
0 0 0 0 0 0 0 0 0 
0 0 0 0 0 0 0 0 0 
0 0 0 0 0 0 0 0 0 
0 0 0 0 0 0 0 0 0 
0 0 0 0 0 0 0 0 0 
0 0 0 0 0 0 0 0 0 
0 0 0 0 0 0 0 0 0 
0 0 0 0 0 0 0 0 0 
0 0 0 0 0 0 0 0 0 
0 0 0 0 0 0 0 0 0 
0 0 0 0 0 0 0 0 0 
0 0 0 0 0 0 0 0 0 
0 0 0 0 0 0 0 0 0 
0 0 0 0 0 0 0 0 0 
0 0 0 0 0 0 0 0 0 
0 0 0 0 0 0 0 0 0 
0 0 0 0 0 0 0 0 0 
0 0 0 0 0 0 0 0 0 
0 0 0 0 0 0 0 0 0 
0 0 0 0 0 0 0 0 0 
0 0 0 0 0 0 0 0 0 
0 0 0 0 0 0 0 0 0 
0 0 0 0 0 0 0 0 0 
0 0 0 0 0 0 0 0 0 
0 0 0 0 0 0 0 0 0 
0 0 0 0 0 0 0 0 0 
0 0 0 0 0 0 0 0 0 
0 0 0 0 0 0 0 0 0 
0 0 0 0 0 0 0 0 0 
0 0 0 0 0 0 0 0 0 
0 0 0 0 0 0 0 0 0 
0 0 0 0 0 0 0 0 0 
0 0 0 0 0 0 0 0 0 
0 0 0 0 0 0 0 0 0 
0 0 0 0 0 0 0 0 0 
0 0 0 0 0 0 0 0 0 
0 0 0 0 0 0 0 0 0 
0 0 0 0 0 0 0 0 0 
0 0 0 0 0 0 0 0 0 
0 0 0 0 0 0 0 0 0 
0 0 0 0 0 0 0 0 0 
0 0 0 0 0 0 0 0 0 
0 0 0 0 0 0 0 0 0 
0 0 0 0 0 0 0 0 0 
0 0 0 0 0 0 0 0 0 
0 0 0 0 0 0 0 0 0 
0 0 0 0 0 0 0 0 0 
0 0 0 0 0 0 0 0 0 
0 0 0 0 0 0 0 0 0 
0 0 0 0 0 0 0 0 0 
0 0 0 0 0 0 0 0 0 
0 0 0 0 0 0 0 0 0 
0 0 0 0 0 0 0 0 0 
0 0 0 0 0 0 0 0 0 
0 0 0 0 0 0 0 0 0 
0 0 0 0 0 0 0 0 0 
0 0 0 0 0 0 0 0 0 
0 0 0 0 0 0 0 0 0 
0 0 0 0 0 0 0 0 0 
0 0 0 0 0 0 0 0 0 
0 0 0 0 0 0 0 0 0 
0 0 0 0 0 0 0 0 0 
0 0 0 0 0 0 0 0 0 
0 0 0 0 0 0 0 0 0 
0 0 0 0 0 0 0 0 0 
0 0 0 0 0 0 0 0 0 
0 0 0 0 0 0 0 0 0 
0 0 0 0 0 0 0 0 0 
0 0 0 0 0 0 0 0 0 
0 0 0 0 0 0 0 0 0 
0 0 0 0 0 0 0 0 0 
0 0 0 0 0 0 0 0 0 
0 0 0 0 0 0 0 0 0 
0 0 0 0 0 0 0 0 0 
0 0 0 0 0 0 0 0 0 
0 0 0 0 0 0 0 0 0 
0 0 0 0 0 0 0 0 0 
0 0 0 0 0 0 0 0 0 
0 0 0 0 0 0 0 0 0 
0 0 0 0 0 0 0 0 0 
0 0 0 0 0 0 0 0 0 
0 0 0 0 0 0 0 0 0 
0 0 0 0 0 0 0 0 0 
0 0 0 0 0 0 0 0 0 
0 0 0 0 0 0 0 0 0 
0 0 0 0 0 0 0 0 0 
0 0 0 0 0 0 0 0 0 
0 0 0 0 0 0 0 0 0 
0 0 0 0 0 0 0 0 0 
0 0 0 0 0 0 0 0 0 
0 0 0 0 0 0 0 0 0 
0 0 0 0 0 0 0 0 0 
0 0 0 0 0 0 0 0 0 
0 0 0 0 0 0 0 0 0 
0 0 0 0 0 0 0 0 0 
0 0 0 0 0 0 0 0 0 
0 0 0 0 0 0 0 0 0 
0 0 0 0 0 0 0 0 0 
0 0 0 0 0 0 0 0 0 
0 0 0 0 0 0 0 0 0 
0 0 0 0 0 0 0 0 0 
0 0 0 0 0 0 0 0 0 
0 0 0 0 0 0 0 0 0 
0 0 0 0 0 0 0 0 0 
0 0 0 0 0 0 0 0 0 
0 0 0 0 0 0 0 0 0 
0 0 0 0 0 0 0 0 0 
0 0 0 0 0 0 0 0 0 
0 0 0 0 0 0 0 0 0 
0 0 0 0 0 0 0 0 0 
0 0 0 0 0 0 0 0 0 
0 0 0 0 0 0 0 0 0 
0 0 0 0 0 0 0 0 0 
0 0 0 0 0 0 0 0 0 
0 0 0 0 0 0 0 0 0 
0 0 0 0 0 0 0 0 0 
0 0 0 0 0 0 0 0 0 
0 0 0 0 0 0 0 0 0 
0 0 0 0 0 0 0 0 0 
0 0 0 0 0 0 0 0 0 
0 0 0 0 0 0 0 0 0 
0 0 0 0 0 0 0 0 0 
0 0 0 0 0 0 0 0 0 
0 0 0 0 0 0 0 0 0 
0 0 0 0 0 0 0 0 0 
0 0 0 0 0 0 0 0 0 
0 0 0 0 0 0 0 0 0 
0 0 0 0 0 0 0 0 0 
0 0 0 0 0 0 0 0 0 
0 0 0 0 0 0 0 0 0 
0 0 0 0 0 0 0 0 0 
0 0 0 0 0 0 0 0 0 
0 0 0 0 0 0 0 0 0 
0 0 0 0 0 0 0 0 0 
0 0 0 0 0 0 0 0 0 
0 0 0 0 0 0 0 0 0 
0 0 0 0 0 0 0 0 0 
0 0 0 0 0 0 0 0 0 
0 0 0 0 0 0 0 0 0 
0 0 0 0 0 0 0 0 0 
0 0 0 0 0 0 0 0 0 
0 0 0 0 0 0 0 0 0 
0 0 0 0 0 0 0 0 0 
0 0 0 0 0 0 0 0 0 
0 0 0 0 0 0 0 0 0 
0 0 0 0 0 0 0 0 0 
0 0 0 0 0 0 0 0 0 
0 0 0 0 0 0 0 0 0 
0 0 0 0 0 0 0 0 0 
0 0 0 0 0 0 0 0 0 
0 0 0 0 0 0 0 0 0 
0 0 0 0 0 0 0 0 0 
0 0 0 0 0 0 0 0 0 
0 0 0 0 0 0 0 0 0 
0 0 0 0 0 0 0 0 0 
0 0 0 0 0 0 0 0 0 
0 0 0 0 0 0 0 0 0 
0 0 0 0 0 0 0 0 0 
0 0 0 0 0 0 0 0 0 
0 0 0 0 0 0 0 0 0 
0 0 0 0 0 0 0 0 0 
0 0 0 0 0 0 0 0 0 
0 0 0 0 0 0 0 0 0 
0 0 0 0 0 0 0 0 0 
0 0 0 0 0 0 0 0 0 
0 0 0 0 0 0 0 0 0 
0 0 0 0 0 0 0 0 0 
0 0 0 0 0 0 0 0 0 
0 0 0 0 0 0 0 0 0 
0 0 0 0 0 0 0 0 0 
0 0 0 0 0 0 0 0 0 
0 0 0 0 0 0 0 0 0 
0 0 0 0 0 0 0 0 0 
0 0 0 0 0 0 0 0 0 
0 0 0 0 0 0 0 0 0 
0 0 0 0 0 0 0 0 0 
0 0 0 0 0 0 0 0 0 
0 0 0 0 0 0 0 0 0 
0 0 0 0 0 0 0 0 0 
0 0 0 0 0 0 0 0 0 
0 0 0 0 0 0 0 0 0 
0 0 0 0 0 0 0 0 0 
0 0 0 0 0 0 0 0 0 
0 0 0 0 0 0 0 0 0 
0 0 0 0 0 0 0 0 0 
0 0 0 0 0 0 0 0 0 
0 0 0 0 0 0 0 0 0 
0 0 0 0 0 0 0 0 0 
0 0 0 0 0 0 0 0 0 
0 0 0 0 0 0 0 0 0 
0 0 0 0 0 0 0 0 0 
0 0 0 0 0 0 0 0 0 
0 0 0 0 0 0 0 0 0 
0 0 0 0 0 0 0 0 0 
0 0 0 0 0 0 0 0 0 
0 0 0 0 0 0 0 0 0 
0 0 0 0 0 0 0 0 0 
0 0 0 0 0 0 0 0 0 
0 0 0 0 0 0 0 0 0 
0 0 0 0 0 0 0 0 0 
0 0 0 0 0 0 0 0 0 
0 0 0 0 0 0 0 0 0 
0 0 0 0 0 0 0 0 0 
0 0 0 0 0 0 0 0 0 
0 0 0 0 0 0 0 0 0 
0 0 0 0 0 0 0 0 0 
0 0 0 0 0 0 0 0 0 
0 0 0 0 0 0 0 0 0 
0 0 0 0 0 0 0 0 0 
0 0 0 0 0 0 0 0 0 
0 0 0 0 0 0 0 0 0 
0 0 0 0 0 0 0 0 0 
0 0 0 0 0 0 0 0 0 
0 0 0 0 0 0 0 0 0 
0 0 0 0 0 0 0 0 0 
0 0 0 0 0 0 0 0 0 
0 0 0 0 0 0 0 0 0 
0 0 0 0 0 0 0 0 0 
0 0 0 0 0 0 0 0 0 
0 0 0 0 0 0 0 0 0 
0 0 0 0 0 0 0 0 0 
0 0 0 0 0 0 0 0 0 
0 0 0 0 0 0 0 0 0 
0 0 0 0 0 0 0 0 0 
0 0 0 0 0 0 0 0 0 
0 0 0 0 0 0 0 0 0 
0 0 0 0 0 0 0 0 0 
0 0 0 0 0 0 0 0 0 
0 0 0 0 0 0 0 0 0 
0 0 0 0 0 0 0 0 0 
0 0 0 0 0 0 0 0 0 
0 0 0 0 0 0 0 0 0 
0 0 0 0 0 0 0 0 0 
0 0 0 0 0 0 0 0 0 
0 0 0 0 0 0 0 0 0 
0 0 0 0 0 0 0 0 0 
0 0 0 0 0 0 0 0 0 
0 0 0 0 0 0 0 0 0 
0 0 0 0 0 0 0 0 0 
0 0 0 0 0 0 0 0 0 
0 0 0 0 0 0 0 0 0 
0 0 0 0 0 0 0 0 0 
0 0 0 0 0 0 0 0 0 
0 0 0 0 0 0 0 0 0 
0 0 0 0 0 0 0 0 0 
0 0 0 0 0 0 0 0 0 
0 0 0 0 0 0 0 0 0 
0 0 0 0 0 0 0 0 0 
0 0 0 0 0 0 0 0 0 
0 0 0 0 0 0 0 0 0 
0 0 0 0 0 0 0 0 0 
0 0 0 0 0 0 0 0 0 
0 0 0 0 0 0 0 0 0 
0 0 0 0 0 0 0 0 0 
0 0 0 0 0 0 0 0 0 
0 0 0 0 0 0 0 0 0 
0 0 0 0 0 0 0 0 0 
0 0 0 0 0 0 0 0 0 
0 0 0 0 0 0 0 0 0 
0 0 0 0 0 0 0 0 0 
0 0 0 0 0 0 0 0 0 
0 0 0 0 0 0 0 0 0 
0 0 0 0 0 0 0 0 0 
0 0 0 0 0 0 0 0 0 
0 0 0 0 0 0 0 0 0 
0 0 0 0 0 0 0 0 0 
0 0 0 0 0 0 0 0 0 
0 0 0 0 0 0 0 0 0 
0 0 0 0 0 0 0 0 0 
0 0 0 0 0 0 0 0 0 
0 0 0 0 0 0 0 0 0 
0 0 0 0 0 0 0 0 0 
0 0 0 0 0 0 0 0 0 
0 0 0 0 0 0 0 0 0 
0 0 0 0 0 0 0 0 0 
0 0 0 0 0 0 0 0 0 
0 0 0 0 0 0 0 0 0 
0 0 0 0 0 0 0 0 0 
0 0 0 0 0 0 0 0 0 
0 0 0 0 0 0 0 0 0 
0 0 0 0 0 0 0 0 0 
0 0 0 0 0 0 0 0 0 
0 0 0 0 0 0 0 0 0 
0 0 0 0 0 0 0 0 0 
0 0 0 0 0 0 0 0 0 
0 0 0 0 0 0 0 0 0 
0 0 0 0 0 0 0 0 0 
0 0 0 0 0 0 0 0 0 
0 0 0 0 0 0 0 0 0 
0 0 0 0 0 0 0 0 0 
0 0 0 0 0 0 0 0 0 
0 0 0 0 0 0 0 0 0 
0 0 0 0 0 0 0 0 0 
0 0 0 0 0 0 0 0 0 
0 0 0 0 0 0 0 0 0 
0 0 0 0 0 0 0 0 0 
0 0 0 0 0 0 0 0 0 
0 0 0 0 0 0 0 0 0 
0 0 0 0 0 0 0 0 0 
0 0 0 0 0 0 0 0 0 
0 0 0 0 0 0 0 0 0 
0 0 0 0 0 0 0 0 0 
0 0 0 0 0 0 0 0 0 
0 0 0 0 0 0 0 0 0 
0 0 0 0 0 0 0 0 0 
0 0 0 0 0 0 0 0 0 
0 0 0 0 0 0 0 0 0 
0 0 0 0 0 0 0 0 0 
0 0 0 0 0 0 0 0 0 
0 0 0 0 0 0 0 0 0 
0 0 0 0 0 0 0 0 0 
0 0 0 0 0 0 0 0 0 
0 0 0 0 0 0 0 0 0 
0 0 0 0 0 0 0 0 0 
0 0 0 0 0 0 0 0 0 
0 0 0 0 0 0 0 0 0 
0 0 0 0 0 0 0 0 0 
0 0 0 0 0 0 0 0 0 
0 0 0 0 0 0 0 0 0 
0 0 0 0 0 0 0 0 0 
0 0 0 0 0 0 0 0 0 
0 0 0 0 0 0 0 0 0 
0 0 0 0 0 0 0 0 0 
0 0 0 0 0 0 0 0 0 
0 0 0 0 0 0 0 0 0 
0 0 0 0 0 0 0 0 0 
0 0 0 0 0 0 0 0 0 
0 0 0 0 0 0 0 0 0 
0 0 0 0 0 0 0 0 0 
0 0 0 0 0 0 0 0 0 
0 0 0 0 0 0 0 0 0 
0 0 0 0 0 0 0 0 0 
0 0 0 0 0 0 0 0 0 
0 0 0 0 0 0 0 0 0 
0 0 0 0 0 0 0 0 0 
0 0 0 0 0 0 0 0 0 
0 0 0 0 0 0 0 0 0 
0 0 0 0 0 0 0 0 0 
0 0 0 0 0 0 0 0 0 
0 0 0 0 0 0 0 0 0 
0 0 0 0 0 0 0 0 0 
0 0 0 0 0 0 0 0 0 
0 0 0 0 0 0 0 0 0 
0 0 0 0 0 0 0 0 0 
0 0 0 0 0 0 0 0 0 
0 0 0 0 0 0 0 0 0 
0 0 0 0 0 0 0 0 0 
0 0 0 0 0 0 0 0 0 
0 0 0 0 0 0 0 0 0 
0 0 0 0 0 0 0 0 0 
0 0 0 0 0 0 0 0 0 
0 0 0 0 0 0 0 0 0 
0 0 0 0 0 0 0 0 0 
0 0 0 0 0 0 0 0 0 
0 0 0 0 0 0 0 0 0 
0 0 0 0 0 0 0 0 0 
0 0 0 0 0 0 0 0 0 
0 0 0 0 0 0 0 0 0 
0 0 0 0 0 0 0 0 0 
0 0 0 0 0 0 0 0 0 
0 0 0 0 0 0 0 0 0 
0 0 0 0 0 0 0 0 0 
0 0 0 0 0 0 0 0 0 
0 0 0 0 0 0 0 0 0 
0 0 0 0 0 0 0 0 0 
0 0 0 0 0 0 0 0 0 
0 0 0 0 0 0 0 0 0 
0 0 0 0 0 0 0 0 0 
0 0 0 0 0 0 0 0 0 
0 0 0 0 0 0 0 0 0 
0 0 0 0 0 0 0 0 0 
0 0 0 0 0 0 0 0 0 
0 0 0 0 0 0 0 0 0 
0 0 0 0 0 0 0 0 0 
0 0 0 0 0 0 0 0 0 
0 0 0 0 0 0 0 0 0 
0 0 0 0 0 0 0 0 0 
0 0 0 0 0 0 0 0 0 
0 0 0 0 0 0 0 0 0 
0 0 0 0 0 0 0 0 0 
0 0 0 0 0 0 0 0 0 
0 0 0 0 0 0 0 0 0 
0 0 0 0 0 0 0 0 0 
0 0 0 0 0 0 0 0 0 
0 0 0 0 0 0 0 0 0 
0 0 0 0 0 0 0 0 0 
0 0 0 0 0 0 0 0 0 
0 0 0 0 0 0 0 0 0 
0 0 0 0 0 0 0 0 0 
0 0 0 0 0 0 0 0 0 
0 0 0 0 0 0 0 0 0 
0 0 0 0 0 0 0 0 0 
0 0 0 0 0 0 0 0 0 
0 0 0 0 0 0 0 0 0 
0 0 0 0 0 0 0 0 0 
0 0 0 0 0 0 0 0 0 
0 0 0 0 0 0 0 0 0 
0 0 0 0 0 0 0 0 0 
0 0 0 0 0 0 0 0 0 
0 0 0 0 0 0 0 0 0 
0 0 0 0 0 0 0 0 0 
0 0 0 0 0 0 0 0 0 
0 0 0 0 0 0 0 0 0 
0 0 0 0 0 0 0 0 0 
0 0 0 0 0 0 0 0 0 
0 0 0 0 0 0 0 0 0 
0 0 0 0 0 0 0 0 0 
0 0 0 0 0 0 0 0 0 
0 0 0 0 0 0 0 0 0 
0 0 0 0 0 0 0 0 0 
0 0 0 0 0 0 0 0 0 
0 0 0 0 0 0 0 0 0 
0 0 0 0 0 0 0 0 0 
0 0 0 0 0 0 0 0 0 
0 0 0 0 0 0 0 0 0 
0 0 0 0 0 0 0 0 0 
0 0 0 0 0 0 0 0 0 
0 0 0 0 0 0 0 0 0 
0 0 0 0 0 0 0 0 0 
0 0 0 0 0 0 0 0 0 
0 0 0 0 0 0 0 0 0 
0 0 0 0 0 0 0 0 0 
0 0 0 0 0 0 0 0 0 
0 0 0 0 0 0 0 0 0 
0 0 0 0 0 0 0 0 0 
0 0 0 0 0 0 0 0 0 
0 0 0 0 0 0 0 0 0 
0 0 0 0 0 0 0 0 0 
0 0 0 0 0 0 0 0 0 
0 0 0 0 0 0 0 0 0 
0 0 0 0 0 0 0 0 0 
0 0 0 0 0 0 0 0 0 
0 0 0 0 0 0 0 0 0 
0 0 0 0 0 0 0 0 0 
0 0 0 0 0 0 0 0 0 
0 0 0 0 0 0 0 0 0 
0 0 0 0 0 0 0 0 0 
0 0 0 0 0 0 0 0 0 
0 0 0 0 0 0 0 0 0 
0 0 0 0 0 0 0 0 0 
0 0 0 0 0 0 0 0 0 
0 0 0 0 0 0 0 0 0 
0 0 0 0 0 0 0 0 0 
0 0 0 0 0 0 0 0 0 
0 0 0 0 0 0 0 0 0 
0 0 0 0 0 0 0 0 0 
0 0 0 0 0 0 0 0 0 
0 0 0 0 0 0 0 0 0 
0 0 0 0 0 0 0 0 0 
0 0 0 0 0 0 0 0 0 
0 0 0 0 0 0 0 0 0 
0 0 0 0 0 0 0 0 0 
0 0 0 0 0 0 0 0 0 
0 0 0 0 0 0 0 0 0 
0 0 0 0 0 0 0 0 0 
0 0 0 0 0 0 0 0 0 
0 0 0 0 0 0 0 0 0 
0 0 0 0 0 0 0 0 0 
0 0 0 0 0 0 0 0 0 
0 0 0 0 0 0 0 0 0 
0 0 0 0 0 0 0 0 0 
0 0 0 0 0 0 0 0 0 
0 0 0 0 0 0 0 0 0 
0 0 0 0 0 0 0 0 0 
0 0 0 0 0 0 0 0 0 
0 0 0 0 0 0 0 0 0 
0 0 0 0 0 0 0 0 0 
0 0 0 0 0 0 0 0 0 
0 0 0 0 0 0 0 0 0 
0 0 0 0 0 0 0 0 0 
0 0 0 0 0 0 0 0 0 
0 0 0 0 0 0 0 0 0 
0 0 0 0 0 0 0 0 0 
0 0 0 0 0 0 0 0 0 
0 0 0 0 0 0 0 0 0 
0 0 0 0 0 0 0 0 0 
0 0 0 0 0 0 0 0 0 
0 0 0 0 0 0 0 0 0 
0 0 0 0 0 0 0 0 0 
0 0 0 0 0 0 0 0 0 
0 0 0 0 0 0 0 0 0 
0 0 0 0 0 0 0 0 0 
0 0 0 0 0 0 0 0 0 
0 0 0 0 0 0 0 0 0 
0 0 0 0 0 0 0 0 0 
0 0 0 0 0 0 0 0 0 
0 0 0 0 0 0 0 0 0 
0 0 0 0 0 0 0 0 0 
0 0 0 0 0 0 0 0 0 
0 0 0 0 0 0 0 0 0 
0 0 0 0 0 0 0 0 0 
0 0 0 0 0 0 0 0 0 
0 0 0 0 0 0 0 0 0 
0 0 0 0 0 0 0 0 0 
0 0 0 0 0 0 0 0 0 
0 0 0 0 0 0 0 0 0 
0 0 0 0 0 0 0 0 0 
0 0 0 0 0 0 0 0 0 
0 0 0 0 0 0 0 0 0 
0 0 0 0 0 0 0 0 0 
0 0 0 0 0 0 0 0 0 
0 0 0 0 0 0 0 0 0 
0 0 0 0 0 0 0 0 0 
0 0 0 0 0 0 0 0 0 
0 0 0 0 0 0 0 0 0 
0 0 0 0 0 0 0 0 0 
0 0 0 0 0 0 0 0 0 
0 0 0 0 0 0 0 0 0 
0 0 0 0 0 0 0 0 0 
0 0 0 0 0 0 0 0 0 
0 0 0 0 0 0 0 0 0 
0 0 0 0 0 0 0 0 0 
0 0 0 0 0 0 0 0 0 
0 0 0 0 0 0 0 0 0 
0 0 0 0 0 0 0 0 0 
0 0 0 0 0 0 0 0 0 
0 0 0 0 0 0 0 0 0 
0 0 0 0 0 0 0 0 0 
0 0 0 0 0 0 0 0 0 
0 0 0 0 0 0 0 0 0 
0 0 0 0 0 0 0 0 0 
0 0 0 0 0 0 0 0 0 
0 0 0 0 0 0 0 0 0 
0 0 0 0 0 0 0 0 0 
0 0 0 0 0 0 0 0 0 
0 0 0 0 0 0 0 0 0 
0 0 0 0 0 0 0 0 0 
0 0 0 0 0 0 0 0 0 
0 0 0 0 0 0 0 0 0 
0 0 0 0 0 0 0 0 0 
0 0 0 0 0 0 0 0 0 
0 0 0 0 0 0 0 0 0 
0 0 0 0 0 0 0 0 0 
0 0 0 0 0 0 0 0 0 
0 0 0 0 0 0 0 0 0 
0 0 0 0 0 0 0 0 0 
0 0 0 0 0 0 0 0 0 
0 0 0 0 0 0 0 0 0 
0 0 0 0 0 0 0 0 0 
0 0 0 0 0 0 0 0 0 
0 0 0 0 0 0 0 0 0 
0 0 0 0 0 0 0 0 0 
0 0 0 0 0 0 0 0 0 
0 0 0 0 0 0 0 0 0 
0 0 0 0 0 0 0 0 0 
0 0 0 0 0 0 0 0 0 
0 0 0 0 0 0 0 0 0 
0 0 0 0 0 0 0 0 0 
0 0 0 0 0 0 0 0 0 
0 0 0 0 0 0 0 0 0 
0 0 0 0 0 0 0 0 0 
0 0 0 0 0 0 0 0 0 
0 0 0 0 0 0 0 0 0 
0 0 0 0 0 0 0 0 0 
0 0 0 0 0 0 0 0 0 
0 0 0 0 0 0 0 0 0 
0 0 0 0 0 0 0 0 0 
0 0 0 0 0 0 0 0 0 
0 0 0 0 0 0 0 0 0 
0 0 0 0 0 0 0 0 0 
0 0 0 0 0 0 0 0 0 
0 0 0 0 0 0 0 0 0 
0 0 0 0 0 0 0 0 0 
0 0 0 0 0 0 0 0 0 
0 0 0 0 0 0 0 0 0 
0 0 0 0 0 0 0 0 0 
0 0 0 0 0 0 0 0 0 
0 0 0 0 0 0 0 0 0 
0 0 0 0 0 0 0 0 0 
0 0 0 0 0 0 0 0 0 
0 0 0 0 0 0 0 0 0 
0 0 0 0 0 0 0 0 0 
0 0 0 0 0 0 0 0 0 
0 0 0 0 0 0 0 0 0 
0 0 0 0 0 0 0 0 0 
0 0 0 0 0 0 0 0 0 
0 0 0 0 0 0 0 0 0 
0 0 0 0 0 0 0 0 0 
0 0 0 0 0 0 0 0 0 
0 0 0 0 0 0 0 0 0 
0 0 0 0 0 0 0 0 0 
0 0 0 0 0 0 0 0 0 
0 0 0 0 0 0 0 0 0 
0 0 0 0 0 0 0 0 0 
0 0 0 0 0 0 0 0 0 
0 0 0 0 0 0 0 0 0 
0 0 0 0 0 0 0 0 0 
0 0 0 0 0 0 0 0 0 
0 0 0 0 0 0 0 0 0 
0 0 0 0 0 0 0 0 0 
0 0 0 0 0 0 0 0 0 
0 0 0 0 0 0 0 0 0 
0 0 0 0 0 0 0 0 0 
0 0 0 0 0 0 0 0 0 
0 0 0 0 0 0 0 0 0 
0 0 0 0 0 0 0 0 0 
0 0 0 0 0 0 0 0 0 
0 0 0 0 0 0 0 0 0 
0 0 0 0 0 0 0 0 0 
0 0 0 0 0 0 0 0 0 
0 0 0 0 0 0 0 0 0 
0 0 0 0 0 0 0 0 0 
0 0 0 0 0 0 0 0 0 
0 0 0 0 0 0 0 0 0 
0 0 0 0 0 0 0 0 0 
0 0 0 0 0 0 0 0 0 
0 0 0 0 0 0 0 0 0 
0 0 0 0 0 0 0 0 0 
0 0 0 0 0 0 0 0 0 
0 0 0 0 0 0 0 0 0 
0 0 0 0 0 0 0 0 0 
0 0 0 0 0 0 0 0 0 
0 0 0 0 0 0 0 0 0 
0 0 0 0 0 0 0 0 0 
0 0 0 0 0 0 0 0 0 
0 0 0 0 0 0 0 0 0 
0 0 0 0 0 0 0 0 0 
0 0 0 0 0 0 0 0 0 
0 0 0 0 0 0 0 0 0 
0 0 0 0 0 0 0 0 0 
0 0 0 0 0 0 0 0 0 
0 0 0 0 0 0 0 0 0 
0 0 0 0 0 0 0 0 0 
0 0 0 0 0 0 0 0 0 
0 0 0 0 0 0 0 0 0 
0 0 0 0 0 0 0 0 0 
0 0 0 0 0 0 0 0 0 
0 0 0 0 0 0 0 0 0 
0 0 0 0 0 0 0 0 0 
0 0 0 0 0 0 0 0 0 
0 0 0 0 0 0 0 0 0 
0 0 0 0 0 0 0 0 0 
0 0 0 0 0 0 0 0 0 
0 0 0 0 0 0 0 0 0 
0 0 0 0 0 0 0 0 0 
0 0 0 0 0 0 0 0 0 
0 0 0 0 0 0 0 0 0 
0 0 0 0 0 0 0 0 0 
0 0 0 0 0 0 0 0 0 
0 0 0 0 0 0 0 0 0 
0 0 0 0 0 0 0 0 0 
0 0 0 0 0 0 0 0 0 
0 0 0 0 0 0 0 0 0 
0 0 0 0 0 0 0 0 0 
0 0 0 0 0 0 0 0 0 
0 0 0 0 0 0 0 0 0 
0 0 0 0 0 0 0 0 0 
0 0 0 0 0 0 0 0 0 
0 0 0 0 0 0 0 0 0 
0 0 0 0 0 0 0 0 0 
0 0 0 0 0 0 0 0 0 
0 0 0 0 0 0 0 0 0 
0 0 0 0 0 0 0 0 0 
0 0 0 0 0 0 0 0 0 
0 0 0 0 0 0 0 0 0 
0 0 0 0 0 0 0 0 0 
0 0 0 0 0 0 0 0 0 
0 0 0 0 0 0 0 0 0 
0 0 0 0 0 0 0 0 0 
0 0 0 0 0 0 0 0 0 
0 0 0 0 0 0 0 0 0 
0 0 0 0 0 0 0 0 0 
0 0 0 0 0 0 0 0 0 
0 0 0 0 0 0 0 0 0 
0 0 0 0 0 0 0 0 0 
0 0 0 0 0 0 0 0 0 
0 0 0 0 0 0 0 0 0 
0 0 0 0 0 0 0 0 0 
0 0 0 0 0 0 0 0 0 
0 0 0 0 0 0 0 0 0 
0 0 0 0 0 0 0 0 0 
0 0 0 0 0 0 0 0 0 
0 0 0 0 0 0 0 0 0 
0 0 0 0 0 0 0 0 0 
0 0 0 0 0 0 0 0 0 
0 0 0 0 0 0 0 0 0 
0 0 0 0 0 0 0 0 0 
0 0 0 0 0 0 0 0 0 
0 0 0 0 0 0 0 0 0 
0 0 0 0 0 0 0 0 0 
0 0 0 0 0 0 0 0 0 
0 0 0 0 0 0 0 0 0 
0 0 0 0 0 0 0 0 0 
0 0 0 0 0 0 0 0 0 
0 0 0 0 0 0 0 0 0 
0 0 0 0 0 0 0 0 0 
0 0 0 0 0 0 0 0 0 
0 0 0 0 0 0 0 0 0 
0 0 0 0 0 0 0 0 0 
0 0 0 0 0 0 0 0 0 
0 0 0 0 0 0 0 0 0 
0 0 0 0 0 0 0 0 0 
0 0 0 0 0 0 0 0 0 
0 0 0 0 0 0 0 0 0 
0 0 0 0 0 0 0 0 0 
0 0 0 0 0 0 0 0 0 
0 0 0 0 0 0 0 0 0 
0 0 0 0 0 0 0 0 0 
0 0 0 0 0 0 0 0 0 
0 0 0 0 0 0 0 0 0 
0 0 0 0 0 0 0 0 0 
0 0 0 0 0 0 0 0 0 
0 0 0 0 0 0 0 0 0 
0 0 0 0 0 0 0 0 0 
0 0 0 0 0 0 0 0 0 
0 0 0 0 0 0 0 0 0 
0 0 0 0 0 0 0 0 0 
0 0 0 0 0 0 0 0 0 
0 0 0 0 0 0 0 0 0 
0 0 0 0 0 0 0 0 0 
0 0 0 0 0 0 0 0 0 
0 0 0 0 0 0 0 0 0 
0 0 0 0 0 0 0 0 0 
0 0 0 0 0 0 0 0 0 
0 0 0 0 0 0 0 0 0 
0 0 0 0 0 0 0 0 0 
0 0 0 0 0 0 0 0 0 
0 0 0 0 0 0 0 0 0 
0 0 0 0 0 0 0 0 0 
0 0 0 0 0 0 0 0 0 
0 0 0 0 0 0 0 0 0 
0 0 0 0 0 0 0 0 0 
0 0 0 0 0 0 0 0 0 
0 0 0 0 0 0 0 0 0 
0 0 0 0 0 0 0 0 0 
0 0 0 0 0 0 0 0 0 
0 0 0 0 0 0 0 0 0 
0 0 0 0 0 0 0 0 0 
0 0 0 0 0 0 0 0 0 
0 0 0 0 0 0 0 0 0 
0 0 0 0 0 0 0 0 0 
0 0 0 0 0 0 0 0 0 
0 0 0 0 0 0 0 0 0 
0 0 0 0 0 0 0 0 0 
0 0 0 0 0 0 0 0 0 
0 0 0 0 0 0 0 0 0 
0 0 0 0 0 0 0 0 0 
0 0 0 0 0 0 0 0 0 
0 0 0 0 0 0 0 0 0 
0 0 0 0 0 0 0 0 0 
0 0 0 0 0 0 0 0 0 
0 0 0 0 0 0 0 0 0 
0 0 0 0 0 0 0 0 0 
0 0 0 0 0 0 0 0 0 
0 0 0 0 0 0 0 0 0 
0 0 0 0 0 0 0 0 0 
0 0 0 0 0 0 0 0 0 
0 0 0 0 0 0 0 0 0 
0 0 0 0 0 0 0 0 0 
0 0 0 0 0 0 0 0 0 
0 0 0 0 0 0 0 0 0 
0 0 0 0 0 0 0 0 0 
0 0 0 0 0 0 0 0 0 
0 0 0 0 0 0 0 0 0 
0 0 0 0 0 0 0 0 0 
0 0 0 0 0 0 0 0 0 
0 0 0 0 0 0 0 0 0 
0 0 0 0 0 0 0 0 0 
0 0 0 0 0 0 0 0 0 
0 0 0 0 0 0 0 0 0 
0 0 0 0 0 0 0 0 0 
0 0 0 0 0 0 0 0 0 
0 0 0 0 0 0 0 0 0 
0 0 0 0 0 0 0 0 0 
0 0 0 0 0 0 0 0 0 
0 0 0 0 0 0 0 0 0 
0 0 0 0 0 0 0 0 0 
0 0 0 0 0 0 0 0 0 
0 0 0 0 0 0 0 0 0 
0 0 0 0 0 0 0 0 0 
0 0 0 0 0 0 0 0 0 
0 0 0 0 0 0 0 0 0 
0 0 0 0 0 0 0 0 0 
0 0 0 0 0 0 0 0 0 
0 0 0 0 0 0 0 0 0 
0 0 0 0 0 0 0 0 0 
0 0 0 0 0 0 0 0 0 
0 0 0 0 0 0 0 0 0 
0 0 0 0 0 0 0 0 0 
0 0 0 0 0 0 0 0 0 
0 0 0 0 0 0 0 0 0 
0 0 0 0 0 0 0 0 0 
0 0 0 0 0 0 0 0 0 
0 0 0 0 0 0 0 0 0 
0 0 0 0 0 0 0 0 0 
0 0 0 0 0 0 0 0 0 
0 0 0 0 0 0 0 0 0 
0 0 0 0 0 0 0 0 0 
0 0 0 0 0 0 0 0 0 
0 0 0 0 0 0 0 0 0 
0 0 0 0 0 0 0 0 0 
0 0 0 0 0 0 0 0 0 
0 0 0 0 0 0 0 0 0 
0 0 0 0 0 0 0 0 0 
0 0 0 0 0 0 0 0 0 
0 0 0 0 0 0 0 0 0 
0 0 0 0 0 0 0 0 0 
0 0 0 0 0 0 0 0 0 
0 0 0 0 0 0 0 0 0 
0 0 0 0 0 0 0 0 0 
0 0 0 0 0 0 0 0 0 
0 0 0 0 0 0 0 0 0 
0 0 0 0 0 0 0 0 0 
0 0 0 0 0 0 0 0 0 
0 0 0 0 0 0 0 0 0 
0 0 0 0 0 0 0 0 0 
0 0 0 0 0 0 0 0 0 
0 0 0 0 0 0 0 0 0 
0 0 0 0 0 0 0 0 0 
0 0 0 0 0 0 0 0 0 
0 0 0 0 0 0 0 0 0 
0 0 0 0 0 0 0 0 0 
0 0 0 0 0 0 0 0 0 
0 0 0 0 0 0 0 0 0 
0 0 0 0 0 0 0 0 0 
0 0 0 0 0 0 0 0 0 
0 0 0 0 0 0 0 0 0 
0 0 0 0 0 0 0 0 0 
0 0 0 0 0 0 0 0 0 
0 0 0 0 0 0 0 0 0 
0 0 0 0 0 0 0 0 0 
0 0 0 0 0 0 0 0 0 
0 0 0 0 0 0 0 0 0 
0 0 0 0 0 0 0 0 0 
0 0 0 0 0 0 0 0 0 
0 0 0 0 0 0 0 0 0 
0 0 0 0 0 0 0 0 0 
0 0 0 0 0 0 0 0 0 
0 0 0 0 0 0 0 0 0 
0 0 0 0 0 0 0 0 0 
0 0 0 0 0 0 0 0 0 
0 0 0 0 0 0 0 0 0 
0 0 0 0 0 0 0 0 0 
0 0 0 0 0 0 0 0 0 
0 0 0 0 0 0 0 0 0 
0 0 0 0 0 0 0 0 0 
0 0 0 0 0 0 0 0 0 
0 0 0 0 0 0 0 0 0 
0 0 0 0 0 0 0 0 0 
0 0 0 0 0 0 0 0 0 
0 0 0 0 0 0 0 0 0 
0 0 0 0 0 0 0 0 0 
0 0 0 0 0 0 0 0 0 
0 0 0 0 0 0 0 0 0 
0 0 0 0 0 0 0 0 0 
0 0 0 0 0 0 0 0 0 
0 0 0 0 0 0 0 0 0 
0 0 0 0 0 0 0 0 0 
0 0 0 0 0 0 0 0 0 
0 0 0 0 0 0 0 0 0 
0 0 0 0 0 0 0 0 0 
0 0 0 0 0 0 0 0 0 
0 0 0 0 0 0 0 0 0 
0 0 0 0 0 0 0 0 0 
0 0 0 0 0 0 0 0 0 
0 0 0 0 0 0 0 0 0 
0 0 0 0 0 0 0 0 0 
0 0 0 0 0 0 0 0 0 
0 0 0 0 0 0 0 0 0 
0 0 0 0 0 0 0 0 0 
0 0 0 0 0 0 0 0 0 
0 0 0 0 0 0 0 0 0 
0 0 0 0 0 0 0 0 0 
0 0 0 0 0 0 0 0 0 
0 0 0 0 0 0 0 0 0 
0 0 0 0 0 0 0 0 0 
0 0 0 0 0 0 0 0 0 
0 0 0 0 0 0 0 0 0 
0 0 0 0 0 0 0 0 0 
0 0 0 0 0 0 0 0 0 
0 0 0 0 0 0 0 0 0 
0 0 0 0 0 0 0 0 0 
0 0 0 0 0 0 0 0 0 
0 0 0 0 0 0 0 0 0 
0 0 0 0 0 0 0 0 0 
0 0 0 0 0 0 0 0 0 
0 0 0 0 0 0 0 0 0 
0 0 0 0 0 0 0 0 0 
0 0 0 0 0 0 0 0 0 
0 0 0 0 0 0 0 0 0 
0 0 0 0 0 0 0 0 0 
0 0 0 0 0 0 0 0 0 
0 0 0 0 0 0 0 0 0 
0 0 0 0 0 0 0 0 0 
0 0 0 0 0 0 0 0 0 
0 0 0 0 0 0 0 0 0 
0 0 0 0 0 0 0 0 0 
0 0 0 0 0 0 0 0 0 
0 0 0 0 0 0 0 0 0 
0 0 0 0 0 0 0 0 0 
0 0 0 0 0 0 0 0 0 
0 0 0 0 0 0 0 0 0 
0 0 0 0 0 0 0 0 0 
0 0 0 0 0 0 0 0 0 
0 0 0 0 0 0 0 0 0 
0 0 0 0 0 0 0 0 0 
0 0 0 0 0 0 0 0 0 
0 0 0 0 0 0 0 0 0 
0 0 0 0 0 0 0 0 0 
0 0 0 0 0 0 0 0 0 
0 0 0 0 0 0 0 0 0 
0 0 0 0 0 0 0 0 0 
0 0 0 0 0 0 0 0 0 
0 0 0 0 0 0 0 0 0 
0 0 0 0 0 0 0 0 0 
0 0 0 0 0 0 0 0 0 
0 0 0 0 0 0 0 0 0 
0 0 0 0 0 0 0 0 0 
0 0 0 0 0 0 0 0 0 
0 0 0 0 0 0 0 0 0 
0 0 0 0 0 0 0 0 0 
0 0 0 0 0 0 0 0 0 
0 0 0 0 0 0 0 0 0 
0 0 0 0 0 0 0 0 0 
0 0 0 0 0 0 0 0 0 
0 0 0 0 0 0 0 0 0 
0 0 0 0 0 0 0 0 0 
0 0 0 0 0 0 0 0 0 
0 0 0 0 0 0 0 0 0 
0 0 0 0 0 0 0 0 0 
0 0 0 0 0 0 0 0 0 
0 0 0 0 0 0 0 0 0 
0 0 0 0 0 0 0 0 0 
0 0 0 0 0 0 0 0 0 
0 0 0 0 0 0 0 0 0 
0 0 0 0 0 0 0 0 0 
0 0 0 0 0 0 0 0 0 
0 0 0 0 0 0 0 0 0 
0 0 0 0 0 0 0 0 0 
0 0 0 0 0 0 0 0 0 
0 0 0 0 0 0 0 0 0 
0 0 0 0 0 0 0 0 0 
0 0 0 0 0 0 0 0 0 
0 0 0 0 0 0 0 0 0 
0 0 0 0 0 0 0 0 0 
0 0 0 0 0 0 0 0 0 
0 0 0 0 0 0 0 0 0 
0 0 0 0 0 0 0 0 0 
0 0 0 0 0 0 0 0 0 
0 0 0 0 0 0 0 0 0 
0 0 0 0 0 0 0 0 0 
0 0 0 0 0 0 0 0 0 
0 0 0 0 0 0 0 0 0 
0 0 0 0 0 0 0 0 0 
0 0 0 0 0 0 0 0 0 
0 0 0 0 0 0 0 0 0 
0 0 0 0 0 0 0 0 0 
0 0 0 0 0 0 0 0 0 
0 0 0 0 0 0 0 0 0 
0 0 0 0 0 0 0 0 0 
0 0 0 0 0 0 0 0 0 
0 0 0 0 0 0 0 0 0 
0 0 0 0 0 0 0 0 0 
0 0 0 0 0 0 0 0 0 
0 0 0 0 0 0 0 0 0 
0 0 0 0 0 0 0 0 0 
0 0 0 0 0 0 0 0 0 
0 0 0 0 0 0 0 0 0 
0 0 0 0 0 0 0 0 0 
0 0 0 0 0 0 0 0 0 
0 0 0 0 0 0 0 0 0 
0 0 0 0 0 0 0 0 0 
0 0 0 0 0 0 0 0 0 
0 0 0 0 0 0 0 0 0 
0 0 0 0 0 0 0 0 0 
0 0 0 0 0 0 0 0 0 
0 0 0 0 0 0 0 0 0 
0 0 0 0 0 0 0 0 0 
0 0 0 0 0 0 0 0 0 
0 0 0 0 0 0 0 0 0 
0 0 0 0 0 0 0 0 0 
0 0 0 0 0 0 0 0 0 
0 0 0 0 0 0 0 0 0 
0 0 0 0 0 0 0 0 0 
0 0 0 0 0 0 0 0 0 
0 0 0 0 0 0 0 0 0 
0 0 0 0 0 0 0 0 0 
0 0 0 0 0 0 0 0 0 
0 0 0 0 0 0 0 0 0 
0 0 0 0 0 0 0 0 0 
0 0 0 0 0 0 0 0 0 
0 0 0 0 0 0 0 0 0 
0 0 0 0 0 0 0 0 0 
0 0 0 0 0 0 0 0 0 
0 0 0 0 0 0 0 0 0 
0 0 0 0 0 0 0 0 0 
0 0 0 0 0 0 0 0 0 
0 0 0 0 0 0 0 0 0 
0 0 0 0 0 0 0 0 0 
0 0 0 0 0 0 0 0 0 
0 0 0 0 0 0 0 0 0 
0 0 0 0 0 0 0 0 0 
0 0 0 0 0 0 0 0 0 
0 0 0 0 0 0 0 0 0 
0 0 0 0 0 0 0 0 0 
0 0 0 0 0 0 0 0 0 
0 0 0 0 0 0 0 0 0 
0 0 0 0 0 0 0 0 0 
0 0 0 0 0 0 0 0 0 
0 0 0 0 0 0 0 0 0 
0 0 0 0 0 0 0 0 0 
0 0 0 0 0 0 0 0 0 
0 0 0 0 0 0 0 0 0 
0 0 0 0 0 0 0 0 0 
0 0 0 0 0 0 0 0 0 
0 0 0 0 0 0 0 0 0 
0 0 0 0 0 0 0 0 0 
0 0 0 0 0 0 0 0 0 
0 0 0 0 0 0 0 0 0 
0 0 0 0 0 0 0 0 0 
0 0 0 0 0 0 0 0 0 
0 0 0 0 0 0 0 0 0 
0 0 0 0 0 0 0 0 0 
0 0 0 0 0 0 0 0 0 
0 0 0 0 0 0 0 0 0 
0 0 0 0 0 0 0 0 0 
0 0 0 0 0 0 0 0 0 
0 0 0 0 0 0 0 0 0 
0 0 0 0 0 0 0 0 0 
0 0 0 0 0 0 0 0 0 
0 0 0 0 0 0 0 0 0 
0 0 0 0 0 0 0 0 0 
0 0 0 0 0 0 0 0 0 
0 0 0 0 0 0 0 0 0 
0 0 0 0 0 0 0 0 0 
0 0 0 0 0 0 0 0 0 
0 0 0 0 0 0 0 0 0 
0 0 0 0 0 0 0 0 0 
0 0 0 0 0 0 0 0 0 
0 0 0 0 0 0 0 0 0 
0 0 0 0 0 0 0 0 0 
0 0 0 0 0 0 0 0 0 
0 0 0 0 0 0 0 0 0 
0 0 0 0 0 0 0 0 0 
0 0 0 0 0 0 0 0 0 
0 0 0 0 0 0 0 0 0 
0 0 0 0 0 0 0 0 0 
0 0 0 0 0 0 0 0 0 
0 0 0 0 0 0 0 0 0 
0 0 0 0 0 0 0 0 0 
0 0 0 0 0 0 0 0 0 
0 0 0 0 0 0 0 0 0 
0 0 0 0 0 0 0 0 0 
0 0 0 0 0 0 0 0 0 
0 0 0 0 0 0 0 0 0 
0 0 0 0 0 0 0 0 0 
0 0 0 0 0 0 0 0 0 
0 0 0 0 0 0 0 0 0 
0 0 0 0 0 0 0 0 0 
0 0 0 0 0 0 0 0 0 
0 0 0 0 0 0 0 0 0 
0 0 0 0 0 0 0 0 0 
0 0 0 0 0 0 0 0 0 
0 0 0 0 0 0 0 0 0 
0 0 0 0 0 0 0 0 0 
0 0 0 0 0 0 0 0 0 
0 0 0 0 0 0 0 0 0 
0 0 0 0 0 0 0 0 0 
0 0 0 0 0 0 0 0 0 
0 0 0 0 0 0 0 0 0 
0 0 0 0 0 0 0 0 0 
0 0 0 0 0 0 0 0 0 
0 0 0 0 0 0 0 0 0 
0 0 0 0 0 0 0 0 0 
0 0 0 0 0 0 0 0 0 
0 0 0 0 0 0 0 0 0 
0 0 0 0 0 0 0 0 0 
0 0 0 0 0 0 0 0 0 
0 0 0 0 0 0 0 0 0 
0 0 0 0 0 0 0 0 0 
0 0 0 0 0 0 0 0 0 
0 0 0 0 0 0 0 0 0 
0 0 0 0 0 0 0 0 0 
0 0 0 0 0 0 0 0 0 
0 0 0 0 0 0 0 0 0 
0 0 0 0 0 0 0 0 0 
0 0 0 0 0 0 0 0 0 
0 0 0 0 0 0 0 0 0 
0 0 0 0 0 0 0 0 0 
0 0 0 0 0 0 0 0 0 
0 0 0 0 0 0 0 0 0 
0 0 0 0 0 0 0 0 0 
0 0 0 0 0 0 0 0 0 
0 0 0 0 0 0 0 0 0 
0 0 0 0 0 0 0 0 0 
0 0 0 0 0 0 0 0 0 
0 0 0 0 0 0 0 0 0 
0 0 0 0 0 0 0 0 0 
0 0 0 0 0 0 0 0 0 
0 0 0 0 0 0 0 0 0 
0 0 0 0 0 0 0 0 0 
0 0 0 0 0 0 0 0 0 
0 0 0 0 0 0 0 0 0 
0 0 0 0 0 0 0 0 0 
0 0 0 0 0 0 0 0 0 
0 0 0 0 0 0 0 0 0 
0 0 0 0 0 0 0 0 0 
0 0 0 0 0 0 0 0 0 
0 0 0 0 0 0 0 0 0 
0 0 0 0 0 0 0 0 0 
0 0 0 0 0 0 0 0 0 
0 0 0 0 0 0 0 0 0 
0 0 0 0 0 0 0 0 0 
0 0 0 0 0 0 0 0 0 
0 0 0 0 0 0 0 0 0 
0 0 0 0 0 0 0 0 0 
0 0 0 0 0 0 0 0 0 
0 0 0 0 0 0 0 0 0 
0 0 0 0 0 0 0 0 0 
0 0 0 0 0 0 0 0 0 
0 0 0 0 0 0 0 0 0 
0 0 0 0 0 0 0 0 0 
0 0 0 0 0 0 0 0 0 
0 0 0 0 0 0 0 0 0 
0 0 0 0 0 0 0 0 0 
0 0 0 0 0 0 0 0 0 
0 0 0 0 0 0 0 0 0 
0 0 0 0 0 0 0 0 0 
0 0 0 0 0 0 0 0 0 
0 0 0 0 0 0 0 0 0 
0 0 0 0 0 0 0 0 0 
0 0 0 0 0 0 0 0 0 
0 0 0 0 0 0 0 0 0 
0 0 0 0 0 0 0 0 0 
0 0 0 0 0 0 0 0 0 
0 0 0 0 0 0 0 0 0 
0 0 0 0 0 0 0 0 0 
0 0 0 0 0 0 0 0 0 
0 0 0 0 0 0 0 0 0 
0 0 0 0 0 0 0 0 0 
0 0 0 0 0 0 0 0 0 
0 0 0 0 0 0 0 0 0 
0 0 0 0 0 0 0 0 0 
0 0 0 0 0 0 0 0 0 
0 0 0 0 0 0 0 0 0 
0 0 0 0 0 0 0 0 0 
0 0 0 0 0 0 0 0 0 
0 0 0 0 0 0 0 0 0 
0 0 0 0 0 0 0 0 0 
0 0 0 0 0 0 0 0 0 
0 0 0 0 0 0 0 0 0 
0 0 0 0 0 0 0 0 0 
0 0 0 0 0 0 0 0 0 
0 0 0 0 0 0 0 0 0 
0 0 0 0 0 0 0 0 0 
0 0 0 0 0 0 0 0 0 
0 0 0 0 0 0 0 0 0 
0 0 0 0 0 0 0 0 0 
0 0 0 0 0 0 0 0 0 
0 0 0 0 0 0 0 0 0 
0 0 0 0 0 0 0 0 0 
0 0 0 0 0 0 0 0 0 
0 0 0 0 0 0 0 0 0 
0 0 0 0 0 0 0 0 0 
0 0 0 0 0 0 0 0 0 
0 0 0 0 0 0 0 0 0 
0 0 0 0 0 0 0 0 0 
0 0 0 0 0 0 0 0 0 
0 0 0 0 0 0 0 0 0 
0 0 0 0 0 0 0 0 0 
0 0 0 0 0 0 0 0 0 
0 0 0 0 0 0 0 0 0 
0 0 0 0 0 0 0 0 0 
0 0 0 0 0 0 0 0 0 
0 0 0 0 0 0 0 0 0 
0 0 0 0 0 0 0 0 0 
0 0 0 0 0 0 0 0 0 
0 0 0 0 0 0 0 0 0 
0 0 0 0 0 0 0 0 0 
0 0 0 0 0 0 0 0 0 
0 0 0 0 0 0 0 0 0 
0 0 0 0 0 0 0 0 0 
0 0 0 0 0 0 0 0 0 
0 0 0 0 0 0 0 0 0 
0 0 0 0 0 0 0 0 0 
0 0 0 0 0 0 0 0 0 
0 0 0 0 0 0 0 0 0 
0 0 0 0 0 0 0 0 0 
0 0 0 0 0 0 0 0 0 
0 0 0 0 0 0 0 0 0 
0 0 0 0 0 0 0 0 0 
0 0 0 0 0 0 0 0 0 
0 0 0 0 0 0 0 0 0 
0 0 0 0 0 0 0 0 0 
0 0 0 0 0 0 0 0 0 
0 0 0 0 0 0 0 0 0 
0 0 0 0 0 0 0 0 0 
0 0 0 0 0 0 0 0 0 
0 0 0 0 0 0 0 0 0 
0 0 0 0 0 0 0 0 0 
0 0 0 0 0 0 0 0 0 
0 0 0 0 0 0 0 0 0 
0 0 0 0 0 0 0 0 0 
0 0 0 0 0 0 0 0 0 
0 0 0 0 0 0 0 0 0 
0 0 0 0 0 0 0 0 0 
0 0 0 0 0 0 0 0 0 
0 0 0 0 0 0 0 0 0 
0 0 0 0 0 0 0 0 0 
0 0 0 0 0 0 0 0 0 
0 0 0 0 0 0 0 0 0 
0 0 0 0 0 0 0 0 0 
0 0 0 0 0 0 0 0 0 
0 0 0 0 0 0 0 0 0 
0 0 0 0 0 0 0 0 0 
0 0 0 0 0 0 0 0 0 
0 0 0 0 0 0 0 0 0 
0 0 0 0 0 0 0 0 0 
0 0 0 0 0 0 0 0 0 
0 0 0 0 0 0 0 0 0 
0 0 0 0 0 0 0 0 0 
0 0 0 0 0 0 0 0 0 
0 0 0 0 0 0 0 0 0 
0 0 0 0 0 0 0 0 0 
0 0 0 0 0 0 0 0 0 
0 0 0 0 0 0 0 0 0 
0 0 0 0 0 0 0 0 0 
0 0 0 0 0 0 0 0 0 
0 0 0 0 0 0 0 0 0 
0 0 0 0 0 0 0 0 0 
0 0 0 0 0 0 0 0 0 
0 0 0 0 0 0 0 0 0 
0 0 0 0 0 0 0 0 0 
0 0 0 0 0 0 0 0 0 
0 0 0 0 0 0 0 0 0 
0 0 0 0 0 0 0 0 0 
0 0 0 0 0 0 0 0 0 
0 0 0 0 0 0 0 0 0 
0 0 0 0 0 0 0 0 0 
0 0 0 0 0 0 0 0 0 
0 0 0 0 0 0 0 0 0 
0 0 0 0 0 0 0 0 0 
0 0 0 0 0 0 0 0 0 
0 0 0 0 0 0 0 0 0 
0 0 0 0 0 0 0 0 0 
0 0 0 0 0 0 0 0 0 
0 0 0 0 0 0 0 0 0 
0 0 0 0 0 0 0 0 0 
0 0 0 0 0 0 0 0 0 
0 0 0 0 0 0 0 0 0 
0 0 0 0 0 0 0 0 0 
0 0 0 0 0 0 0 0 0 
0 0 0 0 0 0 0 0 0 
0 0 0 0 0 0 0 0 0 
0 0 0 0 0 0 0 0 0 
0 0 0 0 0 0 0 0 0 
0 0 0 0 0 0 0 0 0 
0 0 0 0 0 0 0 0 0 
0 0 0 0 0 0 0 0 0 
0 0 0 0 0 0 0 0 0 
0 0 0 0 0 0 0 0 0 
0 0 0 0 0 0 0 0 0 
0 0 0 0 0 0 0 0 0 
0 0 0 0 0 0 0 0 0 
0 0 0 0 0 0 0 0 0 
0 0 0 0 0 0 0 0 0 
0 0 0 0 0 0 0 0 0 
0 0 0 0 0 0 0 0 0 
0 0 0 0 0 0 0 0 0 
0 0 0 0 0 0 0 0 0 
0 0 0 0 0 0 0 0 0 
0 0 0 0 0 0 0 0 0 
0 0 0 0 0 0 0 0 0 
0 0 0 0 0 0 0 0 0 
0 0 0 0 0 0 0 0 0 
0 0 0 0 0 0 0 0 0 
0 0 0 0 0 0 0 0 0 
0 0 0 0 0 0 0 0 0 
0 0 0 0 0 0 0 0 0 
0 0 0 0 0 0 0 0 0 
0 0 0 0 0 0 0 0 0 
0 0 0 0 0 0 0 0 0 
0 0 0 0 0 0 0 0 0 
0 0 0 0 0 0 0 0 0 
0 0 0 0 0 0 0 0 0 
0 0 0 0 0 0 0 0 0 
0 0 0 0 0 0 0 0 0 
0 0 0 0 0 0 0 0 0 
0 0 0 0 0 0 0 0 0 
0 0 0 0 0 0 0 0 0 
0 0 0 0 0 0 0 0 0 
0 0 0 0 0 0 0 0 0 
0 0 0 0 0 0 0 0 0 
0 0 0 0 0 0 0 0 0 
0 0 0 0 0 0 0 0 0 
0 0 0 0 0 0 0 0 0 
0 0 0 0 0 0 0 0 0 
0 0 0 0 0 0 0 0 0 
0 0 0 0 0 0 0 0 0 
0 0 0 0 0 0 0 0 0 
0 0 0 0 0 0 0 0 0 
0 0 0 0 0 0 0 0 0 
0 0 0 0 0 0 0 0 0 
0 0 0 0 0 0 0 0 0 
0 0 0 0 0 0 0 0 0 
0 0 0 0 0 0 0 0 0 
0 0 0 0 0 0 0 0 0 
0 0 0 0 0 0 0 0 0 
0 0 0 0 0 0 0 0 0 
0 0 0 0 0 0 0 0 0 
0 0 0 0 0 0 0 0 0 
0 0 0 0 0 0 0 0 0 
0 0 0 0 0 0 0 0 0 
0 0 0 0 0 0 0 0 0 
0 0 0 0 0 0 0 0 0 
0 0 0 0 0 0 0 0 0 
0 0 0 0 0 0 0 0 0 
0 0 0 0 0 0 0 0 0 
0 0 0 0 0 0 0 0 0 
0 0 0 0 0 0 0 0 0 
0 0 0 0 0 0 0 0 0 
0 0 0 0 0 0 0 0 0 
0 0 0 0 0 0 0 0 0 
0 0 0 0 0 0 0 0 0 
0 0 0 0 0 0 0 0 0 
0 0 0 0 0 0 0 0 0 
0 0 0 0 0 0 0 0 0 
0 0 0 0 0 0 0 0 0 
0 0 0 0 0 0 0 0 0 
0 0 0 0 0 0 0 0 0 
0 0 0 0 0 0 0 0 0 
0 0 0 0 0 0 0 0 0 
0 0 0 0 0 0 0 0 0 
0 0 0 0 0 0 0 0 0 
0 0 0 0 0 0 0 0 0 
0 0 0 0 0 0 0 0 0 
0 0 0 0 0 0 0 0 0 
0 0 0 0 0 0 0 0 0 
0 0 0 0 0 0 0 0 0 
0 0 0 0 0 0 0 0 0 
0 0 0 0 0 0 0 0 0 
0 0 0 0 0 0 0 0 0 
0 0 0 0 0 0 0 0 0 
0 0 0 0 0 0 0 0 0 
0 0 0 0 0 0 0 0 0 
0 0 0 0 0 0 0 0 0 
0 0 0 0 0 0 0 0 0 
0 0 0 0 0 0 0 0 0 
0 0 0 0 0 0 0 0 0 
0 0 0 0 0 0 0 0 0 
0 0 0 0 0 0 0 0 0 
0 0 0 0 0 0 0 0 0 
0 0 0 0 0 0 0 0 0 
0 0 0 0 0 0 0 0 0 
0 0 0 0 0 0 0 0 0 
0 0 0 0 0 0 0 0 0 
0 0 0 0 0 0 0 0 0 
0 0 0 0 0 0 0 0 0 
0 0 0 0 0 0 0 0 0 
0 0 0 0 0 0 0 0 0 
0 0 0 0 0 0 0 0 0 
0 0 0 0 0 0 0 0 0 
0 0 0 0 0 0 0 0 0 
0 0 0 0 0 0 0 0 0 
0 0 0 0 0 0 0 0 0 
0 0 0 0 0 0 0 0 0 
0 0 0 0 0 0 0 0 0 
0 0 0 0 0 0 0 0 0 
0 0 0 0 0 0 0 0 0 
0 0 0 0 0 0 0 0 0 
0 0 0 0 0 0 0 0 0 
0 0 0 0 0 0 0 0 0 
0 0 0 0 0 0 0 0 0 
0 0 0 0 0 0 0 0 0 
0 0 0 0 0 0 0 0 0 
0 0 0 0 0 0 0 0 0 
0 0 0 0 0 0 0 0 0 
0 0 0 0 0 0 0 0 0 
0 0 0 0 0 0 0 0 0 
0 0 0 0 0 0 0 0 0 
0 0 0 0 0 0 0 0 0 
0 0 0 0 0 0 0 0 0 
0 0 0 0 0 0 0 0 0 
0 0 0 0 0 0 0 0 0 
0 0 0 0 0 0 0 0 0 
0 0 0 0 0 0 0 0 0 
0 0 0 0 0 0 0 0 0 
0 0 0 0 0 0 0 0 0 
0 0 0 0 0 0 0 0 0 
0 0 0 0 0 0 0 0 0 
0 0 0 0 0 0 0 0 0 
0 0 0 0 0 0 0 0 0 
0 0 0 0 0 0 0 0 0 
0 0 0 0 0 0 0 0 0 
0 0 0 0 0 0 0 0 0 
0 0 0 0 0 0 0 0 0 
0 0 0 0 0 0 0 0 0 
0 0 0 0 0 0 0 0 0 
0 0 0 0 0 0 0 0 0 
0 0 0 0 0 0 0 0 0 
0 0 0 0 0 0 0 0 0 
0 0 0 0 0 0 0 0 0 
0 0 0 0 0 0 0 0 0 
0 0 0 0 0 0 0 0 0 
0 0 0 0 0 0 0 0 0 
0 0 0 0 0 0 0 0 0 
0 0 0 0 0 0 0 0 0 
0 0 0 0 0 0 0 0 0 
0 0 0 0 0 0 0 0 0 
0 0 0 0 0 0 0 0 0 
0 0 0 0 0 0 0 0 0 
0 0 0 0 0 0 0 0 0 
0 0 0 0 0 0 0 0 0 
0 0 0 0 0 0 0 0 0 
0 0 0 0 0 0 0 0 0 
0 0 0 0 0 0 0 0 0 
0 0 0 0 0 0 0 0 0 
0 0 0 0 0 0 0 0 0 
0 0 0 0 0 0 0 0 0 
0 0 0 0 0 0 0 0 0 
0 0 0 0 0 0 0 0 0 
0 0 0 0 0 0 0 0 0 
0 0 0 0 0 0 0 0 0 
0 0 0 0 0 0 0 0 0 
0 0 0 0 0 0 0 0 0 
0 0 0 0 0 0 0 0 0 
0 0 0 0 0 0 0 0 0 
0 0 0 0 0 0 0 0 0 
0 0 0 0 0 0 0 0 0 
0 0 0 0 0 0 0 0 0 
0 0 0 0 0 0 0 0 0 
0 0 0 0 0 0 0 0 0 
0 0 0 0 0 0 0 0 0 
0 0 0 0 0 0 0 0 0 
0 0 0 0 0 0 0 0 0 
0 0 0 0 0 0 0 0 0 
0 0 0 0 0 0 0 0 0 
0 0 0 0 0 0 0 0 0 
0 0 0 0 0 0 0 0 0 
0 0 0 0 0 0 0 0 0 
0 0 0 0 0 0 0 0 0 
0 0 0 0 0 0 0 0 0 
0 0 0 0 0 0 0 0 0 
0 0 0 0 0 0 0 0 0 
0 0 0 0 0 0 0 0 0 
0 0 0 0 0 0 0 0 0 
0 0 0 0 0 0 0 0 0 
0 0 0 0 0 0 0 0 0 
0 0 0 0 0 0 0 0 0 
0 0 0 0 0 0 0 0 0 
0 0 0 0 0 0 0 0 0 
0 0 0 0 0 0 0 0 0 
0 0 0 0 0 0 0 0 0 
0 0 0 0 0 0 0 0 0 
0 0 0 0 0 0 0 0 0 
0 0 0 0 0 0 0 0 0 
0 0 0 0 0 0 0 0 0 
0 0 0 0 0 0 0 0 0 
0 0 0 0 0 0 0 0 0 
0 0 0 0 0 0 0 0 0 
0 0 0 0 0 0 0 0 0 
0 0 0 0 0 0 0 0 0 
0 0 0 0 0 0 0 0 0 
0 0 0 0 0 0 0 0 0 
0 0 0 0 0 0 0 0 0 
0 0 0 0 0 0 0 0 0 
0 0 0 0 0 0 0 0 0 
0 0 0 0 0 0 0 0 0 
0 0 0 0 0 0 0 0 0 
0 0 0 0 0 0 0 0 0 
0 0 0 0 0 0 0 0 0 
0 0 0 0 0 0 0 0 0 
0 0 0 0 0 0 0 0 0 
0 0 0 0 0 0 0 0 0 
0 0 0 0 0 0 0 0 0 
0 0 0 0 0 0 0 0 0 
0 0 0 0 0 0 0 0 0 
0 0 0 0 0 0 0 0 0 
0 0 0 0 0 0 0 0 0 
0 0 0 0 0 0 0 0 0 
0 0 0 0 0 0 0 0 0 
0 0 0 0 0 0 0 0 0 
0 0 0 0 0 0 0 0 0 
0 0 0 0 0 0 0 0 0 
0 0 0 0 0 0 0 0 0 
0 0 0 0 0 0 0 0 0 
0 0 0 0 0 0 0 0 0 
0 0 0 0 0 0 0 0 0 
0 0 0 0 0 0 0 0 0 
0 0 0 0 0 0 0 0 0 
0 0 0 0 0 0 0 0 0 
0 0 0 0 0 0 0 0 0 
0 0 0 0 0 0 0 0 0 
0 0 0 0 0 0 0 0 0 
0 0 0 0 0 0 0 0 0 
0 0 0 0 0 0 0 0 0 
0 0 0 0 0 0 0 0 0 
0 0 0 0 0 0 0 0 0 
0 0 0 0 0 0 0 0 0 
0 0 0 0 0 0 0 0 0 
0 0 0 0 0 0 0 0 0 
0 0 0 0 0 0 0 0 0 
0 0 0 0 0 0 0 0 0 
0 0 0 0 0 0 0 0 0 
0 0 0 0 0 0 0 0 0 
0 0 0 0 0 0 0 0 0 
0 0 0 0 0 0 0 0 0 
0 0 0 0 0 0 0 0 0 
0 0 0 0 0 0 0 0 0 
0 0 0 0 0 0 0 0 0 
0 0 0 0 0 0 0 0 0 
0 0 0 0 0 0 0 0 0 
0 0 0 0 0 0 0 0 0 
0 0 0 0 0 0 0 0 0 
0 0 0 0 0 0 0 0 0 
0 0 0 0 0 0 0 0 0 
0 0 0 0 0 0 0 0 0 
0 0 0 0 0 0 0 0 0 
0 0 0 0 0 0 0 0 0 
0 0 0 0 0 0 0 0 0 
0 0 0 0 0 0 0 0 0 
0 0 0 0 0 0 0 0 0 
0 0 0 0 0 0 0 0 0 
0 0 0 0 0 0 0 0 0 
0 0 0 0 0 0 0 0 0 
0 0 0 0 0 0 0 0 0 
0 0 0 0 0 0 0 0 0 
0 0 0 0 0 0 0 0 0 
0 0 0 0 0 0 0 0 0 
0 0 0 0 0 0 0 0 0 
0 0 0 0 0 0 0 0 0 
0 0 0 0 0 0 0 0 0 
0 0 0 0 0 0 0 0 0 
0 0 0 0 0 0 0 0 0 
0 0 0 0 0 0 0 0 0 
0 0 0 0 0 0 0 0 0 
0 0 0 0 0 0 0 0 0 
0 0 0 0 0 0 0 0 0 
0 0 0 0 0 0 0 0 0 
0 0 0 0 0 0 0 0 0 
0 0 0 0 0 0 0 0 0 
0 0 0 0 0 0 0 0 0 
0 0 0 0 0 0 0 0 0 
0 0 0 0 0 0 0 0 0 
0 0 0 0 0 0 0 0 0 
0 0 0 0 0 0 0 0 0 
0 0 0 0 0 0 0 0 0 
0 0 0 0 0 0 0 0 0 
0 0 0 0 0 0 0 0 0 
0 0 0 0 0 0 0 0 0 
0 0 0 0 0 0 0 0 0 
0 0 0 0 0 0 0 0 0 
0 0 0 0 0 0 0 0 0 
0 0 0 0 0 0 0 0 0 
0 0 0 0 0 0 0 0 0 
0 0 0 0 0 0 0 0 0 
0 0 0 0 0 0 0 0 0 
0 0 0 0 0 0 0 0 0 
0 0 0 0 0 0 0 0 0 
0 0 0 0 0 0 0 0 0 
0 0 0 0 0 0 0 0 0 
0 0 0 0 0 0 0 0 0 
0 0 0 0 0 0 0 0 0 
0 0 0 0 0 0 0 0 0 
0 0 0 0 0 0 0 0 0 
0 0 0 0 0 0 0 0 0 
0 0 0 0 0 0 0 0 0 
0 0 0 0 0 0 0 0 0 
0 0 0 0 0 0 0 0 0 
0 0 0 0 0 0 0 0 0 
0 0 0 0 0 0 0 0 0 
0 0 0 0 0 0 0 0 0 
0 0 0 0 0 0 0 0 0 
0 0 0 0 0 0 0 0 0 
0 0 0 0 0 0 0 0 0 
0 0 0 0 0 0 0 0 0 
0 0 0 0 0 0 0 0 0 
0 0 0 0 0 0 0 0 0 
0 0 0 0 0 0 0 0 0 
0 0 0 0 0 0 0 0 0 
0 0 0 0 0 0 0 0 0 
0 0 0 0 0 0 0 0 0 
0 0 0 0 0 0 0 0 0 
0 0 0 0 0 0 0 0 0 
0 0 0 0 0 0 0 0 0 
0 0 0 0 0 0 0 0 0 
0 0 0 0 0 0 0 0 0 
0 0 0 0 0 0 0 0 0 
0 0 0 0 0 0 0 0 0 
0 0 0 0 0 0 0 0 0 
0 0 0 0 0 0 0 0 0 
0 0 0 0 0 0 0 0 0 
0 0 0 0 0 0 0 0 0 
0 0 0 0 0 0 0 0 0 
0 0 0 0 0 0 0 0 0 
0 0 0 0 0 0 0 0 0 
0 0 0 0 0 0 0 0 0 
0 0 0 0 0 0 0 0 0 
0 0 0 0 0 0 0 0 0 
0 0 0 0 0 0 0 0 0 
0 0 0 0 0 0 0 0 0 
0 0 0 0 0 0 0 0 0 
0 0 0 0 0 0 0 0 0 
0 0 0 0 0 0 0 0 0 
0 0 0 0 0 0 0 0 0 
0 0 0 0 0 0 0 0 0 
0 0 0 0 0 0 0 0 0 
0 0 0 0 0 0 0 0 0 
0 0 0 0 0 0 0 0 0 
0 0 0 0 0 0 0 0 0 
0 0 0 0 0 0 0 0 0 
0 0 0 0 0 0 0 0 0 
0 0 0 0 0 0 0 0 0 
0 0 0 0 0 0 0 0 0 
0 0 0 0 0 0 0 0 0 
0 0 0 0 0 0 0 0 0 
0 0 0 0 0 0 0 0 0 
0 0 0 0 0 0 0 0 0 
0 0 0 0 0 0 0 0 0 
0 0 0 0 0 0 0 0 0 
0 0 0 0 0 0 0 0 0 
0 0 0 0 0 0 0 0 0 
0 0 0 0 0 0 0 0 0 
0 0 0 0 0 0 0 0 0 
0 0 0 0 0 0 0 0 0 
0 0 0 0 0 0 0 0 0 
0 0 0 0 0 0 0 0 0 
0 0 0 0 0 0 0 0 0 
0 0 0 0 0 0 0 0 0 
0 0 0 0 0 0 0 0 0 
0 0 0 0 0 0 0 0 0 
0 0 0 0 0 0 0 0 0 
0 0 0 0 0 0 0 0 0 
0 0 0 0 0 0 0 0 0 
0 0 0 0 0 0 0 0 0 
0 0 0 0 0 0 0 0 0 
0 0 0 0 0 0 0 0 0 
0 0 0 0 0 0 0 0 0 
0 0 0 0 0 0 0 0 0 
0 0 0 0 0 0 0 0 0 
0 0 0 0 0 0 0 0 0 
0 0 0 0 0 0 0 0 0 
0 0 0 0 0 0 0 0 0 
0 0 0 0 0 0 0 0 0 
0 0 0 0 0 0 0 0 0 
0 0 0 0 0 0 0 0 0 
0 0 0 0 0 0 0 0 0 
0 0 0 0 0 0 0 0 0 
0 0 0 0 0 0 0 0 0 
0 0 0 0 0 0 0 0 0 
0 0 0 0 0 0 0 0 0 
0 0 0 0 0 0 0 0 0 
0 0 0 0 0 0 0 0 0 
0 0 0 0 0 0 0 0 0 
0 0 0 0 0 0 0 0 0 
0 0 0 0 0 0 0 0 0 
0 0 0 0 0 0 0 0 0 
0 0 0 0 0 0 0 0 0 
0 0 0 0 0 0 0 0 0 
0 0 0 0 0 0 0 0 0 
0 0 0 0 0 0 0 0 0 
0 0 0 0 0 0 0 0 0 
0 0 0 0 0 0 0 0 0 
0 0 0 0 0 0 0 0 0 
0 0 0 0 0 0 0 0 0 
0 0 0 0 0 0 0 0 0 
0 0 0 0 0 0 0 0 0 
0 0 0 0 0 0 0 0 0 
0 0 0 0 0 0 0 0 0 
0 0 0 0 0 0 0 0 0 
0 0 0 0 0 0 0 0 0 
0 0 0 0 0 0 0 0 0 
0 0 0 0 0 0 0 0 0 
0 0 0 0 0 0 0 0 0 
0 0 0 0 0 0 0 0 0 
0 0 0 0 0 0 0 0 0 
0 0 0 0 0 0 0 0 0 
0 0 0 0 0 0 0 0 0 
0 0 0 0 0 0 0 0 0 
0 0 0 0 0 0 0 0 0 
0 0 0 0 0 0 0 0 0 
0 0 0 0 0 0 0 0 0 
0 0 0 0 0 0 0 0 0 
0 0 0 0 0 0 0 0 0 
0 0 0 0 0 0 0 0 0 
0 0 0 0 0 0 0 0 0 
0 0 0 0 0 0 0 0 0 
0 0 0 0 0 0 0 0 0 
0 0 0 0 0 0 0 0 0 
0 0 0 0 0 0 0 0 0 
0 0 0 0 0 0 0 0 0 
0 0 0 0 0 0 0 0 0 
0 0 0 0 0 0 0 0 0 
0 0 0 0 0 0 0 0 0 
0 0 0 0 0 0 0 0 0 
0 0 0 0 0 0 0 0 0 
0 0 0 0 0 0 0 0 0 
0 0 0 0 0 0 0 0 0 
0 0 0 0 0 0 0 0 0 
0 0 0 0 0 0 0 0 0 
0 0 0 0 0 0 0 0 0 
0 0 0 0 0 0 0 0 0 
0 0 0 0 0 0 0 0 0 
0 0 0 0 0 0 0 0 0 
0 0 0 0 0 0 0 0 0 
0 0 0 0 0 0 0 0 0 
0 0 0 0 0 0 0 0 0 
0 0 0 0 0 0 0 0 0 
0 0 0 0 0 0 0 0 0 
0 0 0 0 0 0 0 0 0 
0 0 0 0 0 0 0 0 0 
0 0 0 0 0 0 0 0 0 
0 0 0 0 0 0 0 0 0 
0 0 0 0 0 0 0 0 0 
0 0 0 0 0 0 0 0 0 
0 0 0 0 0 0 0 0 0 
0 0 0 0 0 0 0 0 0 
0 0 0 0 0 0 0 0 0 
0 0 0 0 0 0 0 0 0 
0 0 0 0 0 0 0 0 0 
0 0 0 0 0 0 0 0 0 
0 0 0 0 0 0 0 0 0 
0 0 0 0 0 0 0 0 0 
0 0 0 0 0 0 0 0 0 
0 0 0 0 0 0 0 0 0 
0 0 0 0 0 0 0 0 0 
0 0 0 0 0 0 0 0 0 
0 0 0 0 0 0 0 0 0 
0 0 0 0 0 0 0 0 0 
0 0 0 0 0 0 0 0 0 
0 0 0 0 0 0 0 0 0 
0 0 0 0 0 0 0 0 0 
0 0 0 0 0 0 0 0 0 
0 0 0 0 0 0 0 0 0 
0 0 0 0 0 0 0 0 0 
0 0 0 0 0 0 0 0 0 
0 0 0 0 0 0 0 0 0 
0 0 0 0 0 0 0 0 0 
0 0 0 0 0 0 0 0 0 
0 0 0 0 0 0 0 0 0 
0 0 0 0 0 0 0 0 0 
0 0 0 0 0 0 0 0 0 
0 0 0 0 0 0 0 0 0 
0 0 0 0 0 0 0 0 0 
0 0 0 0 0 0 0 0 0 
0 0 0 0 0 0 0 0 0 
0 0 0 0 0 0 0 0 0 
0 0 0 0 0 0 0 0 0 
0 0 0 0 0 0 0 0 0 
0 0 0 0 0 0 0 0 0 
0 0 0 0 0 0 0 0 0 
0 0 0 0 0 0 0 0 0 
0 0 0 0 0 0 0 0 0 
0 0 0 0 0 0 0 0 0 
0 0 0 0 0 0 0 0 0 
0 0 0 0 0 0 0 0 0 
0 0 0 0 0 0 0 0 0 
0 0 0 0 0 0 0 0 0 
0 0 0 0 0 0 0 0 0 
0 0 0 0 0 0 0 0 0 
0 0 0 0 0 0 0 0 0 
0 0 0 0 0 0 0 0 0 
0 0 0 0 0 0 0 0 0 
0 0 0 0 0 0 0 0 0 
0 0 0 0 0 0 0 0 0 
0 0 0 0 0 0 0 0 0 
0 0 0 0 0 0 0 0 0 
0 0 0 0 0 0 0 0 0 
0 0 0 0 0 0 0 0 0 
0 0 0 0 0 0 0 0 0 
0 0 0 0 0 0 0 0 0 
0 0 0 0 0 0 0 0 0 
0 0 0 0 0 0 0 0 0 
0 0 0 0 0 0 0 0 0 
0 0 0 0 0 0 0 0 0 
0 0 0 0 0 0 0 0 0 
0 0 0 0 0 0 0 0 0 
0 0 0 0 0 0 0 0 0 
0 0 0 0 0 0 0 0 0 
0 0 0 0 0 0 0 0 0 
0 0 0 0 0 0 0 0 0 
0 0 0 0 0 0 0 0 0 
0 0 0 0 0 0 0 0 0 
0 0 0 0 0 0 0 0 0 
0 0 0 0 0 0 0 0 0 
0 0 0 0 0 0 0 0 0 
0 0 0 0 0 0 0 0 0 
0 0 0 0 0 0 0 0 0 
0 0 0 0 0 0 0 0 0 
0 0 0 0 0 0 0 0 0 
0 0 0 0 0 0 0 0 0 
0 0 0 0 0 0 0 0 0 
0 0 0 0 0 0 0 0 0 
0 0 0 0 0 0 0 0 0 
0 0 0 0 0 0 0 0 0 
0 0 0 0 0 0 0 0 0 
0 0 0 0 0 0 0 0 0 
0 0 0 0 0 0 0 0 0 
0 0 0 0 0 0 0 0 0 
0 0 0 0 0 0 0 0 0 
0 0 0 0 0 0 0 0 0 
0 0 0 0 0 0 0 0 0 
0 0 0 0 0 0 0 0 0 
0 0 0 0 0 0 0 0 0 
0 0 0 0 0 0 0 0 0 
0 0 0 0 0 0 0 0 0 
0 0 0 0 0 0 0 0 0 
0 0 0 0 0 0 0 0 0 
0 0 0 0 0 0 0 0 0 
0 0 0 0 0 0 0 0 0 
0 0 0 0 0 0 0 0 0 
0 0 0 0 0 0 0 0 0 
0 0 0 0 0 0 0 0 0 
0 0 0 0 0 0 0 0 0 
0 0 0 0 0 0 0 0 0 
0 0 0 0 0 0 0 0 0 
0 0 0 0 0 0 0 0 0 
0 0 0 0 0 0 0 0 0 
0 0 0 0 0 0 0 0 0 
0 0 0 0 0 0 0 0 0 
0 0 0 0 0 0 0 0 0 
0 0 0 0 0 0 0 0 0 
0 0 0 0 0 0 0 0 0 
0 0 0 0 0 0 0 0 0 
0 0 0 0 0 0 0 0 0 
0 0 0 0 0 0 0 0 0 
0 0 0 0 0 0 0 0 0 
0 0 0 0 0 0 0 0 0 
0 0 0 0 0 0 0 0 0 
0 0 0 0 0 0 0 0 0 
0 0 0 0 0 0 0 0 0 
0 0 0 0 0 0 0 0 0 
0 0 0 0 0 0 0 0 0 
0 0 0 0 0 0 0 0 0 
0 0 0 0 0 0 0 0 0 
0 0 0 0 0 0 0 0 0 
0 0 0 0 0 0 0 0 0 
0 0 0 0 0 0 0 0 0 
0 0 0 0 0 0 0 0 0 
0 0 0 0 0 0 0 0 0 
0 0 0 0 0 0 0 0 0 
0 0 0 0 0 0 0 0 0 
0 0 0 0 0 0 0 0 0 
0 0 0 0 0 0 0 0 0 
0 0 0 0 0 0 0 0 0 
0 0 0 0 0 0 0 0 0 
0 0 0 0 0 0 0 0 0 
0 0 0 0 0 0 0 0 0 
0 0 0 0 0 0 0 0 0 
0 0 0 0 0 0 0 0 0 
0 0 0 0 0 0 0 0 0 
0 0 0 0 0 0 0 0 0 
0 0 0 0 0 0 0 0 0 
0 0 0 0 0 0 0 0 0 
0 0 0 0 0 0 0 0 0 
0 0 0 0 0 0 0 0 0 
0 0 0 0 0 0 0 0 0 
0 0 0 0 0 0 0 0 0 
0 0 0 0 0 0 0 0 0 
0 0 0 0 0 0 0 0 0 
0 0 0 0 0 0 0 0 0 
0 0 0 0 0 0 0 0 0 
0 0 0 0 0 0 0 0 0 
0 0 0 0 0 0 0 0 0 
0 0 0 0 0 0 0 0 0 
0 0 0 0 0 0 0 0 0 
0 0 0 0 0 0 0 0 0 
0 0 0 0 0 0 0 0 0 
0 0 0 0 0 0 0 0 0 
0 0 0 0 0 0 0 0 0 
0 0 0 0 0 0 0 0 0 
0 0 0 0 0 0 0 0 0 
0 0 0 0 0 0 0 0 0 
0 0 0 0 0 0 0 0 0 
0 0 0 0 0 0 0 0 0 
0 0 0 0 0 0 0 0 0 
0 0 0 0 0 0 0 0 0 
0 0 0 0 0 0 0 0 0 
0 0 0 0 0 0 0 0 0 
0 0 0 0 0 0 0 0 0 
0 0 0 0 0 0 0 0 0 
0 0 0 0 0 0 0 0 0 
0 0 0 0 0 0 0 0 0 
0 0 0 0 0 0 0 0 0 
0 0 0 0 0 0 0 0 0 
0 0 0 0 0 0 0 0 0 
0 0 0 0 0 0 0 0 0 
0 0 0 0 0 0 0 0 0 
0 0 0 0 0 0 0 0 0 
0 0 0 0 0 0 0 0 0 
0 0 0 0 0 0 0 0 0 
0 0 0 0 0 0 0 0 0 
0 0 0 0 0 0 0 0 0 
0 0 0 0 0 0 0 0 0 
0 0 0 0 0 0 0 0 0 
0 0 0 0 0 0 0 0 0 
0 0 0 0 0 0 0 0 0 
0 0 0 0 0 0 0 0 0 
0 0 0 0 0 0 0 0 0 
0 0 0 0 0 0 0 0 0 
0 0 0 0 0 0 0 0 0 
0 0 0 0 0 0 0 0 0 
0 0 0 0 0 0 0 0 0 
0 0 0 0 0 0 0 0 0 
0 0 0 0 0 0 0 0 0 
0 0 0 0 0 0 0 0 0 
0 0 0 0 0 0 0 0 0 
0 0 0 0 0 0 0 0 0 
0 0 0 0 0 0 0 0 0 
0 0 0 0 0 0 0 0 0 
0 0 0 0 0 0 0 0 0 
0 0 0 0 0 0 0 0 0 
0 0 0 0 0 0 0 0 0 
0 0 0 0 0 0 0 0 0 
0 0 0 0 0 0 0 0 0 
0 0 0 0 0 0 0 0 0 
0 0 0 0 0 0 0 0 0 
0 0 0 0 0 0 0 0 0 
0 0 0 0 0 0 0 0 0 
0 0 0 0 0 0 0 0 0 
0 0 0 0 0 0 0 0 0 
0 0 0 0 0 0 0 0 0 
0 0 0 0 0 0 0 0 0 
0 0 0 0 0 0 0 0 0 
0 0 0 0 0 0 0 0 0 
0 0 0 0 0 0 0 0 0 
0 0 0 0 0 0 0 0 0 
0 0 0 0 0 0 0 0 0 
0 0 0 0 0 0 0 0 0 
0 0 0 0 0 0 0 0 0 
0 0 0 0 0 0 0 0 0 
0 0 0 0 0 0 0 0 0 
0 0 0 0 0 0 0 0 0 
0 0 0 0 0 0 0 0 0 
0 0 0 0 0 0 0 0 0 
0 0 0 0 0 0 0 0 0 
0 0 0 0 0 0 0 0 0 
0 0 0 0 0 0 0 0 0 
0 0 0 0 0 0 0 0 0 
0 0 0 0 0 0 0 0 0 
0 0 0 0 0 0 0 0 0 
0 0 0 0 0 0 0 0 0 
0 0 0 0 0 0 0 0 0 
0 0 0 0 0 0 0 0 0 
0 0 0 0 0 0 0 0 0 
0 0 0 0 0 0 0 0 0 
0 0 0 0 0 0 0 0 0 
0 0 0 0 0 0 0 0 0 
0 0 0 0 0 0 0 0 0 
0 0 0 0 0 0 0 0 0 
0 0 0 0 0 0 0 0 0 
0 0 0 0 0 0 0 0 0 
0 0 0 0 0 0 0 0 0 
0 0 0 0 0 0 0 0 0 
0 0 0 0 0 0 0 0 0 
0 0 0 0 0 0 0 0 0 
0 0 0 0 0 0 0 0 0 
0 0 0 0 0 0 0 0 0 
0 0 0 0 0 0 0 0 0 
0 0 0 0 0 0 0 0 0 
0 0 0 0 0 0 0 0 0 
0 0 0 0 0 0 0 0 0 
0 0 0 0 0 0 0 0 0 
0 0 0 0 0 0 0 0 0 
0 0 0 0 0 0 0 0 0 
0 0 0 0 0 0 0 0 0 
0 0 0 0 0 0 0 0 0 
0 0 0 0 0 0 0 0 0 
0 0 0 0 0 0 0 0 0 
0 0 0 0 0 0 0 0 0 
0 0 0 0 0 0 0 0 0 
0 0 0 0 0 0 0 0 0 
0 0 0 0 0 0 0 0 0 
0 0 0 0 0 0 0 0 0 
0 0 0 0 0 0 0 0 0 
0 0 0 0 0 0 0 0 0 
0 0 0 0 0 0 0 0 0 
0 0 0 0 0 0 0 0 0 
0 0 0 0 0 0 0 0 0 
0 0 0 0 0 0 0 0 0 
0 0 0 0 0 0 0 0 0 
0 0 0 0 0 0 0 0 0 
0 0 0 0 0 0 0 0 0 
0 0 0 0 0 0 0 0 0 
0 0 0 0 0 0 0 0 0 
0 0 0 0 0 0 0 0 0 
0 0 0 0 0 0 0 0 0 
0 0 0 0 0 0 0 0 0 
0 0 0 0 0 0 0 0 0 
0 0 0 0 0 0 0 0 0 
0 0 0 0 0 0 0 0 0 
0 0 0 0 0 0 0 0 0 
0 0 0 0 0 0 0 0 0 
0 0 0 0 0 0 0 0 0 
0 0 0 0 0 0 0 0 0 
0 0 0 0 0 0 0 0 0 
0 0 0 0 0 0 0 0 0 
0 0 0 0 0 0 0 0 0 
0 0 0 0 0 0 0 0 0 
0 0 0 0 0 0 0 0 0 
0 0 0 0 0 0 0 0 0 
0 0 0 0 0 0 0 0 0 
0 0 0 0 0 0 0 0 0 
0 0 0 0 0 0 0 0 0 
0 0 0 0 0 0 0 0 0 
0 0 0 0 0 0 0 0 0 
0 0 0 0 0 0 0 0 0 
0 0 0 0 0 0 0 0 0 
0 0 0 0 0 0 0 0 0 
0 0 0 0 0 0 0 0 0 
0 0 0 0 0 0 0 0 0 
0 0 0 0 0 0 0 0 0 
0 0 0 0 0 0 0 0 0 
0 0 0 0 0 0 0 0 0 
0 0 0 0 0 0 0 0 0 
0 0 0 0 0 0 0 0 0 
0 0 0 0 0 0 0 0 0 
0 0 0 0 0 0 0 0 0 
0 0 0 0 0 0 0 0 0 
0 0 0 0 0 0 0 0 0 
0 0 0 0 0 0 0 0 0 
0 0 0 0 0 0 0 0 0 
0 0 0 0 0 0 0 0 0 
0 0 0 0 0 0 0 0 0 
0 0 0 0 0 0 0 0 0 
0 0 0 0 0 0 0 0 0 
0 0 0 0 0 0 0 0 0 
0 0 0 0 0 0 0 0 0 
0 0 0 0 0 0 0 0 0 
0 0 0 0 0 0 0 0 0 
0 0 0 0 0 0 0 0 0 
0 0 0 0 0 0 0 0 0 
0 0 0 0 0 0 0 0 0 
0 0 0 0 0 0 0 0 0 
0 0 0 0 0 0 0 0 0 
0 0 0 0 0 0 0 0 0 
0 0 0 0 0 0 0 0 0 
0 0 0 0 0 0 0 0 0 
0 0 0 0 0 0 0 0 0 
0 0 0 0 0 0 0 0 0 
0 0 0 0 0 0 0 0 0 
0 0 0 0 0 0 0 0 0 
0 0 0 0 0 0 0 0 0 
0 0 0 0 0 0 0 0 0 
0 0 0 0 0 0 0 0 0 
0 0 0 0 0 0 0 0 0 
0 0 0 0 0 0 0 0 0 
0 0 0 0 0 0 0 0 0 
0 0 0 0 0 0 0 0 0 
0 0 0 0 0 0 0 0 0 
0 0 0 0 0 0 0 0 0 
0 0 0 0 0 0 0 0 0 
0 0 0 0 0 0 0 0 0 
0 0 0 0 0 0 0 0 0 
0 0 0 0 0 0 0 0 0 
0 0 0 0 0 0 0 0 0 
0 0 0 0 0 0 0 0 0 
0 0 0 0 0 0 0 0 0 
0 0 0 0 0 0 0 0 0 
0 0 0 0 0 0 0 0 0 
0 0 0 0 0 0 0 0 0 
0 0 0 0 0 0 0 0 0 
0 0 0 0 0 0 0 0 0 
0 0 0 0 0 0 0 0 0 
0 0 0 0 0 0 0 0 0 
0 0 0 0 0 0 0 0 0 
0 0 0 0 0 0 0 0 0 
0 0 0 0 0 0 0 0 0 
0 0 0 0 0 0 0 0 0 
0 0 0 0 0 0 0 0 0 
0 0 0 0 0 0 0 0 0 
0 0 0 0 0 0 0 0 0 
0 0 0 0 0 0 0 0 0 
0 0 0 0 0 0 0 0 0 
0 0 0 0 0 0 0 0 0 
0 0 0 0 0 0 0 0 0 
0 0 0 0 0 0 0 0 0 
0 0 0 0 0 0 0 0 0 
0 0 0 0 0 0 0 0 0 
0 0 0 0 0 0 0 0 0 
0 0 0 0 0 0 0 0 0 
0 0 0 0 0 0 0 0 0 
0 0 0 0 0 0 0 0 0 
0 0 0 0 0 0 0 0 0 
0 0 0 0 0 0 0 0 0 
0 0 0 0 0 0 0 0 0 
0 0 0 0 0 0 0 0 0 
0 0 0 0 0 0 0 0 0 
0 0 0 0 0 0 0 0 0 
0 0 0 0 0 0 0 0 0 
0 0 0 0 0 0 0 0 0 
0 0 0 0 0 0 0 0 0 
0 0 0 0 0 0 0 0 0 
0 0 0 0 0 0 0 0 0 
0 0 0 0 0 0 0 0 0 
0 0 0 0 0 0 0 0 0 
0 0 0 0 0 0 0 0 0 
0 0 0 0 0 0 0 0 0 
0 0 0 0 0 0 0 0 0 
0 0 0 0 0 0 0 0 0 
0 0 0 0 0 0 0 0 0 
0 0 0 0 0 0 0 0 0 
0 0 0 0 0 0 0 0 0 
0 0 0 0 0 0 0 0 0 
0 0 0 0 0 0 0 0 0 
0 0 0 0 0 0 0 0 0 
0 0 0 0 0 0 0 0 0 
0 0 0 0 0 0 0 0 0 
0 0 0 0 0 0 0 0 0 
0 0 0 0 0 0 0 0 0 
0 0 0 0 0 0 0 0 0 
0 0 0 0 0 0 0 0 0 
0 0 0 0 0 0 0 0 0 
0 0 0 0 0 0 0 0 0 
0 0 0 0 0 0 0 0 0 
0 0 0 0 0 0 0 0 0 
0 0 0 0 0 0 0 0 0 
0 0 0 0 0 0 0 0 0 
0 0 0 0 0 0 0 0 0 
0 0 0 0 0 0 0 0 0 
0 0 0 0 0 0 0 0 0 
0 0 0 0 0 0 0 0 0 
0 0 0 0 0 0 0 0 0 
0 0 0 0 0 0 0 0 0 
0 0 0 0 0 0 0 0 0 
0 0 0 0 0 0 0 0 0 
0 0 0 0 0 0 0 0 0 
0 0 0 0 0 0 0 0 0 
0 0 0 0 0 0 0 0 0 
0 0 0 0 0 0 0 0 0 
0 0 0 0 0 0 0 0 0 
0 0 0 0 0 0 0 0 0 
0 0 0 0 0 0 0 0 0 
0 0 0 0 0 0 0 0 0 
0 0 0 0 0 0 0 0 0 
0 0 0 0 0 0 0 0 0 
0 0 0 0 0 0 0 0 0 
0 0 0 0 0 0 0 0 0 
0 0 0 0 0 0 0 0 0 
0 0 0 0 0 0 0 0 0 
0 0 0 0 0 0 0 0 0 
0 0 0 0 0 0 0 0 0 
0 0 0 0 0 0 0 0 0 
0 0 0 0 0 0 0 0 0 
0 0 0 0 0 0 0 0 0 
0 0 0 0 0 0 0 0 0 
0 0 0 0 0 0 0 0 0 
0 0 0 0 0 0 0 0 0 
0 0 0 0 0 0 0 0 0 
0 0 0 0 0 0 0 0 0 
0 0 0 0 0 0 0 0 0 
0 0 0 0 0 0 0 0 0 
0 0 0 0 0 0 0 0 0 
0 0 0 0 0 0 0 0 0 
0 0 0 0 0 0 0 0 0 
0 0 0 0 0 0 0 0 0 
0 0 0 0 0 0 0 0 0 
0 0 0 0 0 0 0 0 0 
0 0 0 0 0 0 0 0 0 
0 0 0 0 0 0 0 0 0 
0 0 0 0 0 0 0 0 0 
0 0 0 0 0 0 0 0 0 
0 0 0 0 0 0 0 0 0 
0 0 0 0 0 0 0 0 0 
0 0 0 0 0 0 0 0 0 
0 0 0 0 0 0 0 0 0 
0 0 0 0 0 0 0 0 0 
0 0 0 0 0 0 0 0 0 
0 0 0 0 0 0 0 0 0 
0 0 0 0 0 0 0 0 0 
0 0 0 0 0 0 0 0 0 
0 0 0 0 0 0 0 0 0 
0 0 0 0 0 0 0 0 0 
0 0 0 0 0 0 0 0 0 
0 0 0 0 0 0 0 0 0 
0 0 0 0 0 0 0 0 0 
0 0 0 0 0 0 0 0 0 
0 0 0 0 0 0 0 0 0 
0 0 0 0 0 0 0 0 0 
0 0 0 0 0 0 0 0 0 
0 0 0 0 0 0 0 0 0 
0 0 0 0 0 0 0 0 0 
0 0 0 0 0 0 0 0 0 
0 0 0 0 0 0 0 0 0 
0 0 0 0 0 0 0 0 0 
0 0 0 0 0 0 0 0 0 
0 0 0 0 0 0 0 0 0 
0 0 0 0 0 0 0 0 0 
0 0 0 0 0 0 0 0 0 
0 0 0 0 0 0 0 0 0 
0 0 0 0 0 0 0 0 0 
0 0 0 0 0 0 0 0 0 
0 0 0 0 0 0 0 0 0 
0 0 0 0 0 0 0 0 0 
0 0 0 0 0 0 0 0 0 
0 0 0 0 0 0 0 0 0 
0 0 0 0 0 0 0 0 0 
0 0 0 0 0 0 0 0 0 
0 0 0 0 0 0 0 0 0 
0 0 0 0 0 0 0 0 0 
0 0 0 0 0 0 0 0 0 
0 0 0 0 0 0 0 0 0 
0 0 0 0 0 0 0 0 0 
0 0 0 0 0 0 0 0 0 
0 0 0 0 0 0 0 0 0 
0 0 0 0 0 0 0 0 0 
0 0 0 0 0 0 0 0 0 
0 0 0 0 0 0 0 0 0 
0 0 0 0 0 0 0 0 0 
0 0 0 0 0 0 0 0 0 
0 0 0 0 0 0 0 0 0 
0 0 0 0 0 0 0 0 0 
0 0 0 0 0 0 0 0 0 
0 0 0 0 0 0 0 0 0 
0 0 0 0 0 0 0 0 0 
0 0 0 0 0 0 0 0 0 
0 0 0 0 0 0 0 0 0 
0 0 0 0 0 0 0 0 0 
0 0 0 0 0 0 0 0 0 
0 0 0 0 0 0 0 0 0 
0 0 0 0 0 0 0 0 0 
0 0 0 0 0 0 0 0 0 
0 0 0 0 0 0 0 0 0 
0 0 0 0 0 0 0 0 0 
0 0 0 0 0 0 0 0 0 
0 0 0 0 0 0 0 0 0 
0 0 0 0 0 0 0 0 0 
0 0 0 0 0 0 0 0 0 
0 0 0 0 0 0 0 0 0 
0 0 0 0 0 0 0 0 0 
0 0 0 0 0 0 0 0 0 
0 0 0 0 0 0 0 0 0 
0 0 0 0 0 0 0 0 0 
0 0 0 0 0 0 0 0 0 
0 0 0 0 0 0 0 0 0 
0 0 0 0 0 0 0 0 0 
0 0 0 0 0 0 0 0 0 
0 0 0 0 0 0 0 0 0 
0 0 0 0 0 0 0 0 0 
0 0 0 0 0 0 0 0 0 
0 0 0 0 0 0 0 0 0 
0 0 0 0 0 0 0 0 0 
0 0 0 0 0 0 0 0 0 
0 0 0 0 0 0 0 0 0 
0 0 0 0 0 0 0 0 0 
0 0 0 0 0 0 0 0 0 
0 0 0 0 0 0 0 0 0 
0 0 0 0 0 0 0 0 0 
0 0 0 0 0 0 0 0 0 
0 0 0 0 0 0 0 0 0 
0 0 0 0 0 0 0 0 0 
0 0 0 0 0 0 0 0 0 
0 0 0 0 0 0 0 0 0 
0 0 0 0 0 0 0 0 0 
0 0 0 0 0 0 0 0 0 
0 0 0 0 0 0 0 0 0 
0 0 0 0 0 0 0 0 0 
0 0 0 0 0 0 0 0 0 
0 0 0 0 0 0 0 0 0 
0 0 0 0 0 0 0 0 0 
0 0 0 0 0 0 0 0 0 
0 0 0 0 0 0 0 0 0 
0 0 0 0 0 0 0 0 0 
0 0 0 0 0 0 0 0 0 
0 0 0 0 0 0 0 0 0 
0 0 0 0 0 0 0 0 0 
0 0 0 0 0 0 0 0 0 
0 0 0 0 0 0 0 0 0 
0 0 0 0 0 0 0 0 0 
0 0 0 0 0 0 0 0 0 
0 0 0 0 0 0 0 0 0 
0 0 0 0 0 0 0 0 0 
0 0 0 0 0 0 0 0 0 
0 0 0 0 0 0 0 0 0 
0 0 0 0 0 0 0 0 0 
0 0 0 0 0 0 0 0 0 
0 0 0 0 0 0 0 0 0 
0 0 0 0 0 0 0 0 0 
0 0 0 0 0 0 0 0 0 
0 0 0 0 0 0 0 0 0 
0 0 0 0 0 0 0 0 0 
0 0 0 0 0 0 0 0 0 
0 0 0 0 0 0 0 0 0 
0 0 0 0 0 0 0 0 0 
0 0 0 0 0 0 0 0 0 
0 0 0 0 0 0 0 0 0 
0 0 0 0 0 0 0 0 0 
0 0 0 0 0 0 0 0 0 
0 0 0 0 0 0 0 0 0 
0 0 0 0 0 0 0 0 0 
0 0 0 0 0 0 0 0 0 
0 0 0 0 0 0 0 0 0 
0 0 0 0 0 0 0 0 0 
0 0 0 0 0 0 0 0 0 
0 0 0 0 0 0 0 0 0 
0 0 0 0 0 0 0 0 0 
0 0 0 0 0 0 0 0 0 
0 0 0 0 0 0 0 0 0 
0 0 0 0 0 0 0 0 0 
0 0 0 0 0 0 0 0 0 
0 0 0 0 0 0 0 0 0 
0 0 0 0 0 0 0 0 0 
0 0 0 0 0 0 0 0 0 
0 0 0 0 0 0 0 0 0 
0 0 0 0 0 0 0 0 0 
0 0 0 0 0 0 0 0 0 
0 0 0 0 0 0 0 0 0 
0 0 0 0 0 0 0 0 0 
0 0 0 0 0 0 0 0 0 
0 0 0 0 0 0 0 0 0 
0 0 0 0 0 0 0 0 0 
0 0 0 0 0 0 0 0 0 
0 0 0 0 0 0 0 0 0 
0 0 0 0 0 0 0 0 0 
0 0 0 0 0 0 0 0 0 
0 0 0 0 0 0 0 0 0 
0 0 0 0 0 0 0 0 0 
0 0 0 0 0 0 0 0 0 
0 0 0 0 0 0 0 0 0 
0 0 0 0 0 0 0 0 0 
0 0 0 0 0 0 0 0 0 
0 0 0 0 0 0 0 0 0 
0 0 0 0 0 0 0 0 0 
0 0 0 0 0 0 0 0 0 
0 0 0 0 0 0 0 0 0 
0 0 0 0 0 0 0 0 0 
0 0 0 0 0 0 0 0 0 
0 0 0 0 0 0 0 0 0 
0 0 0 0 0 0 0 0 0 
0 0 0 0 0 0 0 0 0 
0 0 0 0 0 0 0 0 0 
0 0 0 0 0 0 0 0 0 
0 0 0 0 0 0 0 0 0 
0 0 0 0 0 0 0 0 0 
0 0 0 0 0 0 0 0 0 
0 0 0 0 0 0 0 0 0 
0 0 0 0 0 0 0 0 0 
0 0 0 0 0 0 0 0 0 
0 0 0 0 0 0 0 0 0 
0 0 0 0 0 0 0 0 0 
0 0 0 0 0 0 0 0 0 
0 0 0 0 0 0 0 0 0 
0 0 0 0 0 0 0 0 0 
0 0 0 0 0 0 0 0 0 
0 0 0 0 0 0 0 0 0 
0 0 0 0 0 0 0 0 0 
0 0 0 0 0 0 0 0 0 
0 0 0 0 0 0 0 0 0 
0 0 0 0 0 0 0 0 0 
0 0 0 0 0 0 0 0 0 
0 0 0 0 0 0 0 0 0 
0 0 0 0 0 0 0 0 0 
0 0 0 0 0 0 0 0 0 
0 0 0 0 0 0 0 0 0 
0 0 0 0 0 0 0 0 0 
0 0 0 0 0 0 0 0 0 
0 0 0 0 0 0 0 0 0 
0 0 0 0 0 0 0 0 0 
0 0 0 0 0 0 0 0 0 
0 0 0 0 0 0 0 0 0 
0 0 0 0 0 0 0 0 0 
0 0 0 0 0 0 0 0 0 
0 0 0 0 0 0 0 0 0 
0 0 0 0 0 0 0 0 0 
0 0 0 0 0 0 0 0 0 
0 0 0 0 0 0 0 0 0 
0 0 0 0 0 0 0 0 0 
0 0 0 0 0 0 0 0 0 
0 0 0 0 0 0 0 0 0 
0 0 0 0 0 0 0 0 0 
0 0 0 0 0 0 0 0 0 
0 0 0 0 0 0 0 0 0 
0 0 0 0 0 0 0 0 0 
0 0 0 0 0 0 0 0 0 
0 0 0 0 0 0 0 0 0 
0 0 0 0 0 0 0 0 0 
0 0 0 0 0 0 0 0 0 
0 0 0 0 0 0 0 0 0 
0 0 0 0 0 0 0 0 0 
0 0 0 0 0 0 0 0 0 
0 0 0 0 0 0 0 0 0 
0 0 0 0 0 0 0 0 0 
0 0 0 0 0 0 0 0 0 
0 0 0 0 0 0 0 0 0 
0 0 0 0 0 0 0 0 0 
0 0 0 0 0 0 0 0 0 
0 0 0 0 0 0 0 0 0 
0 0 0 0 0 0 0 0 0 
0 0 0 0 0 0 0 0 0 
0 0 0 0 0 0 0 0 0 
0 0 0 0 0 0 0 0 0 
0 0 0 0 0 0 0 0 0 
0 0 0 0 0 0 0 0 0 
0 0 0 0 0 0 0 0 0 
0 0 0 0 0 0 0 0 0 
0 0 0 0 0 0 0 0 0 
0 0 0 0 0 0 0 0 0 
0 0 0 0 0 0 0 0 0 
0 0 0 0 0 0 0 0 0 
0 0 0 0 0 0 0 0 0 
0 0 0 0 0 0 0 0 0 
0 0 0 0 0 0 0 0 0 
0 0 0 0 0 0 0 0 0 
0 0 0 0 0 0 0 0 0 
0 0 0 0 0 0 0 0 0 
0 0 0 0 0 0 0 0 0 
0 0 0 0 0 0 0 0 0 
0 0 0 0 0 0 0 0 0 
0 0 0 0 0 0 0 0 0 
0 0 0 0 0 0 0 0 0 
0 0 0 0 0 0 0 0 0 
0 0 0 0 0 0 0 0 0 
0 0 0 0 0 0 0 0 0 
0 0 0 0 0 0 0 0 0 
0 0 0 0 0 0 0 0 0 
0 0 0 0 0 0 0 0 0 
0 0 0 0 0 0 0 0 0 
0 0 0 0 0 0 0 0 0 
0 0 0 0 0 0 0 0 0 
0 0 0 0 0 0 0 0 0 
0 0 0 0 0 0 0 0 0 
0 0 0 0 0 0 0 0 0 
0 0 0 0 0 0 0 0 0 
0 0 0 0 0 0 0 0 0 
0 0 0 0 0 0 0 0 0 
0 0 0 0 0 0 0 0 0 
0 0 0 0 0 0 0 0 0 
0 0 0 0 0 0 0 0 0 
0 0 0 0 0 0 0 0 0 
0 0 0 0 0 0 0 0 0 
0 0 0 0 0 0 0 0 0 
0 0 0 0 0 0 0 0 0 
0 0 0 0 0 0 0 0 0 
0 0 0 0 0 0 0 0 0 
0 0 0 0 0 0 0 0 0 
0 0 0 0 0 0 0 0 0 
0 0 0 0 0 0 0 0 0 
0 0 0 0 0 0 0 0 0 
0 0 0 0 0 0 0 0 0 
0 0 0 0 0 0 0 0 0 
0 0 0 0 0 0 0 0 0 
0 0 0 0 0 0 0 0 0 
0 0 0 0 0 0 0 0 0 
0 0 0 0 0 0 0 0 0 
0 0 0 0 0 0 0 0 0 
0 0 0 0 0 0 0 0 0 
0 0 0 0 0 0 0 0 0 
0 0 0 0 0 0 0 0 0 
0 0 0 0 0 0 0 0 0 
0 0 0 0 0 0 0 0 0 
0 0 0 0 0 0 0 0 0 
0 0 0 0 0 0 0 0 0 
0 0 0 0 0 0 0 0 0 
0 0 0 0 0 0 0 0 0 
0 0 0 0 0 0 0 0 0 
0 0 0 0 0 0 0 0 0 
0 0 0 0 0 0 0 0 0 
0 0 0 0 0 0 0 0 0 
0 0 0 0 0 0 0 0 0 
0 0 0 0 0 0 0 0 0 
0 0 0 0 0 0 0 0 0 
0 0 0 0 0 0 0 0 0 
0 0 0 0 0 0 0 0 0 
0 0 0 0 0 0 0 0 0 
0 0 0 0 0 0 0 0 0 
0 0 0 0 0 0 0 0 0 
0 0 0 0 0 0 0 0 0 
0 0 0 0 0 0 0 0 0 
0 0 0 0 0 0 0 0 0 
0 0 0 0 0 0 0 0 0 
0 0 0 0 0 0 0 0 0 
0 0 0 0 0 0 0 0 0 
0 0 0 0 0 0 0 0 0 
0 0 0 0 0 0 0 0 0 
0 0 0 0 0 0 0 0 0 
0 0 0 0 0 0 0 0 0 
0 0 0 0 0 0 0 0 0 
0 0 0 0 0 0 0 0 0 
0 0 0 0 0 0 0 0 0 
0 0 0 0 0 0 0 0 0 
0 0 0 0 0 0 0 0 0 
0 0 0 0 0 0 0 0 0 
0 0 0 0 0 0 0 0 0 
0 0 0 0 0 0 0 0 0 
0 0 0 0 0 0 0 0 0 
0 0 0 0 0 0 0 0 0 
0 0 0 0 0 0 0 0 0 
0 0 0 0 0 0 0 0 0 
0 0 0 0 0 0 0 0 0 
0 0 0 0 0 0 0 0 0 
0 0 0 0 0 0 0 0 0 
0 0 0 0 0 0 0 0 0 
0 0 0 0 0 0 0 0 0 
0 0 0 0 0 0 0 0 0 
0 0 0 0 0 0 0 0 0 
0 0 0 0 0 0 0 0 0 
0 0 0 0 0 0 0 0 0 
0 0 0 0 0 0 0 0 0 
0 0 0 0 0 0 0 0 0 
0 0 0 0 0 0 0 0 0 
0 0 0 0 0 0 0 0 0 
0 0 0 0 0 0 0 0 0 
0 0 0 0 0 0 0 0 0 
0 0 0 0 0 0 0 0 0 
0 0 0 0 0 0 0 0 0 
0 0 0 0 0 0 0 0 0 
0 0 0 0 0 0 0 0 0 
0 0 0 0 0 0 0 0 0 
0 0 0 0 0 0 0 0 0 
0 0 0 0 0 0 0 0 0 
0 0 0 0 0 0 0 0 0 
0 0 0 0 0 0 0 0 0 
0 0 0 0 0 0 0 0 0 
0 0 0 0 0 0 0 0 0 
0 0 0 0 0 0 0 0 0 
0 0 0 0 0 0 0 0 0 
0 0 0 0 0 0 0 0 0 
0 0 0 0 0 0 0 0 0 
0 0 0 0 0 0 0 0 0 
0 0 0 0 0 0 0 0 0 
0 0 0 0 0 0 0 0 0 
0 0 0 0 0 0 0 0 0 
0 0 0 0 0 0 0 0 0 
0 0 0 0 0 0 0 0 0 
0 0 0 0 0 0 0 0 0 
0 0 0 0 0 0 0 0 0 
0 0 0 0 0 0 0 0 0 
0 0 0 0 0 0 0 0 0 
0 0 0 0 0 0 0 0 0 
0 0 0 0 0 0 0 0 0 
0 0 0 0 0 0 0 0 0 
0 0 0 0 0 0 0 0 0 
0 0 0 0 0 0 0 0 0 
0 0 0 0 0 0 0 0 0 
0 0 0 0 0 0 0 0 0 
0 0 0 0 0 0 0 0 0 
0 0 0 0 0 0 0 0 0 
0 0 0 0 0 0 0 0 0 
0 0 0 0 0 0 0 0 0 
0 0 0 0 0 0 0 0 0 
0 0 0 0 0 0 0 0 0 
0 0 0 0 0 0 0 0 0 
0 0 0 0 0 0 0 0 0 
0 0 0 0 0 0 0 0 0 
0 0 0 0 0 0 0 0 0 
0 0 0 0 0 0 0 0 0 
0 0 0 0 0 0 0 0 0 
0 0 0 0 0 0 0 0 0 
0 0 0 0 0 0 0 0 0 
0 0 0 0 0 0 0 0 0 
0 0 0 0 0 0 0 0 0 
0 0 0 0 0 0 0 0 0 
0 0 0 0 0 0 0 0 0 
0 0 0 0 0 0 0 0 0 
0 0 0 0 0 0 0 0 0 
0 0 0 0 0 0 0 0 0 
0 0 0 0 0 0 0 0 0 
0 0 0 0 0 0 0 0 0 
0 0 0 0 0 0 0 0 0 
0 0 0 0 0 0 0 0 0 
0 0 0 0 0 0 0 0 0 
0 0 0 0 0 0 0 0 0 
0 0 0 0 0 0 0 0 0 
0 0 0 0 0 0 0 0 0 
0 0 0 0 0 0 0 0 0 
0 0 0 0 0 0 0 0 0 
0 0 0 0 0 0 0 0 0 
0 0 0 0 0 0 0 0 0 
0 0 0 0 0 0 0 0 0 
0 0 0 0 0 0 0 0 0 
0 0 0 0 0 0 0 0 0 
0 0 0 0 0 0 0 0 0 
0 0 0 0 0 0 0 0 0 
0 0 0 0 0 0 0 0 0 
0 0 0 0 0 0 0 0 0 
0 0 0 0 0 0 0 0 0 
0 0 0 0 0 0 0 0 0 
0 0 0 0 0 0 0 0 0 
0 0 0 0 0 0 0 0 0 
0 0 0 0 0 0 0 0 0 
0 0 0 0 0 0 0 0 0 
0 0 0 0 0 0 0 0 0 
0 0 0 0 0 0 0 0 0 
0 0 0 0 0 0 0 0 0 
0 0 0 0 0 0 0 0 0 
0 0 0 0 0 0 0 0 0 
0 0 0 0 0 0 0 0 0 
0 0 0 0 0 0 0 0 0 
0 0 0 0 0 0 0 0 0 
0 0 0 0 0 0 0 0 0 
0 0 0 0 0 0 0 0 0 
0 0 0 0 0 0 0 0 0 
0 0 0 0 0 0 0 0 0 
0 0 0 0 0 0 0 0 0 
0 0 0 0 0 0 0 0 0 
0 0 0 0 0 0 0 0 0 
0 0 0 0 0 0 0 0 0 
0 0 0 0 0 0 0 0 0 
0 0 0 0 0 0 0 0 0 
0 0 0 0 0 0 0 0 0 
0 0 0 0 0 0 0 0 0 
0 0 0 0 0 0 0 0 0 
0 0 0 0 0 0 0 0 0 
0 0 0 0 0 0 0 0 0 
0 0 0 0 0 0 0 0 0 
0 0 0 0 0 0 0 0 0 
0 0 0 0 0 0 0 0 0 
0 0 0 0 0 0 0 0 0 
0 0 0 0 0 0 0 0 0 
0 0 0 0 0 0 0 0 0 
0 0 0 0 0 0 0 0 0 
0 0 0 0 0 0 0 0 0 
0 0 0 0 0 0 0 0 0 
0 0 0 0 0 0 0 0 0 
0 0 0 0 0 0 0 0 0 
0 0 0 0 0 0 0 0 0 
0 0 0 0 0 0 0 0 0 
0 0 0 0 0 0 0 0 0 
0 0 0 0 0 0 0 0 0 
0 0 0 0 0 0 0 0 0 
0 0 0 0 0 0 0 0 0 
0 0 0 0 0 0 0 0 0 
0 0 0 0 0 0 0 0 0 
0 0 0 0 0 0 0 0 0 
0 0 0 0 0 0 0 0 0 
0 0 0 0 0 0 0 0 0 
0 0 0 0 0 0 0 0 0 
0 0 0 0 0 0 0 0 0 
0 0 0 0 0 0 0 0 0 
0 0 0 0 0 0 0 0 0 
0 0 0 0 0 0 0 0 0 
0 0 0 0 0 0 0 0 0 
0 0 0 0 0 0 0 0 0 
0 0 0 0 0 0 0 0 0 
0 0 0 0 0 0 0 0 0 
0 0 0 0 0 0 0 0 0 
0 0 0 0 0 0 0 0 0 
0 0 0 0 0 0 0 0 0 
0 0 0 0 0 0 0 0 0 
0 0 0 0 0 0 0 0 0 
0 0 0 0 0 0 0 0 0 
0 0 0 0 0 0 0 0 0 
0 0 0 0 0 0 0 0 0 
0 0 0 0 0 0 0 0 0 
0 0 0 0 0 0 0 0 0 
0 0 0 0 0 0 0 0 0 
0 0 0 0 0 0 0 0 0 
0 0 0 0 0 0 0 0 0 
0 0 0 0 0 0 0 0 0 
0 0 0 0 0 0 0 0 0 
0 0 0 0 0 0 0 0 0 
0 0 0 0 0 0 0 0 0 
0 0 0 0 0 0 0 0 0 
0 0 0 0 0 0 0 0 0 
0 0 0 0 0 0 0 0 0 
0 0 0 0 0 0 0 0 0 
0 0 0 0 0 0 0 0 0 
0 0 0 0 0 0 0 0 0 
0 0 0 0 0 0 0 0 0 
0 0 0 0 0 0 0 0 0 
0 0 0 0 0 0 0 0 0 
0 0 0 0 0 0 0 0 0 
0 0 0 0 0 0 0 0 0 
0 0 0 0 0 0 0 0 0 
0 0 0 0 0 0 0 0 0 
0 0 0 0 0 0 0 0 0 
0 0 0 0 0 0 0 0 0 
0 0 0 0 0 0 0 0 0 
0 0 0 0 0 0 0 0 0 
0 0 0 0 0 0 0 0 0 
0 0 0 0 0 0 0 0 0 
0 0 0 0 0 0 0 0 0 
0 0 0 0 0 0 0 0 0 
0 0 0 0 0 0 0 0 0 
0 0 0 0 0 0 0 0 0 
0 0 0 0 0 0 0 0 0 
0 0 0 0 0 0 0 0 0 
0 0 0 0 0 0 0 0 0 
0 0 0 0 0 0 0 0 0 
0 0 0 0 0 0 0 0 0 
0 0 0 0 0 0 0 0 0 
0 0 0 0 0 0 0 0 0 
0 0 0 0 0 0 0 0 0 
0 0 0 0 0 0 0 0 0 
0 0 0 0 0 0 0 0 0 
0 0 0 0 0 0 0 0 0 
0 0 0 0 0 0 0 0 0 
0 0 0 0 0 0 0 0 0 
0 0 0 0 0 0 0 0 0 
0 0 0 0 0 0 0 0 0 
0 0 0 0 0 0 0 0 0 
0 0 0 0 0 0 0 0 0 
0 0 0 0 0 0 0 0 0 
0 0 0 0 0 0 0 0 0 
0 0 0 0 0 0 0 0 0 
0 0 0 0 0 0 0 0 0 
0 0 0 0 0 0 0 0 0 
0 0 0 0 0 0 0 0 0 
0 0 0 0 0 0 0 0 0 
0 0 0 0 0 0 0 0 0 
0 0 0 0 0 0 0 0 0 
0 0 0 0 0 0 0 0 0 
0 0 0 0 0 0 0 0 0 
0 0 0 0 0 0 0 0 0 
0 0 0 0 0 0 0 0 0 
0 0 0 0 0 0 0 0 0 
0 0 0 0 0 0 0 0 0 
0 0 0 0 0 0 0 0 0 
0 0 0 0 0 0 0 0 0 
0 0 0 0 0 0 0 0 0 
0 0 0 0 0 0 0 0 0 
0 0 0 0 0 0 0 0 0 
0 0 0 0 0 0 0 0 0 
0 0 0 0 0 0 0 0 0 
0 0 0 0 0 0 0 0 0 
0 0 0 0 0 0 0 0 0 
0 0 0 0 0 0 0 0 0 
0 0 0 0 0 0 0 0 0 
0 0 0 0 0 0 0 0 0 
0 0 0 0 0 0 0 0 0 
0 0 0 0 0 0 0 0 0 
0 0 0 0 0 0 0 0 0 
0 0 0 0 0 0 0 0 0 
0 0 0 0 0 0 0 0 0 
0 0 0 0 0 0 0 0 0 
0 0 0 0 0 0 0 0 0 
0 0 0 0 0 0 0 0 0 
0 0 0 0 0 0 0 0 0 
0 0 0 0 0 0 0 0 0 
0 0 0 0 0 0 0 0 0 
0 0 0 0 0 0 0 0 0 
0 0 0 0 0 0 0 0 0 
0 0 0 0 0 0 0 0 0 
0 0 0 0 0 0 0 0 0 
0 0 0 0 0 0 0 0 0 
0 0 0 0 0 0 0 0 0 
0 0 0 0 0 0 0 0 0 
0 0 0 0 0 0 0 0 0 
0 0 0 0 0 0 0 0 0 
0 0 0 0 0 0 0 0 0 
0 0 0 0 0 0 0 0 0 
0 0 0 0 0 0 0 0 0 
0 0 0 0 0 0 0 0 0 
0 0 0 0 0 0 0 0 0 
0 0 0 0 0 0 0 0 0 
0 0 0 0 0 0 0 0 0 
0 0 0 0 0 0 0 0 0 
0 0 0 0 0 0 0 0 0 
0 0 0 0 0 0 0 0 0 
0 0 0 0 0 0 0 0 0 
0 0 0 0 0 0 0 0 0 
0 0 0 0 0 0 0 0 0 
0 0 0 0 0 0 0 0 0 
0 0 0 0 0 0 0 0 0 
0 0 0 0 0 0 0 0 0 
0 0 0 0 0 0 0 0 0 
0 0 0 0 0 0 0 0 0 
0 0 0 0 0 0 0 0 0 
0 0 0 0 0 0 0 0 0 
0 0 0 0 0 0 0 0 0 
0 0 0 0 0 0 0 0 0 
0 0 0 0 0 0 0 0 0 
0 0 0 0 0 0 0 0 0 
0 0 0 0 0 0 0 0 0 
0 0 0 0 0 0 0 0 0 
0 0 0 0 0 0 0 0 0 
0 0 0 0 0 0 0 0 0 
0 0 0 0 0 0 0 0 0 
0 0 0 0 0 0 0 0 0 
0 0 0 0 0 0 0 0 0 
0 0 0 0 0 0 0 0 0 
0 0 0 0 0 0 0 0 0 
0 0 0 0 0 0 0 0 0 
0 0 0 0 0 0 0 0 0 
0 0 0 0 0 0 0 0 0 
0 0 0 0 0 0 0 0 0 
0 0 0 0 0 0 0 0 0 
0 0 0 0 0 0 0 0 0 
0 0 0 0 0 0 0 0 0 
0 0 0 0 0 0 0 0 0 
0 0 0 0 0 0 0 0 0 
0 0 0 0 0 0 0 0 0 
0 0 0 0 0 0 0 0 0 
0 0 0 0 0 0 0 0 0 
0 0 0 0 0 0 0 0 0 
0 0 0 0 0 0 0 0 0 
0 0 0 0 0 0 0 0 0 
0 0 0 0 0 0 0 0 0 
0 0 0 0 0 0 0 0 0 
0 0 0 0 0 0 0 0 0 
0 0 0 0 0 0 0 0 0 
0 0 0 0 0 0 0 0 0 
0 0 0 0 0 0 0 0 0 
0 0 0 0 0 0 0 0 0 
0 0 0 0 0 0 0 0 0 
0 0 0 0 0 0 0 0 0 
0 0 0 0 0 0 0 0 0 
0 0 0 0 0 0 0 0 0 
0 0 0 0 0 0 0 0 0 
0 0 0 0 0 0 0 0 0 
0 0 0 0 0 0 0 0 0 
0 0 0 0 0 0 0 0 0 
0 0 0 0 0 0 0 0 0 
0 0 0 0 0 0 0 0 0 
0 0 0 0 0 0 0 0 0 
0 0 0 0 0 0 0 0 0 
0 0 0 0 0 0 0 0 0 
0 0 0 0 0 0 0 0 0 
0 0 0 0 0 0 0 0 0 
0 0 0 0 0 0 0 0 0 
0 0 0 0 0 0 0 0 0 
0 0 0 0 0 0 0 0 0 
0 0 0 0 0 0 0 0 0 
0 0 0 0 0 0 0 0 0 
0 0 0 0 0 0 0 0 0 
0 0 0 0 0 0 0 0 0 
0 0 0 0 0 0 0 0 0 
0 0 0 0 0 0 0 0 0 
0 0 0 0 0 0 0 0 0 
0 0 0 0 0 0 0 0 0 
0 0 0 0 0 0 0 0 0 
0 0 0 0 0 0 0 0 0 
0 0 0 0 0 0 0 0 0 
0 0 0 0 0 0 0 0 0 
0 0 0 0 0 0 0 0 0 
0 0 0 0 0 0 0 0 0 
0 0 0 0 0 0 0 0 0 
0 0 0 0 0 0 0 0 0 
0 0 0 0 0 0 0 0 0 
0 0 0 0 0 0 0 0 0 
0 0 0 0 0 0 0 0 0 
0 0 0 0 0 0 0 0 0 
0 0 0 0 0 0 0 0 0 
0 0 0 0 0 0 0 0 0 
0 0 0 0 0 0 0 0 0 
0 0 0 0 0 0 0 0 0 
0 0 0 0 0 0 0 0 0 
0 0 0 0 0 0 0 0 0 
0 0 0 0 0 0 0 0 0 
0 0 0 0 0 0 0 0 0 
0 0 0 0 0 0 0 0 0 
0 0 0 0 0 0 0 0 0 
0 0 0 0 0 0 0 0 0 
0 0 0 0 0 0 0 0 0 
0 0 0 0 0 0 0 0 0 
0 0 0 0 0 0 0 0 0 
0 0 0 0 0 0 0 0 0 
0 0 0 0 0 0 0 0 0 
0 0 0 0 0 0 0 0 0 
0 0 0 0 0 0 0 0 0 
0 0 0 0 0 0 0 0 0 
0 0 0 0 0 0 0 0 0 
0 0 0 0 0 0 0 0 0 
0 0 0 0 0 0 0 0 0 
0 0 0 0 0 0 0 0 0 
0 0 0 0 0 0 0 0 0 
0 0 0 0 0 0 0 0 0 
0 0 0 0 0 0 0 0 0 
0 0 0 0 0 0 0 0 0 
0 0 0 0 0 0 0 0 0 
0 0 0 0 0 0 0 0 0 
0 0 0 0 0 0 0 0 0 
0 0 0 0 0 0 0 0 0 
0 0 0 0 0 0 0 0 0 
0 0 0 0 0 0 0 0 0 
0 0 0 0 0 0 0 0 0 
0 0 0 0 0 0 0 0 0 
0 0 0 0 0 0 0 0 0 
0 0 0 0 0 0 0 0 0 
0 0 0 0 0 0 0 0 0 
0 0 0 0 0 0 0 0 0 
0 0 0 0 0 0 0 0 0 
0 0 0 0 0 0 0 0 0 
0 0 0 0 0 0 0 0 0 
0 0 0 0 0 0 0 0 0 
0 0 0 0 0 0 0 0 0 
0 0 0 0 0 0 0 0 0 
0 0 0 0 0 0 0 0 0 
0 0 0 0 0 0 0 0 0 
0 0 0 0 0 0 0 0 0 
0 0 0 0 0 0 0 0 0 
0 0 0 0 0 0 0 0 0 
0 0 0 0 0 0 0 0 0 
0 0 0 0 0 0 0 0 0 
0 0 0 0 0 0 0 0 0 
0 0 0 0 0 0 0 0 0 
0 0 0 0 0 0 0 0 0 
0 0 0 0 0 0 0 0 0 
0 0 0 0 0 0 0 0 0 
0 0 0 0 0 0 0 0 0 
0 0 0 0 0 0 0 0 0 
0 0 0 0 0 0 0 0 0 
0 0 0 0 0 0 0 0 0 
0 0 0 0 0 0 0 0 0 
0 0 0 0 0 0 0 0 0 
0 0 0 0 0 0 0 0 0 
0 0 0 0 0 0 0 0 0 
0 0 0 0 0 0 0 0 0 
0 0 0 0 0 0 0 0 0 
0 0 0 0 0 0 0 0 0 
0 0 0 0 0 0 0 0 0 
0 0 0 0 0 0 0 0 0 
0 0 0 0 0 0 0 0 0 
0 0 0 0 0 0 0 0 0 
0 0 0 0 0 0 0 0 0 
0 0 0 0 0 0 0 0 0 
0 0 0 0 0 0 0 0 0 
0 0 0 0 0 0 0 0 0 
0 0 0 0 0 0 0 0 0 
0 0 0 0 0 0 0 0 0 
0 0 0 0 0 0 0 0 0 
0 0 0 0 0 0 0 0 0 
0 0 0 0 0 0 0 0 0 
0 0 0 0 0 0 0 0 0 
0 0 0 0 0 0 0 0 0 
0 0 0 0 0 0 0 0 0 
0 0 0 0 0 0 0 0 0 
0 0 0 0 0 0 0 0 0 
0 0 0 0 0 0 0 0 0 
0 0 0 0 0 0 0 0 0 
0 0 0 0 0 0 0 0 0 
0 0 0 0 0 0 0 0 0 
0 0 0 0 0 0 0 0 0 
0 0 0 0 0 0 0 0 0 
0 0 0 0 0 0 0 0 0 
0 0 0 0 0 0 0 0 0 
0 0 0 0 0 0 0 0 0 
0 0 0 0 0 0 0 0 0 
0 0 0 0 0 0 0 0 0 
0 0 0 0 0 0 0 0 0 
0 0 0 0 0 0 0 0 0 
0 0 0 0 0 0 0 0 0 
0 0 0 0 0 0 0 0 0 
0 0 0 0 0 0 0 0 0 
0 0 0 0 0 0 0 0 0 
0 0 0 0 0 0 0 0 0 
0 0 0 0 0 0 0 0 0 
0 0 0 0 0 0 0 0 0 
0 0 0 0 0 0 0 0 0 
0 0 0 0 0 0 0 0 0 
0 0 0 0 0 0 0 0 0 
0 0 0 0 0 0 0 0 0 
0 0 0 0 0 0 0 0 0 
0 0 0 0 0 0 0 0 0 
0 0 0 0 0 0 0 0 0 
0 0 0 0 0 0 0 0 0 
0 0 0 0 0 0 0 0 0 
0 0 0 0 0 0 0 0 0 
0 0 0 0 0 0 0 0 0 
0 0 0 0 0 0 0 0 0 
0 0 0 0 0 0 0 0 0 
0 0 0 0 0 0 0 0 0 
0 0 0 0 0 0 0 0 0 
0 0 0 0 0 0 0 0 0 
0 0 0 0 0 0 0 0 0 
0 0 0 0 0 0 0 0 0 
0 0 0 0 0 0 0 0 0 
0 0 0 0 0 0 0 0 0 
0 0 0 0 0 0 0 0 0 
0 0 0 0 0 0 0 0 0 
0 0 0 0 0 0 0 0 0 
0 0 0 0 0 0 0 0 0 
0 0 0 0 0 0 0 0 0 
0 0 0 0 0 0 0 0 0 
0 0 0 0 0 0 0 0 0 
0 0 0 0 0 0 0 0 0 
0 0 0 0 0 0 0 0 0 
0 0 0 0 0 0 0 0 0 
0 0 0 0 0 0 0 0 0 
0 0 0 0 0 0 0 0 0 
0 0 0 0 0 0 0 0 0 
0 0 0 0 0 0 0 0 0 
0 0 0 0 0 0 0 0 0 
0 0 0 0 0 0 0 0 0 
0 0 0 0 0 0 0 0 0 
0 0 0 0 0 0 0 0 0 
0 0 0 0 0 0 0 0 0 
0 0 0 0 0 0 0 0 0 
0 0 0 0 0 0 0 0 0 
0 0 0 0 0 0 0 0 0 
0 0 0 0 0 0 0 0 0 
0 0 0 0 0 0 0 0 0 
0 0 0 0 0 0 0 0 0 
0 0 0 0 0 0 0 0 0 
0 0 0 0 0 0 0 0 0 
0 0 0 0 0 0 0 0 0 
0 0 0 0 0 0 0 0 0 
0 0 0 0 0 0 0 0 0 
0 0 0 0 0 0 0 0 0 
0 0 0 0 0 0 0 0 0 
0 0 0 0 0 0 0 0 0 
0 0 0 0 0 0 0 0 0 
0 0 0 0 0 0 0 0 0 
0 0 0 0 0 0 0 0 0 
0 0 0 0 0 0 0 0 0 
0 0 0 0 0 0 0 0 0 
0 0 0 0 0 0 0 0 0 
0 0 0 0 0 0 0 0 0 
0 0 0 0 0 0 0 0 0 
0 0 0 0 0 0 0 0 0 
0 0 0 0 0 0 0 0 0 
0 0 0 0 0 0 0 0 0 
0 0 0 0 0 0 0 0 0 
0 0 0 0 0 0 0 0 0 
0 0 0 0 0 0 0 0 0 
0 0 0 0 0 0 0 0 0 
0 0 0 0 0 0 0 0 0 
0 0 0 0 0 0 0 0 0 
0 0 0 0 0 0 0 0 0 
0 0 0 0 0 0 0 0 0 
0 0 0 0 0 0 0 0 0 
0 0 0 0 0 0 0 0 0 
0 0 0 0 0 0 0 0 0 
0 0 0 0 0 0 0 0 0 
0 0 0 0 0 0 0 0 0 
0 0 0 0 0 0 0 0 0 
0 0 0 0 0 0 0 0 0 
0 0 0 0 0 0 0 0 0 
0 0 0 0 0 0 0 0 0 
0 0 0 0 0 0 0 0 0 
0 0 0 0 0 0 0 0 0 
0 0 0 0 0 0 0 0 0 
0 0 0 0 0 0 0 0 0 
0 0 0 0 0 0 0 0 0 
0 0 0 0 0 0 0 0 0 
0 0 0 0 0 0 0 0 0 
0 0 0 0 0 0 0 0 0 
0 0 0 0 0 0 0 0 0 
0 0 0 0 0 0 0 0 0 
0 0 0 0 0 0 0 0 0 
0 0 0 0 0 0 0 0 0 
0 0 0 0 0 0 0 0 0 
0 0 0 0 0 0 0 0 0 
0 0 0 0 0 0 0 0 0 
0 0 0 0 0 0 0 0 0 
0 0 0 0 0 0 0 0 0 
0 0 0 0 0 0 0 0 0 
0 0 0 0 0 0 0 0 0 
0 0 0 0 0 0 0 0 0 
0 0 0 0 0 0 0 0 0 
0 0 0 0 0 0 0 0 0 
0 0 0 0 0 0 0 0 0 
0 0 0 0 0 0 0 0 0 
0 0 0 0 0 0 0 0 0 
0 0 0 0 0 0 0 0 0 
0 0 0 0 0 0 0 0 0 
0 0 0 0 0 0 0 0 0 
0 0 0 0 0 0 0 0 0 
0 0 0 0 0 0 0 0 0 
0 0 0 0 0 0 0 0 0 
0 0 0 0 0 0 0 0 0 
0 0 0 0 0 0 0 0 0 
0 0 0 0 0 0 0 0 0 
0 0 0 0 0 0 0 0 0 
0 0 0 0 0 0 0 0 0 
0 0 0 0 0 0 0 0 0 
0 0 0 0 0 0 0 0 0 
0 0 0 0 0 0 0 0 0 
0 0 0 0 0 0 0 0 0 
0 0 0 0 0 0 0 0 0 
0 0 0 0 0 0 0 0 0 
0 0 0 0 0 0 0 0 0 
0 0 0 0 0 0 0 0 0 
0 0 0 0 0 0 0 0 0 
0 0 0 0 0 0 0 0 0 
0 0 0 0 0 0 0 0 0 
0 0 0 0 0 0 0 0 0 
0 0 0 0 0 0 0 0 0 
0 0 0 0 0 0 0 0 0 
0 0 0 0 0 0 0 0 0 
0 0 0 0 0 0 0 0 0 
0 0 0 0 0 0 0 0 0 
0 0 0 0 0 0 0 0 0 
0 0 0 0 0 0 0 0 0 
0 0 0 0 0 0 0 0 0 
0 0 0 0 0 0 0 0 0 
0 0 0 0 0 0 0 0 0 
0 0 0 0 0 0 0 0 0 
0 0 0 0 0 0 0 0 0 
0 0 0 0 0 0 0 0 0 
0 0 0 0 0 0 0 0 0 
0 0 0 0 0 0 0 0 0 
0 0 0 0 0 0 0 0 0 
0 0 0 0 0 0 0 0 0 
0 0 0 0 0 0 0 0 0 
0 0 0 0 0 0 0 0 0 
0 0 0 0 0 0 0 0 0 
0 0 0 0 0 0 0 0 0 
0 0 0 0 0 0 0 0 0 
0 0 0 0 0 0 0 0 0 
0 0 0 0 0 0 0 0 0 
0 0 0 0 0 0 0 0 0 
0 0 0 0 0 0 0 0 0 
0 0 0 0 0 0 0 0 0 
0 0 0 0 0 0 0 0 0 
0 0 0 0 0 0 0 0 0 
0 0 0 0 0 0 0 0 0 
0 0 0 0 0 0 0 0 0 
0 0 0 0 0 0 0 0 0 
0 0 0 0 0 0 0 0 0 
0 0 0 0 0 0 0 0 0 
0 0 0 0 0 0 0 0 0 
0 0 0 0 0 0 0 0 0 
0 0 0 0 0 0 0 0 0 
0 0 0 0 0 0 0 0 0 
0 0 0 0 0 0 0 0 0 
0 0 0 0 0 0 0 0 0 
0 0 0 0 0 0 0 0 0 
0 0 0 0 0 0 0 0 0 
0 0 0 0 0 0 0 0 0 
0 0 0 0 0 0 0 0 0 
0 0 0 0 0 0 0 0 0 
0 0 0 0 0 0 0 0 0 
0 0 0 0 0 0 0 0 0 
0 0 0 0 0 0 0 0 0 
0 0 0 0 0 0 0 0 0 
0 0 0 0 0 0 0 0 0 
0 0 0 0 0 0 0 0 0 
0 0 0 0 0 0 0 0 0 
0 0 0 0 0 0 0 0 0 
0 0 0 0 0 0 0 0 0 
0 0 0 0 0 0 0 0 0 
0 0 0 0 0 0 0 0 0 
0 0 0 0 0 0 0 0 0 
0 0 0 0 0 0 0 0 0 
0 0 0 0 0 0 0 0 0 
0 0 0 0 0 0 0 0 0 
0 0 0 0 0 0 0 0 0 
0 0 0 0 0 0 0 0 0 
0 0 0 0 0 0 0 0 0 
0 0 0 0 0 0 0 0 0 
0 0 0 0 0 0 0 0 0 
0 0 0 0 0 0 0 0 0 
0 0 0 0 0 0 0 0 0 
0 0 0 0 0 0 0 0 0 
0 0 0 0 0 0 0 0 0 
0 0 0 0 0 0 0 0 0 
0 0 0 0 0 0 0 0 0 
0 0 0 0 0 0 0 0 0 
0 0 0 0 0 0 0 0 0 
0 0 0 0 0 0 0 0 0 
0 0 0 0 0 0 0 0 0 
0 0 0 0 0 0 0 0 0 
0 0 0 0 0 0 0 0 0 
0 0 0 0 0 0 0 0 0 
0 0 0 0 0 0 0 0 0 
0 0 0 0 0 0 0 0 0 
0 0 0 0 0 0 0 0 0 
0 0 0 0 0 0 0 0 0 
0 0 0 0 0 0 0 0 0 
0 0 0 0 0 0 0 0 0 
0 0 0 0 0 0 0 0 0 
0 0 0 0 0 0 0 0 0 
0 0 0 0 0 0 0 0 0 
0 0 0 0 0 0 0 0 0 
0 0 0 0 0 0 0 0 0 
0 0 0 0 0 0 0 0 0 
0 0 0 0 0 0 0 0 0 
0 0 0 0 0 0 0 0 0 
0 0 0 0 0 0 0 0 0 
0 0 0 0 0 0 0 0 0 
0 0 0 0 0 0 0 0 0 
0 0 0 0 0 0 0 0 0 
0 0 0 0 0 0 0 0 0 
0 0 0 0 0 0 0 0 0 
0 0 0 0 0 0 0 0 0 
0 0 0 0 0 0 0 0 0 
0 0 0 0 0 0 0 0 0 
0 0 0 0 0 0 0 0 0 
0 0 0 0 0 0 0 0 0 
0 0 0 0 0 0 0 0 0 
0 0 0 0 0 0 0 0 0 
0 0 0 0 0 0 0 0 0 
0 0 0 0 0 0 0 0 0 
0 0 0 0 0 0 0 0 0 
0 0 0 0 0 0 0 0 0 
0 0 0 0 0 0 0 0 0 
0 0 0 0 0 0 0 0 0 
0 0 0 0 0 0 0 0 0 
0 0 0 0 0 0 0 0 0 
0 0 0 0 0 0 0 0 0 
0 0 0 0 0 0 0 0 0 
0 0 0 0 0 0 0 0 0 
0 0 0 0 0 0 0 0 0 
0 0 0 0 0 0 0 0 0 
0 0 0 0 0 0 0 0 0 
0 0 0 0 0 0 0 0 0 
0 0 0 0 0 0 0 0 0 
0 0 0 0 0 0 0 0 0 
0 0 0 0 0 0 0 0 0 
0 0 0 0 0 0 0 0 0 
0 0 0 0 0 0 0 0 0 
0 0 0 0 0 0 0 0 0 
0 0 0 0 0 0 0 0 0 
0 0 0 0 0 0 0 0 0 
0 0 0 0 0 0 0 0 0 
0 0 0 0 0 0 0 0 0 
0 0 0 0 0 0 0 0 0 
0 0 0 0 0 0 0 0 0 
0 0 0 0 0 0 0 0 0 
0 0 0 0 0 0 0 0 0 
0 0 0 0 0 0 0 0 0 
0 0 0 0 0 0 0 0 0 
0 0 0 0 0 0 0 0 0 
0 0 0 0 0 0 0 0 0 
0 0 0 0 0 0 0 0 0 
0 0 0 0 0 0 0 0 0 
0 0 0 0 0 0 0 0 0 
0 0 0 0 0 0 0 0 0 
0 0 0 0 0 0 0 0 0 
0 0 0 0 0 0 0 0 0 
0 0 0 0 0 0 0 0 0 
0 0 0 0 0 0 0 0 0 
0 0 0 0 0 0 0 0 0 
0 0 0 0 0 0 0 0 0 
0 0 0 0 0 0 0 0 0 
0 0 0 0 0 0 0 0 0 
0 0 0 0 0 0 0 0 0 
0 0 0 0 0 0 0 0 0 
0 0 0 0 0 0 0 0 0 
0 0 0 0 0 0 0 0 0 
0 0 0 0 0 0 0 0 0 
0 0 0 0 0 0 0 0 0 
0 0 0 0 0 0 0 0 0 
0 0 0 0 0 0 0 0 0 
0 0 0 0 0 0 0 0 0 
0 0 0 0 0 0 0 0 0 
0 0 0 0 0 0 0 0 0 
0 0 0 0 0 0 0 0 0 
0 0 0 0 0 0 0 0 0 
0 0 0 0 0 0 0 0 0 
0 0 0 0 0 0 0 0 0 
0 0 0 0 0 0 0 0 0 
0 0 0 0 0 0 0 0 0 
0 0 0 0 0 0 0 0 0 
0 0 0 0 0 0 0 0 0 
0 0 0 0 0 0 0 0 0 
0 0 0 0 0 0 0 0 0 
0 0 0 0 0 0 0 0 0 
0 0 0 0 0 0 0 0 0 
0 0 0 0 0 0 0 0 0 
0 0 0 0 0 0 0 0 0 
0 0 0 0 0 0 0 0 0 
0 0 0 0 0 0 0 0 0 
0 0 0 0 0 0 0 0 0 
0 0 0 0 0 0 0 0 0 
0 0 0 0 0 0 0 0 0 
0 0 0 0 0 0 0 0 0 
0 0 0 0 0 0 0 0 0 
0 0 0 0 0 0 0 0 0 
0 0 0 0 0 0 0 0 0 
0 0 0 0 0 0 0 0 0 
0 0 0 0 0 0 0 0 0 
0 0 0 0 0 0 0 0 0 
0 0 0 0 0 0 0 0 0 
0 0 0 0 0 0 0 0 0 
0 0 0 0 0 0 0 0 0 
0 0 0 0 0 0 0 0 0 
0 0 0 0 0 0 0 0 0 
0 0 0 0 0 0 0 0 0 
0 0 0 0 0 0 0 0 0 
0 0 0 0 0 0 0 0 0 
0 0 0 0 0 0 0 0 0 
0 0 0 0 0 0 0 0 0 
0 0 0 0 0 0 0 0 0 
0 0 0 0 0 0 0 0 0 
0 0 0 0 0 0 0 0 0 
0 0 0 0 0 0 0 0 0 
0 0 0 0 0 0 0 0 0 
0 0 0 0 0 0 0 0 0 
0 0 0 0 0 0 0 0 0 
0 0 0 0 0 0 0 0 0 
0 0 0 0 0 0 0 0 0 
0 0 0 0 0 0 0 0 0 
0 0 0 0 0 0 0 0 0 
0 0 0 0 0 0 0 0 0 
0 0 0 0 0 0 0 0 0 
0 0 0 0 0 0 0 0 0 
0 0 0 0 0 0 0 0 0 
0 0 0 0 0 0 0 0 0 
0 0 0 0 0 0 0 0 0 
0 0 0 0 0 0 0 0 0 
0 0 0 0 0 0 0 0 0 
0 0 0 0 0 0 0 0 0 
0 0 0 0 0 0 0 0 0 
0 0 0 0 0 0 0 0 0 
0 0 0 0 0 0 0 0 0 
0 0 0 0 0 0 0 0 0 
0 0 0 0 0 0 0 0 0 
0 0 0 0 0 0 0 0 0 
0 0 0 0 0 0 0 0 0 
0 0 0 0 0 0 0 0 0 
0 0 0 0 0 0 0 0 0 
0 0 0 0 0 0 0 0 0 
0 0 0 0 0 0 0 0 0 
0 0 0 0 0 0 0 0 0 
0 0 0 0 0 0 0 0 0 
0 0 0 0 0 0 0 0 0 
0 0 0 0 0 0 0 0 0 
0 0 0 0 0 0 0 0 0 
0 0 0 0 0 0 0 0 0 
0 0 0 0 0 0 0 0 0 
0 0 0 0 0 0 0 0 0 
0 0 0 0 0 0 0 0 0 
0 0 0 0 0 0 0 0 0 
0 0 0 0 0 0 0 0 0 
0 0 0 0 0 0 0 0 0 
0 0 0 0 0 0 0 0 0 
0 0 0 0 0 0 0 0 0 
0 0 0 0 0 0 0 0 0 
0 0 0 0 0 0 0 0 0 
0 0 0 0 0 0 0 0 0 
0 0 0 0 0 0 0 0 0 
0 0 0 0 0 0 0 0 0 
0 0 0 0 0 0 0 0 0 
0 0 0 0 0 0 0 0 0 
0 0 0 0 0 0 0 0 0 
0 0 0 0 0 0 0 0 0 
0 0 0 0 0 0 0 0 0 
0 0 0 0 0 0 0 0 0 
0 0 0 0 0 0 0 0 0 
0 0 0 0 0 0 0 0 0 
0 0 0 0 0 0 0 0 0 
0 0 0 0 0 0 0 0 0 
0 0 0 0 0 0 0 0 0 
0 0 0 0 0 0 0 0 0 
0 0 0 0 0 0 0 0 0 
0 0 0 0 0 0 0 0 0 
0 0 0 0 0 0 0 0 0 
0 0 0 0 0 0 0 0 0 
0 0 0 0 0 0 0 0 0 
0 0 0 0 0 0 0 0 0 
0 0 0 0 0 0 0 0 0 
0 0 0 0 0 0 0 0 0 
0 0 0 0 0 0 0 0 0 
0 0 0 0 0 0 0 0 0 
0 0 0 0 0 0 0 0 0 
0 0 0 0 0 0 0 0 0 
0 0 0 0 0 0 0 0 0 
0 0 0 0 0 0 0 0 0 
0 0 0 0 0 0 0 0 0 
0 0 0 0 0 0 0 0 0 
0 0 0 0 0 0 0 0 0 
0 0 0 0 0 0 0 0 0 
0 0 0 0 0 0 0 0 0 
0 0 0 0 0 0 0 0 0 
0 0 0 0 0 0 0 0 0 
0 0 0 0 0 0 0 0 0 
0 0 0 0 0 0 0 0 0 
0 0 0 0 0 0 0 0 0 
0 0 0 0 0 0 0 0 0 
0 0 0 0 0 0 0 0 0 
0 0 0 0 0 0 0 0 0 
0 0 0 0 0 0 0 0 0 
0 0 0 0 0 0 0 0 0 
0 0 0 0 0 0 0 0 0 
0 0 0 0 0 0 0 0 0 
0 0 0 0 0 0 0 0 0 
0 0 0 0 0 0 0 0 0 
0 0 0 0 0 0 0 0 0 
0 0 0 0 0 0 0 0 0 
0 0 0 0 0 0 0 0 0 
0 0 0 0 0 0 0 0 0 
0 0 0 0 0 0 0 0 0 
0 0 0 0 0 0 0 0 0 
0 0 0 0 0 0 0 0 0 
0 0 0 0 0 0 0 0 0 
0 0 0 0 0 0 0 0 0 
0 0 0 0 0 0 0 0 0 
0 0 0 0 0 0 0 0 0 
0 0 0 0 0 0 0 0 0 
0 0 0 0 0 0 0 0 0 
0 0 0 0 0 0 0 0 0 
0 0 0 0 0 0 0 0 0 
0 0 0 0 0 0 0 0 0 
0 0 0 0 0 0 0 0 0 
0 0 0 0 0 0 0 0 0 
0 0 0 0 0 0 0 0 0 
0 0 0 0 0 0 0 0 0 
0 0 0 0 0 0 0 0 0 
0 0 0 0 0 0 0 0 0 
0 0 0 0 0 0 0 0 0 
0 0 0 0 0 0 0 0 0 
0 0 0 0 0 0 0 0 0 
0 0 0 0 0 0 0 0 0 
0 0 0 0 0 0 0 0 0 
0 0 0 0 0 0 0 0 0 
0 0 0 0 0 0 0 0 0 
0 0 0 0 0 0 0 0 0 
0 0 0 0 0 0 0 0 0 
0 0 0 0 0 0 0 0 0 
0 0 0 0 0 0 0 0 0 
0 0 0 0 0 0 0 0 0 
0 0 0 0 0 0 0 0 0 
0 0 0 0 0 0 0 0 0 
0 0 0 0 0 0 0 0 0 
0 0 0 0 0 0 0 0 0 
0 0 0 0 0 0 0 0 0 
0 0 0 0 0 0 0 0 0 
0 0 0 0 0 0 0 0 0 
0 0 0 0 0 0 0 0 0 
0 0 0 0 0 0 0 0 0 
0 0 0 0 0 0 0 0 0 
0 0 0 0 0 0 0 0 0 
0 0 0 0 0 0 0 0 0 
0 0 0 0 0 0 0 0 0 
0 0 0 0 0 0 0 0 0 
0 0 0 0 0 0 0 0 0 
0 0 0 0 0 0 0 0 0 
0 0 0 0 0 0 0 0 0 
0 0 0 0 0 0 0 0 0 
0 0 0 0 0 0 0 0 0 
0 0 0 0 0 0 0 0 0 
0 0 0 0 0 0 0 0 0 
0 0 0 0 0 0 0 0 0 
0 0 0 0 0 0 0 0 0 
0 0 0 0 0 0 0 0 0 
0 0 0 0 0 0 0 0 0 
0 0 0 0 0 0 0 0 0 
0 0 0 0 0 0 0 0 0 
0 0 0 0 0 0 0 0 0 
0 0 0 0 0 0 0 0 0 
0 0 0 0 0 0 0 0 0 
0 0 0 0 0 0 0 0 0 
0 0 0 0 0 0 0 0 0 
0 0 0 0 0 0 0 0 0 
0 0 0 0 0 0 0 0 0 
0 0 0 0 0 0 0 0 0 
0 0 0 0 0 0 0 0 0 
0 0 0 0 0 0 0 0 0 
0 0 0 0 0 0 0 0 0 
0 0 0 0 0 0 0 0 0 
0 0 0 0 0 0 0 0 0 
0 0 0 0 0 0 0 0 0 
0 0 0 0 0 0 0 0 0 
0 0 0 0 0 0 0 0 0 
0 0 0 0 0 0 0 0 0 
0 0 0 0 0 0 0 0 0 
0 0 0 0 0 0 0 0 0 
0 0 0 0 0 0 0 0 0 
0 0 0 0 0 0 0 0 0 
0 0 0 0 0 0 0 0 0 
0 0 0 0 0 0 0 0 0 
0 0 0 0 0 0 0 0 0 
0 0 0 0 0 0 0 0 0 
0 0 0 0 0 0 0 0 0 
0 0 0 0 0 0 0 0 0 
0 0 0 0 0 0 0 0 0 
0 0 0 0 0 0 0 0 0 
0 0 0 0 0 0 0 0 0 
0 0 0 0 0 0 0 0 0 
0 0 0 0 0 0 0 0 0 
0 0 0 0 0 0 0 0 0 
0 0 0 0 0 0 0 0 0 
0 0 0 0 0 0 0 0 0 
0 0 0 0 0 0 0 0 0 
0 0 0 0 0 0 0 0 0 
0 0 0 0 0 0 0 0 0 
0 0 0 0 0 0 0 0 0 
0 0 0 0 0 0 0 0 0 
0 0 0 0 0 0 0 0 0 
0 0 0 0 0 0 0 0 0 
0 0 0 0 0 0 0 0 0 
0 0 0 0 0 0 0 0 0 
0 0 0 0 0 0 0 0 0 
0 0 0 0 0 0 0 0 0 
0 0 0 0 0 0 0 0 0 
0 0 0 0 0 0 0 0 0 
0 0 0 0 0 0 0 0 0 
0 0 0 0 0 0 0 0 0 
0 0 0 0 0 0 0 0 0 
0 0 0 0 0 0 0 0 0 
0 0 0 0 0 0 0 0 0 
0 0 0 0 0 0 0 0 0 
0 0 0 0 0 0 0 0 0 
0 0 0 0 0 0 0 0 0 
0 0 0 0 0 0 0 0 0 
0 0 0 0 0 0 0 0 0 
0 0 0 0 0 0 0 0 0 
0 0 0 0 0 0 0 0 0 
0 0 0 0 0 0 0 0 0 
0 0 0 0 0 0 0 0 0 
0 0 0 0 0 0 0 0 0 
0 0 0 0 0 0 0 0 0 
0 0 0 0 0 0 0 0 0 
0 0 0 0 0 0 0 0 0 
0 0 0 0 0 0 0 0 0 
0 0 0 0 0 0 0 0 0 
0 0 0 0 0 0 0 0 0 
0 0 0 0 0 0 0 0 0 
0 0 0 0 0 0 0 0 0 
0 0 0 0 0 0 0 0 0 
0 0 0 0 0 0 0 0 0 
0 0 0 0 0 0 0 0 0 
0 0 0 0 0 0 0 0 0 
0 0 0 0 0 0 0 0 0 
0 0 0 0 0 0 0 0 0 
0 0 0 0 0 0 0 0 0 
0 0 0 0 0 0 0 0 0 
0 0 0 0 0 0 0 0 0 
0 0 0 0 0 0 0 0 0 
0 0 0 0 0 0 0 0 0 
0 0 0 0 0 0 0 0 0 
0 0 0 0 0 0 0 0 0 
0 0 0 0 0 0 0 0 0 
0 0 0 0 0 0 0 0 0 
0 0 0 0 0 0 0 0 0 
0 0 0 0 0 0 0 0 0 
0 0 0 0 0 0 0 0 0 
0 0 0 0 0 0 0 0 0 
0 0 0 0 0 0 0 0 0 
0 0 0 0 0 0 0 0 0 
0 0 0 0 0 0 0 0 0 
0 0 0 0 0 0 0 0 0 
0 0 0 0 0 0 0 0 0 
0 0 0 0 0 0 0 0 0 
0 0 0 0 0 0 0 0 0 
0 0 0 0 0 0 0 0 0 
0 0 0 0 0 0 0 0 0 
0 0 0 0 0 0 0 0 0 
0 0 0 0 0 0 0 0 0 
0 0 0 0 0 0 0 0 0 
0 0 0 0 0 0 0 0 0 
0 0 0 0 0 0 0 0 0 
0 0 0 0 0 0 0 0 0 
0 0 0 0 0 0 0 0 0 
0 0 0 0 0 0 0 0 0 
0 0 0 0 0 0 0 0 0 
0 0 0 0 0 0 0 0 0 
0 0 0 0 0 0 0 0 0 
0 0 0 0 0 0 0 0 0 
0 0 0 0 0 0 0 0 0 
0 0 0 0 0 0 0 0 0 
0 0 0 0 0 0 0 0 0 
0 0 0 0 0 0 0 0 0 
0 0 0 0 0 0 0 0 0 
0 0 0 0 0 0 0 0 0 
0 0 0 0 0 0 0 0 0 
0 0 0 0 0 0 0 0 0 
0 0 0 0 0 0 0 0 0 
0 0 0 0 0 0 0 0 0 
0 0 0 0 0 0 0 0 0 
0 0 0 0 0 0 0 0 0 
0 0 0 0 0 0 0 0 0 
0 0 0 0 0 0 0 0 0 
0 0 0 0 0 0 0 0 0 
0 0 0 0 0 0 0 0 0 
0 0 0 0 0 0 0 0 0 
0 0 0 0 0 0 0 0 0 
0 0 0 0 0 0 0 0 0 
0 0 0 0 0 0 0 0 0 
0 0 0 0 0 0 0 0 0 
0 0 0 0 0 0 0 0 0 
0 0 0 0 0 0 0 0 0 
0 0 0 0 0 0 0 0 0 
0 0 0 0 0 0 0 0 0 
0 0 0 0 0 0 0 0 0 
0 0 0 0 0 0 0 0 0 
0 0 0 0 0 0 0 0 0 
0 0 0 0 0 0 0 0 0 
0 0 0 0 0 0 0 0 0 
0 0 0 0 0 0 0 0 0 
0 0 0 0 0 0 0 0 0 
0 0 0 0 0 0 0 0 0 
0 0 0 0 0 0 0 0 0 
0 0 0 0 0 0 0 0 0 
0 0 0 0 0 0 0 0 0 
0 0 0 0 0 0 0 0 0 
0 0 0 0 0 0 0 0 0 
0 0 0 0 0 0 0 0 0 
0 0 0 0 0 0 0 0 0 
0 0 0 0 0 0 0 0 0 
0 0 0 0 0 0 0 0 0 
0 0 0 0 0 0 0 0 0 
0 0 0 0 0 0 0 0 0 
0 0 0 0 0 0 0 0 0 
0 0 0 0 0 0 0 0 0 
0 0 0 0 0 0 0 0 0 
0 0 0 0 0 0 0 0 0 
0 0 0 0 0 0 0 0 0 
0 0 0 0 0 0 0 0 0 
0 0 0 0 0 0 0 0 0 
0 0 0 0 0 0 0 0 0 
0 0 0 0 0 0 0 0 0 
0 0 0 0 0 0 0 0 0 
0 0 0 0 0 0 0 0 0 
0 0 0 0 0 0 0 0 0 
0 0 0 0 0 0 0 0 0 
0 0 0 0 0 0 0 0 0 
0 0 0 0 0 0 0 0 0 
0 0 0 0 0 0 0 0 0 
0 0 0 0 0 0 0 0 0 
0 0 0 0 0 0 0 0 0 
0 0 0 0 0 0 0 0 0 
0 0 0 0 0 0 0 0 0 
0 0 0 0 0 0 0 0 0 
0 0 0 0 0 0 0 0 0 
0 0 0 0 0 0 0 0 0 
0 0 0 0 0 0 0 0 0 
0 0 0 0 0 0 0 0 0 
0 0 0 0 0 0 0 0 0 
0 0 0 0 0 0 0 0 0 
0 0 0 0 0 0 0 0 0 
0 0 0 0 0 0 0 0 0 
0 0 0 0 0 0 0 0 0 
0 0 0 0 0 0 0 0 0 
0 0 0 0 0 0 0 0 0 
0 0 0 0 0 0 0 0 0 
0 0 0 0 0 0 0 0 0 
0 0 0 0 0 0 0 0 0 
0 0 0 0 0 0 0 0 0 
0 0 0 0 0 0 0 0 0 
0 0 0 0 0 0 0 0 0 
0 0 0 0 0 0 0 0 0 
0 0 0 0 0 0 0 0 0 
0 0 0 0 0 0 0 0 0 
0 0 0 0 0 0 0 0 0 
0 0 0 0 0 0 0 0 0 
0 0 0 0 0 0 0 0 0 
0 0 0 0 0 0 0 0 0 
0 0 0 0 0 0 0 0 0 
0 0 0 0 0 0 0 0 0 
0 0 0 0 0 0 0 0 0 
0 0 0 0 0 0 0 0 0 
0 0 0 0 0 0 0 0 0 
0 0 0 0 0 0 0 0 0 
0 0 0 0 0 0 0 0 0 
0 0 0 0 0 0 0 0 0 
0 0 0 0 0 0 0 0 0 
0 0 0 0 0 0 0 0 0 
0 0 0 0 0 0 0 0 0 
0 0 0 0 0 0 0 0 0 
0 0 0 0 0 0 0 0 0 
0 0 0 0 0 0 0 0 0 
0 0 0 0 0 0 0 0 0 
0 0 0 0 0 0 0 0 0 
0 0 0 0 0 0 0 0 0 
0 0 0 0 0 0 0 0 0 
0 0 0 0 0 0 0 0 0 
0 0 0 0 0 0 0 0 0 
0 0 0 0 0 0 0 0 0 
0 0 0 0 0 0 0 0 0 
0 0 0 0 0 0 0 0 0 
0 0 0 0 0 0 0 0 0 
0 0 0 0 0 0 0 0 0 
0 0 0 0 0 0 0 0 0 
0 0 0 0 0 0 0 0 0 
0 0 0 0 0 0 0 0 0 
0 0 0 0 0 0 0 0 0 
0 0 0 0 0 0 0 0 0 
0 0 0 0 0 0 0 0 0 
0 0 0 0 0 0 0 0 0 
0 0 0 0 0 0 0 0 0 
0 0 0 0 0 0 0 0 0 
0 0 0 0 0 0 0 0 0 
0 0 0 0 0 0 0 0 0 
0 0 0 0 0 0 0 0 0 
0 0 0 0 0 0 0 0 0 
0 0 0 0 0 0 0 0 0 
0 0 0 0 0 0 0 0 0 
0 0 0 0 0 0 0 0 0 
0 0 0 0 0 0 0 0 0 
0 0 0 0 0 0 0 0 0 
0 0 0 0 0 0 0 0 0 
0 0 0 0 0 0 0 0 0 
0 0 0 0 0 0 0 0 0 
0 0 0 0 0 0 0 0 0 
0 0 0 0 0 0 0 0 0 
0 0 0 0 0 0 0 0 0 
0 0 0 0 0 0 0 0 0 
0 0 0 0 0 0 0 0 0 
0 0 0 0 0 0 0 0 0 
0 0 0 0 0 0 0 0 0 
0 0 0 0 0 0 0 0 0 
0 0 0 0 0 0 0 0 0 
0 0 0 0 0 0 0 0 0 
0 0 0 0 0 0 0 0 0 
0 0 0 0 0 0 0 0 0 
0 0 0 0 0 0 0 0 0 
0 0 0 0 0 0 0 0 0 
0 0 0 0 0 0 0 0 0 
0 0 0 0 0 0 0 0 0 
0 0 0 0 0 0 0 0 0 
0 0 0 0 0 0 0 0 0 
0 0 0 0 0 0 0 0 0 
0 0 0 0 0 0 0 0 0 
0 0 0 0 0 0 0 0 0 
0 0 0 0 0 0 0 0 0 
0 0 0 0 0 0 0 0 0 
0 0 0 0 0 0 0 0 0 
0 0 0 0 0 0 0 0 0 
0 0 0 0 0 0 0 0 0 
0 0 0 0 0 0 0 0 0 
0 0 0 0 0 0 0 0 0 
0 0 0 0 0 0 0 0 0 
0 0 0 0 0 0 0 0 0 
0 0 0 0 0 0 0 0 0 
0 0 0 0 0 0 0 0 0 
0 0 0 0 0 0 0 0 0 
0 0 0 0 0 0 0 0 0 
0 0 0 0 0 0 0 0 0 
0 0 0 0 0 0 0 0 0 
0 0 0 0 0 0 0 0 0 
0 0 0 0 0 0 0 0 0 
0 0 0 0 0 0 0 0 0 
0 0 0 0 0 0 0 0 0 
0 0 0 0 0 0 0 0 0 
0 0 0 0 0 0 0 0 0 
0 0 0 0 0 0 0 0 0 
0 0 0 0 0 0 0 0 0 
0 0 0 0 0 0 0 0 0 
0 0 0 0 0 0 0 0 0 
0 0 0 0 0 0 0 0 0 
0 0 0 0 0 0 0 0 0 
0 0 0 0 0 0 0 0 0 
0 0 0 0 0 0 0 0 0 
0 0 0 0 0 0 0 0 0 
0 0 0 0 0 0 0 0 0 
0 0 0 0 0 0 0 0 0 
0 0 0 0 0 0 0 0 0 
0 0 0 0 0 0 0 0 0 
0 0 0 0 0 0 0 0 0 
0 0 0 0 0 0 0 0 0 
0 0 0 0 0 0 0 0 0 
0 0 0 0 0 0 0 0 0 
0 0 0 0 0 0 0 0 0 
0 0 0 0 0 0 0 0 0 
0 0 0 0 0 0 0 0 0 
0 0 0 0 0 0 0 0 0 
0 0 0 0 0 0 0 0 0 
0 0 0 0 0 0 0 0 0 
0 0 0 0 0 0 0 0 0 
0 0 0 0 0 0 0 0 0 
0 0 0 0 0 0 0 0 0 
0 0 0 0 0 0 0 0 0 
0 0 0 0 0 0 0 0 0 
0 0 0 0 0 0 0 0 0 
0 0 0 0 0 0 0 0 0 
0 0 0 0 0 0 0 0 0 
0 0 0 0 0 0 0 0 0 
0 0 0 0 0 0 0 0 0 
0 0 0 0 0 0 0 0 0 
0 0 0 0 0 0 0 0 0 
0 0 0 0 0 0 0 0 0 
0 0 0 0 0 0 0 0 0 
0 0 0 0 0 0 0 0 0 
0 0 0 0 0 0 0 0 0 
0 0 0 0 0 0 0 0 0 
0 0 0 0 0 0 0 0 0 
0 0 0 0 0 0 0 0 0 
0 0 0 0 0 0 0 0 0 
0 0 0 0 0 0 0 0 0 
0 0 0 0 0 0 0 0 0 
0 0 0 0 0 0 0 0 0 
0 0 0 0 0 0 0 0 0 
0 0 0 0 0 0 0 0 0 
0 0 0 0 0 0 0 0 0 
0 0 0 0 0 0 0 0 0 
0 0 0 0 0 0 0 0 0 
0 0 0 0 0 0 0 0 0 
0 0 0 0 0 0 0 0 0 
0 0 0 0 0 0 0 0 0 
0 0 0 0 0 0 0 0 0 
0 0 0 0 0 0 0 0 0 
0 0 0 0 0 0 0 0 0 
0 0 0 0 0 0 0 0 0 
0 0 0 0 0 0 0 0 0 
0 0 0 0 0 0 0 0 0 
0 0 0 0 0 0 0 0 0 
0 0 0 0 0 0 0 0 0 
0 0 0 0 0 0 0 0 0 
0 0 0 0 0 0 0 0 0 
0 0 0 0 0 0 0 0 0 
0 0 0 0 0 0 0 0 0 
0 0 0 0 0 0 0 0 0 
0 0 0 0 0 0 0 0 0 
0 0 0 0 0 0 0 0 0 
0 0 0 0 0 0 0 0 0 
0 0 0 0 0 0 0 0 0 
0 0 0 0 0 0 0 0 0 
0 0 0 0 0 0 0 0 0 
0 0 0 0 0 0 0 0 0 
0 0 0 0 0 0 0 0 0 
0 0 0 0 0 0 0 0 0 
0 0 0 0 0 0 0 0 0 
0 0 0 0 0 0 0 0 0 
0 0 0 0 0 0 0 0 0 
0 0 0 0 0 0 0 0 0 
0 0 0 0 0 0 0 0 0 
0 0 0 0 0 0 0 0 0 
0 0 0 0 0 0 0 0 0 
0 0 0 0 0 0 0 0 0 
0 0 0 0 0 0 0 0 0 
0 0 0 0 0 0 0 0 0 
0 0 0 0 0 0 0 0 0 
0 0 0 0 0 0 0 0 0 
0 0 0 0 0 0 0 0 0 
0 0 0 0 0 0 0 0 0 
0 0 0 0 0 0 0 0 0 
0 0 0 0 0 0 0 0 0 
0 0 0 0 0 0 0 0 0 
0 0 0 0 0 0 0 0 0 
0 0 0 0 0 0 0 0 0 
0 0 0 0 0 0 0 0 0 
0 0 0 0 0 0 0 0 0 
0 0 0 0 0 0 0 0 0 
0 0 0 0 0 0 0 0 0 
0 0 0 0 0 0 0 0 0 
0 0 0 0 0 0 0 0 0 
0 0 0 0 0 0 0 0 0 
0 0 0 0 0 0 0 0 0 
0 0 0 0 0 0 0 0 0 
0 0 0 0 0 0 0 0 0 
0 0 0 0 0 0 0 0 0 
0 0 0 0 0 0 0 0 0 
0 0 0 0 0 0 0 0 0 
0 0 0 0 0 0 0 0 0 
0 0 0 0 0 0 0 0 0 
0 0 0 0 0 0 0 0 0 
0 0 0 0 0 0 0 0 0 
0 0 0 0 0 0 0 0 0 
0 0 0 0 0 0 0 0 0 
0 0 0 0 0 0 0 0 0 
0 0 0 0 0 0 0 0 0 
0 0 0 0 0 0 0 0 0 
0 0 0 0 0 0 0 0 0 
0 0 0 0 0 0 0 0 0 
0 0 0 0 0 0 0 0 0 
0 0 0 0 0 0 0 0 0 
0 0 0 0 0 0 0 0 0 
0 0 0 0 0 0 0 0 0 
0 0 0 0 0 0 0 0 0 
0 0 0 0 0 0 0 0 0 
0 0 0 0 0 0 0 0 0 
0 0 0 0 0 0 0 0 0 
0 0 0 0 0 0 0 0 0 
0 0 0 0 0 0 0 0 0 
0 0 0 0 0 0 0 0 0 
0 0 0 0 0 0 0 0 0 
0 0 0 0 0 0 0 0 0 
0 0 0 0 0 0 0 0 0 
0 0 0 0 0 0 0 0 0 
0 0 0 0 0 0 0 0 0 
0 0 0 0 0 0 0 0 0 
0 0 0 0 0 0 0 0 0 
0 0 0 0 0 0 0 0 0 
0 0 0 0 0 0 0 0 0 
0 0 0 0 0 0 0 0 0 
0 0 0 0 0 0 0 0 0 
0 0 0 0 0 0 0 0 0 
0 0 0 0 0 0 0 0 0 
0 0 0 0 0 0 0 0 0 
0 0 0 0 0 0 0 0 0 
0 0 0 0 0 0 0 0 0 
0 0 0 0 0 0 0 0 0 
0 0 0 0 0 0 0 0 0 
0 0 0 0 0 0 0 0 0 
0 0 0 0 0 0 0 0 0 
0 0 0 0 0 0 0 0 0 
0 0 0 0 0 0 0 0 0 
0 0 0 0 0 0 0 0 0 
0 0 0 0 0 0 0 0 0 
0 0 0 0 0 0 0 0 0 
0 0 0 0 0 0 0 0 0 
0 0 0 0 0 0 0 0 0 
0 0 0 0 0 0 0 0 0 
0 0 0 0 0 0 0 0 0 
0 0 0 0 0 0 0 0 0 
0 0 0 0 0 0 0 0 0 
0 0 0 0 0 0 0 0 0 
0 0 0 0 0 0 0 0 0 
0 0 0 0 0 0 0 0 0 
0 0 0 0 0 0 0 0 0 
0 0 0 0 0 0 0 0 0 
0 0 0 0 0 0 0 0 0 
0 0 0 0 0 0 0 0 0 
0 0 0 0 0 0 0 0 0 
0 0 0 0 0 0 0 0 0 
0 0 0 0 0 0 0 0 0 
0 0 0 0 0 0 0 0 0 
0 0 0 0 0 0 0 0 0 
0 0 0 0 0 0 0 0 0 
0 0 0 0 0 0 0 0 0 
0 0 0 0 0 0 0 0 0 
0 0 0 0 0 0 0 0 0 
0 0 0 0 0 0 0 0 0 
0 0 0 0 0 0 0 0 0 
0 0 0 0 0 0 0 0 0 
0 0 0 0 0 0 0 0 0 
0 0 0 0 0 0 0 0 0 
0 0 0 0 0 0 0 0 0 
0 0 0 0 0 0 0 0 0 
0 0 0 0 0 0 0 0 0 
0 0 0 0 0 0 0 0 0 
0 0 0 0 0 0 0 0 0 
0 0 0 0 0 0 0 0 0 
0 0 0 0 0 0 0 0 0 
0 0 0 0 0 0 0 0 0 
0 0 0 0 0 0 0 0 0 
0 0 0 0 0 0 0 0 0 
0 0 0 0 0 0 0 0 0 
0 0 0 0 0 0 0 0 0 
0 0 0 0 0 0 0 0 0 
0 0 0 0 0 0 0 0 0 
0 0 0 0 0 0 0 0 0 
0 0 0 0 0 0 0 0 0 
0 0 0 0 0 0 0 0 0 
0 0 0 0 0 0 0 0 0 
0 0 0 0 0 0 0 0 0 
0 0 0 0 0 0 0 0 0 
0 0 0 0 0 0 0 0 0 
0 0 0 0 0 0 0 0 0 
0 0 0 0 0 0 0 0 0 
0 0 0 0 0 0 0 0 0 
0 0 0 0 0 0 0 0 0 
0 0 0 0 0 0 0 0 0 
0 0 0 0 0 0 0 0 0 
0 0 0 0 0 0 0 0 0 
0 0 0 0 0 0 0 0 0 
0 0 0 0 0 0 0 0 0 
0 0 0 0 0 0 0 0 0 
0 0 0 0 0 0 0 0 0 
0 0 0 0 0 0 0 0 0 
0 0 0 0 0 0 0 0 0 
0 0 0 0 0 0 0 0 0 
0 0 0 0 0 0 0 0 0 
0 0 0 0 0 0 0 0 0 
0 0 0 0 0 0 0 0 0 
0 0 0 0 0 0 0 0 0 
0 0 0 0 0 0 0 0 0 
0 0 0 0 0 0 0 0 0 
0 0 0 0 0 0 0 0 0 
0 0 0 0 0 0 0 0 0 
0 0 0 0 0 0 0 0 0 
0 0 0 0 0 0 0 0 0 
0 0 0 0 0 0 0 0 0 
0 0 0 0 0 0 0 0 0 
0 0 0 0 0 0 0 0 0 
0 0 0 0 0 0 0 0 0 
0 0 0 0 0 0 0 0 0 
0 0 0 0 0 0 0 0 0 
0 0 0 0 0 0 0 0 0 
0 0 0 0 0 0 0 0 0 
0 0 0 0 0 0 0 0 0 
0 0 0 0 0 0 0 0 0 
0 0 0 0 0 0 0 0 0 
0 0 0 0 0 0 0 0 0 
0 0 0 0 0 0 0 0 0 
0 0 0 0 0 0 0 0 0 
0 0 0 0 0 0 0 0 0 
0 0 0 0 0 0 0 0 0 
0 0 0 0 0 0 0 0 0 
0 0 0 0 0 0 0 0 0 
0 0 0 0 0 0 0 0 0 
0 0 0 0 0 0 0 0 0 
0 0 0 0 0 0 0 0 0 
0 0 0 0 0 0 0 0 0 
0 0 0 0 0 0 0 0 0 
0 0 0 0 0 0 0 0 0 
0 0 0 0 0 0 0 0 0 
0 0 0 0 0 0 0 0 0 
0 0 0 0 0 0 0 0 0 
0 0 0 0 0 0 0 0 0 
0 0 0 0 0 0 0 0 0 
0 0 0 0 0 0 0 0 0 
0 0 0 0 0 0 0 0 0 
0 0 0 0 0 0 0 0 0 
0 0 0 0 0 0 0 0 0 
0 0 0 0 0 0 0 0 0 
0 0 0 0 0 0 0 0 0 
0 0 0 0 0 0 0 0 0 
0 0 0 0 0 0 0 0 0 
0 0 0 0 0 0 0 0 0 
0 0 0 0 0 0 0 0 0 
0 0 0 0 0 0 0 0 0 
0 0 0 0 0 0 0 0 0 
0 0 0 0 0 0 0 0 0 
0 0 0 0 0 0 0 0 0 
0 0 0 0 0 0 0 0 0 
0 0 0 0 0 0 0 0 0 
0 0 0 0 0 0 0 0 0 
0 0 0 0 0 0 0 0 0 
0 0 0 0 0 0 0 0 0 
0 0 0 0 0 0 0 0 0 
0 0 0 0 0 0 0 0 0 
0 0 0 0 0 0 0 0 0 
0 0 0 0 0 0 0 0 0 
0 0 0 0 0 0 0 0 0 
0 0 0 0 0 0 0 0 0 
0 0 0 0 0 0 0 0 0 
0 0 0 0 0 0 0 0 0 
0 0 0 0 0 0 0 0 0 
0 0 0 0 0 0 0 0 0 
0 0 0 0 0 0 0 0 0 
0 0 0 0 0 0 0 0 0 
0 0 0 0 0 0 0 0 0 
0 0 0 0 0 0 0 0 0 
0 0 0 0 0 0 0 0 0 
0 0 0 0 0 0 0 0 0 
0 0 0 0 0 0 0 0 0 
0 0 0 0 0 0 0 0 0 
0 0 0 0 0 0 0 0 0 
0 0 0 0 0 0 0 0 0 
0 0 0 0 0 0 0 0 0 
0 0 0 0 0 0 0 0 0 
0 0 0 0 0 0 0 0 0 
0 0 0 0 0 0 0 0 0 
0 0 0 0 0 0 0 0 0 
0 0 0 0 0 0 0 0 0 
0 0 0 0 0 0 0 0 0 
0 0 0 0 0 0 0 0 0 
0 0 0 0 0 0 0 0 0 
0 0 0 0 0 0 0 0 0 
0 0 0 0 0 0 0 0 0 
0 0 0 0 0 0 0 0 0 
0 0 0 0 0 0 0 0 0 
0 0 0 0 0 0 0 0 0 
0 0 0 0 0 0 0 0 0 
0 0 0 0 0 0 0 0 0 
0 0 0 0 0 0 0 0 0 
0 0 0 0 0 0 0 0 0 
0 0 0 0 0 0 0 0 0 
0 0 0 0 0 0 0 0 0 
0 0 0 0 0 0 0 0 0 
0 0 0 0 0 0 0 0 0 
0 0 0 0 0 0 0 0 0 
0 0 0 0 0 0 0 0 0 
0 0 0 0 0 0 0 0 0 
0 0 0 0 0 0 0 0 0 
0 0 0 0 0 0 0 0 0 
0 0 0 0 0 0 0 0 0 
0 0 0 0 0 0 0 0 0 
0 0 0 0 0 0 0 0 0 
0 0 0 0 0 0 0 0 0 
0 0 0 0 0 0 0 0 0 
0 0 0 0 0 0 0 0 0 
0 0 0 0 0 0 0 0 0 
0 0 0 0 0 0 0 0 0 
0 0 0 0 0 0 0 0 0 
0 0 0 0 0 0 0 0 0 
0 0 0 0 0 0 0 0 0 
0 0 0 0 0 0 0 0 0 
0 0 0 0 0 0 0 0 0 
0 0 0 0 0 0 0 0 0 
0 0 0 0 0 0 0 0 0 
0 0 0 0 0 0 0 0 0 
0 0 0 0 0 0 0 0 0 
0 0 0 0 0 0 0 0 0 
0 0 0 0 0 0 0 0 0 
0 0 0 0 0 0 0 0 0 
0 0 0 0 0 0 0 0 0 
0 0 0 0 0 0 0 0 0 
0 0 0 0 0 0 0 0 0 
0 0 0 0 0 0 0 0 0 
0 0 0 0 0 0 0 0 0 
0 0 0 0 0 0 0 0 0 
0 0 0 0 0 0 0 0 0 
0 0 0 0 0 0 0 0 0 
0 0 0 0 0 0 0 0 0 
0 0 0 0 0 0 0 0 0 
0 0 0 0 0 0 0 0 0 
0 0 0 0 0 0 0 0 0 
0 0 0 0 0 0 0 0 0 
0 0 0 0 0 0 0 0 0 
0 0 0 0 0 0 0 0 0 
0 0 0 0 0 0 0 0 0 
0 0 0 0 0 0 0 0 0 
0 0 0 0 0 0 0 0 0 
0 0 0 0 0 0 0 0 0 
0 0 0 0 0 0 0 0 0 
0 0 0 0 0 0 0 0 0 
0 0 0 0 0 0 0 0 0 
0 0 0 0 0 0 0 0 0 
0 0 0 0 0 0 0 0 0 
0 0 0 0 0 0 0 0 0 
0 0 0 0 0 0 0 0 0 
0 0 0 0 0 0 0 0 0 
0 0 0 0 0 0 0 0 0 
0 0 0 0 0 0 0 0 0 
0 0 0 0 0 0 0 0 0 
0 0 0 0 0 0 0 0 0 
0 0 0 0 0 0 0 0 0 
0 0 0 0 0 0 0 0 0 
0 0 0 0 0 0 0 0 0 
0 0 0 0 0 0 0 0 0 
0 0 0 0 0 0 0 0 0 
0 0 0 0 0 0 0 0 0 
0 0 0 0 0 0 0 0 0 
0 0 0 0 0 0 0 0 0 
0 0 0 0 0 0 0 0 0 
0 0 0 0 0 0 0 0 0 
0 0 0 0 0 0 0 0 0 
0 0 0 0 0 0 0 0 0 
0 0 0 0 0 0 0 0 0 
0 0 0 0 0 0 0 0 0 
0 0 0 0 0 0 0 0 0 
0 0 0 0 0 0 0 0 0 
0 0 0 0 0 0 0 0 0 
0 0 0 0 0 0 0 0 0 
0 0 0 0 0 0 0 0 0 
0 0 0 0 0 0 0 0 0 
0 0 0 0 0 0 0 0 0 
0 0 0 0 0 0 0 0 0 
0 0 0 0 0 0 0 0 0 
0 0 0 0 0 0 0 0 0 
0 0 0 0 0 0 0 0 0 
0 0 0 0 0 0 0 0 0 
0 0 0 0 0 0 0 0 0 
0 0 0 0 0 0 0 0 0 
0 0 0 0 0 0 0 0 0 
0 0 0 0 0 0 0 0 0 
0 0 0 0 0 0 0 0 0 
0 0 0 0 0 0 0 0 0 
0 0 0 0 0 0 0 0 0 
0 0 0 0 0 0 0 0 0 
0 0 0 0 0 0 0 0 0 
0 0 0 0 0 0 0 0 0 
0 0 0 0 0 0 0 0 0 
0 0 0 0 0 0 0 0 0 
0 0 0 0 0 0 0 0 0 
0 0 0 0 0 0 0 0 0 
0 0 0 0 0 0 0 0 0 
0 0 0 0 0 0 0 0 0 
0 0 0 0 0 0 0 0 0 
0 0 0 0 0 0 0 0 0 
0 0 0 0 0 0 0 0 0 
0 0 0 0 0 0 0 0 0 
0 0 0 0 0 0 0 0 0 
0 0 0 0 0 0 0 0 0 
0 0 0 0 0 0 0 0 0 
0 0 0 0 0 0 0 0 0 
0 0 0 0 0 0 0 0 0 
0 0 0 0 0 0 0 0 0 
0 0 0 0 0 0 0 0 0 
0 0 0 0 0 0 0 0 0 
0 0 0 0 0 0 0 0 0 
0 0 0 0 0 0 0 0 0 
0 0 0 0 0 0 0 0 0 
0 0 0 0 0 0 0 0 0 
0 0 0 0 0 0 0 0 0 
0 0 0 0 0 0 0 0 0 
0 0 0 0 0 0 0 0 0 
0 0 0 0 0 0 0 0 0 
0 0 0 0 0 0 0 0 0 
0 0 0 0 0 0 0 0 0 
0 0 0 0 0 0 0 0 0 
0 0 0 0 0 0 0 0 0 
0 0 0 0 0 0 0 0 0 
0 0 0 0 0 0 0 0 0 
0 0 0 0 0 0 0 0 0 
0 0 0 0 0 0 0 0 0 
0 0 0 0 0 0 0 0 0 
0 0 0 0 0 0 0 0 0 
0 0 0 0 0 0 0 0 0 
0 0 0 0 0 0 0 0 0 
0 0 0 0 0 0 0 0 0 
0 0 0 0 0 0 0 0 0 
0 0 0 0 0 0 0 0 0 
0 0 0 0 0 0 0 0 0 
0 0 0 0 0 0 0 0 0 
0 0 0 0 0 0 0 0 0 
0 0 0 0 0 0 0 0 0 
0 0 0 0 0 0 0 0 0 
0 0 0 0 0 0 0 0 0 
0 0 0 0 0 0 0 0 0 
0 0 0 0 0 0 0 0 0 
0 0 0 0 0 0 0 0 0 
0 0 0 0 0 0 0 0 0 
0 0 0 0 0 0 0 0 0 
0 0 0 0 0 0 0 0 0 
0 0 0 0 0 0 0 0 0 
0 0 0 0 0 0 0 0 0 
0 0 0 0 0 0 0 0 0 
0 0 0 0 0 0 0 0 0 
0 0 0 0 0 0 0 0 0 
0 0 0 0 0 0 0 0 0 
0 0 0 0 0 0 0 0 0 
0 0 0 0 0 0 0 0 0 
0 0 0 0 0 0 0 0 0 
0 0 0 0 0 0 0 0 0 
0 0 0 0 0 0 0 0 0 
0 0 0 0 0 0 0 0 0 
0 0 0 0 0 0 0 0 0 
0 0 0 0 0 0 0 0 0 
0 0 0 0 0 0 0 0 0 
0 0 0 0 0 0 0 0 0 
0 0 0 0 0 0 0 0 0 
0 0 0 0 0 0 0 0 0 
0 0 0 0 0 0 0 0 0 
0 0 0 0 0 0 0 0 0 
0 0 0 0 0 0 0 0 0 
0 0 0 0 0 0 0 0 0 
0 0 0 0 0 0 0 0 0 
0 0 0 0 0 0 0 0 0 
0 0 0 0 0 0 0 0 0 
0 0 0 0 0 0 0 0 0 
0 0 0 0 0 0 0 0 0 
0 0 0 0 0 0 0 0 0 
0 0 0 0 0 0 0 0 0 
0 0 0 0 0 0 0 0 0 
0 0 0 0 0 0 0 0 0 
0 0 0 0 0 0 0 0 0 
0 0 0 0 0 0 0 0 0 
0 0 0 0 0 0 0 0 0 
0 0 0 0 0 0 0 0 0 
0 0 0 0 0 0 0 0 0 
0 0 0 0 0 0 0 0 0 
0 0 0 0 0 0 0 0 0 
0 0 0 0 0 0 0 0 0 
0 0 0 0 0 0 0 0 0 
0 0 0 0 0 0 0 0 0 
0 0 0 0 0 0 0 0 0 
0 0 0 0 0 0 0 0 0 
0 0 0 0 0 0 0 0 0 
0 0 0 0 0 0 0 0 0 
0 0 0 0 0 0 0 0 0 
0 0 0 0 0 0 0 0 0 
0 0 0 0 0 0 0 0 0 
0 0 0 0 0 0 0 0 0 
0 0 0 0 0 0 0 0 0 
0 0 0 0 0 0 0 0 0 
0 0 0 0 0 0 0 0 0 
0 0 0 0 0 0 0 0 0 
0 0 0 0 0 0 0 0 0 
0 0 0 0 0 0 0 0 0 
0 0 0 0 0 0 0 0 0 
0 0 0 0 0 0 0 0 0 
0 0 0 0 0 0 0 0 0 
0 0 0 0 0 0 0 0 0 
0 0 0 0 0 0 0 0 0 
0 0 0 0 0 0 0 0 0 
0 0 0 0 0 0 0 0 0 
0 0 0 0 0 0 0 0 0 
0 0 0 0 0 0 0 0 0 
0 0 0 0 0 0 0 0 0 
0 0 0 0 0 0 0 0 0 
0 0 0 0 0 0 0 0 0 
0 0 0 0 0 0 0 0 0 
0 0 0 0 0 0 0 0 0 
0 0 0 0 0 0 0 0 0 
0 0 0 0 0 0 0 0 0 
0 0 0 0 0 0 0 0 0 
0 0 0 0 0 0 0 0 0 
0 0 0 0 0 0 0 0 0 
0 0 0 0 0 0 0 0 0 
0 0 0 0 0 0 0 0 0 
0 0 0 0 0 0 0 0 0 
0 0 0 0 0 0 0 0 0 
0 0 0 0 0 0 0 0 0 
0 0 0 0 0 0 0 0 0 
0 0 0 0 0 0 0 0 0 
0 0 0 0 0 0 0 0 0 
0 0 0 0 0 0 0 0 0 
0 0 0 0 0 0 0 0 0 
0 0 0 0 0 0 0 0 0 
0 0 0 0 0 0 0 0 0 
0 0 0 0 0 0 0 0 0 
0 0 0 0 0 0 0 0 0 
0 0 0 0 0 0 0 0 0 
0 0 0 0 0 0 0 0 0 
0 0 0 0 0 0 0 0 0 
0 0 0 0 0 0 0 0 0 
0 0 0 0 0 0 0 0 0 
0 0 0 0 0 0 0 0 0 
0 0 0 0 0 0 0 0 0 
0 0 0 0 0 0 0 0 0 
0 0 0 0 0 0 0 0 0 
0 0 0 0 0 0 0 0 0 
0 0 0 0 0 0 0 0 0 
0 0 0 0 0 0 0 0 0 
0 0 0 0 0 0 0 0 0 
0 0 0 0 0 0 0 0 0 
0 0 0 0 0 0 0 0 0 
0 0 0 0 0 0 0 0 0 
0 0 0 0 0 0 0 0 0 
0 0 0 0 0 0 0 0 0 
0 0 0 0 0 0 0 0 0 
0 0 0 0 0 0 0 0 0 
0 0 0 0 0 0 0 0 0 
0 0 0 0 0 0 0 0 0 
0 0 0 0 0 0 0 0 0 
0 0 0 0 0 0 0 0 0 
0 0 0 0 0 0 0 0 0 
0 0 0 0 0 0 0 0 0 
0 0 0 0 0 0 0 0 0 
0 0 0 0 0 0 0 0 0 
0 0 0 0 0 0 0 0 0 
0 0 0 0 0 0 0 0 0 
0 0 0 0 0 0 0 0 0 
0 0 0 0 0 0 0 0 0 
0 0 0 0 0 0 0 0 0 
0 0 0 0 0 0 0 0 0 
0 0 0 0 0 0 0 0 0 
0 0 0 0 0 0 0 0 0 
0 0 0 0 0 0 0 0 0 
0 0 0 0 0 0 0 0 0 
0 0 0 0 0 0 0 0 0 
0 0 0 0 0 0 0 0 0 
0 0 0 0 0 0 0 0 0 
0 0 0 0 0 0 0 0 0 
0 0 0 0 0 0 0 0 0 
0 0 0 0 0 0 0 0 0 
0 0 0 0 0 0 0 0 0 
0 0 0 0 0 0 0 0 0 
0 0 0 0 0 0 0 0 0 
0 0 0 0 0 0 0 0 0 
0 0 0 0 0 0 0 0 0 
0 0 0 0 0 0 0 0 0 
0 0 0 0 0 0 0 0 0 
0 0 0 0 0 0 0 0 0 
0 0 0 0 0 0 0 0 0 
0 0 0 0 0 0 0 0 0 
0 0 0 0 0 0 0 0 0 
0 0 0 0 0 0 0 0 0 
0 0 0 0 0 0 0 0 0 
0 0 0 0 0 0 0 0 0 
0 0 0 0 0 0 0 0 0 
0 0 0 0 0 0 0 0 0 
0 0 0 0 0 0 0 0 0 
0 0 0 0 0 0 0 0 0 
0 0 0 0 0 0 0 0 0 
0 0 0 0 0 0 0 0 0 
0 0 0 0 0 0 0 0 0 
0 0 0 0 0 0 0 0 0 
0 0 0 0 0 0 0 0 0 
0 0 0 0 0 0 0 0 0 
0 0 0 0 0 0 0 0 0 
0 0 0 0 0 0 0 0 0 
0 0 0 0 0 0 0 0 0 
0 0 0 0 0 0 0 0 0 
0 0 0 0 0 0 0 0 0 
0 0 0 0 0 0 0 0 0 
0 0 0 0 0 0 0 0 0 
0 0 0 0 0 0 0 0 0 
0 0 0 0 0 0 0 0 0 
0 0 0 0 0 0 0 0 0 
0 0 0 0 0 0 0 0 0 
0 0 0 0 0 0 0 0 0 
0 0 0 0 0 0 0 0 0 
0 0 0 0 0 0 0 0 0 
0 0 0 0 0 0 0 0 0 
0 0 0 0 0 0 0 0 0 
0 0 0 0 0 0 0 0 0 
0 0 0 0 0 0 0 0 0 
0 0 0 0 0 0 0 0 0 
0 0 0 0 0 0 0 0 0 
0 0 0 0 0 0 0 0 0 
0 0 0 0 0 0 0 0 0 
0 0 0 0 0 0 0 0 0 
0 0 0 0 0 0 0 0 0 
0 0 0 0 0 0 0 0 0 
0 0 0 0 0 0 0 0 0 
0 0 0 0 0 0 0 0 0 
0 0 0 0 0 0 0 0 0 
0 0 0 0 0 0 0 0 0 
0 0 0 0 0 0 0 0 0 
0 0 0 0 0 0 0 0 0 
0 0 0 0 0 0 0 0 0 
0 0 0 0 0 0 0 0 0 
0 0 0 0 0 0 0 0 0 
0 0 0 0 0 0 0 0 0 
0 0 0 0 0 0 0 0 0 
0 0 0 0 0 0 0 0 0 
0 0 0 0 0 0 0 0 0 
0 0 0 0 0 0 0 0 0 
0 0 0 0 0 0 0 0 0 
0 0 0 0 0 0 0 0 0 
0 0 0 0 0 0 0 0 0 
0 0 0 0 0 0 0 0 0 
0 0 0 0 0 0 0 0 0 
0 0 0 0 0 0 0 0 0 
0 0 0 0 0 0 0 0 0 
0 0 0 0 0 0 0 0 0 
0 0 0 0 0 0 0 0 0 
0 0 0 0 0 0 0 0 0 
0 0 0 0 0 0 0 0 0 
0 0 0 0 0 0 0 0 0 
0 0 0 0 0 0 0 0 0 
0 0 0 0 0 0 0 0 0 
0 0 0 0 0 0 0 0 0 
0 0 0 0 0 0 0 0 0 
0 0 0 0 0 0 0 0 0 
0 0 0 0 0 0 0 0 0 
0 0 0 0 0 0 0 0 0 
0 0 0 0 0 0 0 0 0 
0 0 0 0 0 0 0 0 0 
0 0 0 0 0 0 0 0 0 
0 0 0 0 0 0 0 0 0 
0 0 0 0 0 0 0 0 0 
0 0 0 0 0 0 0 0 0 
0 0 0 0 0 0 0 0 0 
0 0 0 0 0 0 0 0 0 
0 0 0 0 0 0 0 0 0 
0 0 0 0 0 0 0 0 0 
0 0 0 0 0 0 0 0 0 
0 0 0 0 0 0 0 0 0 
0 0 0 0 0 0 0 0 0 
0 0 0 0 0 0 0 0 0 
0 0 0 0 0 0 0 0 0 
0 0 0 0 0 0 0 0 0 
0 0 0 0 0 0 0 0 0 
0 0 0 0 0 0 0 0 0 
0 0 0 0 0 0 0 0 0 
0 0 0 0 0 0 0 0 0 
0 0 0 0 0 0 0 0 0 
0 0 0 0 0 0 0 0 0 
0 0 0 0 0 0 0 0 0 
0 0 0 0 0 0 0 0 0 
0 0 0 0 0 0 0 0 0 
0 0 0 0 0 0 0 0 0 
0 0 0 0 0 0 0 0 0 
0 0 0 0 0 0 0 0 0 
0 0 0 0 0 0 0 0 0 
0 0 0 0 0 0 0 0 0 
0 0 0 0 0 0 0 0 0 
0 0 0 0 0 0 0 0 0 
0 0 0 0 0 0 0 0 0 
0 0 0 0 0 0 0 0 0 
0 0 0 0 0 0 0 0 0 
0 0 0 0 0 0 0 0 0 
0 0 0 0 0 0 0 0 0 
0 0 0 0 0 0 0 0 0 
0 0 0 0 0 0 0 0 0 
0 0 0 0 0 0 0 0 0 
0 0 0 0 0 0 0 0 0 
0 0 0 0 0 0 0 0 0 
0 0 0 0 0 0 0 0 0 
0 0 0 0 0 0 0 0 0 
0 0 0 0 0 0 0 0 0 
0 0 0 0 0 0 0 0 0 
0 0 0 0 0 0 0 0 0 
0 0 0 0 0 0 0 0 0 
0 0 0 0 0 0 0 0 0 
0 0 0 0 0 0 0 0 0 
0 0 0 0 0 0 0 0 0 
0 0 0 0 0 0 0 0 0 
0 0 0 0 0 0 0 0 0 
0 0 0 0 0 0 0 0 0 
0 0 0 0 0 0 0 0 0 
0 0 0 0 0 0 0 0 0 
0 0 0 0 0 0 0 0 0 
0 0 0 0 0 0 0 0 0 
0 0 0 0 0 0 0 0 0 
0 0 0 0 0 0 0 0 0 
0 0 0 0 0 0 0 0 0 
0 0 0 0 0 0 0 0 0 
0 0 0 0 0 0 0 0 0 
0 0 0 0 0 0 0 0 0 
0 0 0 0 0 0 0 0 0 
0 0 0 0 0 0 0 0 0 
0 0 0 0 0 0 0 0 0 
0 0 0 0 0 0 0 0 0 
0 0 0 0 0 0 0 0 0 
0 0 0 0 0 0 0 0 0 
0 0 0 0 0 0 0 0 0 
0 0 0 0 0 0 0 0 0 
0 0 0 0 0 0 0 0 0 
0 0 0 0 0 0 0 0 0 
0 0 0 0 0 0 0 0 0 
0 0 0 0 0 0 0 0 0 
0 0 0 0 0 0 0 0 0 
0 0 0 0 0 0 0 0 0 
0 0 0 0 0 0 0 0 0 
0 0 0 0 0 0 0 0 0 
0 0 0 0 0 0 0 0 0 
0 0 0 0 0 0 0 0 0 
0 0 0 0 0 0 0 0 0 
0 0 0 0 0 0 0 0 0 
0 0 0 0 0 0 0 0 0 
0 0 0 0 0 0 0 0 0 
0 0 0 0 0 0 0 0 0 
0 0 0 0 0 0 0 0 0 
0 0 0 0 0 0 0 0 0 
0 0 0 0 0 0 0 0 0 
0 0 0 0 0 0 0 0 0 
0 0 0 0 0 0 0 0 0 
0 0 0 0 0 0 0 0 0 
0 0 0 0 0 0 0 0 0 
0 0 0 0 0 0 0 0 0 
0 0 0 0 0 0 0 0 0 
0 0 0 0 0 0 0 0 0 
0 0 0 0 0 0 0 0 0 
0 0 0 0 0 0 0 0 0 
0 0 0 0 0 0 0 0 0 
0 0 0 0 0 0 0 0 0 
0 0 0 0 0 0 0 0 0 
0 0 0 0 0 0 0 0 0 
0 0 0 0 0 0 0 0 0 
0 0 0 0 0 0 0 0 0 
0 0 0 0 0 0 0 0 0 
0 0 0 0 0 0 0 0 0 
0 0 0 0 0 0 0 0 0 
0 0 0 0 0 0 0 0 0 
0 0 0 0 0 0 0 0 0 
0 0 0 0 0 0 0 0 0 
0 0 0 0 0 0 0 0 0 
0 0 0 0 0 0 0 0 0 
0 0 0 0 0 0 0 0 0 
0 0 0 0 0 0 0 0 0 
0 0 0 0 0 0 0 0 0 
0 0 0 0 0 0 0 0 0 
0 0 0 0 0 0 0 0 0 
0 0 0 0 0 0 0 0 0 
0 0 0 0 0 0 0 0 0 
0 0 0 0 0 0 0 0 0 
0 0 0 0 0 0 0 0 0 
0 0 0 0 0 0 0 0 0 
0 0 0 0 0 0 0 0 0 
0 0 0 0 0 0 0 0 0 
0 0 0 0 0 0 0 0 0 
0 0 0 0 0 0 0 0 0 
0 0 0 0 0 0 0 0 0 
0 0 0 0 0 0 0 0 0 
0 0 0 0 0 0 0 0 0 
0 0 0 0 0 0 0 0 0 
0 0 0 0 0 0 0 0 0 
0 0 0 0 0 0 0 0 0 
0 0 0 0 0 0 0 0 0 
0 0 0 0 0 0 0 0 0 
0 0 0 0 0 0 0 0 0 
0 0 0 0 0 0 0 0 0 
0 0 0 0 0 0 0 0 0 
0 0 0 0 0 0 0 0 0 
0 0 0 0 0 0 0 0 0 
0 0 0 0 0 0 0 0 0 
0 0 0 0 0 0 0 0 0 
0 0 0 0 0 0 0 0 0 
0 0 0 0 0 0 0 0 0 
0 0 0 0 0 0 0 0 0 
0 0 0 0 0 0 0 0 0 
0 0 0 0 0 0 0 0 0 
0 0 0 0 0 0 0 0 0 
0 0 0 0 0 0 0 0 0 
0 0 0 0 0 0 0 0 0 
0 0 0 0 0 0 0 0 0 
0 0 0 0 0 0 0 0 0 
0 0 0 0 0 0 0 0 0 
0 0 0 0 0 0 0 0 0 
0 0 0 0 0 0 0 0 0 
0 0 0 0 0 0 0 0 0 
0 0 0 0 0 0 0 0 0 
0 0 0 0 0 0 0 0 0 
0 0 0 0 0 0 0 0 0 
0 0 0 0 0 0 0 0 0 
0 0 0 0 0 0 0 0 0 
0 0 0 0 0 0 0 0 0 
0 0 0 0 0 0 0 0 0 
0 0 0 0 0 0 0 0 0 
0 0 0 0 0 0 0 0 0 
0 0 0 0 0 0 0 0 0 
0 0 0 0 0 0 0 0 0 
0 0 0 0 0 0 0 0 0 
0 0 0 0 0 0 0 0 0 
0 0 0 0 0 0 0 0 0 
0 0 0 0 0 0 0 0 0 
0 0 0 0 0 0 0 0 0 
0 0 0 0 0 0 0 0 0 
0 0 0 0 0 0 0 0 0 
0 0 0 0 0 0 0 0 0 
0 0 0 0 0 0 0 0 0 
0 0 0 0 0 0 0 0 0 
0 0 0 0 0 0 0 0 0 
0 0 0 0 0 0 0 0 0 
0 0 0 0 0 0 0 0 0 
0 0 0 0 0 0 0 0 0 
0 0 0 0 0 0 0 0 0 
0 0 0 0 0 0 0 0 0 
0 0 0 0 0 0 0 0 0 
0 0 0 0 0 0 0 0 0 
0 0 0 0 0 0 0 0 0 
0 0 0 0 0 0 0 0 0 
0 0 0 0 0 0 0 0 0 
0 0 0 0 0 0 0 0 0 
0 0 0 0 0 0 0 0 0 
0 0 0 0 0 0 0 0 0 
0 0 0 0 0 0 0 0 0 
0 0 0 0 0 0 0 0 0 
0 0 0 0 0 0 0 0 0 
0 0 0 0 0 0 0 0 0 
0 0 0 0 0 0 0 0 0 
0 0 0 0 0 0 0 0 0 
0 0 0 0 0 0 0 0 0 
0 0 0 0 0 0 0 0 0 
0 0 0 0 0 0 0 0 0 
0 0 0 0 0 0 0 0 0 
0 0 0 0 0 0 0 0 0 
0 0 0 0 0 0 0 0 0 
0 0 0 0 0 0 0 0 0 
0 0 0 0 0 0 0 0 0 
0 0 0 0 0 0 0 0 0 
0 0 0 0 0 0 0 0 0 
0 0 0 0 0 0 0 0 0 
0 0 0 0 0 0 0 0 0 
0 0 0 0 0 0 0 0 0 
0 0 0 0 0 0 0 0 0 
0 0 0 0 0 0 0 0 0 
0 0 0 0 0 0 0 0 0 
0 0 0 0 0 0 0 0 0 
0 0 0 0 0 0 0 0 0 
0 0 0 0 0 0 0 0 0 
0 0 0 0 0 0 0 0 0 
0 0 0 0 0 0 0 0 0 
0 0 0 0 0 0 0 0 0 
0 0 0 0 0 0 0 0 0 
0 0 0 0 0 0 0 0 0 
0 0 0 0 0 0 0 0 0 
0 0 0 0 0 0 0 0 0 
0 0 0 0 0 0 0 0 0 
0 0 0 0 0 0 0 0 0 
0 0 0 0 0 0 0 0 0 
0 0 0 0 0 0 0 0 0 
0 0 0 0 0 0 0 0 0 
0 0 0 0 0 0 0 0 0 
0 0 0 0 0 0 0 0 0 
0 0 0 0 0 0 0 0 0 
0 0 0 0 0 0 0 0 0 
0 0 0 0 0 0 0 0 0 
0 0 0 0 0 0 0 0 0 
0 0 0 0 0 0 0 0 0 
0 0 0 0 0 0 0 0 0 
0 0 0 0 0 0 0 0 0 
0 0 0 0 0 0 0 0 0 
0 0 0 0 0 0 0 0 0 
0 0 0 0 0 0 0 0 0 
0 0 0 0 0 0 0 0 0 
0 0 0 0 0 0 0 0 0 
0 0 0 0 0 0 0 0 0 
0 0 0 0 0 0 0 0 0 
0 0 0 0 0 0 0 0 0 
0 0 0 0 0 0 0 0 0 
0 0 0 0 0 0 0 0 0 
0 0 0 0 0 0 0 0 0 
0 0 0 0 0 0 0 0 0 
0 0 0 0 0 0 0 0 0 
0 0 0 0 0 0 0 0 0 
0 0 0 0 0 0 0 0 0 
0 0 0 0 0 0 0 0 0 
0 0 0 0 0 0 0 0 0 
0 0 0 0 0 0 0 0 0 
0 0 0 0 0 0 0 0 0 
0 0 0 0 0 0 0 0 0 
0 0 0 0 0 0 0 0 0 
0 0 0 0 0 0 0 0 0 
0 0 0 0 0 0 0 0 0 
0 0 0 0 0 0 0 0 0 
0 0 0 0 0 0 0 0 0 
0 0 0 0 0 0 0 0 0 
0 0 0 0 0 0 0 0 0 
0 0 0 0 0 0 0 0 0 
0 0 0 0 0 0 0 0 0 
0 0 0 0 0 0 0 0 0 
0 0 0 0 0 0 0 0 0 
0 0 0 0 0 0 0 0 0 
0 0 0 0 0 0 0 0 0 
0 0 0 0 0 0 0 0 0 
0 0 0 0 0 0 0 0 0 
0 0 0 0 0 0 0 0 0 
0 0 0 0 0 0 0 0 0 
0 0 0 0 0 0 0 0 0 
0 0 0 0 0 0 0 0 0 
0 0 0 0 0 0 0 0 0 
0 0 0 0 0 0 0 0 0 
0 0 0 0 0 0 0 0 0 
0 0 0 0 0 0 0 0 0 
0 0 0 0 0 0 0 0 0 
0 0 0 0 0 0 0 0 0 
0 0 0 0 0 0 0 0 0 
0 0 0 0 0 0 0 0 0 
0 0 0 0 0 0 0 0 0 
0 0 0 0 0 0 0 0 0 
0 0 0 0 0 0 0 0 0 
0 0 0 0 0 0 0 0 0 
0 0 0 0 0 0 0 0 0 
0 0 0 0 0 0 0 0 0 
0 0 0 0 0 0 0 0 0 
0 0 0 0 0 0 0 0 0 
0 0 0 0 0 0 0 0 0 
0 0 0 0 0 0 0 0 0 
0 0 0 0 0 0 0 0 0 
0 0 0 0 0 0 0 0 0 
0 0 0 0 0 0 0 0 0 
0 0 0 0 0 0 0 0 0 
0 0 0 0 0 0 0 0 0 
0 0 0 0 0 0 0 0 0 
0 0 0 0 0 0 0 0 0 
0 0 0 0 0 0 0 0 0 
0 0 0 0 0 0 0 0 0 
0 0 0 0 0 0 0 0 0 
0 0 0 0 0 0 0 0 0 
0 0 0 0 0 0 0 0 0 
0 0 0 0 0 0 0 0 0 
0 0 0 0 0 0 0 0 0 
0 0 0 0 0 0 0 0 0 
0 0 0 0 0 0 0 0 0 
0 0 0 0 0 0 0 0 0 
0 0 0 0 0 0 0 0 0 
0 0 0 0 0 0 0 0 0 
0 0 0 0 0 0 0 0 0 
0 0 0 0 0 0 0 0 0 
0 0 0 0 0 0 0 0 0 
0 0 0 0 0 0 0 0 0 
0 0 0 0 0 0 0 0 0 
0 0 0 0 0 0 0 0 0 
0 0 0 0 0 0 0 0 0 
0 0 0 0 0 0 0 0 0 
0 0 0 0 0 0 0 0 0 
0 0 0 0 0 0 0 0 0 
0 0 0 0 0 0 0 0 0 
0 0 0 0 0 0 0 0 0 
0 0 0 0 0 0 0 0 0 
0 0 0 0 0 0 0 0 0 
0 0 0 0 0 0 0 0 0 
0 0 0 0 0 0 0 0 0 
0 0 0 0 0 0 0 0 0 
0 0 0 0 0 0 0 0 0 
0 0 0 0 0 0 0 0 0 
0 0 0 0 0 0 0 0 0 
0 0 0 0 0 0 0 0 0 
0 0 0 0 0 0 0 0 0 
0 0 0 0 0 0 0 0 0 
0 0 0 0 0 0 0 0 0 
0 0 0 0 0 0 0 0 0 
0 0 0 0 0 0 0 0 0 
0 0 0 0 0 0 0 0 0 
0 0 0 0 0 0 0 0 0 
0 0 0 0 0 0 0 0 0 
0 0 0 0 0 0 0 0 0 
0 0 0 0 0 0 0 0 0 
0 0 0 0 0 0 0 0 0 
0 0 0 0 0 0 0 0 0 
0 0 0 0 0 0 0 0 0 
0 0 0 0 0 0 0 0 0 
0 0 0 0 0 0 0 0 0 
0 0 0 0 0 0 0 0 0 
0 0 0 0 0 0 0 0 0 
0 0 0 0 0 0 0 0 0 
0 0 0 0 0 0 0 0 0 
0 0 0 0 0 0 0 0 0 
0 0 0 0 0 0 0 0 0 
0 0 0 0 0 0 0 0 0 
0 0 0 0 0 0 0 0 0 
0 0 0 0 0 0 0 0 0 
0 0 0 0 0 0 0 0 0 
0 0 0 0 0 0 0 0 0 
0 0 0 0 0 0 0 0 0 
0 0 0 0 0 0 0 0 0 
0 0 0 0 0 0 0 0 0 
0 0 0 0 0 0 0 0 0 
0 0 0 0 0 0 0 0 0 
0 0 0 0 0 0 0 0 0 
0 0 0 0 0 0 0 0 0 
0 0 0 0 0 0 0 0 0 
0 0 0 0 0 0 0 0 0 
0 0 0 0 0 0 0 0 0 
0 0 0 0 0 0 0 0 0 
0 0 0 0 0 0 0 0 0 
0 0 0 0 0 0 0 0 0 
0 0 0 0 0 0 0 0 0 
0 0 0 0 0 0 0 0 0 
0 0 0 0 0 0 0 0 0 
0 0 0 0 0 0 0 0 0 
0 0 0 0 0 0 0 0 0 
0 0 0 0 0 0 0 0 0 
0 0 0 0 0 0 0 0 0 
0 0 0 0 0 0 0 0 0 
0 0 0 0 0 0 0 0 0 
0 0 0 0 0 0 0 0 0 
0 0 0 0 0 0 0 0 0 
0 0 0 0 0 0 0 0 0 
0 0 0 0 0 0 0 0 0 
0 0 0 0 0 0 0 0 0 
0 0 0 0 0 0 0 0 0 
0 0 0 0 0 0 0 0 0 
0 0 0 0 0 0 0 0 0 
0 0 0 0 0 0 0 0 0 
0 0 0 0 0 0 0 0 0 
0 0 0 0 0 0 0 0 0 
0 0 0 0 0 0 0 0 0 
0 0 0 0 0 0 0 0 0 
0 0 0 0 0 0 0 0 0 
0 0 0 0 0 0 0 0 0 
0 0 0 0 0 0 0 0 0 
0 0 0 0 0 0 0 0 0 
0 0 0 0 0 0 0 0 0 
0 0 0 0 0 0 0 0 0 
0 0 0 0 0 0 0 0 0 
0 0 0 0 0 0 0 0 0 
0 0 0 0 0 0 0 0 0 
0 0 0 0 0 0 0 0 0 
0 0 0 0 0 0 0 0 0 
0 0 0 0 0 0 0 0 0 
0 0 0 0 0 0 0 0 0 
0 0 0 0 0 0 0 0 0 
0 0 0 0 0 0 0 0 0 
0 0 0 0 0 0 0 0 0 
0 0 0 0 0 0 0 0 0 
0 0 0 0 0 0 0 0 0 
0 0 0 0 0 0 0 0 0 
0 0 0 0 0 0 0 0 0 
0 0 0 0 0 0 0 0 0 
0 0 0 0 0 0 0 0 0 
0 0 0 0 0 0 0 0 0 
0 0 0 0 0 0 0 0 0 
0 0 0 0 0 0 0 0 0 
0 0 0 0 0 0 0 0 0 
0 0 0 0 0 0 0 0 0 
0 0 0 0 0 0 0 0 0 
0 0 0 0 0 0 0 0 0 
0 0 0 0 0 0 0 0 0 
0 0 0 0 0 0 0 0 0 
0 0 0 0 0 0 0 0 0 
0 0 0 0 0 0 0 0 0 
0 0 0 0 0 0 0 0 0 
0 0 0 0 0 0 0 0 0 
0 0 0 0 0 0 0 0 0 
0 0 0 0 0 0 0 0 0 
0 0 0 0 0 0 0 0 0 
0 0 0 0 0 0 0 0 0 
0 0 0 0 0 0 0 0 0 
0 0 0 0 0 0 0 0 0 
0 0 0 0 0 0 0 0 0 
0 0 0 0 0 0 0 0 0 
0 0 0 0 0 0 0 0 0 
0 0 0 0 0 0 0 0 0 
0 0 0 0 0 0 0 0 0 
0 0 0 0 0 0 0 0 0 
0 0 0 0 0 0 0 0 0 
0 0 0 0 0 0 0 0 0 
0 0 0 0 0 0 0 0 0 
0 0 0 0 0 0 0 0 0 
0 0 0 0 0 0 0 0 0 
0 0 0 0 0 0 0 0 0 
0 0 0 0 0 0 0 0 0 
0 0 0 0 0 0 0 0 0 
0 0 0 0 0 0 0 0 0 
0 0 0 0 0 0 0 0 0 
0 0 0 0 0 0 0 0 0 
0 0 0 0 0 0 0 0 0 
0 0 0 0 0 0 0 0 0 
0 0 0 0 0 0 0 0 0 
0 0 0 0 0 0 0 0 0 
0 0 0 0 0 0 0 0 0 
0 0 0 0 0 0 0 0 0 
0 0 0 0 0 0 0 0 0 
0 0 0 0 0 0 0 0 0 
0 0 0 0 0 0 0 0 0 
0 0 0 0 0 0 0 0 0 
0 0 0 0 0 0 0 0 0 
0 0 0 0 0 0 0 0 0 
0 0 0 0 0 0 0 0 0 
0 0 0 0 0 0 0 0 0 
0 0 0 0 0 0 0 0 0 
0 0 0 0 0 0 0 0 0 
0 0 0 0 0 0 0 0 0 
0 0 0 0 0 0 0 0 0 
0 0 0 0 0 0 0 0 0 
0 0 0 0 0 0 0 0 0 
0 0 0 0 0 0 0 0 0 
0 0 0 0 0 0 0 0 0 
0 0 0 0 0 0 0 0 0 
0 0 0 0 0 0 0 0 0 
0 0 0 0 0 0 0 0 0 
0 0 0 0 0 0 0 0 0 
0 0 0 0 0 0 0 0 0 
0 0 0 0 0 0 0 0 0 
0 0 0 0 0 0 0 0 0 
0 0 0 0 0 0 0 0 0 
0 0 0 0 0 0 0 0 0 
0 0 0 0 0 0 0 0 0 
0 0 0 0 0 0 0 0 0 
0 0 0 0 0 0 0 0 0 
0 0 0 0 0 0 0 0 0 
0 0 0 0 0 0 0 0 0 
0 0 0 0 0 0 0 0 0 
0 0 0 0 0 0 0 0 0 
0 0 0 0 0 0 0 0 0 
0 0 0 0 0 0 0 0 0 
0 0 0 0 0 0 0 0 0 
0 0 0 0 0 0 0 0 0 
0 0 0 0 0 0 0 0 0 
0 0 0 0 0 0 0 0 0 
0 0 0 0 0 0 0 0 0 
0 0 0 0 0 0 0 0 0 
0 0 0 0 0 0 0 0 0 
0 0 0 0 0 0 0 0 0 
0 0 0 0 0 0 0 0 0 
0 0 0 0 0 0 0 0 0 
0 0 0 0 0 0 0 0 0 
0 0 0 0 0 0 0 0 0 
0 0 0 0 0 0 0 0 0 
0 0 0 0 0 0 0 0 0 
0 0 0 0 0 0 0 0 0 
0 0 0 0 0 0 0 0 0 
0 0 0 0 0 0 0 0 0 
0 0 0 0 0 0 0 0 0 
0 0 0 0 0 0 0 0 0 
0 0 0 0 0 0 0 0 0 
0 0 0 0 0 0 0 0 0 
0 0 0 0 0 0 0 0 0 
0 0 0 0 0 0 0 0 0 
0 0 0 0 0 0 0 0 0 
0 0 0 0 0 0 0 0 0 
0 0 0 0 0 0 0 0 0 
0 0 0 0 0 0 0 0 0 
0 0 0 0 0 0 0 0 0 
0 0 0 0 0 0 0 0 0 
0 0 0 0 0 0 0 0 0 
0 0 0 0 0 0 0 0 0 
0 0 0 0 0 0 0 0 0 
0 0 0 0 0 0 0 0 0 
0 0 0 0 0 0 0 0 0 
0 0 0 0 0 0 0 0 0 
0 0 0 0 0 0 0 0 0 
0 0 0 0 0 0 0 0 0 
0 0 0 0 0 0 0 0 0 
0 0 0 0 0 0 0 0 0 
0 0 0 0 0 0 0 0 0 
0 0 0 0 0 0 0 0 0 
0 0 0 0 0 0 0 0 0 
0 0 0 0 0 0 0 0 0 
0 0 0 0 0 0 0 0 0 
0 0 0 0 0 0 0 0 0 
0 0 0 0 0 0 0 0 0 
0 0 0 0 0 0 0 0 0 
0 0 0 0 0 0 0 0 0 
0 0 0 0 0 0 0 0 0 
0 0 0 0 0 0 0 0 0 
0 0 0 0 0 0 0 0 0 
0 0 0 0 0 0 0 0 0 
0 0 0 0 0 0 0 0 0 
0 0 0 0 0 0 0 0 0 
0 0 0 0 0 0 0 0 0 
0 0 0 0 0 0 0 0 0 
0 0 0 0 0 0 0 0 0 
0 0 0 0 0 0 0 0 0 
0 0 0 0 0 0 0 0 0 
0 0 0 0 0 0 0 0 0 
0 0 0 0 0 0 0 0 0 
0 0 0 0 0 0 0 0 0 
0 0 0 0 0 0 0 0 0 
0 0 0 0 0 0 0 0 0 
0 0 0 0 0 0 0 0 0 
0 0 0 0 0 0 0 0 0 
0 0 0 0 0 0 0 0 0 
0 0 0 0 0 0 0 0 0 
0 0 0 0 0 0 0 0 0 
0 0 0 0 0 0 0 0 0 
0 0 0 0 0 0 0 0 0 
0 0 0 0 0 0 0 0 0 
0 0 0 0 0 0 0 0 0 
0 0 0 0 0 0 0 0 0 
0 0 0 0 0 0 0 0 0 
0 0 0 0 0 0 0 0 0 
0 0 0 0 0 0 0 0 0 
0 0 0 0 0 0 0 0 0 
0 0 0 0 0 0 0 0 0 
0 0 0 0 0 0 0 0 0 
0 0 0 0 0 0 0 0 0 
0 0 0 0 0 0 0 0 0 
0 0 0 0 0 0 0 0 0 
0 0 0 0 0 0 0 0 0 
0 0 0 0 0 0 0 0 0 
0 0 0 0 0 0 0 0 0 
0 0 0 0 0 0 0 0 0 
0 0 0 0 0 0 0 0 0 
0 0 0 0 0 0 0 0 0 
0 0 0 0 0 0 0 0 0 
0 0 0 0 0 0 0 0 0 
0 0 0 0 0 0 0 0 0 
0 0 0 0 0 0 0 0 0 
0 0 0 0 0 0 0 0 0 
0 0 0 0 0 0 0 0 0 
0 0 0 0 0 0 0 0 0 
0 0 0 0 0 0 0 0 0 
0 0 0 0 0 0 0 0 0 
0 0 0 0 0 0 0 0 0 
0 0 0 0 0 0 0 0 0 
0 0 0 0 0 0 0 0 0 
0 0 0 0 0 0 0 0 0 
0 0 0 0 0 0 0 0 0 
0 0 0 0 0 0 0 0 0 
0 0 0 0 0 0 0 0 0 
0 0 0 0 0 0 0 0 0 
0 0 0 0 0 0 0 0 0 
0 0 0 0 0 0 0 0 0 
0 0 0 0 0 0 0 0 0 
0 0 0 0 0 0 0 0 0 
0 0 0 0 0 0 0 0 0 
0 0 0 0 0 0 0 0 0 
0 0 0 0 0 0 0 0 0 
0 0 0 0 0 0 0 0 0 
0 0 0 0 0 0 0 0 0 
0 0 0 0 0 0 0 0 0 
0 0 0 0 0 0 0 0 0 
0 0 0 0 0 0 0 0 0 
0 0 0 0 0 0 0 0 0 
0 0 0 0 0 0 0 0 0 
0 0 0 0 0 0 0 0 0 
0 0 0 0 0 0 0 0 0 
0 0 0 0 0 0 0 0 0 
0 0 0 0 0 0 0 0 0 
0 0 0 0 0 0 0 0 0 
0 0 0 0 0 0 0 0 0 
0 0 0 0 0 0 0 0 0 
0 0 0 0 0 0 0 0 0 
0 0 0 0 0 0 0 0 0 
0 0 0 0 0 0 0 0 0 
0 0 0 0 0 0 0 0 0 
0 0 0 0 0 0 0 0 0 
0 0 0 0 0 0 0 0 0 
0 0 0 0 0 0 0 0 0 
0 0 0 0 0 0 0 0 0 
0 0 0 0 0 0 0 0 0 
0 0 0 0 0 0 0 0 0 
0 0 0 0 0 0 0 0 0 
0 0 0 0 0 0 0 0 0 
0 0 0 0 0 0 0 0 0 
0 0 0 0 0 0 0 0 0 
0 0 0 0 0 0 0 0 0 
0 0 0 0 0 0 0 0 0 
0 0 0 0 0 0 0 0 0 
0 0 0 0 0 0 0 0 0 
0 0 0 0 0 0 0 0 0 
0 0 0 0 0 0 0 0 0 
0 0 0 0 0 0 0 0 0 
0 0 0 0 0 0 0 0 0 
0 0 0 0 0 0 0 0 0 
0 0 0 0 0 0 0 0 0 
0 0 0 0 0 0 0 0 0 
0 0 0 0 0 0 0 0 0 
0 0 0 0 0 0 0 0 0 
0 0 0 0 0 0 0 0 0 
0 0 0 0 0 0 0 0 0 
0 0 0 0 0 0 0 0 0 
0 0 0 0 0 0 0 0 0 
0 0 0 0 0 0 0 0 0 
0 0 0 0 0 0 0 0 0 
0 0 0 0 0 0 0 0 0 
0 0 0 0 0 0 0 0 0 
0 0 0 0 0 0 0 0 0 
0 0 0 0 0 0 0 0 0 
0 0 0 0 0 0 0 0 0 
0 0 0 0 0 0 0 0 0 
0 0 0 0 0 0 0 0 0 
0 0 0 0 0 0 0 0 0 
0 0 0 0 0 0 0 0 0 
0 0 0 0 0 0 0 0 0 
0 0 0 0 0 0 0 0 0 
0 0 0 0 0 0 0 0 0 
0 0 0 0 0 0 0 0 0 
0 0 0 0 0 0 0 0 0 
0 0 0 0 0 0 0 0 0 
0 0 0 0 0 0 0 0 0 
0 0 0 0 0 0 0 0 0 
0 0 0 0 0 0 0 0 0 
0 0 0 0 0 0 0 0 0 
0 0 0 0 0 0 0 0 0 
0 0 0 0 0 0 0 0 0 
0 0 0 0 0 0 0 0 0 
0 0 0 0 0 0 0 0 0 
0 0 0 0 0 0 0 0 0 
0 0 0 0 0 0 0 0 0 
0 0 0 0 0 0 0 0 0 
0 0 0 0 0 0 0 0 0 
0 0 0 0 0 0 0 0 0 
0 0 0 0 0 0 0 0 0 
0 0 0 0 0 0 0 0 0 
0 0 0 0 0 0 0 0 0 
0 0 0 0 0 0 0 0 0 
0 0 0 0 0 0 0 0 0 
0 0 0 0 0 0 0 0 0 
0 0 0 0 0 0 0 0 0 
0 0 0 0 0 0 0 0 0 
0 0 0 0 0 0 0 0 0 
0 0 0 0 0 0 0 0 0 
0 0 0 0 0 0 0 0 0 
0 0 0 0 0 0 0 0 0 
0 0 0 0 0 0 0 0 0 
0 0 0 0 0 0 0 0 0 
0 0 0 0 0 0 0 0 0 
0 0 0 0 0 0 0 0 0 
0 0 0 0 0 0 0 0 0 
0 0 0 0 0 0 0 0 0 
0 0 0 0 0 0 0 0 0 
0 0 0 0 0 0 0 0 0 
0 0 0 0 0 0 0 0 0 
0 0 0 0 0 0 0 0 0 
0 0 0 0 0 0 0 0 0 
0 0 0 0 0 0 0 0 0 
0 0 0 0 0 0 0 0 0 
0 0 0 0 0 0 0 0 0 
0 0 0 0 0 0 0 0 0 
0 0 0 0 0 0 0 0 0 
0 0 0 0 0 0 0 0 0 
0 0 0 0 0 0 0 0 0 
0 0 0 0 0 0 0 0 0 
0 0 0 0 0 0 0 0 0 
0 0 0 0 0 0 0 0 0 
0 0 0 0 0 0 0 0 0 
0 0 0 0 0 0 0 0 0 
0 0 0 0 0 0 0 0 0 
0 0 0 0 0 0 0 0 0 
0 0 0 0 0 0 0 0 0 
0 0 0 0 0 0 0 0 0 
0 0 0 0 0 0 0 0 0 
0 0 0 0 0 0 0 0 0 
0 0 0 0 0 0 0 0 0 
0 0 0 0 0 0 0 0 0 
0 0 0 0 0 0 0 0 0 
0 0 0 0 0 0 0 0 0 
0 0 0 0 0 0 0 0 0 
0 0 0 0 0 0 0 0 0 
0 0 0 0 0 0 0 0 0 
0 0 0 0 0 0 0 0 0 
0 0 0 0 0 0 0 0 0 
0 0 0 0 0 0 0 0 0 
0 0 0 0 0 0 0 0 0 
0 0 0 0 0 0 0 0 0 
0 0 0 0 0 0 0 0 0 
0 0 0 0 0 0 0 0 0 
0 0 0 0 0 0 0 0 0 
0 0 0 0 0 0 0 0 0 
0 0 0 0 0 0 0 0 0 
0 0 0 0 0 0 0 0 0 
0 0 0 0 0 0 0 0 0 
0 0 0 0 0 0 0 0 0 
0 0 0 0 0 0 0 0 0 
0 0 0 0 0 0 0 0 0 
0 0 0 0 0 0 0 0 0 
0 0 0 0 0 0 0 0 0 
0 0 0 0 0 0 0 0 0 
0 0 0 0 0 0 0 0 0 
0 0 0 0 0 0 0 0 0 
0 0 0 0 0 0 0 0 0 
0 0 0 0 0 0 0 0 0 
0 0 0 0 0 0 0 0 0 
0 0 0 0 0 0 0 0 0 
0 0 0 0 0 0 0 0 0 
0 0 0 0 0 0 0 0 0 
0 0 0 0 0 0 0 0 0 
0 0 0 0 0 0 0 0 0 
0 0 0 0 0 0 0 0 0 
0 0 0 0 0 0 0 0 0 
0 0 0 0 0 0 0 0 0 
0 0 0 0 0 0 0 0 0 
0 0 0 0 0 0 0 0 0 
0 0 0 0 0 0 0 0 0 
0 0 0 0 0 0 0 0 0 
0 0 0 0 0 0 0 0 0 
0 0 0 0 0 0 0 0 0 
0 0 0 0 0 0 0 0 0 
0 0 0 0 0 0 0 0 0 
0 0 0 0 0 0 0 0 0 
0 0 0 0 0 0 0 0 0 
0 0 0 0 0 0 0 0 0 
0 0 0 0 0 0 0 0 0 
0 0 0 0 0 0 0 0 0 
0 0 0 0 0 0 0 0 0 
0 0 0 0 0 0 0 0 0 
0 0 0 0 0 0 0 0 0 
0 0 0 0 0 0 0 0 0 
0 0 0 0 0 0 0 0 0 
0 0 0 0 0 0 0 0 0 
0 0 0 0 0 0 0 0 0 
0 0 0 0 0 0 0 0 0 
0 0 0 0 0 0 0 0 0 
0 0 0 0 0 0 0 0 0 
0 0 0 0 0 0 0 0 0 
0 0 0 0 0 0 0 0 0 
0 0 0 0 0 0 0 0 0 
0 0 0 0 0 0 0 0 0 
0 0 0 0 0 0 0 0 0 
0 0 0 0 0 0 0 0 0 
0 0 0 0 0 0 0 0 0 
0 0 0 0 0 0 0 0 0 
0 0 0 0 0 0 0 0 0 
0 0 0 0 0 0 0 0 0 
0 0 0 0 0 0 0 0 0 
0 0 0 0 0 0 0 0 0 
0 0 0 0 0 0 0 0 0 
0 0 0 0 0 0 0 0 0 
0 0 0 0 0 0 0 0 0 
0 0 0 0 0 0 0 0 0 
0 0 0 0 0 0 0 0 0 
0 0 0 0 0 0 0 0 0 
0 0 0 0 0 0 0 0 0 
0 0 0 0 0 0 0 0 0 
0 0 0 0 0 0 0 0 0 
0 0 0 0 0 0 0 0 0 
0 0 0 0 0 0 0 0 0 
0 0 0 0 0 0 0 0 0 
0 0 0 0 0 0 0 0 0 
0 0 0 0 0 0 0 0 0 
0 0 0 0 0 0 0 0 0 
0 0 0 0 0 0 0 0 0 
0 0 0 0 0 0 0 0 0 
0 0 0 0 0 0 0 0 0 
0 0 0 0 0 0 0 0 0 
0 0 0 0 0 0 0 0 0 
0 0 0 0 0 0 0 0 0 
0 0 0 0 0 0 0 0 0 
0 0 0 0 0 0 0 0 0 
0 0 0 0 0 0 0 0 0 
0 0 0 0 0 0 0 0 0 
0 0 0 0 0 0 0 0 0 
0 0 0 0 0 0 0 0 0 
0 0 0 0 0 0 0 0 0 
0 0 0 0 0 0 0 0 0 
0 0 0 0 0 0 0 0 0 
0 0 0 0 0 0 0 0 0 
0 0 0 0 0 0 0 0 0 
0 0 0 0 0 0 0 0 0 
0 0 0 0 0 0 0 0 0 
0 0 0 0 0 0 0 0 0 
0 0 0 0 0 0 0 0 0 
0 0 0 0 0 0 0 0 0 
0 0 0 0 0 0 0 0 0 
0 0 0 0 0 0 0 0 0 
0 0 0 0 0 0 0 0 0 
0 0 0 0 0 0 0 0 0 
0 0 0 0 0 0 0 0 0 
0 0 0 0 0 0 0 0 0 
0 0 0 0 0 0 0 0 0 
0 0 0 0 0 0 0 0 0 
0 0 0 0 0 0 0 0 0 
0 0 0 0 0 0 0 0 0 
0 0 0 0 0 0 0 0 0 
0 0 0 0 0 0 0 0 0 
0 0 0 0 0 0 0 0 0 
0 0 0 0 0 0 0 0 0 
0 0 0 0 0 0 0 0 0 
0 0 0 0 0 0 0 0 0 
0 0 0 0 0 0 0 0 0 
0 0 0 0 0 0 0 0 0 
0 0 0 0 0 0 0 0 0 
0 0 0 0 0 0 0 0 0 
0 0 0 0 0 0 0 0 0 
0 0 0 0 0 0 0 0 0 
0 0 0 0 0 0 0 0 0 
0 0 0 0 0 0 0 0 0 
0 0 0 0 0 0 0 0 0 
0 0 0 0 0 0 0 0 0 
0 0 0 0 0 0 0 0 0 
0 0 0 0 0 0 0 0 0 
0 0 0 0 0 0 0 0 0 
0 0 0 0 0 0 0 0 0 
0 0 0 0 0 0 0 0 0 
0 0 0 0 0 0 0 0 0 
0 0 0 0 0 0 0 0 0 
0 0 0 0 0 0 0 0 0 
0 0 0 0 0 0 0 0 0 
0 0 0 0 0 0 0 0 0 
0 0 0 0 0 0 0 0 0 
0 0 0 0 0 0 0 0 0 
0 0 0 0 0 0 0 0 0 
0 0 0 0 0 0 0 0 0 
0 0 0 0 0 0 0 0 0 
0 0 0 0 0 0 0 0 0 
0 0 0 0 0 0 0 0 0 
0 0 0 0 0 0 0 0 0 
0 0 0 0 0 0 0 0 0 
0 0 0 0 0 0 0 0 0 
0 0 0 0 0 0 0 0 0 
0 0 0 0 0 0 0 0 0 
0 0 0 0 0 0 0 0 0 
0 0 0 0 0 0 0 0 0 
0 0 0 0 0 0 0 0 0 
0 0 0 0 0 0 0 0 0 
0 0 0 0 0 0 0 0 0 
0 0 0 0 0 0 0 0 0 
0 0 0 0 0 0 0 0 0 
0 0 0 0 0 0 0 0 0 
0 0 0 0 0 0 0 0 0 
0 0 0 0 0 0 0 0 0 
0 0 0 0 0 0 0 0 0 
0 0 0 0 0 0 0 0 0 
0 0 0 0 0 0 0 0 0 
0 0 0 0 0 0 0 0 0 
0 0 0 0 0 0 0 0 0 
0 0 0 0 0 0 0 0 0 
0 0 0 0 0 0 0 0 0 
0 0 0 0 0 0 0 0 0 
0 0 0 0 0 0 0 0 0 
0 0 0 0 0 0 0 0 0 
0 0 0 0 0 0 0 0 0 
0 0 0 0 0 0 0 0 0 
0 0 0 0 0 0 0 0 0 
0 0 0 0 0 0 0 0 0 
0 0 0 0 0 0 0 0 0 
0 0 0 0 0 0 0 0 0 
0 0 0 0 0 0 0 0 0 
0 0 0 0 0 0 0 0 0 
0 0 0 0 0 0 0 0 0 
0 0 0 0 0 0 0 0 0 
0 0 0 0 0 0 0 0 0 
0 0 0 0 0 0 0 0 0 
0 0 0 0 0 0 0 0 0 
0 0 0 0 0 0 0 0 0 
0 0 0 0 0 0 0 0 0 
0 0 0 0 0 0 0 0 0 
0 0 0 0 0 0 0 0 0 
0 0 0 0 0 0 0 0 0 
0 0 0 0 0 0 0 0 0 
0 0 0 0 0 0 0 0 0 
0 0 0 0 0 0 0 0 0 
0 0 0 0 0 0 0 0 0 
0 0 0 0 0 0 0 0 0 
0 0 0 0 0 0 0 0 0 
0 0 0 0 0 0 0 0 0 
0 0 0 0 0 0 0 0 0 
0 0 0 0 0 0 0 0 0 
0 0 0 0 0 0 0 0 0 
0 0 0 0 0 0 0 0 0 
0 0 0 0 0 0 0 0 0 
0 0 0 0 0 0 0 0 0 
0 0 0 0 0 0 0 0 0 
0 0 0 0 0 0 0 0 0 
0 0 0 0 0 0 0 0 0 
0 0 0 0 0 0 0 0 0 
0 0 0 0 0 0 0 0 0 
0 0 0 0 0 0 0 0 0 
0 0 0 0 0 0 0 0 0 
0 0 0 0 0 0 0 0 0 
0 0 0 0 0 0 0 0 0 
0 0 0 0 0 0 0 0 0 
0 0 0 0 0 0 0 0 0 
0 0 0 0 0 0 0 0 0 
0 0 0 0 0 0 0 0 0 
0 0 0 0 0 0 0 0 0 
0 0 0 0 0 0 0 0 0 
0 0 0 0 0 0 0 0 0 
0 0 0 0 0 0 0 0 0 
0 0 0 0 0 0 0 0 0 
0 0 0 0 0 0 0 0 0 
0 0 0 0 0 0 0 0 0 
0 0 0 0 0 0 0 0 0 
0 0 0 0 0 0 0 0 0 
0 0 0 0 0 0 0 0 0 
0 0 0 0 0 0 0 0 0 
0 0 0 0 0 0 0 0 0 
0 0 0 0 0 0 0 0 0 
0 0 0 0 0 0 0 0 0 
0 0 0 0 0 0 0 0 0 
0 0 0 0 0 0 0 0 0 
0 0 0 0 0 0 0 0 0 
0 0 0 0 0 0 0 0 0 
0 0 0 0 0 0 0 0 0 
0 0 0 0 0 0 0 0 0 
0 0 0 0 0 0 0 0 0 
0 0 0 0 0 0 0 0 0 
0 0 0 0 0 0 0 0 0 
0 0 0 0 0 0 0 0 0 
0 0 0 0 0 0 0 0 0 
0 0 0 0 0 0 0 0 0 
0 0 0 0 0 0 0 0 0 
0 0 0 0 0 0 0 0 0 
0 0 0 0 0 0 0 0 0 
0 0 0 0 0 0 0 0 0 
0 0 0 0 0 0 0 0 0 
0 0 0 0 0 0 0 0 0 
0 0 0 0 0 0 0 0 0 
0 0 0 0 0 0 0 0 0 
0 0 0 0 0 0 0 0 0 
0 0 0 0 0 0 0 0 0 
0 0 0 0 0 0 0 0 0 
0 0 0 0 0 0 0 0 0 
0 0 0 0 0 0 0 0 0 
0 0 0 0 0 0 0 0 0 
0 0 0 0 0 0 0 0 0 
0 0 0 0 0 0 0 0 0 
0 0 0 0 0 0 0 0 0 
0 0 0 0 0 0 0 0 0 
0 0 0 0 0 0 0 0 0 
0 0 0 0 0 0 0 0 0 
0 0 0 0 0 0 0 0 0 
0 0 0 0 0 0 0 0 0 
0 0 0 0 0 0 0 0 0 
0 0 0 0 0 0 0 0 0 
0 0 0 0 0 0 0 0 0 
0 0 0 0 0 0 0 0 0 
0 0 0 0 0 0 0 0 0 
0 0 0 0 0 0 0 0 0 
0 0 0 0 0 0 0 0 0 
0 0 0 0 0 0 0 0 0 
0 0 0 0 0 0 0 0 0 
0 0 0 0 0 0 0 0 0 
0 0 0 0 0 0 0 0 0 
0 0 0 0 0 0 0 0 0 
0 0 0 0 0 0 0 0 0 
0 0 0 0 0 0 0 0 0 
0 0 0 0 0 0 0 0 0 
0 0 0 0 0 0 0 0 0 
0 0 0 0 0 0 0 0 0 
0 0 0 0 0 0 0 0 0 
0 0 0 0 0 0 0 0 0 
0 0 0 0 0 0 0 0 0 
0 0 0 0 0 0 0 0 0 
0 0 0 0 0 0 0 0 0 
0 0 0 0 0 0 0 0 0 
0 0 0 0 0 0 0 0 0 
0 0 0 0 0 0 0 0 0 
0 0 0 0 0 0 0 0 0 
0 0 0 0 0 0 0 0 0 
0 0 0 0 0 0 0 0 0 
0 0 0 0 0 0 0 0 0 
0 0 0 0 0 0 0 0 0 
0 0 0 0 0 0 0 0 0 
0 0 0 0 0 0 0 0 0 
0 0 0 0 0 0 0 0 0 
0 0 0 0 0 0 0 0 0 
0 0 0 0 0 0 0 0 0 
0 0 0 0 0 0 0 0 0 
0 0 0 0 0 0 0 0 0 
0 0 0 0 0 0 0 0 0 
0 0 0 0 0 0 0 0 0 
0 0 0 0 0 0 0 0 0 
0 0 0 0 0 0 0 0 0 
0 0 0 0 0 0 0 0 0 
0 0 0 0 0 0 0 0 0 
0 0 0 0 0 0 0 0 0 
0 0 0 0 0 0 0 0 0 
0 0 0 0 0 0 0 0 0 
0 0 0 0 0 0 0 0 0 
0 0 0 0 0 0 0 0 0 
0 0 0 0 0 0 0 0 0 
0 0 0 0 0 0 0 0 0 
0 0 0 0 0 0 0 0 0 
0 0 0 0 0 0 0 0 0 
0 0 0 0 0 0 0 0 0 
0 0 0 0 0 0 0 0 0 
0 0 0 0 0 0 0 0 0 
0 0 0 0 0 0 0 0 0 
0 0 0 0 0 0 0 0 0 
0 0 0 0 0 0 0 0 0 
0 0 0 0 0 0 0 0 0 
0 0 0 0 0 0 0 0 0 
0 0 0 0 0 0 0 0 0 
0 0 0 0 0 0 0 0 0 
0 0 0 0 0 0 0 0 0 
0 0 0 0 0 0 0 0 0 
0 0 0 0 0 0 0 0 0 
0 0 0 0 0 0 0 0 0 
0 0 0 0 0 0 0 0 0 
0 0 0 0 0 0 0 0 0 
0 0 0 0 0 0 0 0 0 
0 0 0 0 0 0 0 0 0 
0 0 0 0 0 0 0 0 0 
0 0 0 0 0 0 0 0 0 
0 0 0 0 0 0 0 0 0 
0 0 0 0 0 0 0 0 0 
0 0 0 0 0 0 0 0 0 
0 0 0 0 0 0 0 0 0 
0 0 0 0 0 0 0 0 0 
0 0 0 0 0 0 0 0 0 
0 0 0 0 0 0 0 0 0 
0 0 0 0 0 0 0 0 0 
0 0 0 0 0 0 0 0 0 
0 0 0 0 0 0 0 0 0 
0 0 0 0 0 0 0 0 0 
0 0 0 0 0 0 0 0 0 
0 0 0 0 0 0 0 0 0 
0 0 0 0 0 0 0 0 0 
0 0 0 0 0 0 0 0 0 
0 0 0 0 0 0 0 0 0 
0 0 0 0 0 0 0 0 0 
0 0 0 0 0 0 0 0 0 
0 0 0 0 0 0 0 0 0 
0 0 0 0 0 0 0 0 0 
0 0 0 0 0 0 0 0 0 
0 0 0 0 0 0 0 0 0 
0 0 0 0 0 0 0 0 0 
0 0 0 0 0 0 0 0 0 
0 0 0 0 0 0 0 0 0 
0 0 0 0 0 0 0 0 0 
0 0 0 0 0 0 0 0 0 
0 0 0 0 0 0 0 0 0 
0 0 0 0 0 0 0 0 0 
0 0 0 0 0 0 0 0 0 
0 0 0 0 0 0 0 0 0 
0 0 0 0 0 0 0 0 0 
0 0 0 0 0 0 0 0 0 
0 0 0 0 0 0 0 0 0 
0 0 0 0 0 0 0 0 0 
0 0 0 0 0 0 0 0 0 
0 0 0 0 0 0 0 0 0 
0 0 0 0 0 0 0 0 0 
0 0 0 0 0 0 0 0 0 
0 0 0 0 0 0 0 0 0 
0 0 0 0 0 0 0 0 0 
0 0 0 0 0 0 0 0 0 
0 0 0 0 0 0 0 0 0 
0 0 0 0 0 0 0 0 0 
0 0 0 0 0 0 0 0 0 
0 0 0 0 0 0 0 0 0 
0 0 0 0 0 0 0 0 0 
0 0 0 0 0 0 0 0 0 
0 0 0 0 0 0 0 0 0 
0 0 0 0 0 0 0 0 0 
0 0 0 0 0 0 0 0 0 
0 0 0 0 0 0 0 0 0 
0 0 0 0 0 0 0 0 0 
0 0 0 0 0 0 0 0 0 
0 0 0 0 0 0 0 0 0 
0 0 0 0 0 0 0 0 0 
0 0 0 0 0 0 0 0 0 
0 0 0 0 0 0 0 0 0 
0 0 0 0 0 0 0 0 0 
0 0 0 0 0 0 0 0 0 
0 0 0 0 0 0 0 0 0 
0 0 0 0 0 0 0 0 0 
0 0 0 0 0 0 0 0 0 
0 0 0 0 0 0 0 0 0 
0 0 0 0 0 0 0 0 0 
0 0 0 0 0 0 0 0 0 
0 0 0 0 0 0 0 0 0 
0 0 0 0 0 0 0 0 0 
0 0 0 0 0 0 0 0 0 
0 0 0 0 0 0 0 0 0 
0 0 0 0 0 0 0 0 0 
0 0 0 0 0 0 0 0 0 
0 0 0 0 0 0 0 0 0 
0 0 0 0 0 0 0 0 0 
0 0 0 0 0 0 0 0 0 
0 0 0 0 0 0 0 0 0 
0 0 0 0 0 0 0 0 0 
0 0 0 0 0 0 0 0 0 
0 0 0 0 0 0 0 0 0 
0 0 0 0 0 0 0 0 0 
0 0 0 0 0 0 0 0 0 
0 0 0 0 0 0 0 0 0 
0 0 0 0 0 0 0 0 0 
0 0 0 0 0 0 0 0 0 
0 0 0 0 0 0 0 0 0 
0 0 0 0 0 0 0 0 0 
0 0 0 0 0 0 0 0 0 
0 0 0 0 0 0 0 0 0 
0 0 0 0 0 0 0 0 0 
0 0 0 0 0 0 0 0 0 
0 0 0 0 0 0 0 0 0 
0 0 0 0 0 0 0 0 0 
0 0 0 0 0 0 0 0 0 
0 0 0 0 0 0 0 0 0 
0 0 0 0 0 0 0 0 0 
0 0 0 0 0 0 0 0 0 
0 0 0 0 0 0 0 0 0 
0 0 0 0 0 0 0 0 0 
0 0 0 0 0 0 0 0 0 
0 0 0 0 0 0 0 0 0 
0 0 0 0 0 0 0 0 0 
0 0 0 0 0 0 0 0 0 
0 0 0 0 0 0 0 0 0 
0 0 0 0 0 0 0 0 0 
0 0 0 0 0 0 0 0 0 
0 0 0 0 0 0 0 0 0 
0 0 0 0 0 0 0 0 0 
0 0 0 0 0 0 0 0 0 
0 0 0 0 0 0 0 0 0 
0 0 0 0 0 0 0 0 0 
0 0 0 0 0 0 0 0 0 
0 0 0 0 0 0 0 0 0 
0 0 0 0 0 0 0 0 0 
0 0 0 0 0 0 0 0 0 
0 0 0 0 0 0 0 0 0 
0 0 0 0 0 0 0 0 0 
0 0 0 0 0 0 0 0 0 
0 0 0 0 0 0 0 0 0 
0 0 0 0 0 0 0 0 0 
0 0 0 0 0 0 0 0 0 
0 0 0 0 0 0 0 0 0 
0 0 0 0 0 0 0 0 0 
0 0 0 0 0 0 0 0 0 
0 0 0 0 0 0 0 0 0 
0 0 0 0 0 0 0 0 0 
0 0 0 0 0 0 0 0 0 
0 0 0 0 0 0 0 0 0 
0 0 0 0 0 0 0 0 0 
0 0 0 0 0 0 0 0 0 
0 0 0 0 0 0 0 0 0 
0 0 0 0 0 0 0 0 0 
0 0 0 0 0 0 0 0 0 
0 0 0 0 0 0 0 0 0 
0 0 0 0 0 0 0 0 0 
0 0 0 0 0 0 0 0 0 
0 0 0 0 0 0 0 0 0 
0 0 0 0 0 0 0 0 0 
0 0 0 0 0 0 0 0 0 
0 0 0 0 0 0 0 0 0 
0 0 0 0 0 0 0 0 0 
0 0 0 0 0 0 0 0 0 
0 0 0 0 0 0 0 0 0 
0 0 0 0 0 0 0 0 0 
0 0 0 0 0 0 0 0 0 
0 0 0 0 0 0 0 0 0 
0 0 0 0 0 0 0 0 0 
0 0 0 0 0 0 0 0 0 
0 0 0 0 0 0 0 0 0 
0 0 0 0 0 0 0 0 0 
0 0 0 0 0 0 0 0 0 
0 0 0 0 0 0 0 0 0 
0 0 0 0 0 0 0 0 0 
0 0 0 0 0 0 0 0 0 
0 0 0 0 0 0 0 0 0 
0 0 0 0 0 0 0 0 0 
0 0 0 0 0 0 0 0 0 
0 0 0 0 0 0 0 0 0 
0 0 0 0 0 0 0 0 0 
0 0 0 0 0 0 0 0 0 
0 0 0 0 0 0 0 0 0 
0 0 0 0 0 0 0 0 0 
0 0 0 0 0 0 0 0 0 
0 0 0 0 0 0 0 0 0 
0 0 0 0 0 0 0 0 0 
0 0 0 0 0 0 0 0 0 
0 0 0 0 0 0 0 0 0 
0 0 0 0 0 0 0 0 0 
0 0 0 0 0 0 0 0 0 
0 0 0 0 0 0 0 0 0 
0 0 0 0 0 0 0 0 0 
0 0 0 0 0 0 0 0 0 
0 0 0 0 0 0 0 0 0 
0 0 0 0 0 0 0 0 0 
0 0 0 0 0 0 0 0 0 
0 0 0 0 0 0 0 0 0 
0 0 0 0 0 0 0 0 0 
0 0 0 0 0 0 0 0 0 
0 0 0 0 0 0 0 0 0 
0 0 0 0 0 0 0 0 0 
0 0 0 0 0 0 0 0 0 
0 0 0 0 0 0 0 0 0 
0 0 0 0 0 0 0 0 0 
0 0 0 0 0 0 0 0 0 
0 0 0 0 0 0 0 0 0 
0 0 0 0 0 0 0 0 0 
0 0 0 0 0 0 0 0 0 
0 0 0 0 0 0 0 0 0 
0 0 0 0 0 0 0 0 0 
0 0 0 0 0 0 0 0 0 
0 0 0 0 0 0 0 0 0 
0 0 0 0 0 0 0 0 0 
0 0 0 0 0 0 0 0 0 
0 0 0 0 0 0 0 0 0 
0 0 0 0 0 0 0 0 0 
0 0 0 0 0 0 0 0 0 
0 0 0 0 0 0 0 0 0 
0 0 0 0 0 0 0 0 0 
0 0 0 0 0 0 0 0 0 
0 0 0 0 0 0 0 0 0 
0 0 0 0 0 0 0 0 0 
0 0 0 0 0 0 0 0 0 
0 0 0 0 0 0 0 0 0 
0 0 0 0 0 0 0 0 0 
0 0 0 0 0 0 0 0 0 
0 0 0 0 0 0 0 0 0 
0 0 0 0 0 0 0 0 0 
0 0 0 0 0 0 0 0 0 
0 0 0 0 0 0 0 0 0 
0 0 0 0 0 0 0 0 0 
0 0 0 0 0 0 0 0 0 
0 0 0 0 0 0 0 0 0 
0 0 0 0 0 0 0 0 0 
0 0 0 0 0 0 0 0 0 
0 0 0 0 0 0 0 0 0 
0 0 0 0 0 0 0 0 0 
0 0 0 0 0 0 0 0 0 
0 0 0 0 0 0 0 0 0 
0 0 0 0 0 0 0 0 0 
0 0 0 0 0 0 0 0 0 
0 0 0 0 0 0 0 0 0 
0 0 0 0 0 0 0 0 0 
0 0 0 0 0 0 0 0 0 
0 0 0 0 0 0 0 0 0 
0 0 0 0 0 0 0 0 0 
0 0 0 0 0 0 0 0 0 
0 0 0 0 0 0 0 0 0 
0 0 0 0 0 0 0 0 0 
0 0 0 0 0 0 0 0 0 
0 0 0 0 0 0 0 0 0 
0 0 0 0 0 0 0 0 0 
0 0 0 0 0 0 0 0 0 
0 0 0 0 0 0 0 0 0 
0 0 0 0 0 0 0 0 0 
0 0 0 0 0 0 0 0 0 
0 0 0 0 0 0 0 0 0 
0 0 0 0 0 0 0 0 0 
0 0 0 0 0 0 0 0 0 
0 0 0 0 0 0 0 0 0 
0 0 0 0 0 0 0 0 0 
0 0 0 0 0 0 0 0 0 
0 0 0 0 0 0 0 0 0 
0 0 0 0 0 0 0 0 0 
0 0 0 0 0 0 0 0 0 
0 0 0 0 0 0 0 0 0 
0 0 0 0 0 0 0 0 0 
0 0 0 0 0 0 0 0 0 
0 0 0 0 0 0 0 0 0 
0 0 0 0 0 0 0 0 0 
0 0 0 0 0 0 0 0 0 
0 0 0 0 0 0 0 0 0 
0 0 0 0 0 0 0 0 0 
0 0 0 0 0 0 0 0 0 
0 0 0 0 0 0 0 0 0 
0 0 0 0 0 0 0 0 0 
0 0 0 0 0 0 0 0 0 
0 0 0 0 0 0 0 0 0 
0 0 0 0 0 0 0 0 0 
0 0 0 0 0 0 0 0 0 
0 0 0 0 0 0 0 0 0 
0 0 0 0 0 0 0 0 0 
0 0 0 0 0 0 0 0 0 
0 0 0 0 0 0 0 0 0 
0 0 0 0 0 0 0 0 0 
0 0 0 0 0 0 0 0 0 
0 0 0 0 0 0 0 0 0 
0 0 0 0 0 0 0 0 0 
0 0 0 0 0 0 0 0 0 
0 0 0 0 0 0 0 0 0 
0 0 0 0 0 0 0 0 0 
0 0 0 0 0 0 0 0 0 
0 0 0 0 0 0 0 0 0 
0 0 0 0 0 0 0 0 0 
0 0 0 0 0 0 0 0 0 
0 0 0 0 0 0 0 0 0 
0 0 0 0 0 0 0 0 0 
0 0 0 0 0 0 0 0 0 
0 0 0 0 0 0 0 0 0 
0 0 0 0 0 0 0 0 0 
0 0 0 0 0 0 0 0 0 
0 0 0 0 0 0 0 0 0 
0 0 0 0 0 0 0 0 0 
0 0 0 0 0 0 0 0 0 
0 0 0 0 0 0 0 0 0 
0 0 0 0 0 0 0 0 0 
0 0 0 0 0 0 0 0 0 
0 0 0 0 0 0 0 0 0 
0 0 0 0 0 0 0 0 0 
0 0 0 0 0 0 0 0 0 
0 0 0 0 0 0 0 0 0 
0 0 0 0 0 0 0 0 0 
0 0 0 0 0 0 0 0 0 
0 0 0 0 0 0 0 0 0 
0 0 0 0 0 0 0 0 0 
0 0 0 0 0 0 0 0 0 
0 0 0 0 0 0 0 0 0 
0 0 0 0 0 0 0 0 0 
0 0 0 0 0 0 0 0 0 
0 0 0 0 0 0 0 0 0 
0 0 0 0 0 0 0 0 0 
0 0 0 0 0 0 0 0 0 
0 0 0 0 0 0 0 0 0 
0 0 0 0 0 0 0 0 0 
0 0 0 0 0 0 0 0 0 
0 0 0 0 0 0 0 0 0 
0 0 0 0 0 0 0 0 0 
0 0 0 0 0 0 0 0 0 
0 0 0 0 0 0 0 0 0 
0 0 0 0 0 0 0 0 0 
0 0 0 0 0 0 0 0 0 
0 0 0 0 0 0 0 0 0 
0 0 0 0 0 0 0 0 0 
0 0 0 0 0 0 0 0 0 
0 0 0 0 0 0 0 0 0 
0 0 0 0 0 0 0 0 0 
0 0 0 0 0 0 0 0 0 
0 0 0 0 0 0 0 0 0 
0 0 0 0 0 0 0 0 0 
0 0 0 0 0 0 0 0 0 
0 0 0 0 0 0 0 0 0 
0 0 0 0 0 0 0 0 0 
0 0 0 0 0 0 0 0 0 
0 0 0 0 0 0 0 0 0 
0 0 0 0 0 0 0 0 0 
0 0 0 0 0 0 0 0 0 
0 0 0 0 0 0 0 0 0 
0 0 0 0 0 0 0 0 0 
0 0 0 0 0 0 0 0 0 
0 0 0 0 0 0 0 0 0 
0 0 0 0 0 0 0 0 0 
0 0 0 0 0 0 0 0 0 
0 0 0 0 0 0 0 0 0 
0 0 0 0 0 0 0 0 0 
0 0 0 0 0 0 0 0 0 
0 0 0 0 0 0 0 0 0 
0 0 0 0 0 0 0 0 0 
0 0 0 0 0 0 0 0 0 
0 0 0 0 0 0 0 0 0 
0 0 0 0 0 0 0 0 0 
0 0 0 0 0 0 0 0 0 
0 0 0 0 0 0 0 0 0 
0 0 0 0 0 0 0 0 0 
0 0 0 0 0 0 0 0 0 
0 0 0 0 0 0 0 0 0 
0 0 0 0 0 0 0 0 0 
0 0 0 0 0 0 0 0 0 
0 0 0 0 0 0 0 0 0 
0 0 0 0 0 0 0 0 0 
0 0 0 0 0 0 0 0 0 
0 0 0 0 0 0 0 0 0 
0 0 0 0 0 0 0 0 0 
0 0 0 0 0 0 0 0 0 
0 0 0 0 0 0 0 0 0 
0 0 0 0 0 0 0 0 0 
0 0 0 0 0 0 0 0 0 
0 0 0 0 0 0 0 0 0 
0 0 0 0 0 0 0 0 0 
0 0 0 0 0 0 0 0 0 
0 0 0 0 0 0 0 0 0 
0 0 0 0 0 0 0 0 0 
0 0 0 0 0 0 0 0 0 
0 0 0 0 0 0 0 0 0 
0 0 0 0 0 0 0 0 0 
0 0 0 0 0 0 0 0 0 
0 0 0 0 0 0 0 0 0 
0 0 0 0 0 0 0 0 0 
0 0 0 0 0 0 0 0 0 
0 0 0 0 0 0 0 0 0 
0 0 0 0 0 0 0 0 0 
0 0 0 0 0 0 0 0 0 
0 0 0 0 0 0 0 0 0 
0 0 0 0 0 0 0 0 0 
0 0 0 0 0 0 0 0 0 
0 0 0 0 0 0 0 0 0 
0 0 0 0 0 0 0 0 0 
0 0 0 0 0 0 0 0 0 
0 0 0 0 0 0 0 0 0 
0 0 0 0 0 0 0 0 0 
0 0 0 0 0 0 0 0 0 
0 0 0 0 0 0 0 0 0 
0 0 0 0 0 0 0 0 0 
0 0 0 0 0 0 0 0 0 
0 0 0 0 0 0 0 0 0 
0 0 0 0 0 0 0 0 0 
0 0 0 0 0 0 0 0 0 
0 0 0 0 0 0 0 0 0 
0 0 0 0 0 0 0 0 0 
0 0 0 0 0 0 0 0 0 
0 0 0 0 0 0 0 0 0 
0 0 0 0 0 0 0 0 0 
0 0 0 0 0 0 0 0 0 
0 0 0 0 0 0 0 0 0 
0 0 0 0 0 0 0 0 0 
0 0 0 0 0 0 0 0 0 
0 0 0 0 0 0 0 0 0 
0 0 0 0 0 0 0 0 0 
0 0 0 0 0 0 0 0 0 
0 0 0 0 0 0 0 0 0 
0 0 0 0 0 0 0 0 0 
0 0 0 0 0 0 0 0 0 
0 0 0 0 0 0 0 0 0 
0 0 0 0 0 0 0 0 0 
0 0 0 0 0 0 0 0 0 
0 0 0 0 0 0 0 0 0 
0 0 0 0 0 0 0 0 0 
0 0 0 0 0 0 0 0 0 
0 0 0 0 0 0 0 0 0 
0 0 0 0 0 0 0 0 0 
0 0 0 0 0 0 0 0 0 
0 0 0 0 0 0 0 0 0 
0 0 0 0 0 0 0 0 0 
0 0 0 0 0 0 0 0 0 
0 0 0 0 0 0 0 0 0 
0 0 0 0 0 0 0 0 0 
0 0 0 0 0 0 0 0 0 
0 0 0 0 0 0 0 0 0 
0 0 0 0 0 0 0 0 0 
0 0 0 0 0 0 0 0 0 
0 0 0 0 0 0 0 0 0 
0 0 0 0 0 0 0 0 0 
0 0 0 0 0 0 0 0 0 
0 0 0 0 0 0 0 0 0 
0 0 0 0 0 0 0 0 0 
0 0 0 0 0 0 0 0 0 
0 0 0 0 0 0 0 0 0 
0 0 0 0 0 0 0 0 0 
0 0 0 0 0 0 0 0 0 
0 0 0 0 0 0 0 0 0 
0 0 0 0 0 0 0 0 0 
0 0 0 0 0 0 0 0 0 
0 0 0 0 0 0 0 0 0 
0 0 0 0 0 0 0 0 0 
0 0 0 0 0 0 0 0 0 
0 0 0 0 0 0 0 0 0 
0 0 0 0 0 0 0 0 0 
0 0 0 0 0 0 0 0 0 
0 0 0 0 0 0 0 0 0 
0 0 0 0 0 0 0 0 0 
0 0 0 0 0 0 0 0 0 
0 0 0 0 0 0 0 0 0 
0 0 0 0 0 0 0 0 0 
0 0 0 0 0 0 0 0 0 
0 0 0 0 0 0 0 0 0 
0 0 0 0 0 0 0 0 0 
0 0 0 0 0 0 0 0 0 
0 0 0 0 0 0 0 0 0 
0 0 0 0 0 0 0 0 0 
0 0 0 0 0 0 0 0 0 
0 0 0 0 0 0 0 0 0 
0 0 0 0 0 0 0 0 0 
0 0 0 0 0 0 0 0 0 
0 0 0 0 0 0 0 0 0 
0 0 0 0 0 0 0 0 0 
0 0 0 0 0 0 0 0 0 
0 0 0 0 0 0 0 0 0 
0 0 0 0 0 0 0 0 0 
0 0 0 0 0 0 0 0 0 
0 0 0 0 0 0 0 0 0 
0 0 0 0 0 0 0 0 0 
0 0 0 0 0 0 0 0 0 
0 0 0 0 0 0 0 0 0 
0 0 0 0 0 0 0 0 0 
0 0 0 0 0 0 0 0 0 
0 0 0 0 0 0 0 0 0 
0 0 0 0 0 0 0 0 0 
0 0 0 0 0 0 0 0 0 
0 0 0 0 0 0 0 0 0 
0 0 0 0 0 0 0 0 0 
0 0 0 0 0 0 0 0 0 
0 0 0 0 0 0 0 0 0 
0 0 0 0 0 0 0 0 0 
0 0 0 0 0 0 0 0 0 
0 0 0 0 0 0 0 0 0 
0 0 0 0 0 0 0 0 0 
0 0 0 0 0 0 0 0 0 
0 0 0 0 0 0 0 0 0 
0 0 0 0 0 0 0 0 0 
0 0 0 0 0 0 0 0 0 
0 0 0 0 0 0 0 0 0 
0 0 0 0 0 0 0 0 0 
0 0 0 0 0 0 0 0 0 
0 0 0 0 0 0 0 0 0 
0 0 0 0 0 0 0 0 0 
0 0 0 0 0 0 0 0 0 
0 0 0 0 0 0 0 0 0 
0 0 0 0 0 0 0 0 0 
0 0 0 0 0 0 0 0 0 
0 0 0 0 0 0 0 0 0 
0 0 0 0 0 0 0 0 0 
0 0 0 0 0 0 0 0 0 
0 0 0 0 0 0 0 0 0 
0 0 0 0 0 0 0 0 0 
0 0 0 0 0 0 0 0 0 
0 0 0 0 0 0 0 0 0 
0 0 0 0 0 0 0 0 0 
0 0 0 0 0 0 0 0 0 
0 0 0 0 0 0 0 0 0 
0 0 0 0 0 0 0 0 0 
0 0 0 0 0 0 0 0 0 
0 0 0 0 0 0 0 0 0 
0 0 0 0 0 0 0 0 0 
0 0 0 0 0 0 0 0 0 
0 0 0 0 0 0 0 0 0 
0 0 0 0 0 0 0 0 0 
0 0 0 0 0 0 0 0 0 
0 0 0 0 0 0 0 0 0 
0 0 0 0 0 0 0 0 0 
0 0 0 0 0 0 0 0 0 
0 0 0 0 0 0 0 0 0 
0 0 0 0 0 0 0 0 0 
0 0 0 0 0 0 0 0 0 
0 0 0 0 0 0 0 0 0 
0 0 0 0 0 0 0 0 0 
0 0 0 0 0 0 0 0 0 
0 0 0 0 0 0 0 0 0 
0 0 0 0 0 0 0 0 0 
0 0 0 0 0 0 0 0 0 
0 0 0 0 0 0 0 0 0 
0 0 0 0 0 0 0 0 0 
0 0 0 0 0 0 0 0 0 
0 0 0 0 0 0 0 0 0 
0 0 0 0 0 0 0 0 0 
0 0 0 0 0 0 0 0 0 
0 0 0 0 0 0 0 0 0 
0 0 0 0 0 0 0 0 0 
0 0 0 0 0 0 0 0 0 
0 0 0 0 0 0 0 0 0 
0 0 0 0 0 0 0 0 0 
0 0 0 0 0 0 0 0 0 
0 0 0 0 0 0 0 0 0 
0 0 0 0 0 0 0 0 0 
0 0 0 0 0 0 0 0 0 
0 0 0 0 0 0 0 0 0 
0 0 0 0 0 0 0 0 0 
0 0 0 0 0 0 0 0 0 
0 0 0 0 0 0 0 0 0 
0 0 0 0 0 0 0 0 0 
0 0 0 0 0 0 0 0 0 
0 0 0 0 0 0 0 0 0 
0 0 0 0 0 0 0 0 0 
0 0 0 0 0 0 0 0 0 
0 0 0 0 0 0 0 0 0 
0 0 0 0 0 0 0 0 0 
0 0 0 0 0 0 0 0 0 
0 0 0 0 0 0 0 0 0 
0 0 0 0 0 0 0 0 0 
0 0 0 0 0 0 0 0 0 
0 0 0 0 0 0 0 0 0 
0 0 0 0 0 0 0 0 0 
0 0 0 0 0 0 0 0 0 
0 0 0 0 0 0 0 0 0 
0 0 0 0 0 0 0 0 0 
0 0 0 0 0 0 0 0 0 
0 0 0 0 0 0 0 0 0 
0 0 0 0 0 0 0 0 0 
0 0 0 0 0 0 0 0 0 
0 0 0 0 0 0 0 0 0 
0 0 0 0 0 0 0 0 0 
0 0 0 0 0 0 0 0 0 
0 0 0 0 0 0 0 0 0 
0 0 0 0 0 0 0 0 0 
0 0 0 0 0 0 0 0 0 
0 0 0 0 0 0 0 0 0 
0 0 0 0 0 0 0 0 0 
0 0 0 0 0 0 0 0 0 
0 0 0 0 0 0 0 0 0 
0 0 0 0 0 0 0 0 0 
0 0 0 0 0 0 0 0 0 
0 0 0 0 0 0 0 0 0 
0 0 0 0 0 0 0 0 0 
0 0 0 0 0 0 0 0 0 
0 0 0 0 0 0 0 0 0 
0 0 0 0 0 0 0 0 0 
0 0 0 0 0 0 0 0 0 
0 0 0 0 0 0 0 0 0 
0 0 0 0 0 0 0 0 0 
0 0 0 0 0 0 0 0 0 
0 0 0 0 0 0 0 0 0 
0 0 0 0 0 0 0 0 0 
0 0 0 0 0 0 0 0 0 
0 0 0 0 0 0 0 0 0 
0 0 0 0 0 0 0 0 0 
0 0 0 0 0 0 0 0 0 
0 0 0 0 0 0 0 0 0 
0 0 0 0 0 0 0 0 0 
0 0 0 0 0 0 0 0 0 
0 0 0 0 0 0 0 0 0 
0 0 0 0 0 0 0 0 0 
0 0 0 0 0 0 0 0 0 
0 0 0 0 0 0 0 0 0 
0 0 0 0 0 0 0 0 0 
0 0 0 0 0 0 0 0 0 
0 0 0 0 0 0 0 0 0 
0 0 0 0 0 0 0 0 0 
0 0 0 0 0 0 0 0 0 
0 0 0 0 0 0 0 0 0 
0 0 0 0 0 0 0 0 0 
0 0 0 0 0 0 0 0 0 
0 0 0 0 0 0 0 0 0 
0 0 0 0 0 0 0 0 0 
0 0 0 0 0 0 0 0 0 
0 0 0 0 0 0 0 0 0 
0 0 0 0 0 0 0 0 0 
0 0 0 0 0 0 0 0 0 
0 0 0 0 0 0 0 0 0 
0 0 0 0 0 0 0 0 0 
0 0 0 0 0 0 0 0 0 
0 0 0 0 0 0 0 0 0 
0 0 0 0 0 0 0 0 0 
0 0 0 0 0 0 0 0 0 
0 0 0 0 0 0 0 0 0 
0 0 0 0 0 0 0 0 0 
0 0 0 0 0 0 0 0 0 
0 0 0 0 0 0 0 0 0 
0 0 0 0 0 0 0 0 0 
0 0 0 0 0 0 0 0 0 
0 0 0 0 0 0 0 0 0 
0 0 0 0 0 0 0 0 0 
0 0 0 0 0 0 0 0 0 
0 0 0 0 0 0 0 0 0 
0 0 0 0 0 0 0 0 0 
0 0 0 0 0 0 0 0 0 
0 0 0 0 0 0 0 0 0 
0 0 0 0 0 0 0 0 0 
0 0 0 0 0 0 0 0 0 
0 0 0 0 0 0 0 0 0 
0 0 0 0 0 0 0 0 0 
0 0 0 0 0 0 0 0 0 
0 0 0 0 0 0 0 0 0 
0 0 0 0 0 0 0 0 0 
0 0 0 0 0 0 0 0 0 
0 0 0 0 0 0 0 0 0 
0 0 0 0 0 0 0 0 0 
0 0 0 0 0 0 0 0 0 
0 0 0 0 0 0 0 0 0 
0 0 0 0 0 0 0 0 0 
0 0 0 0 0 0 0 0 0 
0 0 0 0 0 0 0 0 0 
0 0 0 0 0 0 0 0 0 
0 0 0 0 0 0 0 0 0 
0 0 0 0 0 0 0 0 0 
0 0 0 0 0 0 0 0 0 
0 0 0 0 0 0 0 0 0 
0 0 0 0 0 0 0 0 0 
0 0 0 0 0 0 0 0 0 
0 0 0 0 0 0 0 0 0 
0 0 0 0 0 0 0 0 0 
0 0 0 0 0 0 0 0 0 
0 0 0 0 0 0 0 0 0 
0 0 0 0 0 0 0 0 0 
0 0 0 0 0 0 0 0 0 
0 0 0 0 0 0 0 0 0 
0 0 0 0 0 0 0 0 0 
0 0 0 0 0 0 0 0 0 
0 0 0 0 0 0 0 0 0 
0 0 0 0 0 0 0 0 0 
0 0 0 0 0 0 0 0 0 
0 0 0 0 0 0 0 0 0 
0 0 0 0 0 0 0 0 0 
0 0 0 0 0 0 0 0 0 
0 0 0 0 0 0 0 0 0 
0 0 0 0 0 0 0 0 0 
0 0 0 0 0 0 0 0 0 
0 0 0 0 0 0 0 0 0 
0 0 0 0 0 0 0 0 0 
0 0 0 0 0 0 0 0 0 
0 0 0 0 0 0 0 0 0 
0 0 0 0 0 0 0 0 0 
0 0 0 0 0 0 0 0 0 
0 0 0 0 0 0 0 0 0 
0 0 0 0 0 0 0 0 0 
0 0 0 0 0 0 0 0 0 
0 0 0 0 0 0 0 0 0 
0 0 0 0 0 0 0 0 0 
0 0 0 0 0 0 0 0 0 
0 0 0 0 0 0 0 0 0 
0 0 0 0 0 0 0 0 0 
0 0 0 0 0 0 0 0 0 
0 0 0 0 0 0 0 0 0 
0 0 0 0 0 0 0 0 0 
0 0 0 0 0 0 0 0 0 
0 0 0 0 0 0 0 0 0 
0 0 0 0 0 0 0 0 0 
0 0 0 0 0 0 0 0 0 
0 0 0 0 0 0 0 0 0 
0 0 0 0 0 0 0 0 0 
0 0 0 0 0 0 0 0 0 
0 0 0 0 0 0 0 0 0 
0 0 0 0 0 0 0 0 0 
0 0 0 0 0 0 0 0 0 
0 0 0 0 0 0 0 0 0 
0 0 0 0 0 0 0 0 0 
0 0 0 0 0 0 0 0 0 
0 0 0 0 0 0 0 0 0 
0 0 0 0 0 0 0 0 0 
0 0 0 0 0 0 0 0 0 
0 0 0 0 0 0 0 0 0 
0 0 0 0 0 0 0 0 0 
0 0 0 0 0 0 0 0 0 
0 0 0 0 0 0 0 0 0 
0 0 0 0 0 0 0 0 0 
0 0 0 0 0 0 0 0 0 
0 0 0 0 0 0 0 0 0 
0 0 0 0 0 0 0 0 0 
0 0 0 0 0 0 0 0 0 
0 0 0 0 0 0 0 0 0 
0 0 0 0 0 0 0 0 0 
0 0 0 0 0 0 0 0 0 
0 0 0 0 0 0 0 0 0 
0 0 0 0 0 0 0 0 0 
0 0 0 0 0 0 0 0 0 
0 0 0 0 0 0 0 0 0 
0 0 0 0 0 0 0 0 0 
0 0 0 0 0 0 0 0 0 
0 0 0 0 0 0 0 0 0 
0 0 0 0 0 0 0 0 0 
0 0 0 0 0 0 0 0 0 
0 0 0 0 0 0 0 0 0 
0 0 0 0 0 0 0 0 0 
0 0 0 0 0 0 0 0 0 
0 0 0 0 0 0 0 0 0 
0 0 0 0 0 0 0 0 0 
0 0 0 0 0 0 0 0 0 
0 0 0 0 0 0 0 0 0 
0 0 0 0 0 0 0 0 0 
0 0 0 0 0 0 0 0 0 
0 0 0 0 0 0 0 0 0 
0 0 0 0 0 0 0 0 0 
0 0 0 0 0 0 0 0 0 
0 0 0 0 0 0 0 0 0 
0 0 0 0 0 0 0 0 0 
0 0 0 0 0 0 0 0 0 
0 0 0 0 0 0 0 0 0 
0 0 0 0 0 0 0 0 0 
0 0 0 0 0 0 0 0 0 
0 0 0 0 0 0 0 0 0 
0 0 0 0 0 0 0 0 0 
0 0 0 0 0 0 0 0 0 
0 0 0 0 0 0 0 0 0 
0 0 0 0 0 0 0 0 0 
0 0 0 0 0 0 0 0 0 
0 0 0 0 0 0 0 0 0 
0 0 0 0 0 0 0 0 0 
0 0 0 0 0 0 0 0 0 
0 0 0 0 0 0 0 0 0 
0 0 0 0 0 0 0 0 0 
0 0 0 0 0 0 0 0 0 
0 0 0 0 0 0 0 0 0 
0 0 0 0 0 0 0 0 0 
0 0 0 0 0 0 0 0 0 
0 0 0 0 0 0 0 0 0 
0 0 0 0 0 0 0 0 0 
0 0 0 0 0 0 0 0 0 
0 0 0 0 0 0 0 0 0 
0 0 0 0 0 0 0 0 0 
0 0 0 0 0 0 0 0 0 
0 0 0 0 0 0 0 0 0 
0 0 0 0 0 0 0 0 0 
0 0 0 0 0 0 0 0 0 
0 0 0 0 0 0 0 0 0 
0 0 0 0 0 0 0 0 0 
0 0 0 0 0 0 0 0 0 
0 0 0 0 0 0 0 0 0 
0 0 0 0 0 0 0 0 0 
0 0 0 0 0 0 0 0 0 
0 0 0 0 0 0 0 0 0 
0 0 0 0 0 0 0 0 0 
0 0 0 0 0 0 0 0 0 
0 0 0 0 0 0 0 0 0 
0 0 0 0 0 0 0 0 0 
0 0 0 0 0 0 0 0 0 
0 0 0 0 0 0 0 0 0 
0 0 0 0 0 0 0 0 0 
0 0 0 0 0 0 0 0 0 
0 0 0 0 0 0 0 0 0 
0 0 0 0 0 0 0 0 0 
0 0 0 0 0 0 0 0 0 
0 0 0 0 0 0 0 0 0 
0 0 0 0 0 0 0 0 0 
0 0 0 0 0 0 0 0 0 
0 0 0 0 0 0 0 0 0 
0 0 0 0 0 0 0 0 0 
0 0 0 0 0 0 0 0 0 
0 0 0 0 0 0 0 0 0 
0 0 0 0 0 0 0 0 0 
0 0 0 0 0 0 0 0 0 
0 0 0 0 0 0 0 0 0 
0 0 0 0 0 0 0 0 0 
0 0 0 0 0 0 0 0 0 
0 0 0 0 0 0 0 0 0 
0 0 0 0 0 0 0 0 0 
0 0 0 0 0 0 0 0 0 
0 0 0 0 0 0 0 0 0 
0 0 0 0 0 0 0 0 0 
0 0 0 0 0 0 0 0 0 
0 0 0 0 0 0 0 0 0 
0 0 0 0 0 0 0 0 0 
0 0 0 0 0 0 0 0 0 
0 0 0 0 0 0 0 0 0 
0 0 0 0 0 0 0 0 0 
0 0 0 0 0 0 0 0 0 
0 0 0 0 0 0 0 0 0 
0 0 0 0 0 0 0 0 0 
0 0 0 0 0 0 0 0 0 
0 0 0 0 0 0 0 0 0 
0 0 0 0 0 0 0 0 0 
0 0 0 0 0 0 0 0 0 
0 0 0 0 0 0 0 0 0 
0 0 0 0 0 0 0 0 0 
0 0 0 0 0 0 0 0 0 
0 0 0 0 0 0 0 0 0 
0 0 0 0 0 0 0 0 0 
0 0 0 0 0 0 0 0 0 
0 0 0 0 0 0 0 0 0 
0 0 0 0 0 0 0 0 0 
0 0 0 0 0 0 0 0 0 
0 0 0 0 0 0 0 0 0 
0 0 0 0 0 0 0 0 0 
0 0 0 0 0 0 0 0 0 
0 0 0 0 0 0 0 0 0 
0 0 0 0 0 0 0 0 0 
0 0 0 0 0 0 0 0 0 
0 0 0 0 0 0 0 0 0 
0 0 0 0 0 0 0 0 0 
0 0 0 0 0 0 0 0 0 
0 0 0 0 0 0 0 0 0 
0 0 0 0 0 0 0 0 0 
0 0 0 0 0 0 0 0 0 
0 0 0 0 0 0 0 0 0 
0 0 0 0 0 0 0 0 0 
0 0 0 0 0 0 0 0 0 
0 0 0 0 0 0 0 0 0 
0 0 0 0 0 0 0 0 0 
0 0 0 0 0 0 0 0 0 
0 0 0 0 0 0 0 0 0 
0 0 0 0 0 0 0 0 0 
0 0 0 0 0 0 0 0 0 
0 0 0 0 0 0 0 0 0 
0 0 0 0 0 0 0 0 0 
0 0 0 0 0 0 0 0 0 
0 0 0 0 0 0 0 0 0 
0 0 0 0 0 0 0 0 0 
0 0 0 0 0 0 0 0 0 
0 0 0 0 0 0 0 0 0 
0 0 0 0 0 0 0 0 0 
0 0 0 0 0 0 0 0 0 
0 0 0 0 0 0 0 0 0 
0 0 0 0 0 0 0 0 0 
0 0 0 0 0 0 0 0 0 
0 0 0 0 0 0 0 0 0 
0 0 0 0 0 0 0 0 0 
0 0 0 0 0 0 0 0 0 
0 0 0 0 0 0 0 0 0 
0 0 0 0 0 0 0 0 0 
0 0 0 0 0 0 0 0 0 
0 0 0 0 0 0 0 0 0 
0 0 0 0 0 0 0 0 0 
0 0 0 0 0 0 0 0 0 
0 0 0 0 0 0 0 0 0 
0 0 0 0 0 0 0 0 0 
0 0 0 0 0 0 0 0 0 
0 0 0 0 0 0 0 0 0 
0 0 0 0 0 0 0 0 0 
0 0 0 0 0 0 0 0 0 
0 0 0 0 0 0 0 0 0 
0 0 0 0 0 0 0 0 0 
0 0 0 0 0 0 0 0 0 
0 0 0 0 0 0 0 0 0 
0 0 0 0 0 0 0 0 0 
0 0 0 0 0 0 0 0 0 
0 0 0 0 0 0 0 0 0 
0 0 0 0 0 0 0 0 0 
0 0 0 0 0 0 0 0 0 
0 0 0 0 0 0 0 0 0 
0 0 0 0 0 0 0 0 0 
0 0 0 0 0 0 0 0 0 
0 0 0 0 0 0 0 0 0 
0 0 0 0 0 0 0 0 0 
0 0 0 0 0 0 0 0 0 
0 0 0 0 0 0 0 0 0 
0 0 0 0 0 0 0 0 0 
0 0 0 0 0 0 0 0 0 
0 0 0 0 0 0 0 0 0 
0 0 0 0 0 0 0 0 0 
0 0 0 0 0 0 0 0 0 
0 0 0 0 0 0 0 0 0 
0 0 0 0 0 0 0 0 0 
0 0 0 0 0 0 0 0 0 
0 0 0 0 0 0 0 0 0 
0 0 0 0 0 0 0 0 0 
0 0 0 0 0 0 0 0 0 
0 0 0 0 0 0 0 0 0 
0 0 0 0 0 0 0 0 0 
0 0 0 0 0 0 0 0 0 
0 0 0 0 0 0 0 0 0 
0 0 0 0 0 0 0 0 0 
0 0 0 0 0 0 0 0 0 
0 0 0 0 0 0 0 0 0 
0 0 0 0 0 0 0 0 0 
0 0 0 0 0 0 0 0 0 
0 0 0 0 0 0 0 0 0 
0 0 0 0 0 0 0 0 0 
0 0 0 0 0 0 0 0 0 
0 0 0 0 0 0 0 0 0 
0 0 0 0 0 0 0 0 0 
0 0 0 0 0 0 0 0 0 
0 0 0 0 0 0 0 0 0 
0 0 0 0 0 0 0 0 0 
0 0 0 0 0 0 0 0 0 
0 0 0 0 0 0 0 0 0 
0 0 0 0 0 0 0 0 0 
0 0 0 0 0 0 0 0 0 
0 0 0 0 0 0 0 0 0 
0 0 0 0 0 0 0 0 0 
0 0 0 0 0 0 0 0 0 
0 0 0 0 0 0 0 0 0 
0 0 0 0 0 0 0 0 0 
0 0 0 0 0 0 0 0 0 
0 0 0 0 0 0 0 0 0 
0 0 0 0 0 0 0 0 0 
0 0 0 0 0 0 0 0 0 
0 0 0 0 0 0 0 0 0 
0 0 0 0 0 0 0 0 0 
0 0 0 0 0 0 0 0 0 
0 0 0 0 0 0 0 0 0 
0 0 0 0 0 0 0 0 0 
0 0 0 0 0 0 0 0 0 
0 0 0 0 0 0 0 0 0 
0 0 0 0 0 0 0 0 0 
0 0 0 0 0 0 0 0 0 
0 0 0 0 0 0 0 0 0 
0 0 0 0 0 0 0 0 0 
0 0 0 0 0 0 0 0 0 
0 0 0 0 0 0 0 0 0 
0 0 0 0 0 0 0 0 0 
0 0 0 0 0 0 0 0 0 
0 0 0 0 0 0 0 0 0 
0 0 0 0 0 0 0 0 0 
0 0 0 0 0 0 0 0 0 
0 0 0 0 0 0 0 0 0 
0 0 0 0 0 0 0 0 0 
0 0 0 0 0 0 0 0 0 
0 0 0 0 0 0 0 0 0 
0 0 0 0 0 0 0 0 0 
0 0 0 0 0 0 0 0 0 
0 0 0 0 0 0 0 0 0 
0 0 0 0 0 0 0 0 0 
0 0 0 0 0 0 0 0 0 
0 0 0 0 0 0 0 0 0 
0 0 0 0 0 0 0 0 0 
0 0 0 0 0 0 0 0 0 
0 0 0 0 0 0 0 0 0 
0 0 0 0 0 0 0 0 0 
0 0 0 0 0 0 0 0 0 
0 0 0 0 0 0 0 0 0 
0 0 0 0 0 0 0 0 0 
0 0 0 0 0 0 0 0 0 
0 0 0 0 0 0 0 0 0 
0 0 0 0 0 0 0 0 0 
0 0 0 0 0 0 0 0 0 
0 0 0 0 0 0 0 0 0 
0 0 0 0 0 0 0 0 0 
0 0 0 0 0 0 0 0 0 
0 0 0 0 0 0 0 0 0 
0 0 0 0 0 0 0 0 0 
0 0 0 0 0 0 0 0 0 
0 0 0 0 0 0 0 0 0 
0 0 0 0 0 0 0 0 0 
0 0 0 0 0 0 0 0 0 
0 0 0 0 0 0 0 0 0 
0 0 0 0 0 0 0 0 0 
0 0 0 0 0 0 0 0 0 
0 0 0 0 0 0 0 0 0 
0 0 0 0 0 0 0 0 0 
0 0 0 0 0 0 0 0 0 
0 0 0 0 0 0 0 0 0 
0 0 0 0 0 0 0 0 0 
0 0 0 0 0 0 0 0 0 
0 0 0 0 0 0 0 0 0 
0 0 0 0 0 0 0 0 0 
0 0 0 0 0 0 0 0 0 
0 0 0 0 0 0 0 0 0 
0 0 0 0 0 0 0 0 0 
0 0 0 0 0 0 0 0 0 
0 0 0 0 0 0 0 0 0 
0 0 0 0 0 0 0 0 0 
0 0 0 0 0 0 0 0 0 
0 0 0 0 0 0 0 0 0 
0 0 0 0 0 0 0 0 0 
0 0 0 0 0 0 0 0 0 
0 0 0 0 0 0 0 0 0 
0 0 0 0 0 0 0 0 0 
0 0 0 0 0 0 0 0 0 
0 0 0 0 0 0 0 0 0 
0 0 0 0 0 0 0 0 0 
0 0 0 0 0 0 0 0 0 
0 0 0 0 0 0 0 0 0 
0 0 0 0 0 0 0 0 0 
0 0 0 0 0 0 0 0 0 
0 0 0 0 0 0 0 0 0 
0 0 0 0 0 0 0 0 0 
0 0 0 0 0 0 0 0 0 
0 0 0 0 0 0 0 0 0 
0 0 0 0 0 0 0 0 0 
0 0 0 0 0 0 0 0 0 
0 0 0 0 0 0 0 0 0 
0 0 0 0 0 0 0 0 0 
0 0 0 0 0 0 0 0 0 
0 0 0 0 0 0 0 0 0 
0 0 0 0 0 0 0 0 0 
0 0 0 0 0 0 0 0 0 
0 0 0 0 0 0 0 0 0 
0 0 0 0 0 0 0 0 0 
0 0 0 0 0 0 0 0 0 
0 0 0 0 0 0 0 0 0 
0 0 0 0 0 0 0 0 0 
0 0 0 0 0 0 0 0 0 
0 0 0 0 0 0 0 0 0 
0 0 0 0 0 0 0 0 0 
0 0 0 0 0 0 0 0 0 
0 0 0 0 0 0 0 0 0 
0 0 0 0 0 0 0 0 0 
0 0 0 0 0 0 0 0 0 
0 0 0 0 0 0 0 0 0 
0 0 0 0 0 0 0 0 0 
0 0 0 0 0 0 0 0 0 
0 0 0 0 0 0 0 0 0 
0 0 0 0 0 0 0 0 0 
0 0 0 0 0 0 0 0 0 
0 0 0 0 0 0 0 0 0 
0 0 0 0 0 0 0 0 0 
0 0 0 0 0 0 0 0 0 
0 0 0 0 0 0 0 0 0 
0 0 0 0 0 0 0 0 0 
0 0 0 0 0 0 0 0 0 
0 0 0 0 0 0 0 0 0 
0 0 0 0 0 0 0 0 0 
0 0 0 0 0 0 0 0 0 
0 0 0 0 0 0 0 0 0 
0 0 0 0 0 0 0 0 0 
0 0 0 0 0 0 0 0 0 
0 0 0 0 0 0 0 0 0 
0 0 0 0 0 0 0 0 0 
0 0 0 0 0 0 0 0 0 
0 0 0 0 0 0 0 0 0 
0 0 0 0 0 0 0 0 0 
0 0 0 0 0 0 0 0 0 
0 0 0 0 0 0 0 0 0 
0 0 0 0 0 0 0 0 0 
0 0 0 0 0 0 0 0 0 
0 0 0 0 0 0 0 0 0 
0 0 0 0 0 0 0 0 0 
0 0 0 0 0 0 0 0 0 
0 0 0 0 0 0 0 0 0 
0 0 0 0 0 0 0 0 0 
0 0 0 0 0 0 0 0 0 
0 0 0 0 0 0 0 0 0 
0 0 0 0 0 0 0 0 0 
0 0 0 0 0 0 0 0 0 
0 0 0 0 0 0 0 0 0 
0 0 0 0 0 0 0 0 0 
0 0 0 0 0 0 0 0 0 
0 0 0 0 0 0 0 0 0 
0 0 0 0 0 0 0 0 0 
0 0 0 0 0 0 0 0 0 
0 0 0 0 0 0 0 0 0 
0 0 0 0 0 0 0 0 0 
0 0 0 0 0 0 0 0 0 
0 0 0 0 0 0 0 0 0 
0 0 0 0 0 0 0 0 0 
0 0 0 0 0 0 0 0 0 
0 0 0 0 0 0 0 0 0 
0 0 0 0 0 0 0 0 0 
0 0 0 0 0 0 0 0 0 
0 0 0 0 0 0 0 0 0 
0 0 0 0 0 0 0 0 0 
0 0 0 0 0 0 0 0 0 
0 0 0 0 0 0 0 0 0 
0 0 0 0 0 0 0 0 0 
0 0 0 0 0 0 0 0 0 
0 0 0 0 0 0 0 0 0 
0 0 0 0 0 0 0 0 0 
0 0 0 0 0 0 0 0 0 
0 0 0 0 0 0 0 0 0 
0 0 0 0 0 0 0 0 0 
0 0 0 0 0 0 0 0 0 
0 0 0 0 0 0 0 0 0 
0 0 0 0 0 0 0 0 0 
0 0 0 0 0 0 0 0 0 
0 0 0 0 0 0 0 0 0 
0 0 0 0 0 0 0 0 0 
0 0 0 0 0 0 0 0 0 
0 0 0 0 0 0 0 0 0 
0 0 0 0 0 0 0 0 0 
0 0 0 0 0 0 0 0 0 
0 0 0 0 0 0 0 0 0 
0 0 0 0 0 0 0 0 0 
0 0 0 0 0 0 0 0 0 
0 0 0 0 0 0 0 0 0 
0 0 0 0 0 0 0 0 0 
0 0 0 0 0 0 0 0 0 
0 0 0 0 0 0 0 0 0 
0 0 0 0 0 0 0 0 0 
0 0 0 0 0 0 0 0 0 
0 0 0 0 0 0 0 0 0 
0 0 0 0 0 0 0 0 0 
0 0 0 0 0 0 0 0 0 
0 0 0 0 0 0 0 0 0 
0 0 0 0 0 0 0 0 0 
0 0 0 0 0 0 0 0 0 
0 0 0 0 0 0 0 0 0 
0 0 0 0 0 0 0 0 0 
0 0 0 0 0 0 0 0 0 
0 0 0 0 0 0 0 0 0 
0 0 0 0 0 0 0 0 0 
0 0 0 0 0 0 0 0 0 
0 0 0 0 0 0 0 0 0 
0 0 0 0 0 0 0 0 0 
0 0 0 0 0 0 0 0 0 
0 0 0 0 0 0 0 0 0 
0 0 0 0 0 0 0 0 0 
0 0 0 0 0 0 0 0 0 
0 0 0 0 0 0 0 0 0 
0 0 0 0 0 0 0 0 0 
0 0 0 0 0 0 0 0 0 
0 0 0 0 0 0 0 0 0 
0 0 0 0 0 0 0 0 0 
0 0 0 0 0 0 0 0 0 
0 0 0 0 0 0 0 0 0 
0 0 0 0 0 0 0 0 0 
0 0 0 0 0 0 0 0 0 
0 0 0 0 0 0 0 0 0 
0 0 0 0 0 0 0 0 0 
0 0 0 0 0 0 0 0 0 
0 0 0 0 0 0 0 0 0 
0 0 0 0 0 0 0 0 0 
0 0 0 0 0 0 0 0 0 
0 0 0 0 0 0 0 0 0 
0 0 0 0 0 0 0 0 0 
0 0 0 0 0 0 0 0 0 
0 0 0 0 0 0 0 0 0 
0 0 0 0 0 0 0 0 0 
0 0 0 0 0 0 0 0 0 
0 0 0 0 0 0 0 0 0 
0 0 0 0 0 0 0 0 0 
0 0 0 0 0 0 0 0 0 
0 0 0 0 0 0 0 0 0 
0 0 0 0 0 0 0 0 0 
0 0 0 0 0 0 0 0 0 
0 0 0 0 0 0 0 0 0 
0 0 0 0 0 0 0 0 0 
0 0 0 0 0 0 0 0 0 
0 0 0 0 0 0 0 0 0 
0 0 0 0 0 0 0 0 0 
0 0 0 0 0 0 0 0 0 
0 0 0 0 0 0 0 0 0 
0 0 0 0 0 0 0 0 0 
0 0 0 0 0 0 0 0 0 
0 0 0 0 0 0 0 0 0 
0 0 0 0 0 0 0 0 0 
0 0 0 0 0 0 0 0 0 
0 0 0 0 0 0 0 0 0 
0 0 0 0 0 0 0 0 0 
0 0 0 0 0 0 0 0 0 
0 0 0 0 0 0 0 0 0 
0 0 0 0 0 0 0 0 0 
0 0 0 0 0 0 0 0 0 
0 0 0 0 0 0 0 0 0 
0 0 0 0 0 0 0 0 0 
0 0 0 0 0 0 0 0 0 
0 0 0 0 0 0 0 0 0 
0 0 0 0 0 0 0 0 0 
0 0 0 0 0 0 0 0 0 
0 0 0 0 0 0 0 0 0 
0 0 0 0 0 0 0 0 0 
0 0 0 0 0 0 0 0 0 
0 0 0 0 0 0 0 0 0 
0 0 0 0 0 0 0 0 0 
0 0 0 0 0 0 0 0 0 
0 0 0 0 0 0 0 0 0 
0 0 0 0 0 0 0 0 0 
0 0 0 0 0 0 0 0 0 
0 0 0 0 0 0 0 0 0 
0 0 0 0 0 0 0 0 0 
0 0 0 0 0 0 0 0 0 
0 0 0 0 0 0 0 0 0 
0 0 0 0 0 0 0 0 0 
0 0 0 0 0 0 0 0 0 
0 0 0 0 0 0 0 0 0 
0 0 0 0 0 0 0 0 0 
0 0 0 0 0 0 0 0 0 
0 0 0 0 0 0 0 0 0 
0 0 0 0 0 0 0 0 0 
0 0 0 0 0 0 0 0 0 
0 0 0 0 0 0 0 0 0 
0 0 0 0 0 0 0 0 0 
0 0 0 0 0 0 0 0 0 
0 0 0 0 0 0 0 0 0 
0 0 0 0 0 0 0 0 0 
0 0 0 0 0 0 0 0 0 
0 0 0 0 0 0 0 0 0 
0 0 0 0 0 0 0 0 0 
0 0 0 0 0 0 0 0 0 
0 0 0 0 0 0 0 0 0 
0 0 0 0 0 0 0 0 0 
0 0 0 0 0 0 0 0 0 
0 0 0 0 0 0 0 0 0 
0 0 0 0 0 0 0 0 0 
0 0 0 0 0 0 0 0 0 
0 0 0 0 0 0 0 0 0 
0 0 0 0 0 0 0 0 0 
0 0 0 0 0 0 0 0 0 
0 0 0 0 0 0 0 0 0 
0 0 0 0 0 0 0 0 0 
0 0 0 0 0 0 0 0 0 
0 0 0 0 0 0 0 0 0 
0 0 0 0 0 0 0 0 0 
0 0 0 0 0 0 0 0 0 
0 0 0 0 0 0 0 0 0 
0 0 0 0 0 0 0 0 0 
0 0 0 0 0 0 0 0 0 
0 0 0 0 0 0 0 0 0 
0 0 0 0 0 0 0 0 0 
0 0 0 0 0 0 0 0 0 
0 0 0 0 0 0 0 0 0 
0 0 0 0 0 0 0 0 0 
0 0 0 0 0 0 0 0 0 
0 0 0 0 0 0 0 0 0 
0 0 0 0 0 0 0 0 0 
0 0 0 0 0 0 0 0 0 
0 0 0 0 0 0 0 0 0 
0 0 0 0 0 0 0 0 0 
0 0 0 0 0 0 0 0 0 
0 0 0 0 0 0 0 0 0 
0 0 0 0 0 0 0 0 0 
0 0 0 0 0 0 0 0 0 
0 0 0 0 0 0 0 0 0 
0 0 0 0 0 0 0 0 0 
0 0 0 0 0 0 0 0 0 
0 0 0 0 0 0 0 0 0 
0 0 0 0 0 0 0 0 0 
0 0 0 0 0 0 0 0 0 
0 0 0 0 0 0 0 0 0 
0 0 0 0 0 0 0 0 0 
0 0 0 0 0 0 0 0 0 
0 0 0 0 0 0 0 0 0 
0 0 0 0 0 0 0 0 0 
0 0 0 0 0 0 0 0 0 
0 0 0 0 0 0 0 0 0 
0 0 0 0 0 0 0 0 0 
0 0 0 0 0 0 0 0 0 
0 0 0 0 0 0 0 0 0 
0 0 0 0 0 0 0 0 0 
0 0 0 0 0 0 0 0 0 
0 0 0 0 0 0 0 0 0 
0 0 0 0 0 0 0 0 0 
0 0 0 0 0 0 0 0 0 
0 0 0 0 0 0 0 0 0 
0 0 0 0 0 0 0 0 0 
0 0 0 0 0 0 0 0 0 
0 0 0 0 0 0 0 0 0 
0 0 0 0 0 0 0 0 0 
0 0 0 0 0 0 0 0 0 
0 0 0 0 0 0 0 0 0 
0 0 0 0 0 0 0 0 0 
0 0 0 0 0 0 0 0 0 
0 0 0 0 0 0 0 0 0 
0 0 0 0 0 0 0 0 0 
0 0 0 0 0 0 0 0 0 
0 0 0 0 0 0 0 0 0 
0 0 0 0 0 0 0 0 0 
0 0 0 0 0 0 0 0 0 
0 0 0 0 0 0 0 0 0 
0 0 0 0 0 0 0 0 0 
0 0 0 0 0 0 0 0 0 
0 0 0 0 0 0 0 0 0 
0 0 0 0 0 0 0 0 0 
0 0 0 0 0 0 0 0 0 
0 0 0 0 0 0 0 0 0 
0 0 0 0 0 0 0 0 0 
0 0 0 0 0 0 0 0 0 
0 0 0 0 0 0 0 0 0 
0 0 0 0 0 0 0 0 0 
0 0 0 0 0 0 0 0 0 
0 0 0 0 0 0 0 0 0 
0 0 0 0 0 0 0 0 0 
0 0 0 0 0 0 0 0 0 
0 0 0 0 0 0 0 0 0 
0 0 0 0 0 0 0 0 0 
0 0 0 0 0 0 0 0 0 
0 0 0 0 0 0 0 0 0 
0 0 0 0 0 0 0 0 0 
0 0 0 0 0 0 0 0 0 
0 0 0 0 0 0 0 0 0 
0 0 0 0 0 0 0 0 0 
0 0 0 0 0 0 0 0 0 
0 0 0 0 0 0 0 0 0 
0 0 0 0 0 0 0 0 0 
0 0 0 0 0 0 0 0 0 
0 0 0 0 0 0 0 0 0 
0 0 0 0 0 0 0 0 0 
0 0 0 0 0 0 0 0 0 
0 0 0 0 0 0 0 0 0 
0 0 0 0 0 0 0 0 0 
0 0 0 0 0 0 0 0 0 
0 0 0 0 0 0 0 0 0 
0 0 0 0 0 0 0 0 0 
0 0 0 0 0 0 0 0 0 
0 0 0 0 0 0 0 0 0 
0 0 0 0 0 0 0 0 0 
0 0 0 0 0 0 0 0 0 
0 0 0 0 0 0 0 0 0 
0 0 0 0 0 0 0 0 0 
0 0 0 0 0 0 0 0 0 
0 0 0 0 0 0 0 0 0 
0 0 0 0 0 0 0 0 0 
0 0 0 0 0 0 0 0 0 
0 0 0 0 0 0 0 0 0 
0 0 0 0 0 0 0 0 0 
0 0 0 0 0 0 0 0 0 
0 0 0 0 0 0 0 0 0 
0 0 0 0 0 0 0 0 0 
0 0 0 0 0 0 0 0 0 
0 0 0 0 0 0 0 0 0 
0 0 0 0 0 0 0 0 0 
0 0 0 0 0 0 0 0 0 
0 0 0 0 0 0 0 0 0 
0 0 0 0 0 0 0 0 0 
0 0 0 0 0 0 0 0 0 
0 0 0 0 0 0 0 0 0 
0 0 0 0 0 0 0 0 0 
0 0 0 0 0 0 0 0 0 
0 0 0 0 0 0 0 0 0 
0 0 0 0 0 0 0 0 0 
0 0 0 0 0 0 0 0 0 
0 0 0 0 0 0 0 0 0 
0 0 0 0 0 0 0 0 0 
0 0 0 0 0 0 0 0 0 
0 0 0 0 0 0 0 0 0 
0 0 0 0 0 0 0 0 0 
0 0 0 0 0 0 0 0 0 
0 0 0 0 0 0 0 0 0 
0 0 0 0 0 0 0 0 0 
0 0 0 0 0 0 0 0 0 
0 0 0 0 0 0 0 0 0 
0 0 0 0 0 0 0 0 0 
0 0 0 0 0 0 0 0 0 
0 0 0 0 0 0 0 0 0 
0 0 0 0 0 0 0 0 0 
0 0 0 0 0 0 0 0 0 
0 0 0 0 0 0 0 0 0 
0 0 0 0 0 0 0 0 0 
0 0 0 0 0 0 0 0 0 
0 0 0 0 0 0 0 0 0 
0 0 0 0 0 0 0 0 0 
0 0 0 0 0 0 0 0 0 
0 0 0 0 0 0 0 0 0 
0 0 0 0 0 0 0 0 0 
0 0 0 0 0 0 0 0 0 
0 0 0 0 0 0 0 0 0 
0 0 0 0 0 0 0 0 0 
0 0 0 0 0 0 0 0 0 
0 0 0 0 0 0 0 0 0 
0 0 0 0 0 0 0 0 0 
0 0 0 0 0 0 0 0 0 
0 0 0 0 0 0 0 0 0 
0 0 0 0 0 0 0 0 0 
0 0 0 0 0 0 0 0 0 
0 0 0 0 0 0 0 0 0 
0 0 0 0 0 0 0 0 0 
0 0 0 0 0 0 0 0 0 
0 0 0 0 0 0 0 0 0 
0 0 0 0 0 0 0 0 0 
0 0 0 0 0 0 0 0 0 
0 0 0 0 0 0 0 0 0 
0 0 0 0 0 0 0 0 0 
0 0 0 0 0 0 0 0 0 
0 0 0 0 0 0 0 0 0 
0 0 0 0 0 0 0 0 0 
0 0 0 0 0 0 0 0 0 
0 0 0 0 0 0 0 0 0 
0 0 0 0 0 0 0 0 0 
0 0 0 0 0 0 0 0 0 
0 0 0 0 0 0 0 0 0 
0 0 0 0 0 0 0 0 0 
0 0 0 0 0 0 0 0 0 
0 0 0 0 0 0 0 0 0 
0 0 0 0 0 0 0 0 0 
0 0 0 0 0 0 0 0 0 
0 0 0 0 0 0 0 0 0 
0 0 0 0 0 0 0 0 0 
0 0 0 0 0 0 0 0 0 
0 0 0 0 0 0 0 0 0 
0 0 0 0 0 0 0 0 0 
0 0 0 0 0 0 0 0 0 
0 0 0 0 0 0 0 0 0 
0 0 0 0 0 0 0 0 0 
0 0 0 0 0 0 0 0 0 
0 0 0 0 0 0 0 0 0 
0 0 0 0 0 0 0 0 0 
0 0 0 0 0 0 0 0 0 
0 0 0 0 0 0 0 0 0 
0 0 0 0 0 0 0 0 0 
0 0 0 0 0 0 0 0 0 
0 0 0 0 0 0 0 0 0 
0 0 0 0 0 0 0 0 0 
0 0 0 0 0 0 0 0 0 
0 0 0 0 0 0 0 0 0 
0 0 0 0 0 0 0 0 0 
0 0 0 0 0 0 0 0 0 
0 0 0 0 0 0 0 0 0 
0 0 0 0 0 0 0 0 0 
0 0 0 0 0 0 0 0 0 
0 0 0 0 0 0 0 0 0 
0 0 0 0 0 0 0 0 0 
0 0 0 0 0 0 0 0 0 
0 0 0 0 0 0 0 0 0 
0 0 0 0 0 0 0 0 0 
0 0 0 0 0 0 0 0 0 
0 0 0 0 0 0 0 0 0 
0 0 0 0 0 0 0 0 0 
0 0 0 0 0 0 0 0 0 
0 0 0 0 0 0 0 0 0 
0 0 0 0 0 0 0 0 0 
0 0 0 0 0 0 0 0 0 
0 0 0 0 0 0 0 0 0 
0 0 0 0 0 0 0 0 0 
0 0 0 0 0 0 0 0 0 
0 0 0 0 0 0 0 0 0 
0 0 0 0 0 0 0 0 0 
0 0 0 0 0 0 0 0 0 
0 0 0 0 0 0 0 0 0 
0 0 0 0 0 0 0 0 0 
0 0 0 0 0 0 0 0 0 
0 0 0 0 0 0 0 0 0 
0 0 0 0 0 0 0 0 0 
0 0 0 0 0 0 0 0 0 
0 0 0 0 0 0 0 0 0 
0 0 0 0 0 0 0 0 0 
0 0 0 0 0 0 0 0 0 
0 0 0 0 0 0 0 0 0 
0 0 0 0 0 0 0 0 0 
0 0 0 0 0 0 0 0 0 
0 0 0 0 0 0 0 0 0 
0 0 0 0 0 0 0 0 0 
0 0 0 0 0 0 0 0 0 
0 0 0 0 0 0 0 0 0 
0 0 0 0 0 0 0 0 0 
0 0 0 0 0 0 0 0 0 
0 0 0 0 0 0 0 0 0 
0 0 0 0 0 0 0 0 0 
0 0 0 0 0 0 0 0 0 
0 0 0 0 0 0 0 0 0 
0 0 0 0 0 0 0 0 0 
0 0 0 0 0 0 0 0 0 
0 0 0 0 0 0 0 0 0 
0 0 0 0 0 0 0 0 0 
0 0 0 0 0 0 0 0 0 
0 0 0 0 0 0 0 0 0 
0 0 0 0 0 0 0 0 0 
0 0 0 0 0 0 0 0 0 
0 0 0 0 0 0 0 0 0 
0 0 0 0 0 0 0 0 0 
0 0 0 0 0 0 0 0 0 
0 0 0 0 0 0 0 0 0 
0 0 0 0 0 0 0 0 0 
0 0 0 0 0 0 0 0 0 
0 0 0 0 0 0 0 0 0 
0 0 0 0 0 0 0 0 0 
0 0 0 0 0 0 0 0 0 
0 0 0 0 0 0 0 0 0 
0 0 0 0 0 0 0 0 0 
0 0 0 0 0 0 0 0 0 
0 0 0 0 0 0 0 0 0 
0 0 0 0 0 0 0 0 0 
0 0 0 0 0 0 0 0 0 
0 0 0 0 0 0 0 0 0 
0 0 0 0 0 0 0 0 0 
0 0 0 0 0 0 0 0 0 
0 0 0 0 0 0 0 0 0 
0 0 0 0 0 0 0 0 0 
0 0 0 0 0 0 0 0 0 
0 0 0 0 0 0 0 0 0 
0 0 0 0 0 0 0 0 0 
0 0 0 0 0 0 0 0 0 
0 0 0 0 0 0 0 0 0 
0 0 0 0 0 0 0 0 0 
0 0 0 0 0 0 0 0 0 
0 0 0 0 0 0 0 0 0 
0 0 0 0 0 0 0 0 0 
0 0 0 0 0 0 0 0 0 
0 0 0 0 0 0 0 0 0 
0 0 0 0 0 0 0 0 0 
0 0 0 0 0 0 0 0 0 
0 0 0 0 0 0 0 0 0 
0 0 0 0 0 0 0 0 0 
0 0 0 0 0 0 0 0 0 
0 0 0 0 0 0 0 0 0 
0 0 0 0 0 0 0 0 0 
0 0 0 0 0 0 0 0 0 
0 0 0 0 0 0 0 0 0 
0 0 0 0 0 0 0 0 0 
0 0 0 0 0 0 0 0 0 
0 0 0 0 0 0 0 0 0 
0 0 0 0 0 0 0 0 0 
0 0 0 0 0 0 0 0 0 
0 0 0 0 0 0 0 0 0 
0 0 0 0 0 0 0 0 0 
0 0 0 0 0 0 0 0 0 
0 0 0 0 0 0 0 0 0 
0 0 0 0 0 0 0 0 0 
0 0 0 0 0 0 0 0 0 
0 0 0 0 0 0 0 0 0 
0 0 0 0 0 0 0 0 0 
0 0 0 0 0 0 0 0 0 
0 0 0 0 0 0 0 0 0 
0 0 0 0 0 0 0 0 0 
0 0 0 0 0 0 0 0 0 
0 0 0 0 0 0 0 0 0 
0 0 0 0 0 0 0 0 0 
0 0 0 0 0 0 0 0 0 
0 0 0 0 0 0 0 0 0 
0 0 0 0 0 0 0 0 0 
0 0 0 0 0 0 0 0 0 
0 0 0 0 0 0 0 0 0 
0 0 0 0 0 0 0 0 0 
0 0 0 0 0 0 0 0 0 
0 0 0 0 0 0 0 0 0 
0 0 0 0 0 0 0 0 0 
0 0 0 0 0 0 0 0 0 
0 0 0 0 0 0 0 0 0 
0 0 0 0 0 0 0 0 0 
0 0 0 0 0 0 0 0 0 
0 0 0 0 0 0 0 0 0 
0 0 0 0 0 0 0 0 0 
0 0 0 0 0 0 0 0 0 
0 0 0 0 0 0 0 0 0 
0 0 0 0 0 0 0 0 0 
0 0 0 0 0 0 0 0 0 
0 0 0 0 0 0 0 0 0 
0 0 0 0 0 0 0 0 0 
0 0 0 0 0 0 0 0 0 
0 0 0 0 0 0 0 0 0 
0 0 0 0 0 0 0 0 0 
0 0 0 0 0 0 0 0 0 
0 0 0 0 0 0 0 0 0 
0 0 0 0 0 0 0 0 0 
0 0 0 0 0 0 0 0 0 
0 0 0 0 0 0 0 0 0 
0 0 0 0 0 0 0 0 0 
0 0 0 0 0 0 0 0 0 
0 0 0 0 0 0 0 0 0 
0 0 0 0 0 0 0 0 0 
0 0 0 0 0 0 0 0 0 
0 0 0 0 0 0 0 0 0 
0 0 0 0 0 0 0 0 0 
0 0 0 0 0 0 0 0 0 
0 0 0 0 0 0 0 0 0 
0 0 0 0 0 0 0 0 0 
0 0 0 0 0 0 0 0 0 
0 0 0 0 0 0 0 0 0 
0 0 0 0 0 0 0 0 0 
0 0 0 0 0 0 0 0 0 
0 0 0 0 0 0 0 0 0 
0 0 0 0 0 0 0 0 0 
0 0 0 0 0 0 0 0 0 
0 0 0 0 0 0 0 0 0 
0 0 0 0 0 0 0 0 0 
0 0 0 0 0 0 0 0 0 
0 0 0 0 0 0 0 0 0 
0 0 0 0 0 0 0 0 0 
0 0 0 0 0 0 0 0 0 
0 0 0 0 0 0 0 0 0 
0 0 0 0 0 0 0 0 0 
0 0 0 0 0 0 0 0 0 
0 0 0 0 0 0 0 0 0 
0 0 0 0 0 0 0 0 0 
0 0 0 0 0 0 0 0 0 
0 0 0 0 0 0 0 0 0 
0 0 0 0 0 0 0 0 0 
0 0 0 0 0 0 0 0 0 
0 0 0 0 0 0 0 0 0 
0 0 0 0 0 0 0 0 0 
0 0 0 0 0 0 0 0 0 
0 0 0 0 0 0 0 0 0 
0 0 0 0 0 0 0 0 0 
0 0 0 0 0 0 0 0 0 
0 0 0 0 0 0 0 0 0 
0 0 0 0 0 0 0 0 0 
0 0 0 0 0 0 0 0 0 
0 0 0 0 0 0 0 0 0 
0 0 0 0 0 0 0 0 0 
0 0 0 0 0 0 0 0 0 
0 0 0 0 0 0 0 0 0 
0 0 0 0 0 0 0 0 0 
0 0 0 0 0 0 0 0 0 
0 0 0 0 0 0 0 0 0 
0 0 0 0 0 0 0 0 0 
0 0 0 0 0 0 0 0 0 
0 0 0 0 0 0 0 0 0 
0 0 0 0 0 0 0 0 0 
0 0 0 0 0 0 0 0 0 
0 0 0 0 0 0 0 0 0 
0 0 0 0 0 0 0 0 0 
0 0 0 0 0 0 0 0 0 
0 0 0 0 0 0 0 0 0 
0 0 0 0 0 0 0 0 0 
0 0 0 0 0 0 0 0 0 
0 0 0 0 0 0 0 0 0 
0 0 0 0 0 0 0 0 0 
0 0 0 0 0 0 0 0 0 
0 0 0 0 0 0 0 0 0 
0 0 0 0 0 0 0 0 0 
0 0 0 0 0 0 0 0 0 
0 0 0 0 0 0 0 0 0 
0 0 0 0 0 0 0 0 0 
0 0 0 0 0 0 0 0 0 
0 0 0 0 0 0 0 0 0 
0 0 0 0 0 0 0 0 0 
0 0 0 0 0 0 0 0 0 
0 0 0 0 0 0 0 0 0 
0 0 0 0 0 0 0 0 0 
0 0 0 0 0 0 0 0 0 
0 0 0 0 0 0 0 0 0 
0 0 0 0 0 0 0 0 0 
0 0 0 0 0 0 0 0 0 
0 0 0 0 0 0 0 0 0 
0 0 0 0 0 0 0 0 0 
0 0 0 0 0 0 0 0 0 
0 0 0 0 0 0 0 0 0 
0 0 0 0 0 0 0 0 0 
0 0 0 0 0 0 0 0 0 
0 0 0 0 0 0 0 0 0 
0 0 0 0 0 0 0 0 0 
0 0 0 0 0 0 0 0 0 
0 0 0 0 0 0 0 0 0 
0 0 0 0 0 0 0 0 0 
0 0 0 0 0 0 0 0 0 
0 0 0 0 0 0 0 0 0 
0 0 0 0 0 0 0 0 0 
0 0 0 0 0 0 0 0 0 
0 0 0 0 0 0 0 0 0 
0 0 0 0 0 0 0 0 0 
0 0 0 0 0 0 0 0 0 
0 0 0 0 0 0 0 0 0 
0 0 0 0 0 0 0 0 0 
0 0 0 0 0 0 0 0 0 
0 0 0 0 0 0 0 0 0 
0 0 0 0 0 0 0 0 0 
0 0 0 0 0 0 0 0 0 
0 0 0 0 0 0 0 0 0 
0 0 0 0 0 0 0 0 0 
0 0 0 0 0 0 0 0 0 
0 0 0 0 0 0 0 0 0 
0 0 0 0 0 0 0 0 0 
0 0 0 0 0 0 0 0 0 
0 0 0 0 0 0 0 0 0 
0 0 0 0 0 0 0 0 0 
0 0 0 0 0 0 0 0 0 
0 0 0 0 0 0 0 0 0 
0 0 0 0 0 0 0 0 0 
0 0 0 0 0 0 0 0 0 
0 0 0 0 0 0 0 0 0 
0 0 0 0 0 0 0 0 0 
0 0 0 0 0 0 0 0 0 
0 0 0 0 0 0 0 0 0 
0 0 0 0 0 0 0 0 0 
0 0 0 0 0 0 0 0 0 
0 0 0 0 0 0 0 0 0 
0 0 0 0 0 0 0 0 0 
0 0 0 0 0 0 0 0 0 
0 0 0 0 0 0 0 0 0 
0 0 0 0 0 0 0 0 0 
0 0 0 0 0 0 0 0 0 
0 0 0 0 0 0 0 0 0 
0 0 0 0 0 0 0 0 0 
0 0 0 0 0 0 0 0 0 
0 0 0 0 0 0 0 0 0 
0 0 0 0 0 0 0 0 0 
0 0 0 0 0 0 0 0 0 
0 0 0 0 0 0 0 0 0 
0 0 0 0 0 0 0 0 0 
0 0 0 0 0 0 0 0 0 
0 0 0 0 0 0 0 0 0 
0 0 0 0 0 0 0 0 0 
0 0 0 0 0 0 0 0 0 
0 0 0 0 0 0 0 0 0 
0 0 0 0 0 0 0 0 0 
0 0 0 0 0 0 0 0 0 
0 0 0 0 0 0 0 0 0 
0 0 0 0 0 0 0 0 0 
0 0 0 0 0 0 0 0 0 
0 0 0 0 0 0 0 0 0 
0 0 0 0 0 0 0 0 0 
0 0 0 0 0 0 0 0 0 
0 0 0 0 0 0 0 0 0 
0 0 0 0 0 0 0 0 0 
0 0 0 0 0 0 0 0 0 
0 0 0 0 0 0 0 0 0 
0 0 0 0 0 0 0 0 0 
0 0 0 0 0 0 0 0 0 
0 0 0 0 0 0 0 0 0 
0 0 0 0 0 0 0 0 0 
0 0 0 0 0 0 0 0 0 
0 0 0 0 0 0 0 0 0 
0 0 0 0 0 0 0 0 0 
0 0 0 0 0 0 0 0 0 
0 0 0 0 0 0 0 0 0 
0 0 0 0 0 0 0 0 0 
0 0 0 0 0 0 0 0 0 
0 0 0 0 0 0 0 0 0 
0 0 0 0 0 0 0 0 0 
0 0 0 0 0 0 0 0 0 
0 0 0 0 0 0 0 0 0 
0 0 0 0 0 0 0 0 0 
0 0 0 0 0 0 0 0 0 
0 0 0 0 0 0 0 0 0 
0 0 0 0 0 0 0 0 0 
0 0 0 0 0 0 0 0 0 
0 0 0 0 0 0 0 0 0 
0 0 0 0 0 0 0 0 0 
0 0 0 0 0 0 0 0 0 
0 0 0 0 0 0 0 0 0 
0 0 0 0 0 0 0 0 0 
0 0 0 0 0 0 0 0 0 
0 0 0 0 0 0 0 0 0 
0 0 0 0 0 0 0 0 0 
0 0 0 0 0 0 0 0 0 
0 0 0 0 0 0 0 0 0 
0 0 0 0 0 0 0 0 0 
0 0 0 0 0 0 0 0 0 
0 0 0 0 0 0 0 0 0 
0 0 0 0 0 0 0 0 0 
0 0 0 0 0 0 0 0 0 
0 0 0 0 0 0 0 0 0 
0 0 0 0 0 0 0 0 0 
0 0 0 0 0 0 0 0 0 
0 0 0 0 0 0 0 0 0 
0 0 0 0 0 0 0 0 0 
0 0 0 0 0 0 0 0 0 
0 0 0 0 0 0 0 0 0 
0 0 0 0 0 0 0 0 0 
0 0 0 0 0 0 0 0 0 
0 0 0 0 0 0 0 0 0 
0 0 0 0 0 0 0 0 0 
0 0 0 0 0 0 0 0 0 
0 0 0 0 0 0 0 0 0 
0 0 0 0 0 0 0 0 0 
0 0 0 0 0 0 0 0 0 
0 0 0 0 0 0 0 0 0 
0 0 0 0 0 0 0 0 0 
0 0 0 0 0 0 0 0 0 
0 0 0 0 0 0 0 0 0 
0 0 0 0 0 0 0 0 0 
0 0 0 0 0 0 0 0 0 
0 0 0 0 0 0 0 0 0 
0 0 0 0 0 0 0 0 0 
0 0 0 0 0 0 0 0 0 
0 0 0 0 0 0 0 0 0 
0 0 0 0 0 0 0 0 0 
0 0 0 0 0 0 0 0 0 
0 0 0 0 0 0 0 0 0 
0 0 0 0 0 0 0 0 0 
0 0 0 0 0 0 0 0 0 
0 0 0 0 0 0 0 0 0 
0 0 0 0 0 0 0 0 0 
0 0 0 0 0 0 0 0 0 
0 0 0 0 0 0 0 0 0 
0 0 0 0 0 0 0 0 0 
0 0 0 0 0 0 0 0 0 
0 0 0 0 0 0 0 0 0 
0 0 0 0 0 0 0 0 0 
0 0 0 0 0 0 0 0 0 
0 0 0 0 0 0 0 0 0 
0 0 0 0 0 0 0 0 0 
0 0 0 0 0 0 0 0 0 
0 0 0 0 0 0 0 0 0 
0 0 0 0 0 0 0 0 0 
0 0 0 0 0 0 0 0 0 
0 0 0 0 0 0 0 0 0 
0 0 0 0 0 0 0 0 0 
0 0 0 0 0 0 0 0 0 
0 0 0 0 0 0 0 0 0 
0 0 0 0 0 0 0 0 0 
0 0 0 0 0 0 0 0 0 
0 0 0 0 0 0 0 0 0 
0 0 0 0 0 0 0 0 0 
0 0 0 0 0 0 0 0 0 
0 0 0 0 0 0 0 0 0 
0 0 0 0 0 0 0 0 0 
0 0 0 0 0 0 0 0 0 
0 0 0 0 0 0 0 0 0 
0 0 0 0 0 0 0 0 0 
0 0 0 0 0 0 0 0 0 
0 0 0 0 0 0 0 0 0 
0 0 0 0 0 0 0 0 0 
0 0 0 0 0 0 0 0 0 
0 0 0 0 0 0 0 0 0 
0 0 0 0 0 0 0 0 0 
0 0 0 0 0 0 0 0 0 
0 0 0 0 0 0 0 0 0 
0 0 0 0 0 0 0 0 0 
0 0 0 0 0 0 0 0 0 
0 0 0 0 0 0 0 0 0 
0 0 0 0 0 0 0 0 0 
0 0 0 0 0 0 0 0 0 
0 0 0 0 0 0 0 0 0 
0 0 0 0 0 0 0 0 0 
0 0 0 0 0 0 0 0 0 
0 0 0 0 0 0 0 0 0 
0 0 0 0 0 0 0 0 0 
0 0 0 0 0 0 0 0 0 
0 0 0 0 0 0 0 0 0 
0 0 0 0 0 0 0 0 0 
0 0 0 0 0 0 0 0 0 
0 0 0 0 0 0 0 0 0 
0 0 0 0 0 0 0 0 0 
0 0 0 0 0 0 0 0 0 
0 0 0 0 0 0 0 0 0 
0 0 0 0 0 0 0 0 0 
0 0 0 0 0 0 0 0 0 
0 0 0 0 0 0 0 0 0 
0 0 0 0 0 0 0 0 0 
0 0 0 0 0 0 0 0 0 
0 0 0 0 0 0 0 0 0 
0 0 0 0 0 0 0 0 0 
0 0 0 0 0 0 0 0 0 
0 0 0 0 0 0 0 0 0 
0 0 0 0 0 0 0 0 0 
0 0 0 0 0 0 0 0 0 
0 0 0 0 0 0 0 0 0 
0 0 0 0 0 0 0 0 0 
0 0 0 0 0 0 0 0 0 
0 0 0 0 0 0 0 0 0 
0 0 0 0 0 0 0 0 0 
0 0 0 0 0 0 0 0 0 
0 0 0 0 0 0 0 0 0 
0 0 0 0 0 0 0 0 0 
0 0 0 0 0 0 0 0 0 
0 0 0 0 0 0 0 0 0 
0 0 0 0 0 0 0 0 0 
0 0 0 0 0 0 0 0 0 
0 0 0 0 0 0 0 0 0 
0 0 0 0 0 0 0 0 0 
0 0 0 0 0 0 0 0 0 
0 0 0 0 0 0 0 0 0 
0 0 0 0 0 0 0 0 0 
0 0 0 0 0 0 0 0 0 
0 0 0 0 0 0 0 0 0 
0 0 0 0 0 0 0 0 0 
0 0 0 0 0 0 0 0 0 
0 0 0 0 0 0 0 0 0 
0 0 0 0 0 0 0 0 0 
0 0 0 0 0 0 0 0 0 
0 0 0 0 0 0 0 0 0 
0 0 0 0 0 0 0 0 0 
0 0 0 0 0 0 0 0 0 
0 0 0 0 0 0 0 0 0 
0 0 0 0 0 0 0 0 0 
0 0 0 0 0 0 0 0 0 
0 0 0 0 0 0 0 0 0 
0 0 0 0 0 0 0 0 0 
0 0 0 0 0 0 0 0 0 
0 0 0 0 0 0 0 0 0 
0 0 0 0 0 0 0 0 0 
0 0 0 0 0 0 0 0 0 
0 0 0 0 0 0 0 0 0 
0 0 0 0 0 0 0 0 0 
0 0 0 0 0 0 0 0 0 
0 0 0 0 0 0 0 0 0 
0 0 0 0 0 0 0 0 0 
0 0 0 0 0 0 0 0 0 
0 0 0 0 0 0 0 0 0 
0 0 0 0 0 0 0 0 0 
0 0 0 0 0 0 0 0 0 
0 0 0 0 0 0 0 0 0 
0 0 0 0 0 0 0 0 0 
0 0 0 0 0 0 0 0 0 
0 0 0 0 0 0 0 0 0 
0 0 0 0 0 0 0 0 0 
0 0 0 0 0 0 0 0 0 
0 0 0 0 0 0 0 0 0 
0 0 0 0 0 0 0 0 0 
0 0 0 0 0 0 0 0 0 
0 0 0 0 0 0 0 0 0 
0 0 0 0 0 0 0 0 0 
0 0 0 0 0 0 0 0 0 
0 0 0 0 0 0 0 0 0 
0 0 0 0 0 0 0 0 0 
0 0 0 0 0 0 0 0 0 
0 0 0 0 0 0 0 0 0 
0 0 0 0 0 0 0 0 0 
0 0 0 0 0 0 0 0 0 
0 0 0 0 0 0 0 0 0 
0 0 0 0 0 0 0 0 0 
0 0 0 0 0 0 0 0 0 
0 0 0 0 0 0 0 0 0 
0 0 0 0 0 0 0 0 0 
0 0 0 0 0 0 0 0 0 
0 0 0 0 0 0 0 0 0 
0 0 0 0 0 0 0 0 0 
0 0 0 0 0 0 0 0 0 
0 0 0 0 0 0 0 0 0 
0 0 0 0 0 0 0 0 0 
0 0 0 0 0 0 0 0 0 
0 0 0 0 0 0 0 0 0 
0 0 0 0 0 0 0 0 0 
0 0 0 0 0 0 0 0 0 
0 0 0 0 0 0 0 0 0 
0 0 0 0 0 0 0 0 0 
0 0 0 0 0 0 0 0 0 
0 0 0 0 0 0 0 0 0 
0 0 0 0 0 0 0 0 0 
0 0 0 0 0 0 0 0 0 
0 0 0 0 0 0 0 0 0 
0 0 0 0 0 0 0 0 0 
0 0 0 0 0 0 0 0 0 
0 0 0 0 0 0 0 0 0 
0 0 0 0 0 0 0 0 0 
0 0 0 0 0 0 0 0 0 
0 0 0 0 0 0 0 0 0 
0 0 0 0 0 0 0 0 0 
0 0 0 0 0 0 0 0 0 
0 0 0 0 0 0 0 0 0 
0 0 0 0 0 0 0 0 0 
0 0 0 0 0 0 0 0 0 
0 0 0 0 0 0 0 0 0 
0 0 0 0 0 0 0 0 0 
0 0 0 0 0 0 0 0 0 
0 0 0 0 0 0 0 0 0 
0 0 0 0 0 0 0 0 0 
0 0 0 0 0 0 0 0 0 
0 0 0 0 0 0 0 0 0 
0 0 0 0 0 0 0 0 0 
0 0 0 0 0 0 0 0 0 
0 0 0 0 0 0 0 0 0 
0 0 0 0 0 0 0 0 0 
0 0 0 0 0 0 0 0 0 
0 0 0 0 0 0 0 0 0 
0 0 0 0 0 0 0 0 0 
0 0 0 0 0 0 0 0 0 
0 0 0 0 0 0 0 0 0 
0 0 0 0 0 0 0 0 0 
0 0 0 0 0 0 0 0 0 
0 0 0 0 0 0 0 0 0 
0 0 0 0 0 0 0 0 0 
0 0 0 0 0 0 0 0 0 
0 0 0 0 0 0 0 0 0 
0 0 0 0 0 0 0 0 0 
0 0 0 0 0 0 0 0 0 
0 0 0 0 0 0 0 0 0 
0 0 0 0 0 0 0 0 0 
0 0 0 0 0 0 0 0 0 
0 0 0 0 0 0 0 0 0 
0 0 0 0 0 0 0 0 0 
0 0 0 0 0 0 0 0 0 
0 0 0 0 0 0 0 0 0 
0 0 0 0 0 0 0 0 0 
0 0 0 0 0 0 0 0 0 
0 0 0 0 0 0 0 0 0 
0 0 0 0 0 0 0 0 0 
0 0 0 0 0 0 0 0 0 
0 0 0 0 0 0 0 0 0 
0 0 0 0 0 0 0 0 0 
0 0 0 0 0 0 0 0 0 
0 0 0 0 0 0 0 0 0 
0 0 0 0 0 0 0 0 0 
0 0 0 0 0 0 0 0 0 
0 0 0 0 0 0 0 0 0 
0 0 0 0 0 0 0 0 0 
0 0 0 0 0 0 0 0 0 
0 0 0 0 0 0 0 0 0 
0 0 0 0 0 0 0 0 0 
0 0 0 0 0 0 0 0 0 
0 0 0 0 0 0 0 0 0 
0 0 0 0 0 0 0 0 0 
0 0 0 0 0 0 0 0 0 
0 0 0 0 0 0 0 0 0 
0 0 0 0 0 0 0 0 0 
0 0 0 0 0 0 0 0 0 
0 0 0 0 0 0 0 0 0 
0 0 0 0 0 0 0 0 0 
0 0 0 0 0 0 0 0 0 
0 0 0 0 0 0 0 0 0 
0 0 0 0 0 0 0 0 0 
0 0 0 0 0 0 0 0 0 
0 0 0 0 0 0 0 0 0 
0 0 0 0 0 0 0 0 0 
0 0 0 0 0 0 0 0 0 
0 0 0 0 0 0 0 0 0 
0 0 0 0 0 0 0 0 0 
0 0 0 0 0 0 0 0 0 
0 0 0 0 0 0 0 0 0 
0 0 0 0 0 0 0 0 0 
0 0 0 0 0 0 0 0 0 
0 0 0 0 0 0 0 0 0 
0 0 0 0 0 0 0 0 0 
0 0 0 0 0 0 0 0 0 
0 0 0 0 0 0 0 0 0 
0 0 0 0 0 0 0 0 0 
0 0 0 0 0 0 0 0 0 
0 0 0 0 0 0 0 0 0 
0 0 0 0 0 0 0 0 0 
0 0 0 0 0 0 0 0 0 
0 0 0 0 0 0 0 0 0 
0 0 0 0 0 0 0 0 0 
0 0 0 0 0 0 0 0 0 
0 0 0 0 0 0 0 0 0 
0 0 0 0 0 0 0 0 0 
0 0 0 0 0 0 0 0 0 
0 0 0 0 0 0 0 0 0 
0 0 0 0 0 0 0 0 0 
0 0 0 0 0 0 0 0 0 
0 0 0 0 0 0 0 0 0 
0 0 0 0 0 0 0 0 0 
0 0 0 0 0 0 0 0 0 
0 0 0 0 0 0 0 0 0 
0 0 0 0 0 0 0 0 0 
0 0 0 0 0 0 0 0 0 
0 0 0 0 0 0 0 0 0 
0 0 0 0 0 0 0 0 0 
0 0 0 0 0 0 0 0 0 
0 0 0 0 0 0 0 0 0 
0 0 0 0 0 0 0 0 0 
0 0 0 0 0 0 0 0 0 
0 0 0 0 0 0 0 0 0 
0 0 0 0 0 0 0 0 0 
0 0 0 0 0 0 0 0 0 
0 0 0 0 0 0 0 0 0 
0 0 0 0 0 0 0 0 0 
0 0 0 0 0 0 0 0 0 
0 0 0 0 0 0 0 0 0 
0 0 0 0 0 0 0 0 0 
0 0 0 0 0 0 0 0 0 
0 0 0 0 0 0 0 0 0 
0 0 0 0 0 0 0 0 0 
0 0 0 0 0 0 0 0 0 
0 0 0 0 0 0 0 0 0 
0 0 0 0 0 0 0 0 0 
0 0 0 0 0 0 0 0 0 
0 0 0 0 0 0 0 0 0 
0 0 0 0 0 0 0 0 0 
0 0 0 0 0 0 0 0 0 
0 0 0 0 0 0 0 0 0 
0 0 0 0 0 0 0 0 0 
0 0 0 0 0 0 0 0 0 
0 0 0 0 0 0 0 0 0 
0 0 0 0 0 0 0 0 0 
0 0 0 0 0 0 0 0 0 
0 0 0 0 0 0 0 0 0 
0 0 0 0 0 0 0 0 0 
0 0 0 0 0 0 0 0 0 
0 0 0 0 0 0 0 0 0 
0 0 0 0 0 0 0 0 0 
0 0 0 0 0 0 0 0 0 
0 0 0 0 0 0 0 0 0 
0 0 0 0 0 0 0 0 0 
0 0 0 0 0 0 0 0 0 
0 0 0 0 0 0 0 0 0 
0 0 0 0 0 0 0 0 0 
0 0 0 0 0 0 0 0 0 
0 0 0 0 0 0 0 0 0 
0 0 0 0 0 0 0 0 0 
0 0 0 0 0 0 0 0 0 
0 0 0 0 0 0 0 0 0 
0 0 0 0 0 0 0 0 0 
0 0 0 0 0 0 0 0 0 
0 0 0 0 0 0 0 0 0 
0 0 0 0 0 0 0 0 0 
0 0 0 0 0 0 0 0 0 
0 0 0 0 0 0 0 0 0 
0 0 0 0 0 0 0 0 0 
0 0 0 0 0 0 0 0 0 
0 0 0 0 0 0 0 0 0 
0 0 0 0 0 0 0 0 0 
0 0 0 0 0 0 0 0 0 
0 0 0 0 0 0 0 0 0 
0 0 0 0 0 0 0 0 0 
0 0 0 0 0 0 0 0 0 
0 0 0 0 0 0 0 0 0 
0 0 0 0 0 0 0 0 0 
0 0 0 0 0 0 0 0 0 
0 0 0 0 0 0 0 0 0 
0 0 0 0 0 0 0 0 0 
0 0 0 0 0 0 0 0 0 
0 0 0 0 0 0 0 0 0 
0 0 0 0 0 0 0 0 0 
0 0 0 0 0 0 0 0 0 
0 0 0 0 0 0 0 0 0 
0 0 0 0 0 0 0 0 0 
0 0 0 0 0 0 0 0 0 
0 0 0 0 0 0 0 0 0 
0 0 0 0 0 0 0 0 0 
0 0 0 0 0 0 0 0 0 
0 0 0 0 0 0 0 0 0 
0 0 0 0 0 0 0 0 0 
0 0 0 0 0 0 0 0 0 
0 0 0 0 0 0 0 0 0 
0 0 0 0 0 0 0 0 0 
0 0 0 0 0 0 0 0 0 
0 0 0 0 0 0 0 0 0 
0 0 0 0 0 0 0 0 0 
0 0 0 0 0 0 0 0 0 
0 0 0 0 0 0 0 0 0 
0 0 0 0 0 0 0 0 0 
0 0 0 0 0 0 0 0 0 
0 0 0 0 0 0 0 0 0 
0 0 0 0 0 0 0 0 0 
0 0 0 0 0 0 0 0 0 
0 0 0 0 0 0 0 0 0 
0 0 0 0 0 0 0 0 0 
0 0 0 0 0 0 0 0 0 
0 0 0 0 0 0 0 0 0 
0 0 0 0 0 0 0 0 0 
0 0 0 0 0 0 0 0 0 
0 0 0 0 0 0 0 0 0 
0 0 0 0 0 0 0 0 0 
0 0 0 0 0 0 0 0 0 
0 0 0 0 0 0 0 0 0 
0 0 0 0 0 0 0 0 0 
0 0 0 0 0 0 0 0 0 
0 0 0 0 0 0 0 0 0 
0 0 0 0 0 0 0 0 0 
0 0 0 0 0 0 0 0 0 
0 0 0 0 0 0 0 0 0 
0 0 0 0 0 0 0 0 0 
0 0 0 0 0 0 0 0 0 
0 0 0 0 0 0 0 0 0 
0 0 0 0 0 0 0 0 0 
0 0 0 0 0 0 0 0 0 
0 0 0 0 0 0 0 0 0 
0 0 0 0 0 0 0 0 0 
0 0 0 0 0 0 0 0 0 
0 0 0 0 0 0 0 0 0 
0 0 0 0 0 0 0 0 0 
0 0 0 0 0 0 0 0 0 
0 0 0 0 0 0 0 0 0 
0 0 0 0 0 0 0 0 0 
0 0 0 0 0 0 0 0 0 
0 0 0 0 0 0 0 0 0 
0 0 0 0 0 0 0 0 0 
0 0 0 0 0 0 0 0 0 
0 0 0 0 0 0 0 0 0 
0 0 0 0 0 0 0 0 0 
0 0 0 0 0 0 0 0 0 
0 0 0 0 0 0 0 0 0 
0 0 0 0 0 0 0 0 0 
0 0 0 0 0 0 0 0 0 
0 0 0 0 0 0 0 0 0 
0 0 0 0 0 0 0 0 0 
0 0 0 0 0 0 0 0 0 
0 0 0 0 0 0 0 0 0 
0 0 0 0 0 0 0 0 0 
0 0 0 0 0 0 0 0 0 
0 0 0 0 0 0 0 0 0 
0 0 0 0 0 0 0 0 0 
0 0 0 0 0 0 0 0 0 
0 0 0 0 0 0 0 0 0 
0 0 0 0 0 0 0 0 0 
0 0 0 0 0 0 0 0 0 
0 0 0 0 0 0 0 0 0 
0 0 0 0 0 0 0 0 0 
0 0 0 0 0 0 0 0 0 
0 0 0 0 0 0 0 0 0 
0 0 0 0 0 0 0 0 0 
0 0 0 0 0 0 0 0 0 
0 0 0 0 0 0 0 0 0 
0 0 0 0 0 0 0 0 0 
0 0 0 0 0 0 0 0 0 
0 0 0 0 0 0 0 0 0 
0 0 0 0 0 0 0 0 0 
0 0 0 0 0 0 0 0 0 
0 0 0 0 0 0 0 0 0 
0 0 0 0 0 0 0 0 0 
0 0 0 0 0 0 0 0 0 
0 0 0 0 0 0 0 0 0 
0 0 0 0 0 0 0 0 0 
0 0 0 0 0 0 0 0 0 
0 0 0 0 0 0 0 0 0 
0 0 0 0 0 0 0 0 0 
0 0 0 0 0 0 0 0 0 
0 0 0 0 0 0 0 0 0 
0 0 0 0 0 0 0 0 0 
0 0 0 0 0 0 0 0 0 
0 0 0 0 0 0 0 0 0 
0 0 0 0 0 0 0 0 0 
0 0 0 0 0 0 0 0 0 
0 0 0 0 0 0 0 0 0 
0 0 0 0 0 0 0 0 0 
0 0 0 0 0 0 0 0 0 
0 0 0 0 0 0 0 0 0 
0 0 0 0 0 0 0 0 0 
0 0 0 0 0 0 0 0 0 
0 0 0 0 0 0 0 0 0 
0 0 0 0 0 0 0 0 0 
0 0 0 0 0 0 0 0 0 
0 0 0 0 0 0 0 0 0 
0 0 0 0 0 0 0 0 0 
0 0 0 0 0 0 0 0 0 
0 0 0 0 0 0 0 0 0 
0 0 0 0 0 0 0 0 0 
0 0 0 0 0 0 0 0 0 
0 0 0 0 0 0 0 0 0 
0 0 0 0 0 0 0 0 0 
0 0 0 0 0 0 0 0 0 
0 0 0 0 0 0 0 0 0 
0 0 0 0 0 0 0 0 0 
0 0 0 0 0 0 0 0 0 
0 0 0 0 0 0 0 0 0 
0 0 0 0 0 0 0 0 0 
0 0 0 0 0 0 0 0 0 
0 0 0 0 0 0 0 0 0 
0 0 0 0 0 0 0 0 0 
0 0 0 0 0 0 0 0 0 
0 0 0 0 0 0 0 0 0 
0 0 0 0 0 0 0 0 0 
0 0 0 0 0 0 0 0 0 
0 0 0 0 0 0 0 0 0 
0 0 0 0 0 0 0 0 0 
0 0 0 0 0 0 0 0 0 
0 0 0 0 0 0 0 0 0 
0 0 0 0 0 0 0 0 0 
0 0 0 0 0 0 0 0 0 
0 0 0 0 0 0 0 0 0 
0 0 0 0 0 0 0 0 0 
0 0 0 0 0 0 0 0 0 
0 0 0 0 0 0 0 0 0 
0 0 0 0 0 0 0 0 0 
0 0 0 0 0 0 0 0 0 
0 0 0 0 0 0 0 0 0 
0 0 0 0 0 0 0 0 0 
0 0 0 0 0 0 0 0 0 
0 0 0 0 0 0 0 0 0 
0 0 0 0 0 0 0 0 0 
0 0 0 0 0 0 0 0 0 
0 0 0 0 0 0 0 0 0 
0 0 0 0 0 0 0 0 0 
0 0 0 0 0 0 0 0 0 
0 0 0 0 0 0 0 0 0 
0 0 0 0 0 0 0 0 0 
0 0 0 0 0 0 0 0 0 
0 0 0 0 0 0 0 0 0 
0 0 0 0 0 0 0 0 0 
0 0 0 0 0 0 0 0 0 
0 0 0 0 0 0 0 0 0 
0 0 0 0 0 0 0 0 0 
0 0 0 0 0 0 0 0 0 
0 0 0 0 0 0 0 0 0 
0 0 0 0 0 0 0 0 0 
0 0 0 0 0 0 0 0 0 
0 0 0 0 0 0 0 0 0 
0 0 0 0 0 0 0 0 0 
0 0 0 0 0 0 0 0 0 
0 0 0 0 0 0 0 0 0 
0 0 0 0 0 0 0 0 0 
0 0 0 0 0 0 0 0 0 
0 0 0 0 0 0 0 0 0 
0 0 0 0 0 0 0 0 0 
0 0 0 0 0 0 0 0 0 
0 0 0 0 0 0 0 0 0 
0 0 0 0 0 0 0 0 0 
0 0 0 0 0 0 0 0 0 
0 0 0 0 0 0 0 0 0 
0 0 0 0 0 0 0 0 0 
0 0 0 0 0 0 0 0 0 
0 0 0 0 0 0 0 0 0 
0 0 0 0 0 0 0 0 0 
0 0 0 0 0 0 0 0 0 
0 0 0 0 0 0 0 0 0 
0 0 0 0 0 0 0 0 0 
0 0 0 0 0 0 0 0 0 
0 0 0 0 0 0 0 0 0 
0 0 0 0 0 0 0 0 0 
0 0 0 0 0 0 0 0 0 
0 0 0 0 0 0 0 0 0 
0 0 0 0 0 0 0 0 0 
0 0 0 0 0 0 0 0 0 
0 0 0 0 0 0 0 0 0 
0 0 0 0 0 0 0 0 0 
0 0 0 0 0 0 0 0 0 
0 0 0 0 0 0 0 0 0 
0 0 0 0 0 0 0 0 0 
0 0 0 0 0 0 0 0 0 
0 0 0 0 0 0 0 0 0 
0 0 0 0 0 0 0 0 0 
0 0 0 0 0 0 0 0 0 
0 0 0 0 0 0 0 0 0 
0 0 0 0 0 0 0 0 0 
0 0 0 0 0 0 0 0 0 
0 0 0 0 0 0 0 0 0 
0 0 0 0 0 0 0 0 0 
0 0 0 0 0 0 0 0 0 
0 0 0 0 0 0 0 0 0 
0 0 0 0 0 0 0 0 0 
0 0 0 0 0 0 0 0 0 
0 0 0 0 0 0 0 0 0 
0 0 0 0 0 0 0 0 0 
0 0 0 0 0 0 0 0 0 
0 0 0 0 0 0 0 0 0 
0 0 0 0 0 0 0 0 0 
0 0 0 0 0 0 0 0 0 
0 0 0 0 0 0 0 0 0 
0 0 0 0 0 0 0 0 0 
0 0 0 0 0 0 0 0 0 
0 0 0 0 0 0 0 0 0 
0 0 0 0 0 0 0 0 0 
0 0 0 0 0 0 0 0 0 
0 0 0 0 0 0 0 0 0 
0 0 0 0 0 0 0 0 0 
0 0 0 0 0 0 0 0 0 
0 0 0 0 0 0 0 0 0 
0 0 0 0 0 0 0 0 0 
0 0 0 0 0 0 0 0 0 
0 0 0 0 0 0 0 0 0 
0 0 0 0 0 0 0 0 0 
0 0 0 0 0 0 0 0 0 
0 0 0 0 0 0 0 0 0 
0 0 0 0 0 0 0 0 0 
0 0 0 0 0 0 0 0 0 
0 0 0 0 0 0 0 0 0 
0 0 0 0 0 0 0 0 0 
0 0 0 0 0 0 0 0 0 
0 0 0 0 0 0 0 0 0 
0 0 0 0 0 0 0 0 0 
0 0 0 0 0 0 0 0 0 
0 0 0 0 0 0 0 0 0 
0 0 0 0 0 0 0 0 0 
0 0 0 0 0 0 0 0 0 
0 0 0 0 0 0 0 0 0 
0 0 0 0 0 0 0 0 0 
0 0 0 0 0 0 0 0 0 
0 0 0 0 0 0 0 0 0 
0 0 0 0 0 0 0 0 0 
0 0 0 0 0 0 0 0 0 
0 0 0 0 0 0 0 0 0 
0 0 0 0 0 0 0 0 0 
0 0 0 0 0 0 0 0 0 
0 0 0 0 0 0 0 0 0 
0 0 0 0 0 0 0 0 0 
0 0 0 0 0 0 0 0 0 
0 0 0 0 0 0 0 0 0 
0 0 0 0 0 0 0 0 0 
0 0 0 0 0 0 0 0 0 
0 0 0 0 0 0 0 0 0 
0 0 0 0 0 0 0 0 0 
0 0 0 0 0 0 0 0 0 
0 0 0 0 0 0 0 0 0 
0 0 0 0 0 0 0 0 0 
0 0 0 0 0 0 0 0 0 
0 0 0 0 0 0 0 0 0 
0 0 0 0 0 0 0 0 0 
0 0 0 0 0 0 0 0 0 
0 0 0 0 0 0 0 0 0 
0 0 0 0 0 0 0 0 0 
0 0 0 0 0 0 0 0 0 
0 0 0 0 0 0 0 0 0 
0 0 0 0 0 0 0 0 0 
0 0 0 0 0 0 0 0 0 
0 0 0 0 0 0 0 0 0 
0 0 0 0 0 0 0 0 0 
0 0 0 0 0 0 0 0 0 
0 0 0 0 0 0 0 0 0 
0 0 0 0 0 0 0 0 0 
0 0 0 0 0 0 0 0 0 
0 0 0 0 0 0 0 0 0 
0 0 0 0 0 0 0 0 0 
0 0 0 0 0 0 0 0 0 
0 0 0 0 0 0 0 0 0 
0 0 0 0 0 0 0 0 0 
0 0 0 0 0 0 0 0 0 
0 0 0 0 0 0 0 0 0 
0 0 0 0 0 0 0 0 0 
0 0 0 0 0 0 0 0 0 
0 0 0 0 0 0 0 0 0 
0 0 0 0 0 0 0 0 0 
0 0 0 0 0 0 0 0 0 
0 0 0 0 0 0 0 0 0 
0 0 0 0 0 0 0 0 0 
0 0 0 0 0 0 0 0 0 
0 0 0 0 0 0 0 0 0 
0 0 0 0 0 0 0 0 0 
0 0 0 0 0 0 0 0 0 
0 0 0 0 0 0 0 0 0 
0 0 0 0 0 0 0 0 0 
0 0 0 0 0 0 0 0 0 
0 0 0 0 0 0 0 0 0 
0 0 0 0 0 0 0 0 0 
0 0 0 0 0 0 0 0 0 
0 0 0 0 0 0 0 0 0 
0 0 0 0 0 0 0 0 0 
0 0 0 0 0 0 0 0 0 
0 0 0 0 0 0 0 0 0 
0 0 0 0 0 0 0 0 0 
0 0 0 0 0 0 0 0 0 
0 0 0 0 0 0 0 0 0 
0 0 0 0 0 0 0 0 0 
0 0 0 0 0 0 0 0 0 
0 0 0 0 0 0 0 0 0 
0 0 0 0 0 0 0 0 0 
0 0 0 0 0 0 0 0 0 
0 0 0 0 0 0 0 0 0 
0 0 0 0 0 0 0 0 0 
0 0 0 0 0 0 0 0 0 
0 0 0 0 0 0 0 0 0 
0 0 0 0 0 0 0 0 0 
0 0 0 0 0 0 0 0 0 
0 0 0 0 0 0 0 0 0 
0 0 0 0 0 0 0 0 0 
0 0 0 0 0 0 0 0 0 
0 0 0 0 0 0 0 0 0 
0 0 0 0 0 0 0 0 0 
0 0 0 0 0 0 0 0 0 
0 0 0 0 0 0 0 0 0 
0 0 0 0 0 0 0 0 0 
0 0 0 0 0 0 0 0 0 
0 0 0 0 0 0 0 0 0 
0 0 0 0 0 0 0 0 0 
0 0 0 0 0 0 0 0 0 
0 0 0 0 0 0 0 0 0 
0 0 0 0 0 0 0 0 0 
0 0 0 0 0 0 0 0 0 
0 0 0 0 0 0 0 0 0 
0 0 0 0 0 0 0 0 0 
0 0 0 0 0 0 0 0 0 
0 0 0 0 0 0 0 0 0 
0 0 0 0 0 0 0 0 0 
0 0 0 0 0 0 0 0 0 
0 0 0 0 0 0 0 0 0 
0 0 0 0 0 0 0 0 0 
0 0 0 0 0 0 0 0 0 
0 0 0 0 0 0 0 0 0 
0 0 0 0 0 0 0 0 0 
0 0 0 0 0 0 0 0 0 
0 0 0 0 0 0 0 0 0 
0 0 0 0 0 0 0 0 0 
0 0 0 0 0 0 0 0 0 
0 0 0 0 0 0 0 0 0 
0 0 0 0 0 0 0 0 0 
0 0 0 0 0 0 0 0 0 
0 0 0 0 0 0 0 0 0 
0 0 0 0 0 0 0 0 0 
0 0 0 0 0 0 0 0 0 
0 0 0 0 0 0 0 0 0 
0 0 0 0 0 0 0 0 0 
0 0 0 0 0 0 0 0 0 
0 0 0 0 0 0 0 0 0 
0 0 0 0 0 0 0 0 0 
0 0 0 0 0 0 0 0 0 
0 0 0 0 0 0 0 0 0 
0 0 0 0 0 0 0 0 0 
0 0 0 0 0 0 0 0 0 
0 0 0 0 0 0 0 0 0 
0 0 0 0 0 0 0 0 0 
0 0 0 0 0 0 0 0 0 
0 0 0 0 0 0 0 0 0 
0 0 0 0 0 0 0 0 0 
0 0 0 0 0 0 0 0 0 
0 0 0 0 0 0 0 0 0 
0 0 0 0 0 0 0 0 0 
0 0 0 0 0 0 0 0 0 
0 0 0 0 0 0 0 0 0 
0 0 0 0 0 0 0 0 0 
0 0 0 0 0 0 0 0 0 
0 0 0 0 0 0 0 0 0 
0 0 0 0 0 0 0 0 0 
0 0 0 0 0 0 0 0 0 
0 0 0 0 0 0 0 0 0 
0 0 0 0 0 0 0 0 0 
0 0 0 0 0 0 0 0 0 
0 0 0 0 0 0 0 0 0 
0 0 0 0 0 0 0 0 0 
0 0 0 0 0 0 0 0 0 
0 0 0 0 0 0 0 0 0 
0 0 0 0 0 0 0 0 0 
0 0 0 0 0 0 0 0 0 
0 0 0 0 0 0 0 0 0 
0 0 0 0 0 0 0 0 0 
0 0 0 0 0 0 0 0 0 
0 0 0 0 0 0 0 0 0 
0 0 0 0 0 0 0 0 0 
0 0 0 0 0 0 0 0 0 
0 0 0 0 0 0 0 0 0 
0 0 0 0 0 0 0 0 0 
0 0 0 0 0 0 0 0 0 
0 0 0 0 0 0 0 0 0 
0 0 0 0 0 0 0 0 0 
0 0 0 0 0 0 0 0 0 
0 0 0 0 0 0 0 0 0 
0 0 0 0 0 0 0 0 0 
0 0 0 0 0 0 0 0 0 
0 0 0 0 0 0 0 0 0 
0 0 0 0 0 0 0 0 0 
0 0 0 0 0 0 0 0 0 
0 0 0 0 0 0 0 0 0 
0 0 0 0 0 0 0 0 0 
0 0 0 0 0 0 0 0 0 
0 0 0 0 0 0 0 0 0 
0 0 0 0 0 0 0 0 0 
0 0 0 0 0 0 0 0 0 
0 0 0 0 0 0 0 0 0 
0 0 0 0 0 0 0 0 0 
0 0 0 0 0 0 0 0 0 
0 0 0 0 0 0 0 0 0 
0 0 0 0 0 0 0 0 0 
0 0 0 0 0 0 0 0 0 
0 0 0 0 0 0 0 0 0 
0 0 0 0 0 0 0 0 0 
0 0 0 0 0 0 0 0 0 
0 0 0 0 0 0 0 0 0 
0 0 0 0 0 0 0 0 0 
0 0 0 0 0 0 0 0 0 
0 0 0 0 0 0 0 0 0 
0 0 0 0 0 0 0 0 0 
0 0 0 0 0 0 0 0 0 
0 0 0 0 0 0 0 0 0 
0 0 0 0 0 0 0 0 0 
0 0 0 0 0 0 0 0 0 
0 0 0 0 0 0 0 0 0 
0 0 0 0 0 0 0 0 0 
0 0 0 0 0 0 0 0 0 
0 0 0 0 0 0 0 0 0 
0 0 0 0 0 0 0 0 0 
0 0 0 0 0 0 0 0 0 
0 0 0 0 0 0 0 0 0 
0 0 0 0 0 0 0 0 0 
0 0 0 0 0 0 0 0 0 
0 0 0 0 0 0 0 0 0 
0 0 0 0 0 0 0 0 0 
0 0 0 0 0 0 0 0 0 
0 0 0 0 0 0 0 0 0 
0 0 0 0 0 0 0 0 0 
0 0 0 0 0 0 0 0 0 
0 0 0 0 0 0 0 0 0 
0 0 0 0 0 0 0 0 0 
0 0 0 0 0 0 0 0 0 
0 0 0 0 0 0 0 0 0 
0 0 0 0 0 0 0 0 0 
0 0 0 0 0 0 0 0 0 
0 0 0 0 0 0 0 0 0 
0 0 0 0 0 0 0 0 0 
0 0 0 0 0 0 0 0 0 
0 0 0 0 0 0 0 0 0 
0 0 0 0 0 0 0 0 0 
0 0 0 0 0 0 0 0 0 
0 0 0 0 0 0 0 0 0 
0 0 0 0 0 0 0 0 0 
0 0 0 0 0 0 0 0 0 
0 0 0 0 0 0 0 0 0 
0 0 0 0 0 0 0 0 0 
0 0 0 0 0 0 0 0 0 
0 0 0 0 0 0 0 0 0 
0 0 0 0 0 0 0 0 0 
0 0 0 0 0 0 0 0 0 
0 0 0 0 0 0 0 0 0 
0 0 0 0 0 0 0 0 0 
0 0 0 0 0 0 0 0 0 
0 0 0 0 0 0 0 0 0 
0 0 0 0 0 0 0 0 0 
0 0 0 0 0 0 0 0 0 
0 0 0 0 0 0 0 0 0 
0 0 0 0 0 0 0 0 0 
0 0 0 0 0 0 0 0 0 
0 0 0 0 0 0 0 0 0 
0 0 0 0 0 0 0 0 0 
0 0 0 0 0 0 0 0 0 
0 0 0 0 0 0 0 0 0 
0 0 0 0 0 0 0 0 0 
0 0 0 0 0 0 0 0 0 
0 0 0 0 0 0 0 0 0 
0 0 0 0 0 0 0 0 0 
0 0 0 0 0 0 0 0 0 
0 0 0 0 0 0 0 0 0 
0 0 0 0 0 0 0 0 0 
0 0 0 0 0 0 0 0 0 
0 0 0 0 0 0 0 0 0 
0 0 0 0 0 0 0 0 0 
0 0 0 0 0 0 0 0 0 
0 0 0 0 0 0 0 0 0 
0 0 0 0 0 0 0 0 0 
0 0 0 0 0 0 0 0 0 
0 0 0 0 0 0 0 0 0 
0 0 0 0 0 0 0 0 0 
0 0 0 0 0 0 0 0 0 
0 0 0 0 0 0 0 0 0 
0 0 0 0 0 0 0 0 0 
0 0 0 0 0 0 0 0 0 
0 0 0 0 0 0 0 0 0 
0 0 0 0 0 0 0 0 0 
0 0 0 0 0 0 0 0 0 
0 0 0 0 0 0 0 0 0 
0 0 0 0 0 0 0 0 0 
0 0 0 0 0 0 0 0 0 
0 0 0 0 0 0 0 0 0 
0 0 0 0 0 0 0 0 0 
0 0 0 0 0 0 0 0 0 
0 0 0 0 0 0 0 0 0 
0 0 0 0 0 0 0 0 0 
0 0 0 0 0 0 0 0 0 
0 0 0 0 0 0 0 0 0 
0 0 0 0 0 0 0 0 0 
0 0 0 0 0 0 0 0 0 
0 0 0 0 0 0 0 0 0 
0 0 0 0 0 0 0 0 0 
0 0 0 0 0 0 0 0 0 
0 0 0 0 0 0 0 0 0 
0 0 0 0 0 0 0 0 0 
0 0 0 0 0 0 0 0 0 
0 0 0 0 0 0 0 0 0 
0 0 0 0 0 0 0 0 0 
0 0 0 0 0 0 0 0 0 
0 0 0 0 0 0 0 0 0 
0 0 0 0 0 0 0 0 0 
0 0 0 0 0 0 0 0 0 
0 0 0 0 0 0 0 0 0 
0 0 0 0 0 0 0 0 0 
0 0 0 0 0 0 0 0 0 
0 0 0 0 0 0 0 0 0 
0 0 0 0 0 0 0 0 0 
0 0 0 0 0 0 0 0 0 
0 0 0 0 0 0 0 0 0 
0 0 0 0 0 0 0 0 0 
0 0 0 0 0 0 0 0 0 
0 0 0 0 0 0 0 0 0 
0 0 0 0 0 0 0 0 0 
0 0 0 0 0 0 0 0 0 
0 0 0 0 0 0 0 0 0 
0 0 0 0 0 0 0 0 0 
0 0 0 0 0 0 0 0 0 
0 0 0 0 0 0 0 0 0 
0 0 0 0 0 0 0 0 0 
0 0 0 0 0 0 0 0 0 
0 0 0 0 0 0 0 0 0 
0 0 0 0 0 0 0 0 0 
0 0 0 0 0 0 0 0 0 
0 0 0 0 0 0 0 0 0 
0 0 0 0 0 0 0 0 0 
0 0 0 0 0 0 0 0 0 
0 0 0 0 0 0 0 0 0 
0 0 0 0 0 0 0 0 0 
0 0 0 0 0 0 0 0 0 
0 0 0 0 0 0 0 0 0 
0 0 0 0 0 0 0 0 0 
0 0 0 0 0 0 0 0 0 
0 0 0 0 0 0 0 0 0 
0 0 0 0 0 0 0 0 0 
0 0 0 0 0 0 0 0 0 
0 0 0 0 0 0 0 0 0 
0 0 0 0 0 0 0 0 0 
0 0 0 0 0 0 0 0 0 
0 0 0 0 0 0 0 0 0 
0 0 0 0 0 0 0 0 0 
0 0 0 0 0 0 0 0 0 
0 0 0 0 0 0 0 0 0 
0 0 0 0 0 0 0 0 0 
0 0 0 0 0 0 0 0 0 
0 0 0 0 0 0 0 0 0 
0 0 0 0 0 0 0 0 0 
0 0 0 0 0 0 0 0 0 
0 0 0 0 0 0 0 0 0 
0 0 0 0 0 0 0 0 0 
0 0 0 0 0 0 0 0 0 
0 0 0 0 0 0 0 0 0 
0 0 0 0 0 0 0 0 0 
0 0 0 0 0 0 0 0 0 
0 0 0 0 0 0 0 0 0 
0 0 0 0 0 0 0 0 0 
0 0 0 0 0 0 0 0 0 
0 0 0 0 0 0 0 0 0 
0 0 0 0 0 0 0 0 0 
0 0 0 0 0 0 0 0 0 
0 0 0 0 0 0 0 0 0 
0 0 0 0 0 0 0 0 0 
0 0 0 0 0 0 0 0 0 
0 0 0 0 0 0 0 0 0 
0 0 0 0 0 0 0 0 0 
0 0 0 0 0 0 0 0 0 
0 0 0 0 0 0 0 0 0 
0 0 0 0 0 0 0 0 0 
0 0 0 0 0 0 0 0 0 
0 0 0 0 0 0 0 0 0 
0 0 0 0 0 0 0 0 0 
0 0 0 0 0 0 0 0 0 
0 0 0 0 0 0 0 0 0 
0 0 0 0 0 0 0 0 0 
0 0 0 0 0 0 0 0 0 
0 0 0 0 0 0 0 0 0 
0 0 0 0 0 0 0 0 0 
0 0 0 0 0 0 0 0 0 
0 0 0 0 0 0 0 0 0 
0 0 0 0 0 0 0 0 0 
0 0 0 0 0 0 0 0 0 
0 0 0 0 0 0 0 0 0 
0 0 0 0 0 0 0 0 0 
0 0 0 0 0 0 0 0 0 
0 0 0 0 0 0 0 0 0 
0 0 0 0 0 0 0 0 0 
0 0 0 0 0 0 0 0 0 
0 0 0 0 0 0 0 0 0 
0 0 0 0 0 0 0 0 0 
0 0 0 0 0 0 0 0 0 
0 0 0 0 0 0 0 0 0 
0 0 0 0 0 0 0 0 0 
0 0 0 0 0 0 0 0 0 
0 0 0 0 0 0 0 0 0 
0 0 0 0 0 0 0 0 0 
0 0 0 0 0 0 0 0 0 
0 0 0 0 0 0 0 0 0 
0 0 0 0 0 0 0 0 0 
0 0 0 0 0 0 0 0 0 
0 0 0 0 0 0 0 0 0 
0 0 0 0 0 0 0 0 0 
0 0 0 0 0 0 0 0 0 
0 0 0 0 0 0 0 0 0 
0 0 0 0 0 0 0 0 0 
0 0 0 0 0 0 0 0 0 
0 0 0 0 0 0 0 0 0 
0 0 0 0 0 0 0 0 0 
0 0 0 0 0 0 0 0 0 
0 0 0 0 0 0 0 0 0 
0 0 0 0 0 0 0 0 0 
0 0 0 0 0 0 0 0 0 
0 0 0 0 0 0 0 0 0 
0 0 0 0 0 0 0 0 0 
0 0 0 0 0 0 0 0 0 
0 0 0 0 0 0 0 0 0 
0 0 0 0 0 0 0 0 0 
0 0 0 0 0 0 0 0 0 
0 0 0 0 0 0 0 0 0 
0 0 0 0 0 0 0 0 0 
0 0 0 0 0 0 0 0 0 
0 0 0 0 0 0 0 0 0 
0 0 0 0 0 0 0 0 0 
0 0 0 0 0 0 0 0 0 
0 0 0 0 0 0 0 0 0 
0 0 0 0 0 0 0 0 0 
0 0 0 0 0 0 0 0 0 
0 0 0 0 0 0 0 0 0 
0 0 0 0 0 0 0 0 0 
0 0 0 0 0 0 0 0 0 
0 0 0 0 0 0 0 0 0 
0 0 0 0 0 0 0 0 0 
0 0 0 0 0 0 0 0 0 
0 0 0 0 0 0 0 0 0 
0 0 0 0 0 0 0 0 0 
0 0 0 0 0 0 0 0 0 
0 0 0 0 0 0 0 0 0 
0 0 0 0 0 0 0 0 0 
0 0 0 0 0 0 0 0 0 
0 0 0 0 0 0 0 0 0 
0 0 0 0 0 0 0 0 0 
0 0 0 0 0 0 0 0 0 
0 0 0 0 0 0 0 0 0 
0 0 0 0 0 0 0 0 0 
0 0 0 0 0 0 0 0 0 
0 0 0 0 0 0 0 0 0 
0 0 0 0 0 0 0 0 0 
0 0 0 0 0 0 0 0 0 
0 0 0 0 0 0 0 0 0 
0 0 0 0 0 0 0 0 0 
0 0 0 0 0 0 0 0 0 
0 0 0 0 0 0 0 0 0 
0 0 0 0 0 0 0 0 0 
0 0 0 0 0 0 0 0 0 
0 0 0 0 0 0 0 0 0 
0 0 0 0 0 0 0 0 0 
0 0 0 0 0 0 0 0 0 
0 0 0 0 0 0 0 0 0 
0 0 0 0 0 0 0 0 0 
0 0 0 0 0 0 0 0 0 
0 0 0 0 0 0 0 0 0 
0 0 0 0 0 0 0 0 0 
0 0 0 0 0 0 0 0 0 
0 0 0 0 0 0 0 0 0 
0 0 0 0 0 0 0 0 0 
0 0 0 0 0 0 0 0 0 
0 0 0 0 0 0 0 0 0 
0 0 0 0 0 0 0 0 0 
0 0 0 0 0 0 0 0 0 
0 0 0 0 0 0 0 0 0 
0 0 0 0 0 0 0 0 0 
0 0 0 0 0 0 0 0 0 
0 0 0 0 0 0 0 0 0 
0 0 0 0 0 0 0 0 0 
0 0 0 0 0 0 0 0 0 
0 0 0 0 0 0 0 0 0 
0 0 0 0 0 0 0 0 0 
0 0 0 0 0 0 0 0 0 
0 0 0 0 0 0 0 0 0 
0 0 0 0 0 0 0 0 0 
0 0 0 0 0 0 0 0 0 
0 0 0 0 0 0 0 0 0 
0 0 0 0 0 0 0 0 0 
0 0 0 0 0 0 0 0 0 
0 0 0 0 0 0 0 0 0 
0 0 0 0 0 0 0 0 0 
0 0 0 0 0 0 0 0 0 
0 0 0 0 0 0 0 0 0 
0 0 0 0 0 0 0 0 0 
0 0 0 0 0 0 0 0 0 
0 0 0 0 0 0 0 0 0 
0 0 0 0 0 0 0 0 0 
0 0 0 0 0 0 0 0 0 
0 0 0 0 0 0 0 0 0 
0 0 0 0 0 0 0 0 0 
0 0 0 0 0 0 0 0 0 
0 0 0 0 0 0 0 0 0 
0 0 0 0 0 0 0 0 0 
0 0 0 0 0 0 0 0 0 
0 0 0 0 0 0 0 0 0 
0 0 0 0 0 0 0 0 0 
0 0 0 0 0 0 0 0 0 
0 0 0 0 0 0 0 0 0 
0 0 0 0 0 0 0 0 0 
0 0 0 0 0 0 0 0 0 
0 0 0 0 0 0 0 0 0 
0 0 0 0 0 0 0 0 0 
0 0 0 0 0 0 0 0 0 
0 0 0 0 0 0 0 0 0 
0 0 0 0 0 0 0 0 0 
0 0 0 0 0 0 0 0 0 
0 0 0 0 0 0 0 0 0 
0 0 0 0 0 0 0 0 0 
0 0 0 0 0 0 0 0 0 
0 0 0 0 0 0 0 0 0 
0 0 0 0 0 0 0 0 0 
0 0 0 0 0 0 0 0 0 
0 0 0 0 0 0 0 0 0 
0 0 0 0 0 0 0 0 0 
0 0 0 0 0 0 0 0 0 
0 0 0 0 0 0 0 0 0 
0 0 0 0 0 0 0 0 0 
0 0 0 0 0 0 0 0 0 
0 0 0 0 0 0 0 0 0 
0 0 0 0 0 0 0 0 0 
0 0 0 0 0 0 0 0 0 
0 0 0 0 0 0 0 0 0 
0 0 0 0 0 0 0 0 0 
0 0 0 0 0 0 0 0 0 
0 0 0 0 0 0 0 0 0 
0 0 0 0 0 0 0 0 0 
0 0 0 0 0 0 0 0 0 
0 0 0 0 0 0 0 0 0 
0 0 0 0 0 0 0 0 0 
0 0 0 0 0 0 0 0 0 
0 0 0 0 0 0 0 0 0 
0 0 0 0 0 0 0 0 0 
0 0 0 0 0 0 0 0 0 
0 0 0 0 0 0 0 0 0 
0 0 0 0 0 0 0 0 0 
0 0 0 0 0 0 0 0 0 
0 0 0 0 0 0 0 0 0 
0 0 0 0 0 0 0 0 0 
0 0 0 0 0 0 0 0 0 
0 0 0 0 0 0 0 0 0 
0 0 0 0 0 0 0 0 0 
0 0 0 0 0 0 0 0 0 
0 0 0 0 0 0 0 0 0 
0 0 0 0 0 0 0 0 0 
0 0 0 0 0 0 0 0 0 
0 0 0 0 0 0 0 0 0 
0 0 0 0 0 0 0 0 0 
0 0 0 0 0 0 0 0 0 
0 0 0 0 0 0 0 0 0 
0 0 0 0 0 0 0 0 0 
0 0 0 0 0 0 0 0 0 
0 0 0 0 0 0 0 0 0 
0 0 0 0 0 0 0 0 0 
0 0 0 0 0 0 0 0 0 
0 0 0 0 0 0 0 0 0 
0 0 0 0 0 0 0 0 0 
0 0 0 0 0 0 0 0 0 
0 0 0 0 0 0 0 0 0 
0 0 0 0 0 0 0 0 0 
0 0 0 0 0 0 0 0 0 
0 0 0 0 0 0 0 0 0 
0 0 0 0 0 0 0 0 0 
0 0 0 0 0 0 0 0 0 
0 0 0 0 0 0 0 0 0 
0 0 0 0 0 0 0 0 0 
0 0 0 0 0 0 0 0 0 
0 0 0 0 0 0 0 0 0 
0 0 0 0 0 0 0 0 0 
0 0 0 0 0 0 0 0 0 
0 0 0 0 0 0 0 0 0 
0 0 0 0 0 0 0 0 0 
0 0 0 0 0 0 0 0 0 
0 0 0 0 0 0 0 0 0 
0 0 0 0 0 0 0 0 0 
0 0 0 0 0 0 0 0 0 
0 0 0 0 0 0 0 0 0 
0 0 0 0 0 0 0 0 0 
0 0 0 0 0 0 0 0 0 
0 0 0 0 0 0 0 0 0 
0 0 0 0 0 0 0 0 0 
0 0 0 0 0 0 0 0 0 
0 0 0 0 0 0 0 0 0 
0 0 0 0 0 0 0 0 0 
0 0 0 0 0 0 0 0 0 
0 0 0 0 0 0 0 0 0 
0 0 0 0 0 0 0 0 0 
0 0 0 0 0 0 0 0 0 
0 0 0 0 0 0 0 0 0 
0 0 0 0 0 0 0 0 0 
0 0 0 0 0 0 0 0 0 
0 0 0 0 0 0 0 0 0 
0 0 0 0 0 0 0 0 0 
0 0 0 0 0 0 0 0 0 
0 0 0 0 0 0 0 0 0 
0 0 0 0 0 0 0 0 0 
0 0 0 0 0 0 0 0 0 
0 0 0 0 0 0 0 0 0 
0 0 0 0 0 0 0 0 0 
0 0 0 0 0 0 0 0 0 
0 0 0 0 0 0 0 0 0 
0 0 0 0 0 0 0 0 0 
0 0 0 0 0 0 0 0 0 
0 0 0 0 0 0 0 0 0 
0 0 0 0 0 0 0 0 0 
0 0 0 0 0 0 0 0 0 
0 0 0 0 0 0 0 0 0 
0 0 0 0 0 0 0 0 0 
0 0 0 0 0 0 0 0 0 
0 0 0 0 0 0 0 0 0 
0 0 0 0 0 0 0 0 0 
0 0 0 0 0 0 0 0 0 
0 0 0 0 0 0 0 0 0 
0 0 0 0 0 0 0 0 0 
0 0 0 0 0 0 0 0 0 
0 0 0 0 0 0 0 0 0 
0 0 0 0 0 0 0 0 0 
0 0 0 0 0 0 0 0 0 
0 0 0 0 0 0 0 0 0 
0 0 0 0 0 0 0 0 0 
0 0 0 0 0 0 0 0 0 
0 0 0 0 0 0 0 0 0 
0 0 0 0 0 0 0 0 0 
0 0 0 0 0 0 0 0 0 
0 0 0 0 0 0 0 0 0 
0 0 0 0 0 0 0 0 0 
0 0 0 0 0 0 0 0 0 
0 0 0 0 0 0 0 0 0 
0 0 0 0 0 0 0 0 0 
0 0 0 0 0 0 0 0 0 
0 0 0 0 0 0 0 0 0 
0 0 0 0 0 0 0 0 0 
0 0 0 0 0 0 0 0 0 
0 0 0 0 0 0 0 0 0 
0 0 0 0 0 0 0 0 0 
0 0 0 0 0 0 0 0 0 
0 0 0 0 0 0 0 0 0 
0 0 0 0 0 0 0 0 0 
0 0 0 0 0 0 0 0 0 
0 0 0 0 0 0 0 0 0 
0 0 0 0 0 0 0 0 0 
0 0 0 0 0 0 0 0 0 
0 0 0 0 0 0 0 0 0 
0 0 0 0 0 0 0 0 0 
0 0 0 0 0 0 0 0 0 
0 0 0 0 0 0 0 0 0 
0 0 0 0 0 0 0 0 0 
0 0 0 0 0 0 0 0 0 
0 0 0 0 0 0 0 0 0 
0 0 0 0 0 0 0 0 0 
0 0 0 0 0 0 0 0 0 
0 0 0 0 0 0 0 0 0 
0 0 0 0 0 0 0 0 0 
0 0 0 0 0 0 0 0 0 
0 0 0 0 0 0 0 0 0 
0 0 0 0 0 0 0 0 0 
0 0 0 0 0 0 0 0 0 
0 0 0 0 0 0 0 0 0 
0 0 0 0 0 0 0 0 0 
0 0 0 0 0 0 0 0 0 
0 0 0 0 0 0 0 0 0 
0 0 0 0 0 0 0 0 0 
0 0 0 0 0 0 0 0 0 
0 0 0 0 0 0 0 0 0 
0 0 0 0 0 0 0 0 0 
0 0 0 0 0 0 0 0 0 
0 0 0 0 0 0 0 0 0 
0 0 0 0 0 0 0 0 0 
0 0 0 0 0 0 0 0 0 
0 0 0 0 0 0 0 0 0 
0 0 0 0 0 0 0 0 0 
0 0 0 0 0 0 0 0 0 
0 0 0 0 0 0 0 0 0 
0 0 0 0 0 0 0 0 0 
0 0 0 0 0 0 0 0 0 
0 0 0 0 0 0 0 0 0 
0 0 0 0 0 0 0 0 0 
0 0 0 0 0 0 0 0 0 
0 0 0 0 0 0 0 0 0 
0 0 0 0 0 0 0 0 0 
0 0 0 0 0 0 0 0 0 
0 0 0 0 0 0 0 0 0 
0 0 0 0 0 0 0 0 0 
0 0 0 0 0 0 0 0 0 
0 0 0 0 0 0 0 0 0 
0 0 0 0 0 0 0 0 0 
0 0 0 0 0 0 0 0 0 
0 0 0 0 0 0 0 0 0 
0 0 0 0 0 0 0 0 0 
0 0 0 0 0 0 0 0 0 
0 0 0 0 0 0 0 0 0 
0 0 0 0 0 0 0 0 0 
0 0 0 0 0 0 0 0 0 
0 0 0 0 0 0 0 0 0 
0 0 0 0 0 0 0 0 0 
0 0 0 0 0 0 0 0 0 
0 0 0 0 0 0 0 0 0 
0 0 0 0 0 0 0 0 0 
0 0 0 0 0 0 0 0 0 
0 0 0 0 0 0 0 0 0 
0 0 0 0 0 0 0 0 0 
0 0 0 0 0 0 0 0 0 
0 0 0 0 0 0 0 0 0 
0 0 0 0 0 0 0 0 0 
0 0 0 0 0 0 0 0 0 
0 0 0 0 0 0 0 0 0 
0 0 0 0 0 0 0 0 0 
0 0 0 0 0 0 0 0 0 
0 0 0 0 0 0 0 0 0 
0 0 0 0 0 0 0 0 0 
0 0 0 0 0 0 0 0 0 
0 0 0 0 0 0 0 0 0 
0 0 0 0 0 0 0 0 0 
0 0 0 0 0 0 0 0 0 
0 0 0 0 0 0 0 0 0 
0 0 0 0 0 0 0 0 0 
0 0 0 0 0 0 0 0 0 
0 0 0 0 0 0 0 0 0 
0 0 0 0 0 0 0 0 0 
0 0 0 0 0 0 0 0 0 
0 0 0 0 0 0 0 0 0 
0 0 0 0 0 0 0 0 0 
0 0 0 0 0 0 0 0 0 
0 0 0 0 0 0 0 0 0 
0 0 0 0 0 0 0 0 0 
0 0 0 0 0 0 0 0 0 
0 0 0 0 0 0 0 0 0 
0 0 0 0 0 0 0 0 0 
0 0 0 0 0 0 0 0 0 
0 0 0 0 0 0 0 0 0 
0 0 0 0 0 0 0 0 0 
0 0 0 0 0 0 0 0 0 
0 0 0 0 0 0 0 0 0 
0 0 0 0 0 0 0 0 0 
0 0 0 0 0 0 0 0 0 
0 0 0 0 0 0 0 0 0 
0 0 0 0 0 0 0 0 0 
0 0 0 0 0 0 0 0 0 
0 0 0 0 0 0 0 0 0 
0 0 0 0 0 0 0 0 0 
0 0 0 0 0 0 0 0 0 
0 0 0 0 0 0 0 0 0 
0 0 0 0 0 0 0 0 0 
0 0 0 0 0 0 0 0 0 
0 0 0 0 0 0 0 0 0 
0 0 0 0 0 0 0 0 0 
0 0 0 0 0 0 0 0 0 
0 0 0 0 0 0 0 0 0 
0 0 0 0 0 0 0 0 0 
0 0 0 0 0 0 0 0 0 
0 0 0 0 0 0 0 0 0 
0 0 0 0 0 0 0 0 0 
0 0 0 0 0 0 0 0 0 
0 0 0 0 0 0 0 0 0 
0 0 0 0 0 0 0 0 0 
0 0 0 0 0 0 0 0 0 
0 0 0 0 0 0 0 0 0 
0 0 0 0 0 0 0 0 0 
0 0 0 0 0 0 0 0 0 
0 0 0 0 0 0 0 0 0 
0 0 0 0 0 0 0 0 0 
0 0 0 0 0 0 0 0 0 
0 0 0 0 0 0 0 0 0 
0 0 0 0 0 0 0 0 0 
0 0 0 0 0 0 0 0 0 
0 0 0 0 0 0 0 0 0 
0 0 0 0 0 0 0 0 0 
0 0 0 0 0 0 0 0 0 
0 0 0 0 0 0 0 0 0 
0 0 0 0 0 0 0 0 0 
0 0 0 0 0 0 0 0 0 
0 0 0 0 0 0 0 0 0 
0 0 0 0 0 0 0 0 0 
0 0 0 0 0 0 0 0 0 
0 0 0 0 0 0 0 0 0 
0 0 0 0 0 0 0 0 0 
0 0 0 0 0 0 0 0 0 
0 0 0 0 0 0 0 0 0 
0 0 0 0 0 0 0 0 0 
0 0 0 0 0 0 0 0 0 
0 0 0 0 0 0 0 0 0 
0 0 0 0 0 0 0 0 0 
0 0 0 0 0 0 0 0 0 
0 0 0 0 0 0 0 0 0 
0 0 0 0 0 0 0 0 0 
0 0 0 0 0 0 0 0 0 
0 0 0 0 0 0 0 0 0 
0 0 0 0 0 0 0 0 0 
0 0 0 0 0 0 0 0 0 
0 0 0 0 0 0 0 0 0 
0 0 0 0 0 0 0 0 0 
0 0 0 0 0 0 0 0 0 
0 0 0 0 0 0 0 0 0 
0 0 0 0 0 0 0 0 0 
0 0 0 0 0 0 0 0 0 
0 0 0 0 0 0 0 0 0 
0 0 0 0 0 0 0 0 0 
0 0 0 0 0 0 0 0 0 
0 0 0 0 0 0 0 0 0 
0 0 0 0 0 0 0 0 0 
0 0 0 0 0 0 0 0 0 
0 0 0 0 0 0 0 0 0 
0 0 0 0 0 0 0 0 0 
0 0 0 0 0 0 0 0 0 
0 0 0 0 0 0 0 0 0 
0 0 0 0 0 0 0 0 0 
0 0 0 0 0 0 0 0 0 
0 0 0 0 0 0 0 0 0 
0 0 0 0 0 0 0 0 0 
0 0 0 0 0 0 0 0 0 
0 0 0 0 0 0 0 0 0 
0 0 0 0 0 0 0 0 0 
0 0 0 0 0 0 0 0 0 
0 0 0 0 0 0 0 0 0 
0 0 0 0 0 0 0 0 0 
0 0 0 0 0 0 0 0 0 
0 0 0 0 0 0 0 0 0 
0 0 0 0 0 0 0 0 0 
0 0 0 0 0 0 0 0 0 
0 0 0 0 0 0 0 0 0 
0 0 0 0 0 0 0 0 0 
0 0 0 0 0 0 0 0 0 
0 0 0 0 0 0 0 0 0 
0 0 0 0 0 0 0 0 0 
0 0 0 0 0 0 0 0 0 
0 0 0 0 0 0 0 0 0 
0 0 0 0 0 0 0 0 0 
0 0 0 0 0 0 0 0 0 
0 0 0 0 0 0 0 0 0 
0 0 0 0 0 0 0 0 0 
0 0 0 0 0 0 0 0 0 
0 0 0 0 0 0 0 0 0 
0 0 0 0 0 0 0 0 0 
0 0 0 0 0 0 0 0 0 
0 0 0 0 0 0 0 0 0 
0 0 0 0 0 0 0 0 0 
0 0 0 0 0 0 0 0 0 
0 0 0 0 0 0 0 0 0 
0 0 0 0 0 0 0 0 0 
0 0 0 0 0 0 0 0 0 
0 0 0 0 0 0 0 0 0 
0 0 0 0 0 0 0 0 0 
0 0 0 0 0 0 0 0 0 
0 0 0 0 0 0 0 0 0 
0 0 0 0 0 0 0 0 0 
0 0 0 0 0 0 0 0 0 
0 0 0 0 0 0 0 0 0 
0 0 0 0 0 0 0 0 0 
0 0 0 0 0 0 0 0 0 
0 0 0 0 0 0 0 0 0 
0 0 0 0 0 0 0 0 0 
0 0 0 0 0 0 0 0 0 
0 0 0 0 0 0 0 0 0 
0 0 0 0 0 0 0 0 0 
0 0 0 0 0 0 0 0 0 
0 0 0 0 0 0 0 0 0 
0 0 0 0 0 0 0 0 0 
0 0 0 0 0 0 0 0 0 
0 0 0 0 0 0 0 0 0 
0 0 0 0 0 0 0 0 0 
0 0 0 0 0 0 0 0 0 
0 0 0 0 0 0 0 0 0 
0 0 0 0 0 0 0 0 0 
0 0 0 0 0 0 0 0 0 
0 0 0 0 0 0 0 0 0 
0 0 0 0 0 0 0 0 0 
0 0 0 0 0 0 0 0 0 
0 0 0 0 0 0 0 0 0 
0 0 0 0 0 0 0 0 0 
0 0 0 0 0 0 0 0 0 
0 0 0 0 0 0 0 0 0 
0 0 0 0 0 0 0 0 0 
0 0 0 0 0 0 0 0 0 
0 0 0 0 0 0 0 0 0 
0 0 0 0 0 0 0 0 0 
0 0 0 0 0 0 0 0 0 
0 0 0 0 0 0 0 0 0 
0 0 0 0 0 0 0 0 0 
0 0 0 0 0 0 0 0 0 
0 0 0 0 0 0 0 0 0 
0 0 0 0 0 0 0 0 0 
0 0 0 0 0 0 0 0 0 
0 0 0 0 0 0 0 0 0 
0 0 0 0 0 0 0 0 0 
0 0 0 0 0 0 0 0 0 
0 0 0 0 0 0 0 0 0 
0 0 0 0 0 0 0 0 0 
0 0 0 0 0 0 0 0 0 
0 0 0 0 0 0 0 0 0 
0 0 0 0 0 0 0 0 0 
0 0 0 0 0 0 0 0 0 
0 0 0 0 0 0 0 0 0 
0 0 0 0 0 0 0 0 0 
0 0 0 0 0 0 0 0 0 
0 0 0 0 0 0 0 0 0 
0 0 0 0 0 0 0 0 0 
0 0 0 0 0 0 0 0 0 
0 0 0 0 0 0 0 0 0 
0 0 0 0 0 0 0 0 0 
0 0 0 0 0 0 0 0 0 
0 0 0 0 0 0 0 0 0 
0 0 0 0 0 0 0 0 0 
0 0 0 0 0 0 0 0 0 
0 0 0 0 0 0 0 0 0 
0 0 0 0 0 0 0 0 0 
0 0 0 0 0 0 0 0 0 
0 0 0 0 0 0 0 0 0 
0 0 0 0 0 0 0 0 0 
0 0 0 0 0 0 0 0 0 
0 0 0 0 0 0 0 0 0 
0 0 0 0 0 0 0 0 0 
0 0 0 0 0 0 0 0 0 
0 0 0 0 0 0 0 0 0 
0 0 0 0 0 0 0 0 0 
0 0 0 0 0 0 0 0 0 
0 0 0 0 0 0 0 0 0 
0 0 0 0 0 0 0 0 0 
0 0 0 0 0 0 0 0 0 
0 0 0 0 0 0 0 0 0 
0 0 0 0 0 0 0 0 0 
0 0 0 0 0 0 0 0 0 
0 0 0 0 0 0 0 0 0 
0 0 0 0 0 0 0 0 0 
0 0 0 0 0 0 0 0 0 
0 0 0 0 0 0 0 0 0 
0 0 0 0 0 0 0 0 0 
0 0 0 0 0 0 0 0 0 
0 0 0 0 0 0 0 0 0 
0 0 0 0 0 0 0 0 0 
0 0 0 0 0 0 0 0 0 
0 0 0 0 0 0 0 0 0 
0 0 0 0 0 0 0 0 0 
0 0 0 0 0 0 0 0 0 
0 0 0 0 0 0 0 0 0 
0 0 0 0 0 0 0 0 0 
0 0 0 0 0 0 0 0 0 
0 0 0 0 0 0 0 0 0 
0 0 0 0 0 0 0 0 0 
0 0 0 0 0 0 0 0 0 
0 0 0 0 0 0 0 0 0 
0 0 0 0 0 0 0 0 0 
0 0 0 0 0 0 0 0 0 
0 0 0 0 0 0 0 0 0 
0 0 0 0 0 0 0 0 0 
0 0 0 0 0 0 0 0 0 
0 0 0 0 0 0 0 0 0 
0 0 0 0 0 0 0 0 0 
0 0 0 0 0 0 0 0 0 
0 0 0 0 0 0 0 0 0 
0 0 0 0 0 0 0 0 0 
0 0 0 0 0 0 0 0 0 
0 0 0 0 0 0 0 0 0 
0 0 0 0 0 0 0 0 0 
0 0 0 0 0 0 0 0 0 
0 0 0 0 0 0 0 0 0 
0 0 0 0 0 0 0 0 0 
0 0 0 0 0 0 0 0 0 
0 0 0 0 0 0 0 0 0 
0 0 0 0 0 0 0 0 0 
0 0 0 0 0 0 0 0 0 
0 0 0 0 0 0 0 0 0 
0 0 0 0 0 0 0 0 0 
0 0 0 0 0 0 0 0 0 
0 0 0 0 0 0 0 0 0 
0 0 0 0 0 0 0 0 0 
0 0 0 0 0 0 0 0 0 
0 0 0 0 0 0 0 0 0 
0 0 0 0 0 0 0 0 0 
0 0 0 0 0 0 0 0 0 
0 0 0 0 0 0 0 0 0 
0 0 0 0 0 0 0 0 0 
0 0 0 0 0 0 0 0 0 
0 0 0 0 0 0 0 0 0 
0 0 0 0 0 0 0 0 0 
0 0 0 0 0 0 0 0 0 
0 0 0 0 0 0 0 0 0 
0 0 0 0 0 0 0 0 0 
0 0 0 0 0 0 0 0 0 
0 0 0 0 0 0 0 0 0 
0 0 0 0 0 0 0 0 0 
0 0 0 0 0 0 0 0 0 
0 0 0 0 0 0 0 0 0 
0 0 0 0 0 0 0 0 0 
0 0 0 0 0 0 0 0 0 
0 0 0 0 0 0 0 0 0 
0 0 0 0 0 0 0 0 0 
0 0 0 0 0 0 0 0 0 
0 0 0 0 0 0 0 0 0 
0 0 0 0 0 0 0 0 0 
0 0 0 0 0 0 0 0 0 
0 0 0 0 0 0 0 0 0 
0 0 0 0 0 0 0 0 0 
0 0 0 0 0 0 0 0 0 
0 0 0 0 0 0 0 0 0 
0 0 0 0 0 0 0 0 0 
0 0 0 0 0 0 0 0 0 
0 0 0 0 0 0 0 0 0 
0 0 0 0 0 0 0 0 0 
0 0 0 0 0 0 0 0 0 
0 0 0 0 0 0 0 0 0 
0 0 0 0 0 0 0 0 0 
0 0 0 0 0 0 0 0 0 
0 0 0 0 0 0 0 0 0 
0 0 0 0 0 0 0 0 0 
0 0 0 0 0 0 0 0 0 
0 0 0 0 0 0 0 0 0 
0 0 0 0 0 0 0 0 0 
0 0 0 0 0 0 0 0 0 
0 0 0 0 0 0 0 0 0 
0 0 0 0 0 0 0 0 0 
0 0 0 0 0 0 0 0 0 
0 0 0 0 0 0 0 0 0 
0 0 0 0 0 0 0 0 0 
0 0 0 0 0 0 0 0 0 
0 0 0 0 0 0 0 0 0 
0 0 0 0 0 0 0 0 0 
0 0 0 0 0 0 0 0 0 
0 0 0 0 0 0 0 0 0 
0 0 0 0 0 0 0 0 0 
0 0 0 0 0 0 0 0 0 
0 0 0 0 0 0 0 0 0 
0 0 0 0 0 0 0 0 0 
0 0 0 0 0 0 0 0 0 
0 0 0 0 0 0 0 0 0 
0 0 0 0 0 0 0 0 0 
0 0 0 0 0 0 0 0 0 
0 0 0 0 0 0 0 0 0 
0 0 0 0 0 0 0 0 0 
0 0 0 0 0 0 0 0 0 
0 0 0 0 0 0 0 0 0 
0 0 0 0 0 0 0 0 0 
0 0 0 0 0 0 0 0 0 
0 0 0 0 0 0 0 0 0 
0 0 0 0 0 0 0 0 0 
0 0 0 0 0 0 0 0 0 
0 0 0 0 0 0 0 0 0 
0 0 0 0 0 0 0 0 0 
0 0 0 0 0 0 0 0 0 
0 0 0 0 0 0 0 0 0 
0 0 0 0 0 0 0 0 0 
0 0 0 0 0 0 0 0 0 
0 0 0 0 0 0 0 0 0 
0 0 0 0 0 0 0 0 0 
0 0 0 0 0 0 0 0 0 
0 0 0 0 0 0 0 0 0 
0 0 0 0 0 0 0 0 0 
0 0 0 0 0 0 0 0 0 
0 0 0 0 0 0 0 0 0 
0 0 0 0 0 0 0 0 0 
0 0 0 0 0 0 0 0 0 
0 0 0 0 0 0 0 0 0 
0 0 0 0 0 0 0 0 0 
0 0 0 0 0 0 0 0 0 
0 0 0 0 0 0 0 0 0 
0 0 0 0 0 0 0 0 0 
0 0 0 0 0 0 0 0 0 
0 0 0 0 0 0 0 0 0 
0 0 0 0 0 0 0 0 0 
0 0 0 0 0 0 0 0 0 
0 0 0 0 0 0 0 0 0 
0 0 0 0 0 0 0 0 0 
0 0 0 0 0 0 0 0 0 
0 0 0 0 0 0 0 0 0 
0 0 0 0 0 0 0 0 0 
0 0 0 0 0 0 0 0 0 
0 0 0 0 0 0 0 0 0 
0 0 0 0 0 0 0 0 0 
0 0 0 0 0 0 0 0 0 
0 0 0 0 0 0 0 0 0 
0 0 0 0 0 0 0 0 0 
0 0 0 0 0 0 0 0 0 
0 0 0 0 0 0 0 0 0 
0 0 0 0 0 0 0 0 0 
0 0 0 0 0 0 0 0 0 
0 0 0 0 0 0 0 0 0 
0 0 0 0 0 0 0 0 0 
0 0 0 0 0 0 0 0 0 
0 0 0 0 0 0 0 0 0 
0 0 0 0 0 0 0 0 0 
0 0 0 0 0 0 0 0 0 
0 0 0 0 0 0 0 0 0 
0 0 0 0 0 0 0 0 0 
0 0 0 0 0 0 0 0 0 
0 0 0 0 0 0 0 0 0 
0 0 0 0 0 0 0 0 0 
0 0 0 0 0 0 0 0 0 
0 0 0 0 0 0 0 0 0 
0 0 0 0 0 0 0 0 0 
0 0 0 0 0 0 0 0 0 
0 0 0 0 0 0 0 0 0 
0 0 0 0 0 0 0 0 0 
0 0 0 0 0 0 0 0 0 
0 0 0 0 0 0 0 0 0 
0 0 0 0 0 0 0 0 0 
0 0 0 0 0 0 0 0 0 
0 0 0 0 0 0 0 0 0 
0 0 0 0 0 0 0 0 0 
0 0 0 0 0 0 0 0 0 
0 0 0 0 0 0 0 0 0 
0 0 0 0 0 0 0 0 0 
0 0 0 0 0 0 0 0 0 
0 0 0 0 0 0 0 0 0 
0 0 0 0 0 0 0 0 0 
0 0 0 0 0 0 0 0 0 
0 0 0 0 0 0 0 0 0 
0 0 0 0 0 0 0 0 0 
0 0 0 0 0 0 0 0 0 
0 0 0 0 0 0 0 0 0 
0 0 0 0 0 0 0 0 0 
0 0 0 0 0 0 0 0 0 
0 0 0 0 0 0 0 0 0 
0 0 0 0 0 0 0 0 0 
0 0 0 0 0 0 0 0 0 
0 0 0 0 0 0 0 0 0 
0 0 0 0 0 0 0 0 0 
0 0 0 0 0 0 0 0 0 
0 0 0 0 0 0 0 0 0 
0 0 0 0 0 0 0 0 0 
0 0 0 0 0 0 0 0 0 
0 0 0 0 0 0 0 0 0 
0 0 0 0 0 0 0 0 0 
0 0 0 0 0 0 0 0 0 
0 0 0 0 0 0 0 0 0 
0 0 0 0 0 0 0 0 0 
0 0 0 0 0 0 0 0 0 
0 0 0 0 0 0 0 0 0 
0 0 0 0 0 0 0 0 0 
0 0 0 0 0 0 0 0 0 
0 0 0 0 0 0 0 0 0 
0 0 0 0 0 0 0 0 0 
0 0 0 0 0 0 0 0 0 
0 0 0 0 0 0 0 0 0 
0 0 0 0 0 0 0 0 0 
0 0 0 0 0 0 0 0 0 
0 0 0 0 0 0 0 0 0 
0 0 0 0 0 0 0 0 0 
0 0 0 0 0 0 0 0 0 
0 0 0 0 0 0 0 0 0 
0 0 0 0 0 0 0 0 0 
0 0 0 0 0 0 0 0 0 
0 0 0 0 0 0 0 0 0 
0 0 0 0 0 0 0 0 0 
0 0 0 0 0 0 0 0 0 
0 0 0 0 0 0 0 0 0 
0 0 0 0 0 0 0 0 0 
0 0 0 0 0 0 0 0 0 
0 0 0 0 0 0 0 0 0 
0 0 0 0 0 0 0 0 0 
0 0 0 0 0 0 0 0 0 
0 0 0 0 0 0 0 0 0 
0 0 0 0 0 0 0 0 0 
0 0 0 0 0 0 0 0 0 
0 0 0 0 0 0 0 0 0 
0 0 0 0 0 0 0 0 0 
0 0 0 0 0 0 0 0 0 
0 0 0 0 0 0 0 0 0 
0 0 0 0 0 0 0 0 0 
0 0 0 0 0 0 0 0 0 
0 0 0 0 0 0 0 0 0 
0 0 0 0 0 0 0 0 0 
0 0 0 0 0 0 0 0 0 
0 0 0 0 0 0 0 0 0 
0 0 0 0 0 0 0 0 0 
0 0 0 0 0 0 0 0 0 
0 0 0 0 0 0 0 0 0 
0 0 0 0 0 0 0 0 0 
0 0 0 0 0 0 0 0 0 
0 0 0 0 0 0 0 0 0 
0 0 0 0 0 0 0 0 0 
0 0 0 0 0 0 0 0 0 
0 0 0 0 0 0 0 0 0 
0 0 0 0 0 0 0 0 0 
0 0 0 0 0 0 0 0 0 
0 0 0 0 0 0 0 0 0 
0 0 0 0 0 0 0 0 0 
0 0 0 0 0 0 0 0 0 
0 0 0 0 0 0 0 0 0 
0 0 0 0 0 0 0 0 0 
0 0 0 0 0 0 0 0 0 
0 0 0 0 0 0 0 0 0 
0 0 0 0 0 0 0 0 0 
0 0 0 0 0 0 0 0 0 
0 0 0 0 0 0 0 0 0 
0 0 0 0 0 0 0 0 0 
0 0 0 0 0 0 0 0 0 
0 0 0 0 0 0 0 0 0 
0 0 0 0 0 0 0 0 0 
0 0 0 0 0 0 0 0 0 
0 0 0 0 0 0 0 0 0 
0 0 0 0 0 0 0 0 0 
0 0 0 0 0 0 0 0 0 
0 0 0 0 0 0 0 0 0 
0 0 0 0 0 0 0 0 0 
0 0 0 0 0 0 0 0 0 
0 0 0 0 0 0 0 0 0 
0 0 0 0 0 0 0 0 0 
0 0 0 0 0 0 0 0 0 
0 0 0 0 0 0 0 0 0 
0 0 0 0 0 0 0 0 0 
0 0 0 0 0 0 0 0 0 
0 0 0 0 0 0 0 0 0 
0 0 0 0 0 0 0 0 0 
0 0 0 0 0 0 0 0 0 
0 0 0 0 0 0 0 0 0 
0 0 0 0 0 0 0 0 0 
0 0 0 0 0 0 0 0 0 
0 0 0 0 0 0 0 0 0 
0 0 0 0 0 0 0 0 0 
0 0 0 0 0 0 0 0 0 
0 0 0 0 0 0 0 0 0 
0 0 0 0 0 0 0 0 0 
0 0 0 0 0 0 0 0 0 
0 0 0 0 0 0 0 0 0 
0 0 0 0 0 0 0 0 0 
0 0 0 0 0 0 0 0 0 
0 0 0 0 0 0 0 0 0 
0 0 0 0 0 0 0 0 0 
0 0 0 0 0 0 0 0 0 
0 0 0 0 0 0 0 0 0 
0 0 0 0 0 0 0 0 0 
0 0 0 0 0 0 0 0 0 
0 0 0 0 0 0 0 0 0 
0 0 0 0 0 0 0 0 0 
0 0 0 0 0 0 0 0 0 
0 0 0 0 0 0 0 0 0 
0 0 0 0 0 0 0 0 0 
0 0 0 0 0 0 0 0 0 
0 0 0 0 0 0 0 0 0 
0 0 0 0 0 0 0 0 0 
0 0 0 0 0 0 0 0 0 
0 0 0 0 0 0 0 0 0 
0 0 0 0 0 0 0 0 0 
0 0 0 0 0 0 0 0 0 
0 0 0 0 0 0 0 0 0 
0 0 0 0 0 0 0 0 0 
0 0 0 0 0 0 0 0 0 
0 0 0 0 0 0 0 0 0 
0 0 0 0 0 0 0 0 0 
0 0 0 0 0 0 0 0 0 
0 0 0 0 0 0 0 0 0 
0 0 0 0 0 0 0 0 0 
0 0 0 0 0 0 0 0 0 
0 0 0 0 0 0 0 0 0 
0 0 0 0 0 0 0 0 0 
0 0 0 0 0 0 0 0 0 
0 0 0 0 0 0 0 0 0 
0 0 0 0 0 0 0 0 0 
0 0 0 0 0 0 0 0 0 
0 0 0 0 0 0 0 0 0 
0 0 0 0 0 0 0 0 0 
0 0 0 0 0 0 0 0 0 
0 0 0 0 0 0 0 0 0 
0 0 0 0 0 0 0 0 0 
0 0 0 0 0 0 0 0 0 
0 0 0 0 0 0 0 0 0 
0 0 0 0 0 0 0 0 0 
0 0 0 0 0 0 0 0 0 
0 0 0 0 0 0 0 0 0 
0 0 0 0 0 0 0 0 0 
0 0 0 0 0 0 0 0 0 
0 0 0 0 0 0 0 0 0 
0 0 0 0 0 0 0 0 0 
0 0 0 0 0 0 0 0 0 
0 0 0 0 0 0 0 0 0 
0 0 0 0 0 0 0 0 0 
0 0 0 0 0 0 0 0 0 
0 0 0 0 0 0 0 0 0 
0 0 0 0 0 0 0 0 0 
0 0 0 0 0 0 0 0 0 
0 0 0 0 0 0 0 0 0 
0 0 0 0 0 0 0 0 0 
0 0 0 0 0 0 0 0 0 
0 0 0 0 0 0 0 0 0 
0 0 0 0 0 0 0 0 0 
0 0 0 0 0 0 0 0 0 
0 0 0 0 0 0 0 0 0 
0 0 0 0 0 0 0 0 0 
0 0 0 0 0 0 0 0 0 
0 0 0 0 0 0 0 0 0 
0 0 0 0 0 0 0 0 0 
0 0 0 0 0 0 0 0 0 
0 0 0 0 0 0 0 0 0 
0 0 0 0 0 0 0 0 0 
0 0 0 0 0 0 0 0 0 
0 0 0 0 0 0 0 0 0 
0 0 0 0 0 0 0 0 0 
0 0 0 0 0 0 0 0 0 
0 0 0 0 0 0 0 0 0 
0 0 0 0 0 0 0 0 0 
0 0 0 0 0 0 0 0 0 
0 0 0 0 0 0 0 0 0 
0 0 0 0 0 0 0 0 0 
0 0 0 0 0 0 0 0 0 
0 0 0 0 0 0 0 0 0 
0 0 0 0 0 0 0 0 0 
0 0 0 0 0 0 0 0 0 
0 0 0 0 0 0 0 0 0 
0 0 0 0 0 0 0 0 0 
0 0 0 0 0 0 0 0 0 
0 0 0 0 0 0 0 0 0 
0 0 0 0 0 0 0 0 0 
0 0 0 0 0 0 0 0 0 
0 0 0 0 0 0 0 0 0 
0 0 0 0 0 0 0 0 0 
0 0 0 0 0 0 0 0 0 
0 0 0 0 0 0 0 0 0 
0 0 0 0 0 0 0 0 0 
0 0 0 0 0 0 0 0 0 
0 0 0 0 0 0 0 0 0 
0 0 0 0 0 0 0 0 0 
0 0 0 0 0 0 0 0 0 
0 0 0 0 0 0 0 0 0 
0 0 0 0 0 0 0 0 0 
0 0 0 0 0 0 0 0 0 
0 0 0 0 0 0 0 0 0 
0 0 0 0 0 0 0 0 0 
0 0 0 0 0 0 0 0 0 
0 0 0 0 0 0 0 0 0 
0 0 0 0 0 0 0 0 0 
0 0 0 0 0 0 0 0 0 
0 0 0 0 0 0 0 0 0 
0 0 0 0 0 0 0 0 0 
0 0 0 0 0 0 0 0 0 
0 0 0 0 0 0 0 0 0 
0 0 0 0 0 0 0 0 0 
0 0 0 0 0 0 0 0 0 
0 0 0 0 0 0 0 0 0 
0 0 0 0 0 0 0 0 0 
0 0 0 0 0 0 0 0 0 
0 0 0 0 0 0 0 0 0 
0 0 0 0 0 0 0 0 0 
0 0 0 0 0 0 0 0 0 
0 0 0 0 0 0 0 0 0 
0 0 0 0 0 0 0 0 0 
0 0 0 0 0 0 0 0 0 
0 0 0 0 0 0 0 0 0 
0 0 0 0 0 0 0 0 0 
0 0 0 0 0 0 0 0 0 
0 0 0 0 0 0 0 0 0 
0 0 0 0 0 0 0 0 0 
0 0 0 0 0 0 0 0 0 
0 0 0 0 0 0 0 0 0 
0 0 0 0 0 0 0 0 0 
0 0 0 0 0 0 0 0 0 
0 0 0 0 0 0 0 0 0 
0 0 0 0 0 0 0 0 0 
0 0 0 0 0 0 0 0 0 
0 0 0 0 0 0 0 0 0 
0 0 0 0 0 0 0 0 0 
0 0 0 0 0 0 0 0 0 
0 0 0 0 0 0 0 0 0 
0 0 0 0 0 0 0 0 0 
0 0 0 0 0 0 0 0 0 
0 0 0 0 0 0 0 0 0 
0 0 0 0 0 0 0 0 0 
0 0 0 0 0 0 0 0 0 
0 0 0 0 0 0 0 0 0 
0 0 0 0 0 0 0 0 0 
0 0 0 0 0 0 0 0 0 
0 0 0 0 0 0 0 0 0 
0 0 0 0 0 0 0 0 0 
0 0 0 0 0 0 0 0 0 
0 0 0 0 0 0 0 0 0 
0 0 0 0 0 0 0 0 0 
0 0 0 0 0 0 0 0 0 
0 0 0 0 0 0 0 0 0 
0 0 0 0 0 0 0 0 0 
0 0 0 0 0 0 0 0 0 
0 0 0 0 0 0 0 0 0 
0 0 0 0 0 0 0 0 0 
0 0 0 0 0 0 0 0 0 
0 0 0 0 0 0 0 0 0 
0 0 0 0 0 0 0 0 0 
0 0 0 0 0 0 0 0 0 
0 0 0 0 0 0 0 0 0 
0 0 0 0 0 0 0 0 0 
0 0 0 0 0 0 0 0 0 
0 0 0 0 0 0 0 0 0 
0 0 0 0 0 0 0 0 0 
0 0 0 0 0 0 0 0 0 
0 0 0 0 0 0 0 0 0 
0 0 0 0 0 0 0 0 0 
0 0 0 0 0 0 0 0 0 
0 0 0 0 0 0 0 0 0 
0 0 0 0 0 0 0 0 0 
0 0 0 0 0 0 0 0 0 
0 0 0 0 0 0 0 0 0 
0 0 0 0 0 0 0 0 0 
0 0 0 0 0 0 0 0 0 
0 0 0 0 0 0 0 0 0 
0 0 0 0 0 0 0 0 0 
0 0 0 0 0 0 0 0 0 
0 0 0 0 0 0 0 0 0 
0 0 0 0 0 0 0 0 0 
0 0 0 0 0 0 0 0 0 
0 0 0 0 0 0 0 0 0 
0 0 0 0 0 0 0 0 0 
0 0 0 0 0 0 0 0 0 
0 0 0 0 0 0 0 0 0 
0 0 0 0 0 0 0 0 0 
0 0 0 0 0 0 0 0 0 
0 0 0 0 0 0 0 0 0 
0 0 0 0 0 0 0 0 0 
0 0 0 0 0 0 0 0 0 
0 0 0 0 0 0 0 0 0 
0 0 0 0 0 0 0 0 0 
0 0 0 0 0 0 0 0 0 
0 0 0 0 0 0 0 0 0 
0 0 0 0 0 0 0 0 0 
0 0 0 0 0 0 0 0 0 
0 0 0 0 0 0 0 0 0 
0 0 0 0 0 0 0 0 0 
0 0 0 0 0 0 0 0 0 
0 0 0 0 0 0 0 0 0 
0 0 0 0 0 0 0 0 0 
0 0 0 0 0 0 0 0 0 
0 0 0 0 0 0 0 0 0 
0 0 0 0 0 0 0 0 0 
0 0 0 0 0 0 0 0 0 
0 0 0 0 0 0 0 0 0 
0 0 0 0 0 0 0 0 0 
0 0 0 0 0 0 0 0 0 
0 0 0 0 0 0 0 0 0 
0 0 0 0 0 0 0 0 0 
0 0 0 0 0 0 0 0 0 
0 0 0 0 0 0 0 0 0 
0 0 0 0 0 0 0 0 0 
0 0 0 0 0 0 0 0 0 
0 0 0 0 0 0 0 0 0 
0 0 0 0 0 0 0 0 0 
0 0 0 0 0 0 0 0 0 
0 0 0 0 0 0 0 0 0 
0 0 0 0 0 0 0 0 0 
0 0 0 0 0 0 0 0 0 
0 0 0 0 0 0 0 0 0 
0 0 0 0 0 0 0 0 0 
0 0 0 0 0 0 0 0 0 
0 0 0 0 0 0 0 0 0 
0 0 0 0 0 0 0 0 0 
0 0 0 0 0 0 0 0 0 
0 0 0 0 0 0 0 0 0 
0 0 0 0 0 0 0 0 0 
0 0 0 0 0 0 0 0 0 
0 0 0 0 0 0 0 0 0 
0 0 0 0 0 0 0 0 0 
0 0 0 0 0 0 0 0 0 
0 0 0 0 0 0 0 0 0 
0 0 0 0 0 0 0 0 0 
0 0 0 0 0 0 0 0 0 
0 0 0 0 0 0 0 0 0 
0 0 0 0 0 0 0 0 0 
0 0 0 0 0 0 0 0 0 
0 0 0 0 0 0 0 0 0 
0 0 0 0 0 0 0 0 0 
0 0 0 0 0 0 0 0 0 
0 0 0 0 0 0 0 0 0 
0 0 0 0 0 0 0 0 0 
0 0 0 0 0 0 0 0 0 
0 0 0 0 0 0 0 0 0 
0 0 0 0 0 0 0 0 0 
0 0 0 0 0 0 0 0 0 
0 0 0 0 0 0 0 0 0 
0 0 0 0 0 0 0 0 0 
0 0 0 0 0 0 0 0 0 
0 0 0 0 0 0 0 0 0 
0 0 0 0 0 0 0 0 0 
0 0 0 0 0 0 0 0 0 
0 0 0 0 0 0 0 0 0 
0 0 0 0 0 0 0 0 0 
0 0 0 0 0 0 0 0 0 
0 0 0 0 0 0 0 0 0 
0 0 0 0 0 0 0 0 0 
0 0 0 0 0 0 0 0 0 
0 0 0 0 0 0 0 0 0 
0 0 0 0 0 0 0 0 0 
0 0 0 0 0 0 0 0 0 
0 0 0 0 0 0 0 0 0 
0 0 0 0 0 0 0 0 0 
0 0 0 0 0 0 0 0 0 
0 0 0 0 0 0 0 0 0 
0 0 0 0 0 0 0 0 0 
0 0 0 0 0 0 0 0 0 
0 0 0 0 0 0 0 0 0 
0 0 0 0 0 0 0 0 0 
0 0 0 0 0 0 0 0 0 
0 0 0 0 0 0 0 0 0 
0 0 0 0 0 0 0 0 0 
0 0 0 0 0 0 0 0 0 
0 0 0 0 0 0 0 0 0 
0 0 0 0 0 0 0 0 0 
0 0 0 0 0 0 0 0 0 
0 0 0 0 0 0 0 0 0 
0 0 0 0 0 0 0 0 0 
0 0 0 0 0 0 0 0 0 
0 0 0 0 0 0 0 0 0 
0 0 0 0 0 0 0 0 0 
0 0 0 0 0 0 0 0 0 
0 0 0 0 0 0 0 0 0 
0 0 0 0 0 0 0 0 0 
0 0 0 0 0 0 0 0 0 
0 0 0 0 0 0 0 0 0 
0 0 0 0 0 0 0 0 0 
0 0 0 0 0 0 0 0 0 
0 0 0 0 0 0 0 0 0 
0 0 0 0 0 0 0 0 0 
0 0 0 0 0 0 0 0 0 
0 0 0 0 0 0 0 0 0 
0 0 0 0 0 0 0 0 0 
0 0 0 0 0 0 0 0 0 
0 0 0 0 0 0 0 0 0 
0 0 0 0 0 0 0 0 0 
0 0 0 0 0 0 0 0 0 
0 0 0 0 0 0 0 0 0 
0 0 0 0 0 0 0 0 0 
0 0 0 0 0 0 0 0 0 
0 0 0 0 0 0 0 0 0 
0 0 0 0 0 0 0 0 0 
0 0 0 0 0 0 0 0 0 
0 0 0 0 0 0 0 0 0 
0 0 0 0 0 0 0 0 0 
0 0 0 0 0 0 0 0 0 
0 0 0 0 0 0 0 0 0 
0 0 0 0 0 0 0 0 0 
0 0 0 0 0 0 0 0 0 
0 0 0 0 0 0 0 0 0 
0 0 0 0 0 0 0 0 0 
0 0 0 0 0 0 0 0 0 
0 0 0 0 0 0 0 0 0 
0 0 0 0 0 0 0 0 0 
0 0 0 0 0 0 0 0 0 
0 0 0 0 0 0 0 0 0 
0 0 0 0 0 0 0 0 0 
0 0 0 0 0 0 0 0 0 
0 0 0 0 0 0 0 0 0 
0 0 0 0 0 0 0 0 0 
0 0 0 0 0 0 0 0 0 
0 0 0 0 0 0 0 0 0 
0 0 0 0 0 0 0 0 0 
0 0 0 0 0 0 0 0 0 
0 0 0 0 0 0 0 0 0 
0 0 0 0 0 0 0 0 0 
0 0 0 0 0 0 0 0 0 
0 0 0 0 0 0 0 0 0 
0 0 0 0 0 0 0 0 0 
0 0 0 0 0 0 0 0 0 
0 0 0 0 0 0 0 0 0 
0 0 0 0 0 0 0 0 0 
0 0 0 0 0 0 0 0 0 
0 0 0 0 0 0 0 0 0 
0 0 0 0 0 0 0 0 0 
0 0 0 0 0 0 0 0 0 
0 0 0 0 0 0 0 0 0 
0 0 0 0 0 0 0 0 0 
0 0 0 0 0 0 0 0 0 
0 0 0 0 0 0 0 0 0 
0 0 0 0 0 0 0 0 0 
0 0 0 0 0 0 0 0 0 
0 0 0 0 0 0 0 0 0 
0 0 0 0 0 0 0 0 0 
0 0 0 0 0 0 0 0 0 
0 0 0 0 0 0 0 0 0 
0 0 0 0 0 0 0 0 0 
0 0 0 0 0 0 0 0 0 
0 0 0 0 0 0 0 0 0 
0 0 0 0 0 0 0 0 0 
0 0 0 0 0 0 0 0 0 
0 0 0 0 0 0 0 0 0 
0 0 0 0 0 0 0 0 0 
0 0 0 0 0 0 0 0 0 
0 0 0 0 0 0 0 0 0 
0 0 0 0 0 0 0 0 0 
0 0 0 0 0 0 0 0 0 
0 0 0 0 0 0 0 0 0 
0 0 0 0 0 0 0 0 0 
0 0 0 0 0 0 0 0 0 
0 0 0 0 0 0 0 0 0 
0 0 0 0 0 0 0 0 0 
0 0 0 0 0 0 0 0 0 
0 0 0 0 0 0 0 0 0 
0 0 0 0 0 0 0 0 0 
0 0 0 0 0 0 0 0 0 
0 0 0 0 0 0 0 0 0 
0 0 0 0 0 0 0 0 0 
0 0 0 0 0 0 0 0 0 
0 0 0 0 0 0 0 0 0 
0 0 0 0 0 0 0 0 0 
0 0 0 0 0 0 0 0 0 
0 0 0 0 0 0 0 0 0 
0 0 0 0 0 0 0 0 0 
0 0 0 0 0 0 0 0 0 
0 0 0 0 0 0 0 0 0 
0 0 0 0 0 0 0 0 0 
0 0 0 0 0 0 0 0 0 
0 0 0 0 0 0 0 0 0 
0 0 0 0 0 0 0 0 0 
0 0 0 0 0 0 0 0 0 
0 0 0 0 0 0 0 0 0 
0 0 0 0 0 0 0 0 0 
0 0 0 0 0 0 0 0 0 
0 0 0 0 0 0 0 0 0 
0 0 0 0 0 0 0 0 0 
0 0 0 0 0 0 0 0 0 
0 0 0 0 0 0 0 0 0 
0 0 0 0 0 0 0 0 0 
0 0 0 0 0 0 0 0 0 
0 0 0 0 0 0 0 0 0 
0 0 0 0 0 0 0 0 0 
0 0 0 0 0 0 0 0 0 
0 0 0 0 0 0 0 0 0 
0 0 0 0 0 0 0 0 0 
0 0 0 0 0 0 0 0 0 
0 0 0 0 0 0 0 0 0 
0 0 0 0 0 0 0 0 0 
0 0 0 0 0 0 0 0 0 
0 0 0 0 0 0 0 0 0 
0 0 0 0 0 0 0 0 0 
0 0 0 0 0 0 0 0 0 
0 0 0 0 0 0 0 0 0 
0 0 0 0 0 0 0 0 0 
0 0 0 0 0 0 0 0 0 
0 0 0 0 0 0 0 0 0 
0 0 0 0 0 0 0 0 0 
0 0 0 0 0 0 0 0 0 
0 0 0 0 0 0 0 0 0 
0 0 0 0 0 0 0 0 0 
0 0 0 0 0 0 0 0 0 
0 0 0 0 0 0 0 0 0 
0 0 0 0 0 0 0 0 0 
0 0 0 0 0 0 0 0 0 
0 0 0 0 0 0 0 0 0 
0 0 0 0 0 0 0 0 0 
0 0 0 0 0 0 0 0 0 
0 0 0 0 0 0 0 0 0 
0 0 0 0 0 0 0 0 0 
0 0 0 0 0 0 0 0 0 
0 0 0 0 0 0 0 0 0 
0 0 0 0 0 0 0 0 0 
0 0 0 0 0 0 0 0 0 
0 0 0 0 0 0 0 0 0 
0 0 0 0 0 0 0 0 0 
0 0 0 0 0 0 0 0 0 
0 0 0 0 0 0 0 0 0 
0 0 0 0 0 0 0 0 0 
0 0 0 0 0 0 0 0 0 
0 0 0 0 0 0 0 0 0 
0 0 0 0 0 0 0 0 0 
0 0 0 0 0 0 0 0 0 
0 0 0 0 0 0 0 0 0 
0 0 0 0 0 0 0 0 0 
0 0 0 0 0 0 0 0 0 
0 0 0 0 0 0 0 0 0 
0 0 0 0 0 0 0 0 0 
0 0 0 0 0 0 0 0 0 
0 0 0 0 0 0 0 0 0 
0 0 0 0 0 0 0 0 0 
0 0 0 0 0 0 0 0 0 
0 0 0 0 0 0 0 0 0 
0 0 0 0 0 0 0 0 0 
0 0 0 0 0 0 0 0 0 
0 0 0 0 0 0 0 0 0 
0 0 0 0 0 0 0 0 0 
0 0 0 0 0 0 0 0 0 
0 0 0 0 0 0 0 0 0 
0 0 0 0 0 0 0 0 0 
0 0 0 0 0 0 0 0 0 
0 0 0 0 0 0 0 0 0 
0 0 0 0 0 0 0 0 0 
0 0 0 0 0 0 0 0 0 
0 0 0 0 0 0 0 0 0 
0 0 0 0 0 0 0 0 0 
0 0 0 0 0 0 0 0 0 
0 0 0 0 0 0 0 0 0 
0 0 0 0 0 0 0 0 0 
0 0 0 0 0 0 0 0 0 
0 0 0 0 0 0 0 0 0 
0 0 0 0 0 0 0 0 0 
0 0 0 0 0 0 0 0 0 
0 0 0 0 0 0 0 0 0 
0 0 0 0 0 0 0 0 0 
0 0 0 0 0 0 0 0 0 
0 0 0 0 0 0 0 0 0 
0 0 0 0 0 0 0 0 0 
0 0 0 0 0 0 0 0 0 
0 0 0 0 0 0 0 0 0 
0 0 0 0 0 0 0 0 0 
0 0 0 0 0 0 0 0 0 
0 0 0 0 0 0 0 0 0 
0 0 0 0 0 0 0 0 0 
0 0 0 0 0 0 0 0 0 
0 0 0 0 0 0 0 0 0 
0 0 0 0 0 0 0 0 0 
0 0 0 0 0 0 0 0 0 
0 0 0 0 0 0 0 0 0 
0 0 0 0 0 0 0 0 0 
0 0 0 0 0 0 0 0 0 
0 0 0 0 0 0 0 0 0 
0 0 0 0 0 0 0 0 0 
0 0 0 0 0 0 0 0 0 
0 0 0 0 0 0 0 0 0 
0 0 0 0 0 0 0 0 0 
0 0 0 0 0 0 0 0 0 
0 0 0 0 0 0 0 0 0 
0 0 0 0 0 0 0 0 0 
0 0 0 0 0 0 0 0 0 
0 0 0 0 0 0 0 0 0 
0 0 0 0 0 0 0 0 0 
0 0 0 0 0 0 0 0 0 
0 0 0 0 0 0 0 0 0 
0 0 0 0 0 0 0 0 0 
0 0 0 0 0 0 0 0 0 
0 0 0 0 0 0 0 0 0 
0 0 0 0 0 0 0 0 0 
0 0 0 0 0 0 0 0 0 
0 0 0 0 0 0 0 0 0 
0 0 0 0 0 0 0 0 0 
0 0 0 0 0 0 0 0 0 
0 0 0 0 0 0 0 0 0 
0 0 0 0 0 0 0 0 0 
0 0 0 0 0 0 0 0 0 
0 0 0 0 0 0 0 0 0 
0 0 0 0 0 0 0 0 0 
0 0 0 0 0 0 0 0 0 
0 0 0 0 0 0 0 0 0 
0 0 0 0 0 0 0 0 0 
0 0 0 0 0 0 0 0 0 
0 0 0 0 0 0 0 0 0 
0 0 0 0 0 0 0 0 0 
0 0 0 0 0 0 0 0 0 
0 0 0 0 0 0 0 0 0 
0 0 0 0 0 0 0 0 0 
0 0 0 0 0 0 0 0 0 
0 0 0 0 0 0 0 0 0 
0 0 0 0 0 0 0 0 0 
0 0 0 0 0 0 0 0 0 
0 0 0 0 0 0 0 0 0 
0 0 0 0 0 0 0 0 0 
0 0 0 0 0 0 0 0 0 
0 0 0 0 0 0 0 0 0 
0 0 0 0 0 0 0 0 0 
0 0 0 0 0 0 0 0 0 
0 0 0 0 0 0 0 0 0 
0 0 0 0 0 0 0 0 0 
0 0 0 0 0 0 0 0 0 
0 0 0 0 0 0 0 0 0 
0 0 0 0 0 0 0 0 0 
0 0 0 0 0 0 0 0 0 
0 0 0 0 0 0 0 0 0 
0 0 0 0 0 0 0 0 0 
0 0 0 0 0 0 0 0 0 
0 0 0 0 0 0 0 0 0 
0 0 0 0 0 0 0 0 0 
0 0 0 0 0 0 0 0 0 
0 0 0 0 0 0 0 0 0 
0 0 0 0 0 0 0 0 0 
0 0 0 0 0 0 0 0 0 
0 0 0 0 0 0 0 0 0 
0 0 0 0 0 0 0 0 0 
0 0 0 0 0 0 0 0 0 
0 0 0 0 0 0 0 0 0 
0 0 0 0 0 0 0 0 0 
0 0 0 0 0 0 0 0 0 
0 0 0 0 0 0 0 0 0 
0 0 0 0 0 0 0 0 0 
0 0 0 0 0 0 0 0 0 
0 0 0 0 0 0 0 0 0 
0 0 0 0 0 0 0 0 0 
0 0 0 0 0 0 0 0 0 
0 0 0 0 0 0 0 0 0 
0 0 0 0 0 0 0 0 0 
0 0 0 0 0 0 0 0 0 
0 0 0 0 0 0 0 0 0 
0 0 0 0 0 0 0 0 0 
0 0 0 0 0 0 0 0 0 
0 0 0 0 0 0 0 0 0 
0 0 0 0 0 0 0 0 0 
0 0 0 0 0 0 0 0 0 
0 0 0 0 0 0 0 0 0 
0 0 0 0 0 0 0 0 0 
0 0 0 0 0 0 0 0 0 
0 0 0 0 0 0 0 0 0 
0 0 0 0 0 0 0 0 0 
0 0 0 0 0 0 0 0 0 
0 0 0 0 0 0 0 0 0 
0 0 0 0 0 0 0 0 0 
0 0 0 0 0 0 0 0 0 
0 0 0 0 0 0 0 0 0 
0 0 0 0 0 0 0 0 0 
0 0 0 0 0 0 0 0 0 
0 0 0 0 0 0 0 0 0 
0 0 0 0 0 0 0 0 0 
0 0 0 0 0 0 0 0 0 
0 0 0 0 0 0 0 0 0 
0 0 0 0 0 0 0 0 0 
0 0 0 0 0 0 0 0 0 
0 0 0 0 0 0 0 0 0 
0 0 0 0 0 0 0 0 0 
0 0 0 0 0 0 0 0 0 
0 0 0 0 0 0 0 0 0 
0 0 0 0 0 0 0 0 0 
0 0 0 0 0 0 0 0 0 
0 0 0 0 0 0 0 0 0 
0 0 0 0 0 0 0 0 0 
0 0 0 0 0 0 0 0 0 
0 0 0 0 0 0 0 0 0 
0 0 0 0 0 0 0 0 0 
0 0 0 0 0 0 0 0 0 
0 0 0 0 0 0 0 0 0 
0 0 0 0 0 0 0 0 0 
0 0 0 0 0 0 0 0 0 
0 0 0 0 0 0 0 0 0 
0 0 0 0 0 0 0 0 0 
0 0 0 0 0 0 0 0 0 
0 0 0 0 0 0 0 0 0 
0 0 0 0 0 0 0 0 0 
0 0 0 0 0 0 0 0 0 
0 0 0 0 0 0 0 0 0 
0 0 0 0 0 0 0 0 0 
0 0 0 0 0 0 0 0 0 
0 0 0 0 0 0 0 0 0 
0 0 0 0 0 0 0 0 0 
0 0 0 0 0 0 0 0 0 
0 0 0 0 0 0 0 0 0 
0 0 0 0 0 0 0 0 0 
0 0 0 0 0 0 0 0 0 
0 0 0 0 0 0 0 0 0 
0 0 0 0 0 0 0 0 0 
0 0 0 0 0 0 0 0 0 
0 0 0 0 0 0 0 0 0 
0 0 0 0 0 0 0 0 0 
0 0 0 0 0 0 0 0 0 
0 0 0 0 0 0 0 0 0 
0 0 0 0 0 0 0 0 0 
0 0 0 0 0 0 0 0 0 
0 0 0 0 0 0 0 0 0 
0 0 0 0 0 0 0 0 0 
0 0 0 0 0 0 0 0 0 
0 0 0 0 0 0 0 0 0 
0 0 0 0 0 0 0 0 0 
0 0 0 0 0 0 0 0 0 
0 0 0 0 0 0 0 0 0 
0 0 0 0 0 0 0 0 0 
0 0 0 0 0 0 0 0 0 
0 0 0 0 0 0 0 0 0 
0 0 0 0 0 0 0 0 0 
0 0 0 0 0 0 0 0 0 
0 0 0 0 0 0 0 0 0 
0 0 0 0 0 0 0 0 0 
0 0 0 0 0 0 0 0 0 
0 0 0 0 0 0 0 0 0 
0 0 0 0 0 0 0 0 0 
0 0 0 0 0 0 0 0 0 
0 0 0 0 0 0 0 0 0 
0 0 0 0 0 0 0 0 0 
0 0 0 0 0 0 0 0 0 
0 0 0 0 0 0 0 0 0 
0 0 0 0 0 0 0 0 0 
0 0 0 0 0 0 0 0 0 
0 0 0 0 0 0 0 0 0 
0 0 0 0 0 0 0 0 0 
0 0 0 0 0 0 0 0 0 
0 0 0 0 0 0 0 0 0 
0 0 0 0 0 0 0 0 0 
0 0 0 0 0 0 0 0 0 
0 0 0 0 0 0 0 0 0 
0 0 0 0 0 0 0 0 0 
0 0 0 0 0 0 0 0 0 
0 0 0 0 0 0 0 0 0 
0 0 0 0 0 0 0 0 0 
0 0 0 0 0 0 0 0 0 
0 0 0 0 0 0 0 0 0 
0 0 0 0 0 0 0 0 0 
0 0 0 0 0 0 0 0 0 
0 0 0 0 0 0 0 0 0 
0 0 0 0 0 0 0 0 0 
0 0 0 0 0 0 0 0 0 
0 0 0 0 0 0 0 0 0 
0 0 0 0 0 0 0 0 0 
0 0 0 0 0 0 0 0 0 
0 0 0 0 0 0 0 0 0 
0 0 0 0 0 0 0 0 0 
0 0 0 0 0 0 0 0 0 
0 0 0 0 0 0 0 0 0 
0 0 0 0 0 0 0 0 0 
0 0 0 0 0 0 0 0 0 
0 0 0 0 0 0 0 0 0 
0 0 0 0 0 0 0 0 0 
0 0 0 0 0 0 0 0 0 
0 0 0 0 0 0 0 0 0 
0 0 0 0 0 0 0 0 0 
0 0 0 0 0 0 0 0 0 
0 0 0 0 0 0 0 0 0 
0 0 0 0 0 0 0 0 0 
0 0 0 0 0 0 0 0 0 
0 0 0 0 0 0 0 0 0 
0 0 0 0 0 0 0 0 0 
0 0 0 0 0 0 0 0 0 
0 0 0 0 0 0 0 0 0 
0 0 0 0 0 0 0 0 0 
0 0 0 0 0 0 0 0 0 
0 0 0 0 0 0 0 0 0 
0 0 0 0 0 0 0 0 0 
0 0 0 0 0 0 0 0 0 
0 0 0 0 0 0 0 0 0 
0 0 0 0 0 0 0 0 0 
0 0 0 0 0 0 0 0 0 
0 0 0 0 0 0 0 0 0 
0 0 0 0 0 0 0 0 0 
0 0 0 0 0 0 0 0 0 
0 0 0 0 0 0 0 0 0 
0 0 0 0 0 0 0 0 0 
0 0 0 0 0 0 0 0 0 
0 0 0 0 0 0 0 0 0 
0 0 0 0 0 0 0 0 0 
0 0 0 0 0 0 0 0 0 
0 0 0 0 0 0 0 0 0 
0 0 0 0 0 0 0 0 0 
0 0 0 0 0 0 0 0 0 
0 0 0 0 0 0 0 0 0 
0 0 0 0 0 0 0 0 0 
0 0 0 0 0 0 0 0 0 
0 0 0 0 0 0 0 0 0 
0 0 0 0 0 0 0 0 0 
0 0 0 0 0 0 0 0 0 
0 0 0 0 0 0 0 0 0 
0 0 0 0 0 0 0 0 0 
0 0 0 0 0 0 0 0 0 
0 0 0 0 0 0 0 0 0 
0 0 0 0 0 0 0 0 0 
0 0 0 0 0 0 0 0 0 
0 0 0 0 0 0 0 0 0 
0 0 0 0 0 0 0 0 0 
0 0 0 0 0 0 0 0 0 
0 0 0 0 0 0 0 0 0 
0 0 0 0 0 0 0 0 0 
0 0 0 0 0 0 0 0 0 
0 0 0 0 0 0 0 0 0 
0 0 0 0 0 0 0 0 0 
0 0 0 0 0 0 0 0 0 
0 0 0 0 0 0 0 0 0 
0 0 0 0 0 0 0 0 0 
0 0 0 0 0 0 0 0 0 
0 0 0 0 0 0 0 0 0 
0 0 0 0 0 0 0 0 0 
0 0 0 0 0 0 0 0 0 
0 0 0 0 0 0 0 0 0 
0 0 0 0 0 0 0 0 0 
0 0 0 0 0 0 0 0 0 
0 0 0 0 0 0 0 0 0 
0 0 0 0 0 0 0 0 0 
0 0 0 0 0 0 0 0 0 
0 0 0 0 0 0 0 0 0 
0 0 0 0 0 0 0 0 0 
0 0 0 0 0 0 0 0 0 
0 0 0 0 0 0 0 0 0 
0 0 0 0 0 0 0 0 0 
0 0 0 0 0 0 0 0 0 
0 0 0 0 0 0 0 0 0 
0 0 0 0 0 0 0 0 0 
0 0 0 0 0 0 0 0 0 
0 0 0 0 0 0 0 0 0 
0 0 0 0 0 0 0 0 0 
0 0 0 0 0 0 0 0 0 
0 0 0 0 0 0 0 0 0 
0 0 0 0 0 0 0 0 0 
0 0 0 0 0 0 0 0 0 
0 0 0 0 0 0 0 0 0 
0 0 0 0 0 0 0 0 0 
0 0 0 0 0 0 0 0 0 
0 0 0 0 0 0 0 0 0 
0 0 0 0 0 0 0 0 0 
0 0 0 0 0 0 0 0 0 
0 0 0 0 0 0 0 0 0 
0 0 0 0 0 0 0 0 0 
0 0 0 0 0 0 0 0 0 
0 0 0 0 0 0 0 0 0 
0 0 0 0 0 0 0 0 0 
0 0 0 0 0 0 0 0 0 
0 0 0 0 0 0 0 0 0 
0 0 0 0 0 0 0 0 0 
0 0 0 0 0 0 0 0 0 
0 0 0 0 0 0 0 0 0 
0 0 0 0 0 0 0 0 0 
0 0 0 0 0 0 0 0 0 
0 0 0 0 0 0 0 0 0 
0 0 0 0 0 0 0 0 0 
0 0 0 0 0 0 0 0 0 
0 0 0 0 0 0 0 0 0 
0 0 0 0 0 0 0 0 0 
0 0 0 0 0 0 0 0 0 
0 0 0 0 0 0 0 0 0 
0 0 0 0 0 0 0 0 0 
0 0 0 0 0 0 0 0 0 
0 0 0 0 0 0 0 0 0 
0 0 0 0 0 0 0 0 0 
0 0 0 0 0 0 0 0 0 
0 0 0 0 0 0 0 0 0 
0 0 0 0 0 0 0 0 0 
0 0 0 0 0 0 0 0 0 
0 0 0 0 0 0 0 0 0 
0 0 0 0 0 0 0 0 0 
0 0 0 0 0 0 0 0 0 
0 0 0 0 0 0 0 0 0 
0 0 0 0 0 0 0 0 0 
0 0 0 0 0 0 0 0 0 
0 0 0 0 0 0 0 0 0 
0 0 0 0 0 0 0 0 0 
0 0 0 0 0 0 0 0 0 
0 0 0 0 0 0 0 0 0 
0 0 0 0 0 0 0 0 0 
0 0 0 0 0 0 0 0 0 
0 0 0 0 0 0 0 0 0 
0 0 0 0 0 0 0 0 0 
0 0 0 0 0 0 0 0 0 
0 0 0 0 0 0 0 0 0 
0 0 0 0 0 0 0 0 0 
0 0 0 0 0 0 0 0 0 
0 0 0 0 0 0 0 0 0 
0 0 0 0 0 0 0 0 0 
0 0 0 0 0 0 0 0 0 
0 0 0 0 0 0 0 0 0 
0 0 0 0 0 0 0 0 0 
0 0 0 0 0 0 0 0 0 
0 0 0 0 0 0 0 0 0 
0 0 0 0 0 0 0 0 0 
0 0 0 0 0 0 0 0 0 
0 0 0 0 0 0 0 0 0 
0 0 0 0 0 0 0 0 0 
0 0 0 0 0 0 0 0 0 
0 0 0 0 0 0 0 0 0 
0 0 0 0 0 0 0 0 0 
0 0 0 0 0 0 0 0 0 
0 0 0 0 0 0 0 0 0 
0 0 0 0 0 0 0 0 0 
0 0 0 0 0 0 0 0 0 
0 0 0 0 0 0 0 0 0 
0 0 0 0 0 0 0 0 0 
0 0 0 0 0 0 0 0 0 
0 0 0 0 0 0 0 0 0 
0 0 0 0 0 0 0 0 0 
0 0 0 0 0 0 0 0 0 
0 0 0 0 0 0 0 0 0 
0 0 0 0 0 0 0 0 0 
0 0 0 0 0 0 0 0 0 
0 0 0 0 0 0 0 0 0 
0 0 0 0 0 0 0 0 0 
0 0 0 0 0 0 0 0 0 
0 0 0 0 0 0 0 0 0 
0 0 0 0 0 0 0 0 0 
0 0 0 0 0 0 0 0 0 
0 0 0 0 0 0 0 0 0 
0 0 0 0 0 0 0 0 0 
0 0 0 0 0 0 0 0 0 
0 0 0 0 0 0 0 0 0 
0 0 0 0 0 0 0 0 0 
0 0 0 0 0 0 0 0 0 
0 0 0 0 0 0 0 0 0 
0 0 0 0 0 0 0 0 0 
0 0 0 0 0 0 0 0 0 
0 0 0 0 0 0 0 0 0 
0 0 0 0 0 0 0 0 0 
0 0 0 0 0 0 0 0 0 
0 0 0 0 0 0 0 0 0 
0 0 0 0 0 0 0 0 0 
0 0 0 0 0 0 0 0 0 
0 0 0 0 0 0 0 0 0 
0 0 0 0 0 0 0 0 0 
0 0 0 0 0 0 0 0 0 
0 0 0 0 0 0 0 0 0 
0 0 0 0 0 0 0 0 0 
0 0 0 0 0 0 0 0 0 
0 0 0 0 0 0 0 0 0 
0 0 0 0 0 0 0 0 0 
0 0 0 0 0 0 0 0 0 
0 0 0 0 0 0 0 0 0 
0 0 0 0 0 0 0 0 0 
0 0 0 0 0 0 0 0 0 
0 0 0 0 0 0 0 0 0 
0 0 0 0 0 0 0 0 0 
0 0 0 0 0 0 0 0 0 
0 0 0 0 0 0 0 0 0 
0 0 0 0 0 0 0 0 0 
0 0 0 0 0 0 0 0 0 
0 0 0 0 0 0 0 0 0 
0 0 0 0 0 0 0 0 0 
0 0 0 0 0 0 0 0 0 
0 0 0 0 0 0 0 0 0 
0 0 0 0 0 0 0 0 0 
0 0 0 0 0 0 0 0 0 
0 0 0 0 0 0 0 0 0 
0 0 0 0 0 0 0 0 0 
0 0 0 0 0 0 0 0 0 
0 0 0 0 0 0 0 0 0 
0 0 0 0 0 0 0 0 0 
0 0 0 0 0 0 0 0 0 
0 0 0 0 0 0 0 0 0 
0 0 0 0 0 0 0 0 0 
0 0 0 0 0 0 0 0 0 
0 0 0 0 0 0 0 0 0 
0 0 0 0 0 0 0 0 0 
0 0 0 0 0 0 0 0 0 
0 0 0 0 0 0 0 0 0 
0 0 0 0 0 0 0 0 0 
0 0 0 0 0 0 0 0 0 
0 0 0 0 0 0 0 0 0 
0 0 0 0 0 0 0 0 0 
0 0 0 0 0 0 0 0 0 
0 0 0 0 0 0 0 0 0 
0 0 0 0 0 0 0 0 0 
0 0 0 0 0 0 0 0 0 
0 0 0 0 0 0 0 0 0 
0 0 0 0 0 0 0 0 0 
0 0 0 0 0 0 0 0 0 
0 0 0 0 0 0 0 0 0 
0 0 0 0 0 0 0 0 0 
0 0 0 0 0 0 0 0 0 
0 0 0 0 0 0 0 0 0 
0 0 0 0 0 0 0 0 0 
0 0 0 0 0 0 0 0 0 
0 0 0 0 0 0 0 0 0 
0 0 0 0 0 0 0 0 0 
0 0 0 0 0 0 0 0 0 
0 0 0 0 0 0 0 0 0 
0 0 0 0 0 0 0 0 0 
0 0 0 0 0 0 0 0 0 
0 0 0 0 0 0 0 0 0 
0 0 0 0 0 0 0 0 0 
0 0 0 0 0 0 0 0 0 
0 0 0 0 0 0 0 0 0 
0 0 0 0 0 0 0 0 0 
0 0 0 0 0 0 0 0 0 
0 0 0 0 0 0 0 0 0 
0 0 0 0 0 0 0 0 0 
0 0 0 0 0 0 0 0 0 
0 0 0 0 0 0 0 0 0 
0 0 0 0 0 0 0 0 0 
0 0 0 0 0 0 0 0 0 
0 0 0 0 0 0 0 0 0 
0 0 0 0 0 0 0 0 0 
0 0 0 0 0 0 0 0 0 
0 0 0 0 0 0 0 0 0 
0 0 0 0 0 0 0 0 0 
0 0 0 0 0 0 0 0 0 
0 0 0 0 0 0 0 0 0 
0 0 0 0 0 0 0 0 0 
0 0 0 0 0 0 0 0 0 
0 0 0 0 0 0 0 0 0 
0 0 0 0 0 0 0 0 0 
0 0 0 0 0 0 0 0 0 
0 0 0 0 0 0 0 0 0 
0 0 0 0 0 0 0 0 0 
0 0 0 0 0 0 0 0 0 
0 0 0 0 0 0 0 0 0 
0 0 0 0 0 0 0 0 0 
0 0 0 0 0 0 0 0 0 
0 0 0 0 0 0 0 0 0 
0 0 0 0 0 0 0 0 0 
0 0 0 0 0 0 0 0 0 
0 0 0 0 0 0 0 0 0 
0 0 0 0 0 0 0 0 0 
0 0 0 0 0 0 0 0 0 
0 0 0 0 0 0 0 0 0 
0 0 0 0 0 0 0 0 0 
0 0 0 0 0 0 0 0 0 
0 0 0 0 0 0 0 0 0 
0 0 0 0 0 0 0 0 0 
0 0 0 0 0 0 0 0 0 
0 0 0 0 0 0 0 0 0 
0 0 0 0 0 0 0 0 0 
0 0 0 0 0 0 0 0 0 
0 0 0 0 0 0 0 0 0 
0 0 0 0 0 0 0 0 0 
0 0 0 0 0 0 0 0 0 
0 0 0 0 0 0 0 0 0 
0 0 0 0 0 0 0 0 0 
0 0 0 0 0 0 0 0 0 
0 0 0 0 0 0 0 0 0 
0 0 0 0 0 0 0 0 0 
0 0 0 0 0 0 0 0 0 
0 0 0 0 0 0 0 0 0 
0 0 0 0 0 0 0 0 0 
0 0 0 0 0 0 0 0 0 
0 0 0 0 0 0 0 0 0 
0 0 0 0 0 0 0 0 0 
0 0 0 0 0 0 0 0 0 
0 0 0 0 0 0 0 0 0 
0 0 0 0 0 0 0 0 0 
0 0 0 0 0 0 0 0 0 
0 0 0 0 0 0 0 0 0 
0 0 0 0 0 0 0 0 0 
0 0 0 0 0 0 0 0 0 
0 0 0 0 0 0 0 0 0 
0 0 0 0 0 0 0 0 0 
0 0 0 0 0 0 0 0 0 
0 0 0 0 0 0 0 0 0 
0 0 0 0 0 0 0 0 0 
0 0 0 0 0 0 0 0 0 
0 0 0 0 0 0 0 0 0 
0 0 0 0 0 0 0 0 0 
0 0 0 0 0 0 0 0 0 
0 0 0 0 0 0 0 0 0 
0 0 0 0 0 0 0 0 0 
0 0 0 0 0 0 0 0 0 
0 0 0 0 0 0 0 0 0 
0 0 0 0 0 0 0 0 0 
0 0 0 0 0 0 0 0 0 
0 0 0 0 0 0 0 0 0 
0 0 0 0 0 0 0 0 0 
0 0 0 0 0 0 0 0 0 
0 0 0 0 0 0 0 0 0 
0 0 0 0 0 0 0 0 0 
0 0 0 0 0 0 0 0 0 
0 0 0 0 0 0 0 0 0 
0 0 0 0 0 0 0 0 0 
0 0 0 0 0 0 0 0 0 
0 0 0 0 0 0 0 0 0 
0 0 0 0 0 0 0 0 0 
0 0 0 0 0 0 0 0 0 
0 0 0 0 0 0 0 0 0 
0 0 0 0 0 0 0 0 0 
0 0 0 0 0 0 0 0 0 
0 0 0 0 0 0 0 0 0 
0 0 0 0 0 0 0 0 0 
0 0 0 0 0 0 0 0 0 
0 0 0 0 0 0 0 0 0 
0 0 0 0 0 0 0 0 0 
0 0 0 0 0 0 0 0 0 
0 0 0 0 0 0 0 0 0 
0 0 0 0 0 0 0 0 0 
0 0 0 0 0 0 0 0 0 
0 0 0 0 0 0 0 0 0 
0 0 0 0 0 0 0 0 0 
0 0 0 0 0 0 0 0 0 
0 0 0 0 0 0 0 0 0 
0 0 0 0 0 0 0 0 0 
0 0 0 0 0 0 0 0 0 
0 0 0 0 0 0 0 0 0 
0 0 0 0 0 0 0 0 0 
0 0 0 0 0 0 0 0 0 
0 0 0 0 0 0 0 0 0 
0 0 0 0 0 0 0 0 0 
0 0 0 0 0 0 0 0 0 
0 0 0 0 0 0 0 0 0 
0 0 0 0 0 0 0 0 0 
0 0 0 0 0 0 0 0 0 
0 0 0 0 0 0 0 0 0 
0 0 0 0 0 0 0 0 0 
0 0 0 0 0 0 0 0 0 
0 0 0 0 0 0 0 0 0 
0 0 0 0 0 0 0 0 0 
0 0 0 0 0 0 0 0 0 
0 0 0 0 0 0 0 0 0 
0 0 0 0 0 0 0 0 0 
0 0 0 0 0 0 0 0 0 
0 0 0 0 0 0 0 0 0 
0 0 0 0 0 0 0 0 0 
0 0 0 0 0 0 0 0 0 
0 0 0 0 0 0 0 0 0 
0 0 0 0 0 0 0 0 0 
0 0 0 0 0 0 0 0 0 
0 0 0 0 0 0 0 0 0 
0 0 0 0 0 0 0 0 0 
0 0 0 0 0 0 0 0 0 
0 0 0 0 0 0 0 0 0 
0 0 0 0 0 0 0 0 0 
0 0 0 0 0 0 0 0 0 
0 0 0 0 0 0 0 0 0 
0 0 0 0 0 0 0 0 0 
0 0 0 0 0 0 0 0 0 
0 0 0 0 0 0 0 0 0 
0 0 0 0 0 0 0 0 0 
0 0 0 0 0 0 0 0 0 
0 0 0 0 0 0 0 0 0 
0 0 0 0 0 0 0 0 0 
0 0 0 0 0 0 0 0 0 
0 0 0 0 0 0 0 0 0 
0 0 0 0 0 0 0 0 0 
0 0 0 0 0 0 0 0 0 
0 0 0 0 0 0 0 0 0 
0 0 0 0 0 0 0 0 0 
0 0 0 0 0 0 0 0 0 
0 0 0 0 0 0 0 0 0 
0 0 0 0 0 0 0 0 0 
0 0 0 0 0 0 0 0 0 
0 0 0 0 0 0 0 0 0 
0 0 0 0 0 0 0 0 0 
0 0 0 0 0 0 0 0 0 
0 0 0 0 0 0 0 0 0 
0 0 0 0 0 0 0 0 0 
0 0 0 0 0 0 0 0 0 
0 0 0 0 0 0 0 0 0 
0 0 0 0 0 0 0 0 0 
0 0 0 0 0 0 0 0 0 
0 0 0 0 0 0 0 0 0 
0 0 0 0 0 0 0 0 0 
0 0 0 0 0 0 0 0 0 
0 0 0 0 0 0 0 0 0 
0 0 0 0 0 0 0 0 0 
0 0 0 0 0 0 0 0 0 
0 0 0 0 0 0 0 0 0 
0 0 0 0 0 0 0 0 0 
0 0 0 0 0 0 0 0 0 
0 0 0 0 0 0 0 0 0 
0 0 0 0 0 0 0 0 0 
0 0 0 0 0 0 0 0 0 
0 0 0 0 0 0 0 0 0 
0 0 0 0 0 0 0 0 0 
0 0 0 0 0 0 0 0 0 
0 0 0 0 0 0 0 0 0 
0 0 0 0 0 0 0 0 0 
0 0 0 0 0 0 0 0 0 
0 0 0 0 0 0 0 0 0 
0 0 0 0 0 0 0 0 0 
0 0 0 0 0 0 0 0 0 
0 0 0 0 0 0 0 0 0 
0 0 0 0 0 0 0 0 0 
0 0 0 0 0 0 0 0 0 
0 0 0 0 0 0 0 0 0 
0 0 0 0 0 0 0 0 0 
0 0 0 0 0 0 0 0 0 
0 0 0 0 0 0 0 0 0 
0 0 0 0 0 0 0 0 0 
0 0 0 0 0 0 0 0 0 
0 0 0 0 0 0 0 0 0 
0 0 0 0 0 0 0 0 0 
0 0 0 0 0 0 0 0 0 
0 0 0 0 0 0 0 0 0 
0 0 0 0 0 0 0 0 0 
0 0 0 0 0 0 0 0 0 
0 0 0 0 0 0 0 0 0 
0 0 0 0 0 0 0 0 0 
0 0 0 0 0 0 0 0 0 
0 0 0 0 0 0 0 0 0 
0 0 0 0 0 0 0 0 0 
0 0 0 0 0 0 0 0 0 
0 0 0 0 0 0 0 0 0 
0 0 0 0 0 0 0 0 0 
0 0 0 0 0 0 0 0 0 
0 0 0 0 0 0 0 0 0 
0 0 0 0 0 0 0 0 0 
0 0 0 0 0 0 0 0 0 
0 0 0 0 0 0 0 0 0 
0 0 0 0 0 0 0 0 0 
0 0 0 0 0 0 0 0 0 
0 0 0 0 0 0 0 0 0 
0 0 0 0 0 0 0 0 0 
0 0 0 0 0 0 0 0 0 
0 0 0 0 0 0 0 0 0 
0 0 0 0 0 0 0 0 0 
0 0 0 0 0 0 0 0 0 
0 0 0 0 0 0 0 0 0 
0 0 0 0 0 0 0 0 0 
0 0 0 0 0 0 0 0 0 
0 0 0 0 0 0 0 0 0 
0 0 0 0 0 0 0 0 0 
0 0 0 0 0 0 0 0 0 
0 0 0 0 0 0 0 0 0 
0 0 0 0 0 0 0 0 0 
0 0 0 0 0 0 0 0 0 
0 0 0 0 0 0 0 0 0 
0 0 0 0 0 0 0 0 0 
0 0 0 0 0 0 0 0 0 
0 0 0 0 0 0 0 0 0 
0 0 0 0 0 0 0 0 0 
0 0 0 0 0 0 0 0 0 
0 0 0 0 0 0 0 0 0 
0 0 0 0 0 0 0 0 0 
0 0 0 0 0 0 0 0 0 
0 0 0 0 0 0 0 0 0 
0 0 0 0 0 0 0 0 0 
0 0 0 0 0 0 0 0 0 
0 0 0 0 0 0 0 0 0 
0 0 0 0 0 0 0 0 0 
0 0 0 0 0 0 0 0 0 
0 0 0 0 0 0 0 0 0 
0 0 0 0 0 0 0 0 0 
0 0 0 0 0 0 0 0 0 
0 0 0 0 0 0 0 0 0 
0 0 0 0 0 0 0 0 0 
0 0 0 0 0 0 0 0 0 
0 0 0 0 0 0 0 0 0 
0 0 0 0 0 0 0 0 0 
0 0 0 0 0 0 0 0 0 
0 0 0 0 0 0 0 0 0 
0 0 0 0 0 0 0 0 0 
0 0 0 0 0 0 0 0 0 
0 0 0 0 0 0 0 0 0 
0 0 0 0 0 0 0 0 0 
0 0 0 0 0 0 0 0 0 
0 0 0 0 0 0 0 0 0 
0 0 0 0 0 0 0 0 0 
0 0 0 0 0 0 0 0 0 
0 0 0 0 0 0 0 0 0 
0 0 0 0 0 0 0 0 0 
0 0 0 0 0 0 0 0 0 
0 0 0 0 0 0 0 0 0 
0 0 0 0 0 0 0 0 0 
0 0 0 0 0 0 0 0 0 
0 0 0 0 0 0 0 0 0 
0 0 0 0 0 0 0 0 0 
0 0 0 0 0 0 0 0 0 
0 0 0 0 0 0 0 0 0 
0 0 0 0 0 0 0 0 0 
0 0 0 0 0 0 0 0 0 
0 0 0 0 0 0 0 0 0 
0 0 0 0 0 0 0 0 0 
0 0 0 0 0 0 0 0 0 
0 0 0 0 0 0 0 0 0 
0 0 0 0 0 0 0 0 0 
0 0 0 0 0 0 0 0 0 
0 0 0 0 0 0 0 0 0 
0 0 0 0 0 0 0 0 0 
0 0 0 0 0 0 0 0 0 
0 0 0 0 0 0 0 0 0 
0 0 0 0 0 0 0 0 0 
0 0 0 0 0 0 0 0 0 
0 0 0 0 0 0 0 0 0 
0 0 0 0 0 0 0 0 0 
0 0 0 0 0 0 0 0 0 
0 0 0 0 0 0 0 0 0 
0 0 0 0 0 0 0 0 0 
0 0 0 0 0 0 0 0 0 
0 0 0 0 0 0 0 0 0 
0 0 0 0 0 0 0 0 0 
0 0 0 0 0 0 0 0 0 
0 0 0 0 0 0 0 0 0 
0 0 0 0 0 0 0 0 0 
0 0 0 0 0 0 0 0 0 
0 0 0 0 0 0 0 0 0 
0 0 0 0 0 0 0 0 0 
0 0 0 0 0 0 0 0 0 
0 0 0 0 0 0 0 0 0 
0 0 0 0 0 0 0 0 0 
0 0 0 0 0 0 0 0 0 
0 0 0 0 0 0 0 0 0 
0 0 0 0 0 0 0 0 0 
0 0 0 0 0 0 0 0 0 
0 0 0 0 0 0 0 0 0 
0 0 0 0 0 0 0 0 0 
0 0 0 0 0 0 0 0 0 
0 0 0 0 0 0 0 0 0 
0 0 0 0 0 0 0 0 0 
0 0 0 0 0 0 0 0 0 
0 0 0 0 0 0 0 0 0 
0 0 0 0 0 0 0 0 0 
0 0 0 0 0 0 0 0 0 
0 0 0 0 0 0 0 0 0 
0 0 0 0 0 0 0 0 0 
0 0 0 0 0 0 0 0 0 
0 0 0 0 0 0 0 0 0 
0 0 0 0 0 0 0 0 0 
0 0 0 0 0 0 0 0 0 
0 0 0 0 0 0 0 0 0 
0 0 0 0 0 0 0 0 0 
0 0 0 0 0 0 0 0 0 
0 0 0 0 0 0 0 0 0 
0 0 0 0 0 0 0 0 0 
0 0 0 0 0 0 0 0 0 
0 0 0 0 0 0 0 0 0 
0 0 0 0 0 0 0 0 0 
0 0 0 0 0 0 0 0 0 
0 0 0 0 0 0 0 0 0 
0 0 0 0 0 0 0 0 0 
0 0 0 0 0 0 0 0 0 
0 0 0 0 0 0 0 0 0 
0 0 0 0 0 0 0 0 0 
0 0 0 0 0 0 0 0 0 
0 0 0 0 0 0 0 0 0 
0 0 0 0 0 0 0 0 0 
0 0 0 0 0 0 0 0 0 
0 0 0 0 0 0 0 0 0 
0 0 0 0 0 0 0 0 0 
0 0 0 0 0 0 0 0 0 
0 0 0 0 0 0 0 0 0 
0 0 0 0 0 0 0 0 0 
0 0 0 0 0 0 0 0 0 
0 0 0 0 0 0 0 0 0 
0 0 0 0 0 0 0 0 0 
0 0 0 0 0 0 0 0 0 
0 0 0 0 0 0 0 0 0 
0 0 0 0 0 0 0 0 0 
0 0 0 0 0 0 0 0 0 
0 0 0 0 0 0 0 0 0 
0 0 0 0 0 0 0 0 0 
0 0 0 0 0 0 0 0 0 
0 0 0 0 0 0 0 0 0 
0 0 0 0 0 0 0 0 0 
0 0 0 0 0 0 0 0 0 
0 0 0 0 0 0 0 0 0 
0 0 0 0 0 0 0 0 0 
0 0 0 0 0 0 0 0 0 
0 0 0 0 0 0 0 0 0 
0 0 0 0 0 0 0 0 0 
0 0 0 0 0 0 0 0 0 
0 0 0 0 0 0 0 0 0 
0 0 0 0 0 0 0 0 0 
0 0 0 0 0 0 0 0 0 
0 0 0 0 0 0 0 0 0 
0 0 0 0 0 0 0 0 0 
0 0 0 0 0 0 0 0 0 
0 0 0 0 0 0 0 0 0 
0 0 0 0 0 0 0 0 0 
0 0 0 0 0 0 0 0 0 
0 0 0 0 0 0 0 0 0 
0 0 0 0 0 0 0 0 0 
0 0 0 0 0 0 0 0 0 
0 0 0 0 0 0 0 0 0 
0 0 0 0 0 0 0 0 0 
0 0 0 0 0 0 0 0 0 
0 0 0 0 0 0 0 0 0 
0 0 0 0 0 0 0 0 0 
0 0 0 0 0 0 0 0 0 
0 0 0 0 0 0 0 0 0 
0 0 0 0 0 0 0 0 0 
0 0 0 0 0 0 0 0 0 
0 0 0 0 0 0 0 0 0 
0 0 0 0 0 0 0 0 0 
0 0 0 0 0 0 0 0 0 
0 0 0 0 0 0 0 0 0 
0 0 0 0 0 0 0 0 0 
0 0 0 0 0 0 0 0 0 
0 0 0 0 0 0 0 0 0 
0 0 0 0 0 0 0 0 0 
0 0 0 0 0 0 0 0 0 
0 0 0 0 0 0 0 0 0 
0 0 0 0 0 0 0 0 0 
0 0 0 0 0 0 0 0 0 
0 0 0 0 0 0 0 0 0 
0 0 0 0 0 0 0 0 0 
0 0 0 0 0 0 0 0 0 
0 0 0 0 0 0 0 0 0 
0 0 0 0 0 0 0 0 0 
0 0 0 0 0 0 0 0 0 
0 0 0 0 0 0 0 0 0 
0 0 0 0 0 0 0 0 0 
0 0 0 0 0 0 0 0 0 
0 0 0 0 0 0 0 0 0 
0 0 0 0 0 0 0 0 0 
0 0 0 0 0 0 0 0 0 
0 0 0 0 0 0 0 0 0 
0 0 0 0 0 0 0 0 0 
0 0 0 0 0 0 0 0 0 
0 0 0 0 0 0 0 0 0 
0 0 0 0 0 0 0 0 0 
0 0 0 0 0 0 0 0 0 
0 0 0 0 0 0 0 0 0 
0 0 0 0 0 0 0 0 0 
0 0 0 0 0 0 0 0 0 
0 0 0 0 0 0 0 0 0 
0 0 0 0 0 0 0 0 0 
0 0 0 0 0 0 0 0 0 
0 0 0 0 0 0 0 0 0 
0 0 0 0 0 0 0 0 0 
0 0 0 0 0 0 0 0 0 
0 0 0 0 0 0 0 0 0 
0 0 0 0 0 0 0 0 0 
0 0 0 0 0 0 0 0 0 
0 0 0 0 0 0 0 0 0 
0 0 0 0 0 0 0 0 0 
0 0 0 0 0 0 0 0 0 
0 0 0 0 0 0 0 0 0 
0 0 0 0 0 0 0 0 0 
0 0 0 0 0 0 0 0 0 
0 0 0 0 0 0 0 0 0 
0 0 0 0 0 0 0 0 0 
0 0 0 0 0 0 0 0 0 
0 0 0 0 0 0 0 0 0 
0 0 0 0 0 0 0 0 0 
0 0 0 0 0 0 0 0 0 
0 0 0 0 0 0 0 0 0 
0 0 0 0 0 0 0 0 0 
0 0 0 0 0 0 0 0 0 
0 0 0 0 0 0 0 0 0 
0 0 0 0 0 0 0 0 0 
0 0 0 0 0 0 0 0 0 
0 0 0 0 0 0 0 0 0 
0 0 0 0 0 0 0 0 0 
0 0 0 0 0 0 0 0 0 
0 0 0 0 0 0 0 0 0 
0 0 0 0 0 0 0 0 0 
0 0 0 0 0 0 0 0 0 
0 0 0 0 0 0 0 0 0 
0 0 0 0 0 0 0 0 0 
0 0 0 0 0 0 0 0 0 
0 0 0 0 0 0 0 0 0 
0 0 0 0 0 0 0 0 0 
0 0 0 0 0 0 0 0 0 
0 0 0 0 0 0 0 0 0 
0 0 0 0 0 0 0 0 0 
0 0 0 0 0 0 0 0 0 
0 0 0 0 0 0 0 0 0 
0 0 0 0 0 0 0 0 0 
0 0 0 0 0 0 0 0 0 
0 0 0 0 0 0 0 0 0 
0 0 0 0 0 0 0 0 0 
0 0 0 0 0 0 0 0 0 
0 0 0 0 0 0 0 0 0 
0 0 0 0 0 0 0 0 0 
0 0 0 0 0 0 0 0 0 
0 0 0 0 0 0 0 0 0 
0 0 0 0 0 0 0 0 0 
0 0 0 0 0 0 0 0 0 
0 0 0 0 0 0 0 0 0 
0 0 0 0 0 0 0 0 0 
0 0 0 0 0 0 0 0 0 
0 0 0 0 0 0 0 0 0 
0 0 0 0 0 0 0 0 0 
0 0 0 0 0 0 0 0 0 
0 0 0 0 0 0 0 0 0 
0 0 0 0 0 0 0 0 0 
0 0 0 0 0 0 0 0 0 
0 0 0 0 0 0 0 0 0 
0 0 0 0 0 0 0 0 0 
0 0 0 0 0 0 0 0 0 
0 0 0 0 0 0 0 0 0 
0 0 0 0 0 0 0 0 0 
0 0 0 0 0 0 0 0 0 
0 0 0 0 0 0 0 0 0 
0 0 0 0 0 0 0 0 0 
0 0 0 0 0 0 0 0 0 
0 0 0 0 0 0 0 0 0 
0 0 0 0 0 0 0 0 0 
0 0 0 0 0 0 0 0 0 
0 0 0 0 0 0 0 0 0 
0 0 0 0 0 0 0 0 0 
0 0 0 0 0 0 0 0 0 
0 0 0 0 0 0 0 0 0 
0 0 0 0 0 0 0 0 0 
0 0 0 0 0 0 0 0 0 
0 0 0 0 0 0 0 0 0 
0 0 0 0 0 0 0 0 0 
0 0 0 0 0 0 0 0 0 
0 0 0 0 0 0 0 0 0 
0 0 0 0 0 0 0 0 0 
0 0 0 0 0 0 0 0 0 
0 0 0 0 0 0 0 0 0 
0 0 0 0 0 0 0 0 0 
0 0 0 0 0 0 0 0 0 
0 0 0 0 0 0 0 0 0 
0 0 0 0 0 0 0 0 0 
0 0 0 0 0 0 0 0 0 
0 0 0 0 0 0 0 0 0 
0 0 0 0 0 0 0 0 0 
0 0 0 0 0 0 0 0 0 
0 0 0 0 0 0 0 0 0 
0 0 0 0 0 0 0 0 0 
0 0 0 0 0 0 0 0 0 
0 0 0 0 0 0 0 0 0 
0 0 0 0 0 0 0 0 0 
0 0 0 0 0 0 0 0 0 
0 0 0 0 0 0 0 0 0 
0 0 0 0 0 0 0 0 0 
0 0 0 0 0 0 0 0 0 
0 0 0 0 0 0 0 0 0 
0 0 0 0 0 0 0 0 0 
0 0 0 0 0 0 0 0 0 
0 0 0 0 0 0 0 0 0 
0 0 0 0 0 0 0 0 0 
0 0 0 0 0 0 0 0 0 
0 0 0 0 0 0 0 0 0 
0 0 0 0 0 0 0 0 0 
0 0 0 0 0 0 0 0 0 
0 0 0 0 0 0 0 0 0 
0 0 0 0 0 0 0 0 0 
0 0 0 0 0 0 0 0 0 
0 0 0 0 0 0 0 0 0 
0 0 0 0 0 0 0 0 0 
0 0 0 0 0 0 0 0 0 
0 0 0 0 0 0 0 0 0 
0 0 0 0 0 0 0 0 0 
0 0 0 0 0 0 0 0 0 
0 0 0 0 0 0 0 0 0 
0 0 0 0 0 0 0 0 0 
0 0 0 0 0 0 0 0 0 
0 0 0 0 0 0 0 0 0 
0 0 0 0 0 0 0 0 0 
0 0 0 0 0 0 0 0 0 
0 0 0 0 0 0 0 0 0 
0 0 0 0 0 0 0 0 0 
0 0 0 0 0 0 0 0 0 
0 0 0 0 0 0 0 0 0 
0 0 0 0 0 0 0 0 0 
0 0 0 0 0 0 0 0 0 
0 0 0 0 0 0 0 0 0 
0 0 0 0 0 0 0 0 0 
0 0 0 0 0 0 0 0 0 
0 0 0 0 0 0 0 0 0 
0 0 0 0 0 0 0 0 0 
0 0 0 0 0 0 0 0 0 
0 0 0 0 0 0 0 0 0 
0 0 0 0 0 0 0 0 0 
0 0 0 0 0 0 0 0 0 
0 0 0 0 0 0 0 0 0 
0 0 0 0 0 0 0 0 0 
0 0 0 0 0 0 0 0 0 
0 0 0 0 0 0 0 0 0 
0 0 0 0 0 0 0 0 0 
0 0 0 0 0 0 0 0 0 
0 0 0 0 0 0 0 0 0 
0 0 0 0 0 0 0 0 0 
0 0 0 0 0 0 0 0 0 
0 0 0 0 0 0 0 0 0 
0 0 0 0 0 0 0 0 0 
0 0 0 0 0 0 0 0 0 
0 0 0 0 0 0 0 0 0 
0 0 0 0 0 0 0 0 0 
0 0 0 0 0 0 0 0 0 
0 0 0 0 0 0 0 0 0 
0 0 0 0 0 0 0 0 0 
0 0 0 0 0 0 0 0 0 
0 0 0 0 0 0 0 0 0 
0 0 0 0 0 0 0 0 0 
0 0 0 0 0 0 0 0 0 
0 0 0 0 0 0 0 0 0 
0 0 0 0 0 0 0 0 0 
0 0 0 0 0 0 0 0 0 
0 0 0 0 0 0 0 0 0 
0 0 0 0 0 0 0 0 0 
0 0 0 0 0 0 0 0 0 
0 0 0 0 0 0 0 0 0 
0 0 0 0 0 0 0 0 0 
0 0 0 0 0 0 0 0 0 
0 0 0 0 0 0 0 0 0 
0 0 0 0 0 0 0 0 0 
0 0 0 0 0 0 0 0 0 
0 0 0 0 0 0 0 0 0 
0 0 0 0 0 0 0 0 0 
0 0 0 0 0 0 0 0 0 
0 0 0 0 0 0 0 0 0 
0 0 0 0 0 0 0 0 0 
0 0 0 0 0 0 0 0 0 
0 0 0 0 0 0 0 0 0 
0 0 0 0 0 0 0 0 0 
0 0 0 0 0 0 0 0 0 
0 0 0 0 0 0 0 0 0 
0 0 0 0 0 0 0 0 0 
0 0 0 0 0 0 0 0 0 
0 0 0 0 0 0 0 0 0 
0 0 0 0 0 0 0 0 0 
0 0 0 0 0 0 0 0 0 
0 0 0 0 0 0 0 0 0 
0 0 0 0 0 0 0 0 0 
0 0 0 0 0 0 0 0 0 
0 0 0 0 0 0 0 0 0 
0 0 0 0 0 0 0 0 0 
0 0 0 0 0 0 0 0 0 
0 0 0 0 0 0 0 0 0 
0 0 0 0 0 0 0 0 0 
0 0 0 0 0 0 0 0 0 
0 0 0 0 0 0 0 0 0 
0 0 0 0 0 0 0 0 0 
0 0 0 0 0 0 0 0 0 
0 0 0 0 0 0 0 0 0 
0 0 0 0 0 0 0 0 0 
0 0 0 0 0 0 0 0 0 
0 0 0 0 0 0 0 0 0 
0 0 0 0 0 0 0 0 0 
0 0 0 0 0 0 0 0 0 
0 0 0 0 0 0 0 0 0 
0 0 0 0 0 0 0 0 0 
0 0 0 0 0 0 0 0 0 
0 0 0 0 0 0 0 0 0 
0 0 0 0 0 0 0 0 0 
0 0 0 0 0 0 0 0 0 
0 0 0 0 0 0 0 0 0 
0 0 0 0 0 0 0 0 0 
0 0 0 0 0 0 0 0 0 
0 0 0 0 0 0 0 0 0 
0 0 0 0 0 0 0 0 0 
0 0 0 0 0 0 0 0 0 
0 0 0 0 0 0 0 0 0 
0 0 0 0 0 0 0 0 0 
0 0 0 0 0 0 0 0 0 
0 0 0 0 0 0 0 0 0 
0 0 0 0 0 0 0 0 0 
0 0 0 0 0 0 0 0 0 
0 0 0 0 0 0 0 0 0 
0 0 0 0 0 0 0 0 0 
0 0 0 0 0 0 0 0 0 
0 0 0 0 0 0 0 0 0 
0 0 0 0 0 0 0 0 0 
0 0 0 0 0 0 0 0 0 
0 0 0 0 0 0 0 0 0 
0 0 0 0 0 0 0 0 0 
0 0 0 0 0 0 0 0 0 
0 0 0 0 0 0 0 0 0 
0 0 0 0 0 0 0 0 0 
0 0 0 0 0 0 0 0 0 
0 0 0 0 0 0 0 0 0 
0 0 0 0 0 0 0 0 0 
0 0 0 0 0 0 0 0 0 
0 0 0 0 0 0 0 0 0 
0 0 0 0 0 0 0 0 0 
0 0 0 0 0 0 0 0 0 
0 0 0 0 0 0 0 0 0 
0 0 0 0 0 0 0 0 0 
0 0 0 0 0 0 0 0 0 
0 0 0 0 0 0 0 0 0 
0 0 0 0 0 0 0 0 0 
0 0 0 0 0 0 0 0 0 
0 0 0 0 0 0 0 0 0 
0 0 0 0 0 0 0 0 0 
0 0 0 0 0 0 0 0 0 
0 0 0 0 0 0 0 0 0 
0 0 0 0 0 0 0 0 0 
0 0 0 0 0 0 0 0 0 
0 0 0 0 0 0 0 0 0 
0 0 0 0 0 0 0 0 0 
0 0 0 0 0 0 0 0 0 
0 0 0 0 0 0 0 0 0 
0 0 0 0 0 0 0 0 0 
0 0 0 0 0 0 0 0 0 
0 0 0 0 0 0 0 0 0 
0 0 0 0 0 0 0 0 0 
0 0 0 0 0 0 0 0 0 
0 0 0 0 0 0 0 0 0 
0 0 0 0 0 0 0 0 0 
0 0 0 0 0 0 0 0 0 
0 0 0 0 0 0 0 0 0 
0 0 0 0 0 0 0 0 0 
0 0 0 0 0 0 0 0 0 
0 0 0 0 0 0 0 0 0 
0 0 0 0 0 0 0 0 0 
0 0 0 0 0 0 0 0 0 
0 0 0 0 0 0 0 0 0 
0 0 0 0 0 0 0 0 0 
0 0 0 0 0 0 0 0 0 
0 0 0 0 0 0 0 0 0 
0 0 0 0 0 0 0 0 0 
0 0 0 0 0 0 0 0 0 
0 0 0 0 0 0 0 0 0 
0 0 0 0 0 0 0 0 0 
0 0 0 0 0 0 0 0 0 
0 0 0 0 0 0 0 0 0 
0 0 0 0 0 0 0 0 0 
0 0 0 0 0 0 0 0 0 
0 0 0 0 0 0 0 0 0 
0 0 0 0 0 0 0 0 0 
0 0 0 0 0 0 0 0 0 
0 0 0 0 0 0 0 0 0 
0 0 0 0 0 0 0 0 0 
0 0 0 0 0 0 0 0 0 
0 0 0 0 0 0 0 0 0 
0 0 0 0 0 0 0 0 0 
0 0 0 0 0 0 0 0 0 
0 0 0 0 0 0 0 0 0 
0 0 0 0 0 0 0 0 0 
0 0 0 0 0 0 0 0 0 
0 0 0 0 0 0 0 0 0 
0 0 0 0 0 0 0 0 0 
0 0 0 0 0 0 0 0 0 
0 0 0 0 0 0 0 0 0 
0 0 0 0 0 0 0 0 0 
0 0 0 0 0 0 0 0 0 
0 0 0 0 0 0 0 0 0 
0 0 0 0 0 0 0 0 0 
0 0 0 0 0 0 0 0 0 
0 0 0 0 0 0 0 0 0 
0 0 0 0 0 0 0 0 0 
0 0 0 0 0 0 0 0 0 
0 0 0 0 0 0 0 0 0 
0 0 0 0 0 0 0 0 0 
0 0 0 0 0 0 0 0 0 
0 0 0 0 0 0 0 0 0 
0 0 0 0 0 0 0 0 0 
0 0 0 0 0 0 0 0 0 
0 0 0 0 0 0 0 0 0 
0 0 0 0 0 0 0 0 0 
0 0 0 0 0 0 0 0 0 
0 0 0 0 0 0 0 0 0 
0 0 0 0 0 0 0 0 0 
0 0 0 0 0 0 0 0 0 
0 0 0 0 0 0 0 0 0 
0 0 0 0 0 0 0 0 0 
0 0 0 0 0 0 0 0 0 
0 0 0 0 0 0 0 0 0 
0 0 0 0 0 0 0 0 0 
0 0 0 0 0 0 0 0 0 
0 0 0 0 0 0 0 0 0 
0 0 0 0 0 0 0 0 0 
0 0 0 0 0 0 0 0 0 
0 0 0 0 0 0 0 0 0 
0 0 0 0 0 0 0 0 0 
0 0 0 0 0 0 0 0 0 
0 0 0 0 0 0 0 0 0 
0 0 0 0 0 0 0 0 0 
0 0 0 0 0 0 0 0 0 
0 0 0 0 0 0 0 0 0 
0 0 0 0 0 0 0 0 0 
0 0 0 0 0 0 0 0 0 
0 0 0 0 0 0 0 0 0 
0 0 0 0 0 0 0 0 0 
0 0 0 0 0 0 0 0 0 
0 0 0 0 0 0 0 0 0 
0 0 0 0 0 0 0 0 0 
0 0 0 0 0 0 0 0 0 
0 0 0 0 0 0 0 0 0 
0 0 0 0 0 0 0 0 0 
0 0 0 0 0 0 0 0 0 
0 0 0 0 0 0 0 0 0 
0 0 0 0 0 0 0 0 0 
0 0 0 0 0 0 0 0 0 
0 0 0 0 0 0 0 0 0 
0 0 0 0 0 0 0 0 0 
0 0 0 0 0 0 0 0 0 
0 0 0 0 0 0 0 0 0 
0 0 0 0 0 0 0 0 0 
0 0 0 0 0 0 0 0 0 
0 0 0 0 0 0 0 0 0 
0 0 0 0 0 0 0 0 0 
0 0 0 0 0 0 0 0 0 
0 0 0 0 0 0 0 0 0 
0 0 0 0 0 0 0 0 0 
0 0 0 0 0 0 0 0 0 
0 0 0 0 0 0 0 0 0 
0 0 0 0 0 0 0 0 0 
0 0 0 0 0 0 0 0 0 
0 0 0 0 0 0 0 0 0 
0 0 0 0 0 0 0 0 0 
0 0 0 0 0 0 0 0 0 
0 0 0 0 0 0 0 0 0 
0 0 0 0 0 0 0 0 0 
0 0 0 0 0 0 0 0 0 
0 0 0 0 0 0 0 0 0 
0 0 0 0 0 0 0 0 0 
0 0 0 0 0 0 0 0 0 
0 0 0 0 0 0 0 0 0 
0 0 0 0 0 0 0 0 0 
0 0 0 0 0 0 0 0 0 
0 0 0 0 0 0 0 0 0 
0 0 0 0 0 0 0 0 0 
0 0 0 0 0 0 0 0 0 
0 0 0 0 0 0 0 0 0 
0 0 0 0 0 0 0 0 0 
0 0 0 0 0 0 0 0 0 
0 0 0 0 0 0 0 0 0 
0 0 0 0 0 0 0 0 0 
0 0 0 0 0 0 0 0 0 
0 0 0 0 0 0 0 0 0 
0 0 0 0 0 0 0 0 0 
0 0 0 0 0 0 0 0 0 
0 0 0 0 0 0 0 0 0 
0 0 0 0 0 0 0 0 0 
0 0 0 0 0 0 0 0 0 
0 0 0 0 0 0 0 0 0 
0 0 0 0 0 0 0 0 0 
0 0 0 0 0 0 0 0 0 
0 0 0 0 0 0 0 0 0 
0 0 0 0 0 0 0 0 0 
0 0 0 0 0 0 0 0 0 
0 0 0 0 0 0 0 0 0 
0 0 0 0 0 0 0 0 0 
0 0 0 0 0 0 0 0 0 
0 0 0 0 0 0 0 0 0 
0 0 0 0 0 0 0 0 0 
0 0 0 0 0 0 0 0 0 
0 0 0 0 0 0 0 0 0 
0 0 0 0 0 0 0 0 0 
0 0 0 0 0 0 0 0 0 
0 0 0 0 0 0 0 0 0 
0 0 0 0 0 0 0 0 0 
0 0 0 0 0 0 0 0 0 
0 0 0 0 0 0 0 0 0 
0 0 0 0 0 0 0 0 0 
0 0 0 0 0 0 0 0 0 
0 0 0 0 0 0 0 0 0 
0 0 0 0 0 0 0 0 0 
0 0 0 0 0 0 0 0 0 
0 0 0 0 0 0 0 0 0 
0 0 0 0 0 0 0 0 0 
0 0 0 0 0 0 0 0 0 
0 0 0 0 0 0 0 0 0 
0 0 0 0 0 0 0 0 0 
0 0 0 0 0 0 0 0 0 
0 0 0 0 0 0 0 0 0 
0 0 0 0 0 0 0 0 0 
0 0 0 0 0 0 0 0 0 
0 0 0 0 0 0 0 0 0 
0 0 0 0 0 0 0 0 0 
0 0 0 0 0 0 0 0 0 
0 0 0 0 0 0 0 0 0 
0 0 0 0 0 0 0 0 0 
0 0 0 0 0 0 0 0 0 
0 0 0 0 0 0 0 0 0 
0 0 0 0 0 0 0 0 0 
0 0 0 0 0 0 0 0 0 
0 0 0 0 0 0 0 0 0 
0 0 0 0 0 0 0 0 0 
0 0 0 0 0 0 0 0 0 
0 0 0 0 0 0 0 0 0 
0 0 0 0 0 0 0 0 0 
0 0 0 0 0 0 0 0 0 
0 0 0 0 0 0 0 0 0 
0 0 0 0 0 0 0 0 0 
0 0 0 0 0 0 0 0 0 
0 0 0 0 0 0 0 0 0 
0 0 0 0 0 0 0 0 0 
0 0 0 0 0 0 0 0 0 
0 0 0 0 0 0 0 0 0 
0 0 0 0 0 0 0 0 0 
0 0 0 0 0 0 0 0 0 
0 0 0 0 0 0 0 0 0 
0 0 0 0 0 0 0 0 0 
0 0 0 0 0 0 0 0 0 
0 0 0 0 0 0 0 0 0 
0 0 0 0 0 0 0 0 0 
0 0 0 0 0 0 0 0 0 
0 0 0 0 0 0 0 0 0 
0 0 0 0 0 0 0 0 0 
0 0 0 0 0 0 0 0 0 
0 0 0 0 0 0 0 0 0 
0 0 0 0 0 0 0 0 0 
0 0 0 0 0 0 0 0 0 
0 0 0 0 0 0 0 0 0 
0 0 0 0 0 0 0 0 0 
0 0 0 0 0 0 0 0 0 
0 0 0 0 0 0 0 0 0 
0 0 0 0 0 0 0 0 0 
0 0 0 0 0 0 0 0 0 
0 0 0 0 0 0 0 0 0 
0 0 0 0 0 0 0 0 0 
0 0 0 0 0 0 0 0 0 
0 0 0 0 0 0 0 0 0 
0 0 0 0 0 0 0 0 0 
0 0 0 0 0 0 0 0 0 
0 0 0 0 0 0 0 0 0 
0 0 0 0 0 0 0 0 0 
0 0 0 0 0 0 0 0 0 
0 0 0 0 0 0 0 0 0 
0 0 0 0 0 0 0 0 0 
0 0 0 0 0 0 0 0 0 
0 0 0 0 0 0 0 0 0 
0 0 0 0 0 0 0 0 0 
0 0 0 0 0 0 0 0 0 
0 0 0 0 0 0 0 0 0 
0 0 0 0 0 0 0 0 0 
0 0 0 0 0 0 0 0 0 
0 0 0 0 0 0 0 0 0 
0 0 0 0 0 0 0 0 0 
0 0 0 0 0 0 0 0 0 
0 0 0 0 0 0 0 0 0 
0 0 0 0 0 0 0 0 0 
0 0 0 0 0 0 0 0 0 
0 0 0 0 0 0 0 0 0 
0 0 0 0 0 0 0 0 0 
0 0 0 0 0 0 0 0 0 
0 0 0 0 0 0 0 0 0 
0 0 0 0 0 0 0 0 0 
0 0 0 0 0 0 0 0 0 
0 0 0 0 0 0 0 0 0 
0 0 0 0 0 0 0 0 0 
0 0 0 0 0 0 0 0 0 
0 0 0 0 0 0 0 0 0 
0 0 0 0 0 0 0 0 0 
0 0 0 0 0 0 0 0 0 
0 0 0 0 0 0 0 0 0 
0 0 0 0 0 0 0 0 0 
0 0 0 0 0 0 0 0 0 
0 0 0 0 0 0 0 0 0 
0 0 0 0 0 0 0 0 0 
0 0 0 0 0 0 0 0 0 
0 0 0 0 0 0 0 0 0 
0 0 0 0 0 0 0 0 0 
0 0 0 0 0 0 0 0 0 
0 0 0 0 0 0 0 0 0 
0 0 0 0 0 0 0 0 0 
0 0 0 0 0 0 0 0 0 
0 0 0 0 0 0 0 0 0 
0 0 0 0 0 0 0 0 0 
0 0 0 0 0 0 0 0 0 
0 0 0 0 0 0 0 0 0 
0 0 0 0 0 0 0 0 0 
0 0 0 0 0 0 0 0 0 
0 0 0 0 0 0 0 0 0 
0 0 0 0 0 0 0 0 0 
0 0 0 0 0 0 0 0 0 
0 0 0 0 0 0 0 0 0 
0 0 0 0 0 0 0 0 0 
0 0 0 0 0 0 0 0 0 
0 0 0 0 0 0 0 0 0 
0 0 0 0 0 0 0 0 0 
0 0 0 0 0 0 0 0 0 
0 0 0 0 0 0 0 0 0 
0 0 0 0 0 0 0 0 0 
0 0 0 0 0 0 0 0 0 
0 0 0 0 0 0 0 0 0 
0 0 0 0 0 0 0 0 0 
0 0 0 0 0 0 0 0 0 
0 0 0 0 0 0 0 0 0 
0 0 0 0 0 0 0 0 0 
0 0 0 0 0 0 0 0 0 
0 0 0 0 0 0 0 0 0 
0 0 0 0 0 0 0 0 0 
0 0 0 0 0 0 0 0 0 
0 0 0 0 0 0 0 0 0 
0 0 0 0 0 0 0 0 0 
0 0 0 0 0 0 0 0 0 
0 0 0 0 0 0 0 0 0 
0 0 0 0 0 0 0 0 0 
0 0 0 0 0 0 0 0 0 
0 0 0 0 0 0 0 0 0 
0 0 0 0 0 0 0 0 0 
0 0 0 0 0 0 0 0 0 
0 0 0 0 0 0 0 0 0 
0 0 0 0 0 0 0 0 0 
0 0 0 0 0 0 0 0 0 
0 0 0 0 0 0 0 0 0 
0 0 0 0 0 0 0 0 0 
0 0 0 0 0 0 0 0 0 
0 0 0 0 0 0 0 0 0 
0 0 0 0 0 0 0 0 0 
0 0 0 0 0 0 0 0 0 
0 0 0 0 0 0 0 0 0 
0 0 0 0 0 0 0 0 0 
0 0 0 0 0 0 0 0 0 
0 0 0 0 0 0 0 0 0 
0 0 0 0 0 0 0 0 0 
0 0 0 0 0 0 0 0 0 
0 0 0 0 0 0 0 0 0 
0 0 0 0 0 0 0 0 0 
0 0 0 0 0 0 0 0 0 
0 0 0 0 0 0 0 0 0 
0 0 0 0 0 0 0 0 0 
0 0 0 0 0 0 0 0 0 
0 0 0 0 0 0 0 0 0 
0 0 0 0 0 0 0 0 0 
0 0 0 0 0 0 0 0 0 
0 0 0 0 0 0 0 0 0 
0 0 0 0 0 0 0 0 0 
0 0 0 0 0 0 0 0 0 
0 0 0 0 0 0 0 0 0 
0 0 0 0 0 0 0 0 0 
0 0 0 0 0 0 0 0 0 
0 0 0 0 0 0 0 0 0 
0 0 0 0 0 0 0 0 0 
0 0 0 0 0 0 0 0 0 
0 0 0 0 0 0 0 0 0 
0 0 0 0 0 0 0 0 0 
0 0 0 0 0 0 0 0 0 
0 0 0 0 0 0 0 0 0 
0 0 0 0 0 0 0 0 0 
0 0 0 0 0 0 0 0 0 
0 0 0 0 0 0 0 0 0 
0 0 0 0 0 0 0 0 0 
0 0 0 0 0 0 0 0 0 
0 0 0 0 0 0 0 0 0 
0 0 0 0 0 0 0 0 0 
0 0 0 0 0 0 0 0 0 
0 0 0 0 0 0 0 0 0 
0 0 0 0 0 0 0 0 0 
0 0 0 0 0 0 0 0 0 
0 0 0 0 0 0 0 0 0 
0 0 0 0 0 0 0 0 0 
0 0 0 0 0 0 0 0 0 
0 0 0 0 0 0 0 0 0 
0 0 0 0 0 0 0 0 0 
0 0 0 0 0 0 0 0 0 
0 0 0 0 0 0 0 0 0 
0 0 0 0 0 0 0 0 0 
0 0 0 0 0 0 0 0 0 
0 0 0 0 0 0 0 0 0 
0 0 0 0 0 0 0 0 0 
0 0 0 0 0 0 0 0 0 
0 0 0 0 0 0 0 0 0 
0 0 0 0 0 0 0 0 0 
0 0 0 0 0 0 0 0 0 
0 0 0 0 0 0 0 0 0 
0 0 0 0 0 0 0 0 0 
0 0 0 0 0 0 0 0 0 
0 0 0 0 0 0 0 0 0 
0 0 0 0 0 0 0 0 0 
0 0 0 0 0 0 0 0 0 
0 0 0 0 0 0 0 0 0 
0 0 0 0 0 0 0 0 0 
0 0 0 0 0 0 0 0 0 
0 0 0 0 0 0 0 0 0 
0 0 0 0 0 0 0 0 0 
0 0 0 0 0 0 0 0 0 
0 0 0 0 0 0 0 0 0 
0 0 0 0 0 0 0 0 0 
0 0 0 0 0 0 0 0 0 
0 0 0 0 0 0 0 0 0 
0 0 0 0 0 0 0 0 0 
0 0 0 0 0 0 0 0 0 
0 0 0 0 0 0 0 0 0 
0 0 0 0 0 0 0 0 0 
0 0 0 0 0 0 0 0 0 
0 0 0 0 0 0 0 0 0 
0 0 0 0 0 0 0 0 0 
0 0 0 0 0 0 0 0 0 
0 0 0 0 0 0 0 0 0 
0 0 0 0 0 0 0 0 0 
0 0 0 0 0 0 0 0 0 
0 0 0 0 0 0 0 0 0 
0 0 0 0 0 0 0 0 0 
0 0 0 0 0 0 0 0 0 
0 0 0 0 0 0 0 0 0 
0 0 0 0 0 0 0 0 0 
0 0 0 0 0 0 0 0 0 
0 0 0 0 0 0 0 0 0 
0 0 0 0 0 0 0 0 0 
0 0 0 0 0 0 0 0 0 
0 0 0 0 0 0 0 0 0 
0 0 0 0 0 0 0 0 0 
0 0 0 0 0 0 0 0 0 
0 0 0 0 0 0 0 0 0 
0 0 0 0 0 0 0 0 0 
0 0 0 0 0 0 0 0 0 
0 0 0 0 0 0 0 0 0 
0 0 0 0 0 0 0 0 0 
0 0 0 0 0 0 0 0 0 
0 0 0 0 0 0 0 0 0 
0 0 0 0 0 0 0 0 0 
0 0 0 0 0 0 0 0 0 
0 0 0 0 0 0 0 0 0 
0 0 0 0 0 0 0 0 0 
0 0 0 0 0 0 0 0 0 
0 0 0 0 0 0 0 0 0 
0 0 0 0 0 0 0 0 0 
0 0 0 0 0 0 0 0 0 
0 0 0 0 0 0 0 0 0 
0 0 0 0 0 0 0 0 0 
0 0 0 0 0 0 0 0 0 
0 0 0 0 0 0 0 0 0 
0 0 0 0 0 0 0 0 0 
0 0 0 0 0 0 0 0 0 
0 0 0 0 0 0 0 0 0 
0 0 0 0 0 0 0 0 0 
0 0 0 0 0 0 0 0 0 
0 0 0 0 0 0 0 0 0 
0 0 0 0 0 0 0 0 0 
0 0 0 0 0 0 0 0 0 
0 0 0 0 0 0 0 0 0 
0 0 0 0 0 0 0 0 0 
0 0 0 0 0 0 0 0 0 
0 0 0 0 0 0 0 0 0 
0 0 0 0 0 0 0 0 0 
0 0 0 0 0 0 0 0 0 
0 0 0 0 0 0 0 0 0 
0 0 0 0 0 0 0 0 0 
0 0 0 0 0 0 0 0 0 
0 0 0 0 0 0 0 0 0 
0 0 0 0 0 0 0 0 0 
0 0 0 0 0 0 0 0 0 
0 0 0 0 0 0 0 0 0 
0 0 0 0 0 0 0 0 0 
0 0 0 0 0 0 0 0 0 
0 0 0 0 0 0 0 0 0 
0 0 0 0 0 0 0 0 0 
0 0 0 0 0 0 0 0 0 
0 0 0 0 0 0 0 0 0 
0 0 0 0 0 0 0 0 0 
0 0 0 0 0 0 0 0 0 
0 0 0 0 0 0 0 0 0 
0 0 0 0 0 0 0 0 0 
0 0 0 0 0 0 0 0 0 
0 0 0 0 0 0 0 0 0 
0 0 0 0 0 0 0 0 0 
0 0 0 0 0 0 0 0 0 
0 0 0 0 0 0 0 0 0 
0 0 0 0 0 0 0 0 0 
0 0 0 0 0 0 0 0 0 
0 0 0 0 0 0 0 0 0 
0 0 0 0 0 0 0 0 0 
0 0 0 0 0 0 0 0 0 
0 0 0 0 0 0 0 0 0 
0 0 0 0 0 0 0 0 0 
0 0 0 0 0 0 0 0 0 
0 0 0 0 0 0 0 0 0 
0 0 0 0 0 0 0 0 0 
0 0 0 0 0 0 0 0 0 
0 0 0 0 0 0 0 0 0 
0 0 0 0 0 0 0 0 0 
0 0 0 0 0 0 0 0 0 
0 0 0 0 0 0 0 0 0 
0 0 0 0 0 0 0 0 0 
0 0 0 0 0 0 0 0 0 
0 0 0 0 0 0 0 0 0 
0 0 0 0 0 0 0 0 0 
0 0 0 0 0 0 0 0 0 
0 0 0 0 0 0 0 0 0 
0 0 0 0 0 0 0 0 0 
0 0 0 0 0 0 0 0 0 
0 0 0 0 0 0 0 0 0 
0 0 0 0 0 0 0 0 0 
0 0 0 0 0 0 0 0 0 
0 0 0 0 0 0 0 0 0 
0 0 0 0 0 0 0 0 0 
0 0 0 0 0 0 0 0 0 
0 0 0 0 0 0 0 0 0 
0 0 0 0 0 0 0 0 0 
0 0 0 0 0 0 0 0 0 
0 0 0 0 0 0 0 0 0 
0 0 0 0 0 0 0 0 0 
0 0 0 0 0 0 0 0 0 
0 0 0 0 0 0 0 0 0 
0 0 0 0 0 0 0 0 0 
0 0 0 0 0 0 0 0 0 
0 0 0 0 0 0 0 0 0 
0 0 0 0 0 0 0 0 0 
0 0 0 0 0 0 0 0 0 
0 0 0 0 0 0 0 0 0 
0 0 0 0 0 0 0 0 0 
0 0 0 0 0 0 0 0 0 
0 0 0 0 0 0 0 0 0 
0 0 0 0 0 0 0 0 0 
0 0 0 0 0 0 0 0 0 
0 0 0 0 0 0 0 0 0 
0 0 0 0 0 0 0 0 0 
0 0 0 0 0 0 0 0 0 
0 0 0 0 0 0 0 0 0 
0 0 0 0 0 0 0 0 0 
0 0 0 0 0 0 0 0 0 
0 0 0 0 0 0 0 0 0 
0 0 0 0 0 0 0 0 0 
0 0 0 0 0 0 0 0 0 
0 0 0 0 0 0 0 0 0 
0 0 0 0 0 0 0 0 0 
0 0 0 0 0 0 0 0 0 
0 0 0 0 0 0 0 0 0 
0 0 0 0 0 0 0 0 0 
0 0 0 0 0 0 0 0 0 
0 0 0 0 0 0 0 0 0 
0 0 0 0 0 0 0 0 0 
0 0 0 0 0 0 0 0 0 
0 0 0 0 0 0 0 0 0 
0 0 0 0 0 0 0 0 0 
0 0 0 0 0 0 0 0 0 
0 0 0 0 0 0 0 0 0 
0 0 0 0 0 0 0 0 0 
0 0 0 0 0 0 0 0 0 
0 0 0 0 0 0 0 0 0 
0 0 0 0 0 0 0 0 0 
0 0 0 0 0 0 0 0 0 
0 0 0 0 0 0 0 0 0 
0 0 0 0 0 0 0 0 0 
0 0 0 0 0 0 0 0 0 
0 0 0 0 0 0 0 0 0 
0 0 0 0 0 0 0 0 0 
0 0 0 0 0 0 0 0 0 
0 0 0 0 0 0 0 0 0 
0 0 0 0 0 0 0 0 0 
0 0 0 0 0 0 0 0 0 
0 0 0 0 0 0 0 0 0 
0 0 0 0 0 0 0 0 0 
0 0 0 0 0 0 0 0 0 
0 0 0 0 0 0 0 0 0 
0 0 0 0 0 0 0 0 0 
0 0 0 0 0 0 0 0 0 
0 0 0 0 0 0 0 0 0 
0 0 0 0 0 0 0 0 0 
0 0 0 0 0 0 0 0 0 
0 0 0 0 0 0 0 0 0 
0 0 0 0 0 0 0 0 0 
0 0 0 0 0 0 0 0 0 
0 0 0 0 0 0 0 0 0 
0 0 0 0 0 0 0 0 0 
0 0 0 0 0 0 0 0 0 
0 0 0 0 0 0 0 0 0 
0 0 0 0 0 0 0 0 0 
0 0 0 0 0 0 0 0 0 
0 0 0 0 0 0 0 0 0 
0 0 0 0 0 0 0 0 0 
0 0 0 0 0 0 0 0 0 
0 0 0 0 0 0 0 0 0 
0 0 0 0 0 0 0 0 0 
0 0 0 0 0 0 0 0 0 
0 0 0 0 0 0 0 0 0 
0 0 0 0 0 0 0 0 0 
0 0 0 0 0 0 0 0 0 
0 0 0 0 0 0 0 0 0 
0 0 0 0 0 0 0 0 0 
0 0 0 0 0 0 0 0 0 
0 0 0 0 0 0 0 0 0 
0 0 0 0 0 0 0 0 0 
0 0 0 0 0 0 0 0 0 
0 0 0 0 0 0 0 0 0 
0 0 0 0 0 0 0 0 0 
0 0 0 0 0 0 0 0 0 
0 0 0 0 0 0 0 0 0 
0 0 0 0 0 0 0 0 0 
0 0 0 0 0 0 0 0 0 
0 0 0 0 0 0 0 0 0 
0 0 0 0 0 0 0 0 0 
0 0 0 0 0 0 0 0 0 
0 0 0 0 0 0 0 0 0 
0 0 0 0 0 0 0 0 0 
0 0 0 0 0 0 0 0 0 
0 0 0 0 0 0 0 0 0 
0 0 0 0 0 0 0 0 0 
0 0 0 0 0 0 0 0 0 
0 0 0 0 0 0 0 0 0 
0 0 0 0 0 0 0 0 0 
0 0 0 0 0 0 0 0 0 
0 0 0 0 0 0 0 0 0 
0 0 0 0 0 0 0 0 0 
0 0 0 0 0 0 0 0 0 
0 0 0 0 0 0 0 0 0 
0 0 0 0 0 0 0 0 0 
0 0 0 0 0 0 0 0 0 
0 0 0 0 0 0 0 0 0 
0 0 0 0 0 0 0 0 0 
0 0 0 0 0 0 0 0 0 
0 0 0 0 0 0 0 0 0 
0 0 0 0 0 0 0 0 0 
0 0 0 0 0 0 0 0 0 
0 0 0 0 0 0 0 0 0 
0 0 0 0 0 0 0 0 0 
0 0 0 0 0 0 0 0 0 
0 0 0 0 0 0 0 0 0 
0 0 0 0 0 0 0 0 0 
0 0 0 0 0 0 0 0 0 
0 0 0 0 0 0 0 0 0 
0 0 0 0 0 0 0 0 0 
0 0 0 0 0 0 0 0 0 
0 0 0 0 0 0 0 0 0 
0 0 0 0 0 0 0 0 0 
0 0 0 0 0 0 0 0 0 
0 0 0 0 0 0 0 0 0 
0 0 0 0 0 0 0 0 0 
0 0 0 0 0 0 0 0 0 
0 0 0 0 0 0 0 0 0 
0 0 0 0 0 0 0 0 0 
0 0 0 0 0 0 0 0 0 
0 0 0 0 0 0 0 0 0 
0 0 0 0 0 0 0 0 0 
0 0 0 0 0 0 0 0 0 
0 0 0 0 0 0 0 0 0 
0 0 0 0 0 0 0 0 0 
0 0 0 0 0 0 0 0 0 
0 0 0 0 0 0 0 0 0 
0 0 0 0 0 0 0 0 0 
0 0 0 0 0 0 0 0 0 
0 0 0 0 0 0 0 0 0 
0 0 0 0 0 0 0 0 0 
0 0 0 0 0 0 0 0 0 
0 0 0 0 0 0 0 0 0 
0 0 0 0 0 0 0 0 0 
0 0 0 0 0 0 0 0 0 
0 0 0 0 0 0 0 0 0 
0 0 0 0 0 0 0 0 0 
0 0 0 0 0 0 0 0 0 
0 0 0 0 0 0 0 0 0 
0 0 0 0 0 0 0 0 0 
0 0 0 0 0 0 0 0 0 
0 0 0 0 0 0 0 0 0 
0 0 0 0 0 0 0 0 0 
0 0 0 0 0 0 0 0 0 
0 0 0 0 0 0 0 0 0 
0 0 0 0 0 0 0 0 0 
0 0 0 0 0 0 0 0 0 
0 0 0 0 0 0 0 0 0 
0 0 0 0 0 0 0 0 0 
0 0 0 0 0 0 0 0 0 
0 0 0 0 0 0 0 0 0 
0 0 0 0 0 0 0 0 0 
0 0 0 0 0 0 0 0 0 
0 0 0 0 0 0 0 0 0 
0 0 0 0 0 0 0 0 0 
0 0 0 0 0 0 0 0 0 
0 0 0 0 0 0 0 0 0 
0 0 0 0 0 0 0 0 0 
0 0 0 0 0 0 0 0 0 
0 0 0 0 0 0 0 0 0 
0 0 0 0 0 0 0 0 0 
0 0 0 0 0 0 0 0 0 
0 0 0 0 0 0 0 0 0 
0 0 0 0 0 0 0 0 0 
0 0 0 0 0 0 0 0 0 
0 0 0 0 0 0 0 0 0 
0 0 0 0 0 0 0 0 0 
0 0 0 0 0 0 0 0 0 
0 0 0 0 0 0 0 0 0 
0 0 0 0 0 0 0 0 0 
0 0 0 0 0 0 0 0 0 
0 0 0 0 0 0 0 0 0 
0 0 0 0 0 0 0 0 0 
0 0 0 0 0 0 0 0 0 
0 0 0 0 0 0 0 0 0 
0 0 0 0 0 0 0 0 0 
0 0 0 0 0 0 0 0 0 
0 0 0 0 0 0 0 0 0 
0 0 0 0 0 0 0 0 0 
0 0 0 0 0 0 0 0 0 
0 0 0 0 0 0 0 0 0 
0 0 0 0 0 0 0 0 0 
0 0 0 0 0 0 0 0 0 
0 0 0 0 0 0 0 0 0 
0 0 0 0 0 0 0 0 0 
0 0 0 0 0 0 0 0 0 
0 0 0 0 0 0 0 0 0 
0 0 0 0 0 0 0 0 0 
0 0 0 0 0 0 0 0 0 
0 0 0 0 0 0 0 0 0 
0 0 0 0 0 0 0 0 0 
0 0 0 0 0 0 0 0 0 
0 0 0 0 0 0 0 0 0 
0 0 0 0 0 0 0 0 0 
0 0 0 0 0 0 0 0 0 
0 0 0 0 0 0 0 0 0 
0 0 0 0 0 0 0 0 0 
0 0 0 0 0 0 0 0 0 
0 0 0 0 0 0 0 0 0 
0 0 0 0 0 0 0 0 0 
0 0 0 0 0 0 0 0 0 
0 0 0 0 0 0 0 0 0 
0 0 0 0 0 0 0 0 0 
0 0 0 0 0 0 0 0 0 
0 0 0 0 0 0 0 0 0 
0 0 0 0 0 0 0 0 0 
0 0 0 0 0 0 0 0 0 
0 0 0 0 0 0 0 0 0 
0 0 0 0 0 0 0 0 0 
0 0 0 0 0 0 0 0 0 
0 0 0 0 0 0 0 0 0 
0 0 0 0 0 0 0 0 0 
0 0 0 0 0 0 0 0 0 
0 0 0 0 0 0 0 0 0 
0 0 0 0 0 0 0 0 0 
0 0 0 0 0 0 0 0 0 
0 0 0 0 0 0 0 0 0 
0 0 0 0 0 0 0 0 0 
0 0 0 0 0 0 0 0 0 
0 0 0 0 0 0 0 0 0 
0 0 0 0 0 0 0 0 0 
0 0 0 0 0 0 0 0 0 
0 0 0 0 0 0 0 0 0 
0 0 0 0 0 0 0 0 0 
0 0 0 0 0 0 0 0 0 
0 0 0 0 0 0 0 0 0 
0 0 0 0 0 0 0 0 0 
0 0 0 0 0 0 0 0 0 
0 0 0 0 0 0 0 0 0 
0 0 0 0 0 0 0 0 0 
0 0 0 0 0 0 0 0 0 
0 0 0 0 0 0 0 0 0 
0 0 0 0 0 0 0 0 0 
0 0 0 0 0 0 0 0 0 
0 0 0 0 0 0 0 0 0 
0 0 0 0 0 0 0 0 0 
0 0 0 0 0 0 0 0 0 
0 0 0 0 0 0 0 0 0 
0 0 0 0 0 0 0 0 0 
0 0 0 0 0 0 0 0 0 
0 0 0 0 0 0 0 0 0 
0 0 0 0 0 0 0 0 0 
0 0 0 0 0 0 0 0 0 
0 0 0 0 0 0 0 0 0 
0 0 0 0 0 0 0 0 0 
0 0 0 0 0 0 0 0 0 
0 0 0 0 0 0 0 0 0 
0 0 0 0 0 0 0 0 0 
0 0 0 0 0 0 0 0 0 
0 0 0 0 0 0 0 0 0 
0 0 0 0 0 0 0 0 0 
0 0 0 0 0 0 0 0 0 
0 0 0 0 0 0 0 0 0 
0 0 0 0 0 0 0 0 0 
0 0 0 0 0 0 0 0 0 
0 0 0 0 0 0 0 0 0 
0 0 0 0 0 0 0 0 0 
0 0 0 0 0 0 0 0 0 
0 0 0 0 0 0 0 0 0 
0 0 0 0 0 0 0 0 0 
0 0 0 0 0 0 0 0 0 
0 0 0 0 0 0 0 0 0 
0 0 0 0 0 0 0 0 0 
0 0 0 0 0 0 0 0 0 
0 0 0 0 0 0 0 0 0 
0 0 0 0 0 0 0 0 0 
0 0 0 0 0 0 0 0 0 
0 0 0 0 0 0 0 0 0 
0 0 0 0 0 0 0 0 0 
0 0 0 0 0 0 0 0 0 
0 0 0 0 0 0 0 0 0 
0 0 0 0 0 0 0 0 0 
0 0 0 0 0 0 0 0 0 
0 0 0 0 0 0 0 0 0 
0 0 0 0 0 0 0 0 0 
0 0 0 0 0 0 0 0 0 
0 0 0 0 0 0 0 0 0 
0 0 0 0 0 0 0 0 0 
0 0 0 0 0 0 0 0 0 
0 0 0 0 0 0 0 0 0 
0 0 0 0 0 0 0 0 0 
0 0 0 0 0 0 0 0 0 
0 0 0 0 0 0 0 0 0 
0 0 0 0 0 0 0 0 0 
0 0 0 0 0 0 0 0 0 
0 0 0 0 0 0 0 0 0 
0 0 0 0 0 0 0 0 0 
0 0 0 0 0 0 0 0 0 
0 0 0 0 0 0 0 0 0 
0 0 0 0 0 0 0 0 0 
0 0 0 0 0 0 0 0 0 
0 0 0 0 0 0 0 0 0 
0 0 0 0 0 0 0 0 0 
0 0 0 0 0 0 0 0 0 
0 0 0 0 0 0 0 0 0 
0 0 0 0 0 0 0 0 0 
0 0 0 0 0 0 0 0 0 
0 0 0 0 0 0 0 0 0 
0 0 0 0 0 0 0 0 0 
0 0 0 0 0 0 0 0 0 
0 0 0 0 0 0 0 0 0 
0 0 0 0 0 0 0 0 0 
0 0 0 0 0 0 0 0 0 
0 0 0 0 0 0 0 0 0 
0 0 0 0 0 0 0 0 0 
0 0 0 0 0 0 0 0 0 
0 0 0 0 0 0 0 0 0 
0 0 0 0 0 0 0 0 0 
0 0 0 0 0 0 0 0 0 
0 0 0 0 0 0 0 0 0 
0 0 0 0 0 0 0 0 0 
0 0 0 0 0 0 0 0 0 
0 0 0 0 0 0 0 0 0 
0 0 0 0 0 0 0 0 0 
0 0 0 0 0 0 0 0 0 
0 0 0 0 0 0 0 0 0 
0 0 0 0 0 0 0 0 0 
0 0 0 0 0 0 0 0 0 
0 0 0 0 0 0 0 0 0 
0 0 0 0 0 0 0 0 0 
0 0 0 0 0 0 0 0 0 
0 0 0 0 0 0 0 0 0 
0 0 0 0 0 0 0 0 0 
0 0 0 0 0 0 0 0 0 
0 0 0 0 0 0 0 0 0 
0 0 0 0 0 0 0 0 0 
0 0 0 0 0 0 0 0 0 
0 0 0 0 0 0 0 0 0 
0 0 0 0 0 0 0 0 0 
0 0 0 0 0 0 0 0 0 
0 0 0 0 0 0 0 0 0 
0 0 0 0 0 0 0 0 0 
0 0 0 0 0 0 0 0 0 
0 0 0 0 0 0 0 0 0 
0 0 0 0 0 0 0 0 0 
0 0 0 0 0 0 0 0 0 
0 0 0 0 0 0 0 0 0 
0 0 0 0 0 0 0 0 0 
0 0 0 0 0 0 0 0 0 
0 0 0 0 0 0 0 0 0 
0 0 0 0 0 0 0 0 0 
0 0 0 0 0 0 0 0 0 
0 0 0 0 0 0 0 0 0 
0 0 0 0 0 0 0 0 0 
0 0 0 0 0 0 0 0 0 
0 0 0 0 0 0 0 0 0 
0 0 0 0 0 0 0 0 0 
0 0 0 0 0 0 0 0 0 
0 0 0 0 0 0 0 0 0 
0 0 0 0 0 0 0 0 0 
0 0 0 0 0 0 0 0 0 
0 0 0 0 0 0 0 0 0 
0 0 0 0 0 0 0 0 0 
0 0 0 0 0 0 0 0 0 
0 0 0 0 0 0 0 0 0 
0 0 0 0 0 0 0 0 0 
0 0 0 0 0 0 0 0 0 
0 0 0 0 0 0 0 0 0 
0 0 0 0 0 0 0 0 0 
0 0 0 0 0 0 0 0 0 
0 0 0 0 0 0 0 0 0 
0 0 0 0 0 0 0 0 0 
0 0 0 0 0 0 0 0 0 
0 0 0 0 0 0 0 0 0 
0 0 0 0 0 0 0 0 0 
0 0 0 0 0 0 0 0 0 
0 0 0 0 0 0 0 0 0 
0 0 0 0 0 0 0 0 0 
0 0 0 0 0 0 0 0 0 
0 0 0 0 0 0 0 0 0 
0 0 0 0 0 0 0 0 0 
0 0 0 0 0 0 0 0 0 
0 0 0 0 0 0 0 0 0 
0 0 0 0 0 0 0 0 0 
0 0 0 0 0 0 0 0 0 
0 0 0 0 0 0 0 0 0 
0 0 0 0 0 0 0 0 0 
0 0 0 0 0 0 0 0 0 
0 0 0 0 0 0 0 0 0 
0 0 0 0 0 0 0 0 0 
0 0 0 0 0 0 0 0 0 
0 0 0 0 0 0 0 0 0 
0 0 0 0 0 0 0 0 0 
0 0 0 0 0 0 0 0 0 
0 0 0 0 0 0 0 0 0 
0 0 0 0 0 0 0 0 0 
0 0 0 0 0 0 0 0 0 
0 0 0 0 0 0 0 0 0 
0 0 0 0 0 0 0 0 0 
0 0 0 0 0 0 0 0 0 
0 0 0 0 0 0 0 0 0 
0 0 0 0 0 0 0 0 0 
0 0 0 0 0 0 0 0 0 
0 0 0 0 0 0 0 0 0 
0 0 0 0 0 0 0 0 0 
0 0 0 0 0 0 0 0 0 
0 0 0 0 0 0 0 0 0 
0 0 0 0 0 0 0 0 0 
0 0 0 0 0 0 0 0 0 
0 0 0 0 0 0 0 0 0 
0 0 0 0 0 0 0 0 0 
0 0 0 0 0 0 0 0 0 
0 0 0 0 0 0 0 0 0 
0 0 0 0 0 0 0 0 0 
0 0 0 0 0 0 0 0 0 
0 0 0 0 0 0 0 0 0 
0 0 0 0 0 0 0 0 0 
0 0 0 0 0 0 0 0 0 
0 0 0 0 0 0 0 0 0 
0 0 0 0 0 0 0 0 0 
0 0 0 0 0 0 0 0 0 
0 0 0 0 0 0 0 0 0 
0 0 0 0 0 0 0 0 0 
0 0 0 0 0 0 0 0 0 
0 0 0 0 0 0 0 0 0 
0 0 0 0 0 0 0 0 0 
0 0 0 0 0 0 0 0 0 
0 0 0 0 0 0 0 0 0 
0 0 0 0 0 0 0 0 0 
0 0 0 0 0 0 0 0 0 
0 0 0 0 0 0 0 0 0 
0 0 0 0 0 0 0 0 0 
0 0 0 0 0 0 0 0 0 
0 0 0 0 0 0 0 0 0 
0 0 0 0 0 0 0 0 0 
0 0 0 0 0 0 0 0 0 
0 0 0 0 0 0 0 0 0 
0 0 0 0 0 0 0 0 0 
0 0 0 0 0 0 0 0 0 
0 0 0 0 0 0 0 0 0 
0 0 0 0 0 0 0 0 0 
0 0 0 0 0 0 0 0 0 
0 0 0 0 0 0 0 0 0 
0 0 0 0 0 0 0 0 0 
0 0 0 0 0 0 0 0 0 
0 0 0 0 0 0 0 0 0 
0 0 0 0 0 0 0 0 0 
0 0 0 0 0 0 0 0 0 
0 0 0 0 0 0 0 0 0 
0 0 0 0 0 0 0 0 0 
0 0 0 0 0 0 0 0 0 
0 0 0 0 0 0 0 0 0 
0 0 0 0 0 0 0 0 0 
0 0 0 0 0 0 0 0 0 
0 0 0 0 0 0 0 0 0 
0 0 0 0 0 0 0 0 0 
0 0 0 0 0 0 0 0 0 
0 0 0 0 0 0 0 0 0 
0 0 0 0 0 0 0 0 0 
0 0 0 0 0 0 0 0 0 
0 0 0 0 0 0 0 0 0 
0 0 0 0 0 0 0 0 0 
0 0 0 0 0 0 0 0 0 
0 0 0 0 0 0 0 0 0 
0 0 0 0 0 0 0 0 0 
0 0 0 0 0 0 0 0 0 
0 0 0 0 0 0 0 0 0 
0 0 0 0 0 0 0 0 0 
0 0 0 0 0 0 0 0 0 
0 0 0 0 0 0 0 0 0 
0 0 0 0 0 0 0 0 0 
0 0 0 0 0 0 0 0 0 
0 0 0 0 0 0 0 0 0 
0 0 0 0 0 0 0 0 0 
0 0 0 0 0 0 0 0 0 
0 0 0 0 0 0 0 0 0 
0 0 0 0 0 0 0 0 0 
0 0 0 0 0 0 0 0 0 
0 0 0 0 0 0 0 0 0 
0 0 0 0 0 0 0 0 0 
0 0 0 0 0 0 0 0 0 
0 0 0 0 0 0 0 0 0 
0 0 0 0 0 0 0 0 0 
0 0 0 0 0 0 0 0 0 
0 0 0 0 0 0 0 0 0 
0 0 0 0 0 0 0 0 0 
0 0 0 0 0 0 0 0 0 
0 0 0 0 0 0 0 0 0 
0 0 0 0 0 0 0 0 0 
0 0 0 0 0 0 0 0 0 
0 0 0 0 0 0 0 0 0 
0 0 0 0 0 0 0 0 0 
0 0 0 0 0 0 0 0 0 
0 0 0 0 0 0 0 0 0 
0 0 0 0 0 0 0 0 0 
0 0 0 0 0 0 0 0 0 
0 0 0 0 0 0 0 0 0 
0 0 0 0 0 0 0 0 0 
0 0 0 0 0 0 0 0 0 
0 0 0 0 0 0 0 0 0 
0 0 0 0 0 0 0 0 0 
0 0 0 0 0 0 0 0 0 
0 0 0 0 0 0 0 0 0 
0 0 0 0 0 0 0 0 0 
0 0 0 0 0 0 0 0 0 
0 0 0 0 0 0 0 0 0 
0 0 0 0 0 0 0 0 0 
0 0 0 0 0 0 0 0 0 
0 0 0 0 0 0 0 0 0 
0 0 0 0 0 0 0 0 0 
0 0 0 0 0 0 0 0 0 
0 0 0 0 0 0 0 0 0 
0 0 0 0 0 0 0 0 0 
0 0 0 0 0 0 0 0 0 
0 0 0 0 0 0 0 0 0 
0 0 0 0 0 0 0 0 0 
0 0 0 0 0 0 0 0 0 
0 0 0 0 0 0 0 0 0 
0 0 0 0 0 0 0 0 0 
0 0 0 0 0 0 0 0 0 
0 0 0 0 0 0 0 0 0 
0 0 0 0 0 0 0 0 0 
0 0 0 0 0 0 0 0 0 
0 0 0 0 0 0 0 0 0 
0 0 0 0 0 0 0 0 0 
0 0 0 0 0 0 0 0 0 
0 0 0 0 0 0 0 0 0 
0 0 0 0 0 0 0 0 0 
0 0 0 0 0 0 0 0 0 
0 0 0 0 0 0 0 0 0 
0 0 0 0 0 0 0 0 0 
0 0 0 0 0 0 0 0 0 
0 0 0 0 0 0 0 0 0 
0 0 0 0 0 0 0 0 0 
0 0 0 0 0 0 0 0 0 
0 0 0 0 0 0 0 0 0 
0 0 0 0 0 0 0 0 0 
0 0 0 0 0 0 0 0 0 
0 0 0 0 0 0 0 0 0 
0 0 0 0 0 0 0 0 0 
0 0 0 0 0 0 0 0 0 
0 0 0 0 0 0 0 0 0 
0 0 0 0 0 0 0 0 0 
0 0 0 0 0 0 0 0 0 
0 0 0 0 0 0 0 0 0 
0 0 0 0 0 0 0 0 0 
0 0 0 0 0 0 0 0 0 
0 0 0 0 0 0 0 0 0 
0 0 0 0 0 0 0 0 0 
0 0 0 0 0 0 0 0 0 
0 0 0 0 0 0 0 0 0 
0 0 0 0 0 0 0 0 0 
0 0 0 0 0 0 0 0 0 
0 0 0 0 0 0 0 0 0 
0 0 0 0 0 0 0 0 0 
0 0 0 0 0 0 0 0 0 
0 0 0 0 0 0 0 0 0 
0 0 0 0 0 0 0 0 0 
0 0 0 0 0 0 0 0 0 
0 0 0 0 0 0 0 0 0 
0 0 0 0 0 0 0 0 0 
0 0 0 0 0 0 0 0 0 
0 0 0 0 0 0 0 0 0 
0 0 0 0 0 0 0 0 0 
0 0 0 0 0 0 0 0 0 
0 0 0 0 0 0 0 0 0 
0 0 0 0 0 0 0 0 0 
0 0 0 0 0 0 0 0 0 
0 0 0 0 0 0 0 0 0 
0 0 0 0 0 0 0 0 0 
0 0 0 0 0 0 0 0 0 
0 0 0 0 0 0 0 0 0 
0 0 0 0 0 0 0 0 0 
0 0 0 0 0 0 0 0 0 
0 0 0 0 0 0 0 0 0 
0 0 0 0 0 0 0 0 0 
0 0 0 0 0 0 0 0 0 
0 0 0 0 0 0 0 0 0 
0 0 0 0 0 0 0 0 0 
0 0 0 0 0 0 0 0 0 
0 0 0 0 0 0 0 0 0 
0 0 0 0 0 0 0 0 0 
0 0 0 0 0 0 0 0 0 
0 0 0 0 0 0 0 0 0 
0 0 0 0 0 0 0 0 0 
0 0 0 0 0 0 0 0 0 
0 0 0 0 0 0 0 0 0 
0 0 0 0 0 0 0 0 0 
0 0 0 0 0 0 0 0 0 
0 0 0 0 0 0 0 0 0 
0 0 0 0 0 0 0 0 0 
0 0 0 0 0 0 0 0 0 
0 0 0 0 0 0 0 0 0 
0 0 0 0 0 0 0 0 0 
0 0 0 0 0 0 0 0 0 
0 0 0 0 0 0 0 0 0 
0 0 0 0 0 0 0 0 0 
0 0 0 0 0 0 0 0 0 
0 0 0 0 0 0 0 0 0 
0 0 0 0 0 0 0 0 0 
0 0 0 0 0 0 0 0 0 
0 0 0 0 0 0 0 0 0 
0 0 0 0 0 0 0 0 0 
0 0 0 0 0 0 0 0 0 
0 0 0 0 0 0 0 0 0 
0 0 0 0 0 0 0 0 0 
0 0 0 0 0 0 0 0 0 
0 0 0 0 0 0 0 0 0 
0 0 0 0 0 0 0 0 0 
0 0 0 0 0 0 0 0 0 
0 0 0 0 0 0 0 0 0 
0 0 0 0 0 0 0 0 0 
0 0 0 0 0 0 0 0 0 
0 0 0 0 0 0 0 0 0 
0 0 0 0 0 0 0 0 0 
0 0 0 0 0 0 0 0 0 
0 0 0 0 0 0 0 0 0 
0 0 0 0 0 0 0 0 0 
0 0 0 0 0 0 0 0 0 
0 0 0 0 0 0 0 0 0 
0 0 0 0 0 0 0 0 0 
0 0 0 0 0 0 0 0 0 
0 0 0 0 0 0 0 0 0 
0 0 0 0 0 0 0 0 0 
0 0 0 0 0 0 0 0 0 
0 0 0 0 0 0 0 0 0 
0 0 0 0 0 0 0 0 0 
0 0 0 0 0 0 0 0 0 
0 0 0 0 0 0 0 0 0 
0 0 0 0 0 0 0 0 0 
0 0 0 0 0 0 0 0 0 
0 0 0 0 0 0 0 0 0 
0 0 0 0 0 0 0 0 0 
0 0 0 0 0 0 0 0 0 
0 0 0 0 0 0 0 0 0 
0 0 0 0 0 0 0 0 0 
0 0 0 0 0 0 0 0 0 
0 0 0 0 0 0 0 0 0 
0 0 0 0 0 0 0 0 0 
0 0 0 0 0 0 0 0 0 
0 0 0 0 0 0 0 0 0 
0 0 0 0 0 0 0 0 0 
0 0 0 0 0 0 0 0 0 
0 0 0 0 0 0 0 0 0 
0 0 0 0 0 0 0 0 0 
0 0 0 0 0 0 0 0 0 
0 0 0 0 0 0 0 0 0 
0 0 0 0 0 0 0 0 0 
0 0 0 0 0 0 0 0 0 
0 0 0 0 0 0 0 0 0 
0 0 0 0 0 0 0 0 0 
0 0 0 0 0 0 0 0 0 
0 0 0 0 0 0 0 0 0 
0 0 0 0 0 0 0 0 0 
0 0 0 0 0 0 0 0 0 
0 0 0 0 0 0 0 0 0 
0 0 0 0 0 0 0 0 0 
0 0 0 0 0 0 0 0 0 
0 0 0 0 0 0 0 0 0 
0 0 0 0 0 0 0 0 0 
0 0 0 0 0 0 0 0 0 
0 0 0 0 0 0 0 0 0 
0 0 0 0 0 0 0 0 0 
0 0 0 0 0 0 0 0 0 
0 0 0 0 0 0 0 0 0 
0 0 0 0 0 0 0 0 0 
0 0 0 0 0 0 0 0 0 
0 0 0 0 0 0 0 0 0 
0 0 0 0 0 0 0 0 0 
0 0 0 0 0 0 0 0 0 
0 0 0 0 0 0 0 0 0 
0 0 0 0 0 0 0 0 0 
0 0 0 0 0 0 0 0 0 
0 0 0 0 0 0 0 0 0 
0 0 0 0 0 0 0 0 0 
0 0 0 0 0 0 0 0 0 
0 0 0 0 0 0 0 0 0 
0 0 0 0 0 0 0 0 0 
0 0 0 0 0 0 0 0 0 
0 0 0 0 0 0 0 0 0 
0 0 0 0 0 0 0 0 0 
0 0 0 0 0 0 0 0 0 
0 0 0 0 0 0 0 0 0 
0 0 0 0 0 0 0 0 0 
0 0 0 0 0 0 0 0 0 
0 0 0 0 0 0 0 0 0 
0 0 0 0 0 0 0 0 0 
0 0 0 0 0 0 0 0 0 
0 0 0 0 0 0 0 0 0 
0 0 0 0 0 0 0 0 0 
0 0 0 0 0 0 0 0 0 
0 0 0 0 0 0 0 0 0 
0 0 0 0 0 0 0 0 0 
0 0 0 0 0 0 0 0 0 
0 0 0 0 0 0 0 0 0 
0 0 0 0 0 0 0 0 0 
0 0 0 0 0 0 0 0 0 
0 0 0 0 0 0 0 0 0 
0 0 0 0 0 0 0 0 0 
0 0 0 0 0 0 0 0 0 
0 0 0 0 0 0 0 0 0 
0 0 0 0 0 0 0 0 0 
0 0 0 0 0 0 0 0 0 
0 0 0 0 0 0 0 0 0 
0 0 0 0 0 0 0 0 0 
0 0 0 0 0 0 0 0 0 
0 0 0 0 0 0 0 0 0 
0 0 0 0 0 0 0 0 0 
0 0 0 0 0 0 0 0 0 
0 0 0 0 0 0 0 0 0 
0 0 0 0 0 0 0 0 0 
0 0 0 0 0 0 0 0 0 
0 0 0 0 0 0 0 0 0 
0 0 0 0 0 0 0 0 0 
0 0 0 0 0 0 0 0 0 
0 0 0 0 0 0 0 0 0 
0 0 0 0 0 0 0 0 0 
0 0 0 0 0 0 0 0 0 
0 0 0 0 0 0 0 0 0 
0 0 0 0 0 0 0 0 0 
0 0 0 0 0 0 0 0 0 
0 0 0 0 0 0 0 0 0 
0 0 0 0 0 0 0 0 0 
0 0 0 0 0 0 0 0 0 
0 0 0 0 0 0 0 0 0 
0 0 0 0 0 0 0 0 0 
0 0 0 0 0 0 0 0 0 
0 0 0 0 0 0 0 0 0 
0 0 0 0 0 0 0 0 0 
0 0 0 0 0 0 0 0 0 
0 0 0 0 0 0 0 0 0 
0 0 0 0 0 0 0 0 0 
0 0 0 0 0 0 0 0 0 
0 0 0 0 0 0 0 0 0 
0 0 0 0 0 0 0 0 0 
0 0 0 0 0 0 0 0 0 
0 0 0 0 0 0 0 0 0 
0 0 0 0 0 0 0 0 0 
0 0 0 0 0 0 0 0 0 
0 0 0 0 0 0 0 0 0 
0 0 0 0 0 0 0 0 0 
0 0 0 0 0 0 0 0 0 
0 0 0 0 0 0 0 0 0 
0 0 0 0 0 0 0 0 0 
0 0 0 0 0 0 0 0 0 
0 0 0 0 0 0 0 0 0 
0 0 0 0 0 0 0 0 0 
0 0 0 0 0 0 0 0 0 
0 0 0 0 0 0 0 0 0 
0 0 0 0 0 0 0 0 0 
0 0 0 0 0 0 0 0 0 
0 0 0 0 0 0 0 0 0 
0 0 0 0 0 0 0 0 0 
0 0 0 0 0 0 0 0 0 
0 0 0 0 0 0 0 0 0 
0 0 0 0 0 0 0 0 0 
0 0 0 0 0 0 0 0 0 
0 0 0 0 0 0 0 0 0 
0 0 0 0 0 0 0 0 0 
0 0 0 0 0 0 0 0 0 
0 0 0 0 0 0 0 0 0 
0 0 0 0 0 0 0 0 0 
0 0 0 0 0 0 0 0 0 
0 0 0 0 0 0 0 0 0 
0 0 0 0 0 0 0 0 0 
0 0 0 0 0 0 0 0 0 
0 0 0 0 0 0 0 0 0 
0 0 0 0 0 0 0 0 0 
0 0 0 0 0 0 0 0 0 
0 0 0 0 0 0 0 0 0 
0 0 0 0 0 0 0 0 0 
0 0 0 0 0 0 0 0 0 
0 0 0 0 0 0 0 0 0 
0 0 0 0 0 0 0 0 0 
0 0 0 0 0 0 0 0 0 
0 0 0 0 0 0 0 0 0 
0 0 0 0 0 0 0 0 0 
0 0 0 0 0 0 0 0 0 
0 0 0 0 0 0 0 0 0 
0 0 0 0 0 0 0 0 0 
0 0 0 0 0 0 0 0 0 
0 0 0 0 0 0 0 0 0 
0 0 0 0 0 0 0 0 0 
0 0 0 0 0 0 0 0 0 
0 0 0 0 0 0 0 0 0 
0 0 0 0 0 0 0 0 0 
0 0 0 0 0 0 0 0 0 
0 0 0 0 0 0 0 0 0 
0 0 0 0 0 0 0 0 0 
0 0 0 0 0 0 0 0 0 
0 0 0 0 0 0 0 0 0 
0 0 0 0 0 0 0 0 0 
0 0 0 0 0 0 0 0 0 
0 0 0 0 0 0 0 0 0 
0 0 0 0 0 0 0 0 0 
0 0 0 0 0 0 0 0 0 
0 0 0 0 0 0 0 0 0 
0 0 0 0 0 0 0 0 0 
0 0 0 0 0 0 0 0 0 
0 0 0 0 0 0 0 0 0 
0 0 0 0 0 0 0 0 0 
0 0 0 0 0 0 0 0 0 
0 0 0 0 0 0 0 0 0 
0 0 0 0 0 0 0 0 0 
0 0 0 0 0 0 0 0 0 
0 0 0 0 0 0 0 0 0 
0 0 0 0 0 0 0 0 0 
0 0 0 0 0 0 0 0 0 
0 0 0 0 0 0 0 0 0 
0 0 0 0 0 0 0 0 0 
0 0 0 0 0 0 0 0 0 
0 0 0 0 0 0 0 0 0 
0 0 0 0 0 0 0 0 0 
0 0 0 0 0 0 0 0 0 
0 0 0 0 0 0 0 0 0 
0 0 0 0 0 0 0 0 0 
0 0 0 0 0 0 0 0 0 
0 0 0 0 0 0 0 0 0 
0 0 0 0 0 0 0 0 0 
0 0 0 0 0 0 0 0 0 
0 0 0 0 0 0 0 0 0 
0 0 0 0 0 0 0 0 0 
0 0 0 0 0 0 0 0 0 
0 0 0 0 0 0 0 0 0 
0 0 0 0 0 0 0 0 0 
0 0 0 0 0 0 0 0 0 
0 0 0 0 0 0 0 0 0 
0 0 0 0 0 0 0 0 0 
0 0 0 0 0 0 0 0 0 
0 0 0 0 0 0 0 0 0 
0 0 0 0 0 0 0 0 0 
0 0 0 0 0 0 0 0 0 
0 0 0 0 0 0 0 0 0 
0 0 0 0 0 0 0 0 0 
0 0 0 0 0 0 0 0 0 
0 0 0 0 0 0 0 0 0 
0 0 0 0 0 0 0 0 0 
0 0 0 0 0 0 0 0 0 
0 0 0 0 0 0 0 0 0 
0 0 0 0 0 0 0 0 0 
0 0 0 0 0 0 0 0 0 
0 0 0 0 0 0 0 0 0 
0 0 0 0 0 0 0 0 0 
0 0 0 0 0 0 0 0 0 
0 0 0 0 0 0 0 0 0 
0 0 0 0 0 0 0 0 0 
0 0 0 0 0 0 0 0 0 
0 0 0 0 0 0 0 0 0 
0 0 0 0 0 0 0 0 0 
0 0 0 0 0 0 0 0 0 
0 0 0 0 0 0 0 0 0 
0 0 0 0 0 0 0 0 0 
0 0 0 0 0 0 0 0 0 
0 0 0 0 0 0 0 0 0 
0 0 0 0 0 0 0 0 0 
0 0 0 0 0 0 0 0 0 
0 0 0 0 0 0 0 0 0 
0 0 0 0 0 0 0 0 0 
0 0 0 0 0 0 0 0 0 
0 0 0 0 0 0 0 0 0 
0 0 0 0 0 0 0 0 0 
0 0 0 0 0 0 0 0 0 
0 0 0 0 0 0 0 0 0 
0 0 0 0 0 0 0 0 0 
0 0 0 0 0 0 0 0 0 
0 0 0 0 0 0 0 0 0 
0 0 0 0 0 0 0 0 0 
0 0 0 0 0 0 0 0 0 
0 0 0 0 0 0 0 0 0 
0 0 0 0 0 0 0 0 0 
0 0 0 0 0 0 0 0 0 
0 0 0 0 0 0 0 0 0 
0 0 0 0 0 0 0 0 0 
0 0 0 0 0 0 0 0 0 
0 0 0 0 0 0 0 0 0 
0 0 0 0 0 0 0 0 0 
0 0 0 0 0 0 0 0 0 
0 0 0 0 0 0 0 0 0 
0 0 0 0 0 0 0 0 0 
0 0 0 0 0 0 0 0 0 
0 0 0 0 0 0 0 0 0 
0 0 0 0 0 0 0 0 0 
0 0 0 0 0 0 0 0 0 
0 0 0 0 0 0 0 0 0 
0 0 0 0 0 0 0 0 0 
0 0 0 0 0 0 0 0 0 
0 0 0 0 0 0 0 0 0 
0 0 0 0 0 0 0 0 0 
0 0 0 0 0 0 0 0 0 
0 0 0 0 0 0 0 0 0 
0 0 0 0 0 0 0 0 0 
0 0 0 0 0 0 0 0 0 
0 0 0 0 0 0 0 0 0 
0 0 0 0 0 0 0 0 0 
0 0 0 0 0 0 0 0 0 
0 0 0 0 0 0 0 0 0 
0 0 0 0 0 0 0 0 0 
0 0 0 0 0 0 0 0 0 
0 0 0 0 0 0 0 0 0 
0 0 0 0 0 0 0 0 0 
0 0 0 0 0 0 0 0 0 
0 0 0 0 0 0 0 0 0 
0 0 0 0 0 0 0 0 0 
0 0 0 0 0 0 0 0 0 
0 0 0 0 0 0 0 0 0 
0 0 0 0 0 0 0 0 0 
0 0 0 0 0 0 0 0 0 
0 0 0 0 0 0 0 0 0 
0 0 0 0 0 0 0 0 0 
0 0 0 0 0 0 0 0 0 
0 0 0 0 0 0 0 0 0 
0 0 0 0 0 0 0 0 0 
0 0 0 0 0 0 0 0 0 
0 0 0 0 0 0 0 0 0 
0 0 0 0 0 0 0 0 0 
0 0 0 0 0 0 0 0 0 
0 0 0 0 0 0 0 0 0 
0 0 0 0 0 0 0 0 0 
0 0 0 0 0 0 0 0 0 
0 0 0 0 0 0 0 0 0 
0 0 0 0 0 0 0 0 0 
0 0 0 0 0 0 0 0 0 
0 0 0 0 0 0 0 0 0 
0 0 0 0 0 0 0 0 0 
0 0 0 0 0 0 0 0 0 
0 0 0 0 0 0 0 0 0 
0 0 0 0 0 0 0 0 0 
0 0 0 0 0 0 0 0 0 
0 0 0 0 0 0 0 0 0 
0 0 0 0 0 0 0 0 0 
0 0 0 0 0 0 0 0 0 
0 0 0 0 0 0 0 0 0 
0 0 0 0 0 0 0 0 0 
0 0 0 0 0 0 0 0 0 
0 0 0 0 0 0 0 0 0 
0 0 0 0 0 0 0 0 0 
0 0 0 0 0 0 0 0 0 
0 0 0 0 0 0 0 0 0 
0 0 0 0 0 0 0 0 0 
0 0 0 0 0 0 0 0 0 
0 0 0 0 0 0 0 0 0 
0 0 0 0 0 0 0 0 0 
0 0 0 0 0 0 0 0 0 
0 0 0 0 0 0 0 0 0 
0 0 0 0 0 0 0 0 0 
0 0 0 0 0 0 0 0 0 
0 0 0 0 0 0 0 0 0 
0 0 0 0 0 0 0 0 0 
0 0 0 0 0 0 0 0 0 
0 0 0 0 0 0 0 0 0 
0 0 0 0 0 0 0 0 0 
0 0 0 0 0 0 0 0 0 
0 0 0 0 0 0 0 0 0 
0 0 0 0 0 0 0 0 0 
0 0 0 0 0 0 0 0 0 
0 0 0 0 0 0 0 0 0 
0 0 0 0 0 0 0 0 0 
0 0 0 0 0 0 0 0 0 
0 0 0 0 0 0 0 0 0 
0 0 0 0 0 0 0 0 0 
0 0 0 0 0 0 0 0 0 
0 0 0 0 0 0 0 0 0 
0 0 0 0 0 0 0 0 0 
0 0 0 0 0 0 0 0 0 
0 0 0 0 0 0 0 0 0 
0 0 0 0 0 0 0 0 0 
0 0 0 0 0 0 0 0 0 
0 0 0 0 0 0 0 0 0 
0 0 0 0 0 0 0 0 0 
0 0 0 0 0 0 0 0 0 
0 0 0 0 0 0 0 0 0 
0 0 0 0 0 0 0 0 0 
0 0 0 0 0 0 0 0 0 
0 0 0 0 0 0 0 0 0 
0 0 0 0 0 0 0 0 0 
0 0 0 0 0 0 0 0 0 
0 0 0 0 0 0 0 0 0 
0 0 0 0 0 0 0 0 0 
0 0 0 0 0 0 0 0 0 
0 0 0 0 0 0 0 0 0 
0 0 0 0 0 0 0 0 0 
0 0 0 0 0 0 0 0 0 
0 0 0 0 0 0 0 0 0 
0 0 0 0 0 0 0 0 0 
0 0 0 0 0 0 0 0 0 
0 0 0 0 0 0 0 0 0 
0 0 0 0 0 0 0 0 0 
0 0 0 0 0 0 0 0 0 
0 0 0 0 0 0 0 0 0 
0 0 0 0 0 0 0 0 0 
0 0 0 0 0 0 0 0 0 
0 0 0 0 0 0 0 0 0 
0 0 0 0 0 0 0 0 0 
0 0 0 0 0 0 0 0 0 
0 0 0 0 0 0 0 0 0 
0 0 0 0 0 0 0 0 0 
0 0 0 0 0 0 0 0 0 
0 0 0 0 0 0 0 0 0 
0 0 0 0 0 0 0 0 0 
0 0 0 0 0 0 0 0 0 
0 0 0 0 0 0 0 0 0 
0 0 0 0 0 0 0 0 0 
0 0 0 0 0 0 0 0 0 
0 0 0 0 0 0 0 0 0 
0 0 0 0 0 0 0 0 0 
0 0 0 0 0 0 0 0 0 
0 0 0 0 0 0 0 0 0 
0 0 0 0 0 0 0 0 0 
0 0 0 0 0 0 0 0 0 
0 0 0 0 0 0 0 0 0 
0 0 0 0 0 0 0 0 0 
0 0 0 0 0 0 0 0 0 
0 0 0 0 0 0 0 0 0 
0 0 0 0 0 0 0 0 0 
0 0 0 0 0 0 0 0 0 
0 0 0 0 0 0 0 0 0 
0 0 0 0 0 0 0 0 0 
0 0 0 0 0 0 0 0 0 
0 0 0 0 0 0 0 0 0 
0 0 0 0 0 0 0 0 0 
0 0 0 0 0 0 0 0 0 
0 0 0 0 0 0 0 0 0 
0 0 0 0 0 0 0 0 0 
0 0 0 0 0 0 0 0 0 
0 0 0 0 0 0 0 0 0 
0 0 0 0 0 0 0 0 0 
0 0 0 0 0 0 0 0 0 
0 0 0 0 0 0 0 0 0 
0 0 0 0 0 0 0 0 0 
0 0 0 0 0 0 0 0 0 
0 0 0 0 0 0 0 0 0 
0 0 0 0 0 0 0 0 0 
0 0 0 0 0 0 0 0 0 
0 0 0 0 0 0 0 0 0 
0 0 0 0 0 0 0 0 0 
0 0 0 0 0 0 0 0 0 
0 0 0 0 0 0 0 0 0 
0 0 0 0 0 0 0 0 0 
0 0 0 0 0 0 0 0 0 
0 0 0 0 0 0 0 0 0 
0 0 0 0 0 0 0 0 0 
0 0 0 0 0 0 0 0 0 
0 0 0 0 0 0 0 0 0 
0 0 0 0 0 0 0 0 0 
0 0 0 0 0 0 0 0 0 
0 0 0 0 0 0 0 0 0 
0 0 0 0 0 0 0 0 0 
0 0 0 0 0 0 0 0 0 
0 0 0 0 0 0 0 0 0 
0 0 0 0 0 0 0 0 0 
0 0 0 0 0 0 0 0 0 
0 0 0 0 0 0 0 0 0 
0 0 0 0 0 0 0 0 0 
0 0 0 0 0 0 0 0 0 
0 0 0 0 0 0 0 0 0 
0 0 0 0 0 0 0 0 0 
0 0 0 0 0 0 0 0 0 
0 0 0 0 0 0 0 0 0 
0 0 0 0 0 0 0 0 0 
0 0 0 0 0 0 0 0 0 
0 0 0 0 0 0 0 0 0 
0 0 0 0 0 0 0 0 0 
0 0 0 0 0 0 0 0 0 
0 0 0 0 0 0 0 0 0 
0 0 0 0 0 0 0 0 0 
0 0 0 0 0 0 0 0 0 
0 0 0 0 0 0 0 0 0 
0 0 0 0 0 0 0 0 0 
0 0 0 0 0 0 0 0 0 
0 0 0 0 0 0 0 0 0 
0 0 0 0 0 0 0 0 0 
0 0 0 0 0 0 0 0 0 
0 0 0 0 0 0 0 0 0 
0 0 0 0 0 0 0 0 0 
0 0 0 0 0 0 0 0 0 
0 0 0 0 0 0 0 0 0 
0 0 0 0 0 0 0 0 0 
0 0 0 0 0 0 0 0 0 
0 0 0 0 0 0 0 0 0 
0 0 0 0 0 0 0 0 0 
0 0 0 0 0 0 0 0 0 
0 0 0 0 0 0 0 0 0 
0 0 0 0 0 0 0 0 0 
0 0 0 0 0 0 0 0 0 
0 0 0 0 0 0 0 0 0 
0 0 0 0 0 0 0 0 0 
0 0 0 0 0 0 0 0 0 
0 0 0 0 0 0 0 0 0 
0 0 0 0 0 0 0 0 0 
0 0 0 0 0 0 0 0 0 
0 0 0 0 0 0 0 0 0 
0 0 0 0 0 0 0 0 0 
0 0 0 0 0 0 0 0 0 
0 0 0 0 0 0 0 0 0 
0 0 0 0 0 0 0 0 0 
0 0 0 0 0 0 0 0 0 
0 0 0 0 0 0 0 0 0 
0 0 0 0 0 0 0 0 0 
0 0 0 0 0 0 0 0 0 
0 0 0 0 0 0 0 0 0 
0 0 0 0 0 0 0 0 0 
0 0 0 0 0 0 0 0 0 
0 0 0 0 0 0 0 0 0 
0 0 0 0 0 0 0 0 0 
0 0 0 0 0 0 0 0 0 
0 0 0 0 0 0 0 0 0 
0 0 0 0 0 0 0 0 0 
0 0 0 0 0 0 0 0 0 
0 0 0 0 0 0 0 0 0 
0 0 0 0 0 0 0 0 0 
0 0 0 0 0 0 0 0 0 
0 0 0 0 0 0 0 0 0 
0 0 0 0 0 0 0 0 0 
0 0 0 0 0 0 0 0 0 
0 0 0 0 0 0 0 0 0 
0 0 0 0 0 0 0 0 0 
0 0 0 0 0 0 0 0 0 
0 0 0 0 0 0 0 0 0 
0 0 0 0 0 0 0 0 0 
0 0 0 0 0 0 0 0 0 
0 0 0 0 0 0 0 0 0 
0 0 0 0 0 0 0 0 0 
0 0 0 0 0 0 0 0 0 
0 0 0 0 0 0 0 0 0 
0 0 0 0 0 0 0 0 0 
0 0 0 0 0 0 0 0 0 
0 0 0 0 0 0 0 0 0 
0 0 0 0 0 0 0 0 0 
0 0 0 0 0 0 0 0 0 
0 0 0 0 0 0 0 0 0 
0 0 0 0 0 0 0 0 0 
0 0 0 0 0 0 0 0 0 
0 0 0 0 0 0 0 0 0 
0 0 0 0 0 0 0 0 0 
0 0 0 0 0 0 0 0 0 
0 0 0 0 0 0 0 0 0 
0 0 0 0 0 0 0 0 0 
0 0 0 0 0 0 0 0 0 
0 0 0 0 0 0 0 0 0 
0 0 0 0 0 0 0 0 0 
0 0 0 0 0 0 0 0 0 
0 0 0 0 0 0 0 0 0 
0 0 0 0 0 0 0 0 0 
0 0 0 0 0 0 0 0 0 
0 0 0 0 0 0 0 0 0 
0 0 0 0 0 0 0 0 0 
0 0 0 0 0 0 0 0 0 
0 0 0 0 0 0 0 0 0 
0 0 0 0 0 0 0 0 0 
0 0 0 0 0 0 0 0 0 
0 0 0 0 0 0 0 0 0 
0 0 0 0 0 0 0 0 0 
0 0 0 0 0 0 0 0 0 
0 0 0 0 0 0 0 0 0 
0 0 0 0 0 0 0 0 0 
0 0 0 0 0 0 0 0 0 
0 0 0 0 0 0 0 0 0 
TENSORS STRESS double
0 0 0 0 0 0 0 0 0 
0 0 0 0 0 0 0 0 0 
0 0 0 0 0 0 0 0 0 
0 0 0 0 0 0 0 0 0 
0 0 0 0 0 0 0 0 0 
0 0 0 0 0 0 0 0 0 
0 0 0 0 0 0 0 0 0 
0 0 0 0 0 0 0 0 0 
0 0 0 0 0 0 0 0 0 
0 0 0 0 0 0 0 0 0 
0 0 0 0 0 0 0 0 0 
0 0 0 0 0 0 0 0 0 
0 0 0 0 0 0 0 0 0 
0 0 0 0 0 0 0 0 0 
0 0 0 0 0 0 0 0 0 
0 0 0 0 0 0 0 0 0 
0 0 0 0 0 0 0 0 0 
0 0 0 0 0 0 0 0 0 
0 0 0 0 0 0 0 0 0 
0 0 0 0 0 0 0 0 0 
0 0 0 0 0 0 0 0 0 
0 0 0 0 0 0 0 0 0 
0 0 0 0 0 0 0 0 0 
0 0 0 0 0 0 0 0 0 
0 0 0 0 0 0 0 0 0 
0 0 0 0 0 0 0 0 0 
0 0 0 0 0 0 0 0 0 
0 0 0 0 0 0 0 0 0 
0 0 0 0 0 0 0 0 0 
0 0 0 0 0 0 0 0 0 
0 0 0 0 0 0 0 0 0 
0 0 0 0 0 0 0 0 0 
0 0 0 0 0 0 0 0 0 
0 0 0 0 0 0 0 0 0 
0 0 0 0 0 0 0 0 0 
0 0 0 0 0 0 0 0 0 
0 0 0 0 0 0 0 0 0 
0 0 0 0 0 0 0 0 0 
0 0 0 0 0 0 0 0 0 
0 0 0 0 0 0 0 0 0 
0 0 0 0 0 0 0 0 0 
0 0 0 0 0 0 0 0 0 
0 0 0 0 0 0 0 0 0 
0 0 0 0 0 0 0 0 0 
0 0 0 0 0 0 0 0 0 
0 0 0 0 0 0 0 0 0 
0 0 0 0 0 0 0 0 0 
0 0 0 0 0 0 0 0 0 
0 0 0 0 0 0 0 0 0 
0 0 0 0 0 0 0 0 0 
0 0 0 0 0 0 0 0 0 
0 0 0 0 0 0 0 0 0 
0 0 0 0 0 0 0 0 0 
0 0 0 0 0 0 0 0 0 
0 0 0 0 0 0 0 0 0 
0 0 0 0 0 0 0 0 0 
0 0 0 0 0 0 0 0 0 
0 0 0 0 0 0 0 0 0 
0 0 0 0 0 0 0 0 0 
0 0 0 0 0 0 0 0 0 
0 0 0 0 0 0 0 0 0 
0 0 0 0 0 0 0 0 0 
0 0 0 0 0 0 0 0 0 
0 0 0 0 0 0 0 0 0 
0 0 0 0 0 0 0 0 0 
0 0 0 0 0 0 0 0 0 
0 0 0 0 0 0 0 0 0 
0 0 0 0 0 0 0 0 0 
0 0 0 0 0 0 0 0 0 
0 0 0 0 0 0 0 0 0 
0 0 0 0 0 0 0 0 0 
0 0 0 0 0 0 0 0 0 
0 0 0 0 0 0 0 0 0 
0 0 0 0 0 0 0 0 0 
0 0 0 0 0 0 0 0 0 
0 0 0 0 0 0 0 0 0 
0 0 0 0 0 0 0 0 0 
0 0 0 0 0 0 0 0 0 
0 0 0 0 0 0 0 0 0 
0 0 0 0 0 0 0 0 0 
0 0 0 0 0 0 0 0 0 
0 0 0 0 0 0 0 0 0 
0 0 0 0 0 0 0 0 0 
0 0 0 0 0 0 0 0 0 
0 0 0 0 0 0 0 0 0 
0 0 0 0 0 0 0 0 0 
0 0 0 0 0 0 0 0 0 
0 0 0 0 0 0 0 0 0 
0 0 0 0 0 0 0 0 0 
0 0 0 0 0 0 0 0 0 
0 0 0 0 0 0 0 0 0 
0 0 0 0 0 0 0 0 0 
0 0 0 0 0 0 0 0 0 
0 0 0 0 0 0 0 0 0 
0 0 0 0 0 0 0 0 0 
0 0 0 0 0 0 0 0 0 
0 0 0 0 0 0 0 0 0 
0 0 0 0 0 0 0 0 0 
0 0 0 0 0 0 0 0 0 
0 0 0 0 0 0 0 0 0 
0 0 0 0 0 0 0 0 0 
0 0 0 0 0 0 0 0 0 
0 0 0 0 0 0 0 0 0 
0 0 0 0 0 0 0 0 0 
0 0 0 0 0 0 0 0 0 
0 0 0 0 0 0 0 0 0 
0 0 0 0 0 0 0 0 0 
0 0 0 0 0 0 0 0 0 
0 0 0 0 0 0 0 0 0 
0 0 0 0 0 0 0 0 0 
0 0 0 0 0 0 0 0 0 
0 0 0 0 0 0 0 0 0 
0 0 0 0 0 0 0 0 0 
0 0 0 0 0 0 0 0 0 
0 0 0 0 0 0 0 0 0 
0 0 0 0 0 0 0 0 0 
0 0 0 0 0 0 0 0 0 
0 0 0 0 0 0 0 0 0 
0 0 0 0 0 0 0 0 0 
0 0 0 0 0 0 0 0 0 
0 0 0 0 0 0 0 0 0 
0 0 0 0 0 0 0 0 0 
0 0 0 0 0 0 0 0 0 
0 0 0 0 0 0 0 0 0 
0 0 0 0 0 0 0 0 0 
0 0 0 0 0 0 0 0 0 
0 0 0 0 0 0 0 0 0 
0 0 0 0 0 0 0 0 0 
0 0 0 0 0 0 0 0 0 
0 0 0 0 0 0 0 0 0 
0 0 0 0 0 0 0 0 0 
0 0 0 0 0 0 0 0 0 
0 0 0 0 0 0 0 0 0 
0 0 0 0 0 0 0 0 0 
0 0 0 0 0 0 0 0 0 
0 0 0 0 0 0 0 0 0 
0 0 0 0 0 0 0 0 0 
0 0 0 0 0 0 0 0 0 
0 0 0 0 0 0 0 0 0 
0 0 0 0 0 0 0 0 0 
0 0 0 0 0 0 0 0 0 
0 0 0 0 0 0 0 0 0 
0 0 0 0 0 0 0 0 0 
0 0 0 0 0 0 0 0 0 
0 0 0 0 0 0 0 0 0 
0 0 0 0 0 0 0 0 0 
0 0 0 0 0 0 0 0 0 
0 0 0 0 0 0 0 0 0 
0 0 0 0 0 0 0 0 0 
0 0 0 0 0 0 0 0 0 
0 0 0 0 0 0 0 0 0 
0 0 0 0 0 0 0 0 0 
0 0 0 0 0 0 0 0 0 
0 0 0 0 0 0 0 0 0 
0 0 0 0 0 0 0 0 0 
0 0 0 0 0 0 0 0 0 
0 0 0 0 0 0 0 0 0 
0 0 0 0 0 0 0 0 0 
0 0 0 0 0 0 0 0 0 
0 0 0 0 0 0 0 0 0 
0 0 0 0 0 0 0 0 0 
0 0 0 0 0 0 0 0 0 
0 0 0 0 0 0 0 0 0 
0 0 0 0 0 0 0 0 0 
0 0 0 0 0 0 0 0 0 
0 0 0 0 0 0 0 0 0 
0 0 0 0 0 0 0 0 0 
0 0 0 0 0 0 0 0 0 
0 0 0 0 0 0 0 0 0 
0 0 0 0 0 0 0 0 0 
0 0 0 0 0 0 0 0 0 
0 0 0 0 0 0 0 0 0 
0 0 0 0 0 0 0 0 0 
0 0 0 0 0 0 0 0 0 
0 0 0 0 0 0 0 0 0 
0 0 0 0 0 0 0 0 0 
0 0 0 0 0 0 0 0 0 
0 0 0 0 0 0 0 0 0 
0 0 0 0 0 0 0 0 0 
0 0 0 0 0 0 0 0 0 
0 0 0 0 0 0 0 0 0 
0 0 0 0 0 0 0 0 0 
0 0 0 0 0 0 0 0 0 
0 0 0 0 0 0 0 0 0 
0 0 0 0 0 0 0 0 0 
0 0 0 0 0 0 0 0 0 
0 0 0 0 0 0 0 0 0 
0 0 0 0 0 0 0 0 0 
0 0 0 0 0 0 0 0 0 
0 0 0 0 0 0 0 0 0 
0 0 0 0 0 0 0 0 0 
0 0 0 0 0 0 0 0 0 
0 0 0 0 0 0 0 0 0 
0 0 0 0 0 0 0 0 0 
0 0 0 0 0 0 0 0 0 
0 0 0 0 0 0 0 0 0 
0 0 0 0 0 0 0 0 0 
0 0 0 0 0 0 0 0 0 
0 0 0 0 0 0 0 0 0 
0 0 0 0 0 0 0 0 0 
0 0 0 0 0 0 0 0 0 
0 0 0 0 0 0 0 0 0 
0 0 0 0 0 0 0 0 0 
0 0 0 0 0 0 0 0 0 
0 0 0 0 0 0 0 0 0 
0 0 0 0 0 0 0 0 0 
0 0 0 0 0 0 0 0 0 
0 0 0 0 0 0 0 0 0 
0 0 0 0 0 0 0 0 0 
0 0 0 0 0 0 0 0 0 
0 0 0 0 0 0 0 0 0 
0 0 0 0 0 0 0 0 0 
0 0 0 0 0 0 0 0 0 
0 0 0 0 0 0 0 0 0 
0 0 0 0 0 0 0 0 0 
0 0 0 0 0 0 0 0 0 
0 0 0 0 0 0 0 0 0 
0 0 0 0 0 0 0 0 0 
0 0 0 0 0 0 0 0 0 
0 0 0 0 0 0 0 0 0 
0 0 0 0 0 0 0 0 0 
0 0 0 0 0 0 0 0 0 
0 0 0 0 0 0 0 0 0 
0 0 0 0 0 0 0 0 0 
0 0 0 0 0 0 0 0 0 
0 0 0 0 0 0 0 0 0 
0 0 0 0 0 0 0 0 0 
0 0 0 0 0 0 0 0 0 
0 0 0 0 0 0 0 0 0 
0 0 0 0 0 0 0 0 0 
0 0 0 0 0 0 0 0 0 
0 0 0 0 0 0 0 0 0 
0 0 0 0 0 0 0 0 0 
0 0 0 0 0 0 0 0 0 
0 0 0 0 0 0 0 0 0 
0 0 0 0 0 0 0 0 0 
0 0 0 0 0 0 0 0 0 
0 0 0 0 0 0 0 0 0 
0 0 0 0 0 0 0 0 0 
0 0 0 0 0 0 0 0 0 
0 0 0 0 0 0 0 0 0 
0 0 0 0 0 0 0 0 0 
0 0 0 0 0 0 0 0 0 
0 0 0 0 0 0 0 0 0 
0 0 0 0 0 0 0 0 0 
0 0 0 0 0 0 0 0 0 
0 0 0 0 0 0 0 0 0 
0 0 0 0 0 0 0 0 0 
0 0 0 0 0 0 0 0 0 
0 0 0 0 0 0 0 0 0 
0 0 0 0 0 0 0 0 0 
0 0 0 0 0 0 0 0 0 
0 0 0 0 0 0 0 0 0 
0 0 0 0 0 0 0 0 0 
0 0 0 0 0 0 0 0 0 
0 0 0 0 0 0 0 0 0 
0 0 0 0 0 0 0 0 0 
0 0 0 0 0 0 0 0 0 
0 0 0 0 0 0 0 0 0 
0 0 0 0 0 0 0 0 0 
0 0 0 0 0 0 0 0 0 
0 0 0 0 0 0 0 0 0 
0 0 0 0 0 0 0 0 0 
0 0 0 0 0 0 0 0 0 
0 0 0 0 0 0 0 0 0 
0 0 0 0 0 0 0 0 0 
0 0 0 0 0 0 0 0 0 
0 0 0 0 0 0 0 0 0 
0 0 0 0 0 0 0 0 0 
0 0 0 0 0 0 0 0 0 
0 0 0 0 0 0 0 0 0 
0 0 0 0 0 0 0 0 0 
0 0 0 0 0 0 0 0 0 
0 0 0 0 0 0 0 0 0 
0 0 0 0 0 0 0 0 0 
0 0 0 0 0 0 0 0 0 
0 0 0 0 0 0 0 0 0 
0 0 0 0 0 0 0 0 0 
0 0 0 0 0 0 0 0 0 
0 0 0 0 0 0 0 0 0 
0 0 0 0 0 0 0 0 0 
0 0 0 0 0 0 0 0 0 
0 0 0 0 0 0 0 0 0 
0 0 0 0 0 0 0 0 0 
0 0 0 0 0 0 0 0 0 
0 0 0 0 0 0 0 0 0 
0 0 0 0 0 0 0 0 0 
0 0 0 0 0 0 0 0 0 
0 0 0 0 0 0 0 0 0 
0 0 0 0 0 0 0 0 0 
0 0 0 0 0 0 0 0 0 
0 0 0 0 0 0 0 0 0 
0 0 0 0 0 0 0 0 0 
0 0 0 0 0 0 0 0 0 
0 0 0 0 0 0 0 0 0 
0 0 0 0 0 0 0 0 0 
0 0 0 0 0 0 0 0 0 
0 0 0 0 0 0 0 0 0 
0 0 0 0 0 0 0 0 0 
0 0 0 0 0 0 0 0 0 
0 0 0 0 0 0 0 0 0 
0 0 0 0 0 0 0 0 0 
0 0 0 0 0 0 0 0 0 
0 0 0 0 0 0 0 0 0 
0 0 0 0 0 0 0 0 0 
0 0 0 0 0 0 0 0 0 
0 0 0 0 0 0 0 0 0 
0 0 0 0 0 0 0 0 0 
0 0 0 0 0 0 0 0 0 
0 0 0 0 0 0 0 0 0 
0 0 0 0 0 0 0 0 0 
0 0 0 0 0 0 0 0 0 
0 0 0 0 0 0 0 0 0 
0 0 0 0 0 0 0 0 0 
0 0 0 0 0 0 0 0 0 
0 0 0 0 0 0 0 0 0 
0 0 0 0 0 0 0 0 0 
0 0 0 0 0 0 0 0 0 
0 0 0 0 0 0 0 0 0 
0 0 0 0 0 0 0 0 0 
0 0 0 0 0 0 0 0 0 
0 0 0 0 0 0 0 0 0 
0 0 0 0 0 0 0 0 0 
0 0 0 0 0 0 0 0 0 
0 0 0 0 0 0 0 0 0 
0 0 0 0 0 0 0 0 0 
0 0 0 0 0 0 0 0 0 
0 0 0 0 0 0 0 0 0 
0 0 0 0 0 0 0 0 0 
0 0 0 0 0 0 0 0 0 
0 0 0 0 0 0 0 0 0 
0 0 0 0 0 0 0 0 0 
0 0 0 0 0 0 0 0 0 
0 0 0 0 0 0 0 0 0 
0 0 0 0 0 0 0 0 0 
0 0 0 0 0 0 0 0 0 
0 0 0 0 0 0 0 0 0 
0 0 0 0 0 0 0 0 0 
0 0 0 0 0 0 0 0 0 
0 0 0 0 0 0 0 0 0 
0 0 0 0 0 0 0 0 0 
0 0 0 0 0 0 0 0 0 
0 0 0 0 0 0 0 0 0 
0 0 0 0 0 0 0 0 0 
0 0 0 0 0 0 0 0 0 
0 0 0 0 0 0 0 0 0 
0 0 0 0 0 0 0 0 0 
0 0 0 0 0 0 0 0 0 
0 0 0 0 0 0 0 0 0 
0 0 0 0 0 0 0 0 0 
0 0 0 0 0 0 0 0 0 
0 0 0 0 0 0 0 0 0 
0 0 0 0 0 0 0 0 0 
0 0 0 0 0 0 0 0 0 
0 0 0 0 0 0 0 0 0 
0 0 0 0 0 0 0 0 0 
0 0 0 0 0 0 0 0 0 
0 0 0 0 0 0 0 0 0 
0 0 0 0 0 0 0 0 0 
0 0 0 0 0 0 0 0 0 
0 0 0 0 0 0 0 0 0 
0 0 0 0 0 0 0 0 0 
0 0 0 0 0 0 0 0 0 
0 0 0 0 0 0 0 0 0 
0 0 0 0 0 0 0 0 0 
0 0 0 0 0 0 0 0 0 
0 0 0 0 0 0 0 0 0 
0 0 0 0 0 0 0 0 0 
0 0 0 0 0 0 0 0 0 
0 0 0 0 0 0 0 0 0 
0 0 0 0 0 0 0 0 0 
0 0 0 0 0 0 0 0 0 
0 0 0 0 0 0 0 0 0 
0 0 0 0 0 0 0 0 0 
0 0 0 0 0 0 0 0 0 
0 0 0 0 0 0 0 0 0 
0 0 0 0 0 0 0 0 0 
0 0 0 0 0 0 0 0 0 
0 0 0 0 0 0 0 0 0 
0 0 0 0 0 0 0 0 0 
0 0 0 0 0 0 0 0 0 
0 0 0 0 0 0 0 0 0 
0 0 0 0 0 0 0 0 0 
0 0 0 0 0 0 0 0 0 
0 0 0 0 0 0 0 0 0 
0 0 0 0 0 0 0 0 0 
0 0 0 0 0 0 0 0 0 
0 0 0 0 0 0 0 0 0 
0 0 0 0 0 0 0 0 0 
0 0 0 0 0 0 0 0 0 
0 0 0 0 0 0 0 0 0 
0 0 0 0 0 0 0 0 0 
0 0 0 0 0 0 0 0 0 
0 0 0 0 0 0 0 0 0 
0 0 0 0 0 0 0 0 0 
0 0 0 0 0 0 0 0 0 
0 0 0 0 0 0 0 0 0 
0 0 0 0 0 0 0 0 0 
0 0 0 0 0 0 0 0 0 
0 0 0 0 0 0 0 0 0 
0 0 0 0 0 0 0 0 0 
0 0 0 0 0 0 0 0 0 
0 0 0 0 0 0 0 0 0 
0 0 0 0 0 0 0 0 0 
0 0 0 0 0 0 0 0 0 
0 0 0 0 0 0 0 0 0 
0 0 0 0 0 0 0 0 0 
0 0 0 0 0 0 0 0 0 
0 0 0 0 0 0 0 0 0 
0 0 0 0 0 0 0 0 0 
0 0 0 0 0 0 0 0 0 
0 0 0 0 0 0 0 0 0 
0 0 0 0 0 0 0 0 0 
0 0 0 0 0 0 0 0 0 
0 0 0 0 0 0 0 0 0 
0 0 0 0 0 0 0 0 0 
0 0 0 0 0 0 0 0 0 
0 0 0 0 0 0 0 0 0 
0 0 0 0 0 0 0 0 0 
0 0 0 0 0 0 0 0 0 
0 0 0 0 0 0 0 0 0 
0 0 0 0 0 0 0 0 0 
0 0 0 0 0 0 0 0 0 
0 0 0 0 0 0 0 0 0 
0 0 0 0 0 0 0 0 0 
0 0 0 0 0 0 0 0 0 
0 0 0 0 0 0 0 0 0 
0 0 0 0 0 0 0 0 0 
0 0 0 0 0 0 0 0 0 
0 0 0 0 0 0 0 0 0 
0 0 0 0 0 0 0 0 0 
0 0 0 0 0 0 0 0 0 
0 0 0 0 0 0 0 0 0 
0 0 0 0 0 0 0 0 0 
0 0 0 0 0 0 0 0 0 
0 0 0 0 0 0 0 0 0 
0 0 0 0 0 0 0 0 0 
0 0 0 0 0 0 0 0 0 
0 0 0 0 0 0 0 0 0 
0 0 0 0 0 0 0 0 0 
0 0 0 0 0 0 0 0 0 
0 0 0 0 0 0 0 0 0 
0 0 0 0 0 0 0 0 0 
0 0 0 0 0 0 0 0 0 
0 0 0 0 0 0 0 0 0 
0 0 0 0 0 0 0 0 0 
0 0 0 0 0 0 0 0 0 
0 0 0 0 0 0 0 0 0 
0 0 0 0 0 0 0 0 0 
0 0 0 0 0 0 0 0 0 
0 0 0 0 0 0 0 0 0 
0 0 0 0 0 0 0 0 0 
0 0 0 0 0 0 0 0 0 
0 0 0 0 0 0 0 0 0 
0 0 0 0 0 0 0 0 0 
0 0 0 0 0 0 0 0 0 
0 0 0 0 0 0 0 0 0 
0 0 0 0 0 0 0 0 0 
0 0 0 0 0 0 0 0 0 
0 0 0 0 0 0 0 0 0 
0 0 0 0 0 0 0 0 0 
0 0 0 0 0 0 0 0 0 
0 0 0 0 0 0 0 0 0 
0 0 0 0 0 0 0 0 0 
0 0 0 0 0 0 0 0 0 
0 0 0 0 0 0 0 0 0 
0 0 0 0 0 0 0 0 0 
0 0 0 0 0 0 0 0 0 
0 0 0 0 0 0 0 0 0 
0 0 0 0 0 0 0 0 0 
0 0 0 0 0 0 0 0 0 
0 0 0 0 0 0 0 0 0 
0 0 0 0 0 0 0 0 0 
0 0 0 0 0 0 0 0 0 
0 0 0 0 0 0 0 0 0 
0 0 0 0 0 0 0 0 0 
0 0 0 0 0 0 0 0 0 
0 0 0 0 0 0 0 0 0 
0 0 0 0 0 0 0 0 0 
0 0 0 0 0 0 0 0 0 
0 0 0 0 0 0 0 0 0 
0 0 0 0 0 0 0 0 0 
0 0 0 0 0 0 0 0 0 
0 0 0 0 0 0 0 0 0 
0 0 0 0 0 0 0 0 0 
0 0 0 0 0 0 0 0 0 
0 0 0 0 0 0 0 0 0 
0 0 0 0 0 0 0 0 0 
0 0 0 0 0 0 0 0 0 
0 0 0 0 0 0 0 0 0 
0 0 0 0 0 0 0 0 0 
0 0 0 0 0 0 0 0 0 
0 0 0 0 0 0 0 0 0 
0 0 0 0 0 0 0 0 0 
0 0 0 0 0 0 0 0 0 
0 0 0 0 0 0 0 0 0 
0 0 0 0 0 0 0 0 0 
0 0 0 0 0 0 0 0 0 
0 0 0 0 0 0 0 0 0 
0 0 0 0 0 0 0 0 0 
0 0 0 0 0 0 0 0 0 
0 0 0 0 0 0 0 0 0 
0 0 0 0 0 0 0 0 0 
0 0 0 0 0 0 0 0 0 
0 0 0 0 0 0 0 0 0 
0 0 0 0 0 0 0 0 0 
0 0 0 0 0 0 0 0 0 
0 0 0 0 0 0 0 0 0 
0 0 0 0 0 0 0 0 0 
0 0 0 0 0 0 0 0 0 
0 0 0 0 0 0 0 0 0 
0 0 0 0 0 0 0 0 0 
0 0 0 0 0 0 0 0 0 
0 0 0 0 0 0 0 0 0 
0 0 0 0 0 0 0 0 0 
0 0 0 0 0 0 0 0 0 
0 0 0 0 0 0 0 0 0 
0 0 0 0 0 0 0 0 0 
0 0 0 0 0 0 0 0 0 
0 0 0 0 0 0 0 0 0 
0 0 0 0 0 0 0 0 0 
0 0 0 0 0 0 0 0 0 
0 0 0 0 0 0 0 0 0 
0 0 0 0 0 0 0 0 0 
0 0 0 0 0 0 0 0 0 
0 0 0 0 0 0 0 0 0 
0 0 0 0 0 0 0 0 0 
0 0 0 0 0 0 0 0 0 
0 0 0 0 0 0 0 0 0 
0 0 0 0 0 0 0 0 0 
0 0 0 0 0 0 0 0 0 
0 0 0 0 0 0 0 0 0 
0 0 0 0 0 0 0 0 0 
0 0 0 0 0 0 0 0 0 
0 0 0 0 0 0 0 0 0 
0 0 0 0 0 0 0 0 0 
0 0 0 0 0 0 0 0 0 
0 0 0 0 0 0 0 0 0 
0 0 0 0 0 0 0 0 0 
0 0 0 0 0 0 0 0 0 
0 0 0 0 0 0 0 0 0 
0 0 0 0 0 0 0 0 0 
0 0 0 0 0 0 0 0 0 
0 0 0 0 0 0 0 0 0 
0 0 0 0 0 0 0 0 0 
0 0 0 0 0 0 0 0 0 
0 0 0 0 0 0 0 0 0 
0 0 0 0 0 0 0 0 0 
0 0 0 0 0 0 0 0 0 
0 0 0 0 0 0 0 0 0 
0 0 0 0 0 0 0 0 0 
0 0 0 0 0 0 0 0 0 
0 0 0 0 0 0 0 0 0 
0 0 0 0 0 0 0 0 0 
0 0 0 0 0 0 0 0 0 
0 0 0 0 0 0 0 0 0 
0 0 0 0 0 0 0 0 0 
0 0 0 0 0 0 0 0 0 
0 0 0 0 0 0 0 0 0 
0 0 0 0 0 0 0 0 0 
0 0 0 0 0 0 0 0 0 
0 0 0 0 0 0 0 0 0 
0 0 0 0 0 0 0 0 0 
0 0 0 0 0 0 0 0 0 
0 0 0 0 0 0 0 0 0 
0 0 0 0 0 0 0 0 0 
0 0 0 0 0 0 0 0 0 
0 0 0 0 0 0 0 0 0 
0 0 0 0 0 0 0 0 0 
0 0 0 0 0 0 0 0 0 
0 0 0 0 0 0 0 0 0 
0 0 0 0 0 0 0 0 0 
0 0 0 0 0 0 0 0 0 
0 0 0 0 0 0 0 0 0 
0 0 0 0 0 0 0 0 0 
0 0 0 0 0 0 0 0 0 
0 0 0 0 0 0 0 0 0 
0 0 0 0 0 0 0 0 0 
0 0 0 0 0 0 0 0 0 
0 0 0 0 0 0 0 0 0 
0 0 0 0 0 0 0 0 0 
0 0 0 0 0 0 0 0 0 
0 0 0 0 0 0 0 0 0 
0 0 0 0 0 0 0 0 0 
0 0 0 0 0 0 0 0 0 
0 0 0 0 0 0 0 0 0 
0 0 0 0 0 0 0 0 0 
0 0 0 0 0 0 0 0 0 
0 0 0 0 0 0 0 0 0 
0 0 0 0 0 0 0 0 0 
0 0 0 0 0 0 0 0 0 
0 0 0 0 0 0 0 0 0 
0 0 0 0 0 0 0 0 0 
0 0 0 0 0 0 0 0 0 
0 0 0 0 0 0 0 0 0 
0 0 0 0 0 0 0 0 0 
0 0 0 0 0 0 0 0 0 
0 0 0 0 0 0 0 0 0 
0 0 0 0 0 0 0 0 0 
0 0 0 0 0 0 0 0 0 
0 0 0 0 0 0 0 0 0 
0 0 0 0 0 0 0 0 0 
0 0 0 0 0 0 0 0 0 
0 0 0 0 0 0 0 0 0 
0 0 0 0 0 0 0 0 0 
0 0 0 0 0 0 0 0 0 
0 0 0 0 0 0 0 0 0 
0 0 0 0 0 0 0 0 0 
0 0 0 0 0 0 0 0 0 
0 0 0 0 0 0 0 0 0 
0 0 0 0 0 0 0 0 0 
0 0 0 0 0 0 0 0 0 
0 0 0 0 0 0 0 0 0 
0 0 0 0 0 0 0 0 0 
0 0 0 0 0 0 0 0 0 
0 0 0 0 0 0 0 0 0 
0 0 0 0 0 0 0 0 0 
0 0 0 0 0 0 0 0 0 
0 0 0 0 0 0 0 0 0 
0 0 0 0 0 0 0 0 0 
0 0 0 0 0 0 0 0 0 
0 0 0 0 0 0 0 0 0 
0 0 0 0 0 0 0 0 0 
0 0 0 0 0 0 0 0 0 
0 0 0 0 0 0 0 0 0 
0 0 0 0 0 0 0 0 0 
0 0 0 0 0 0 0 0 0 
0 0 0 0 0 0 0 0 0 
0 0 0 0 0 0 0 0 0 
0 0 0 0 0 0 0 0 0 
0 0 0 0 0 0 0 0 0 
0 0 0 0 0 0 0 0 0 
0 0 0 0 0 0 0 0 0 
0 0 0 0 0 0 0 0 0 
0 0 0 0 0 0 0 0 0 
0 0 0 0 0 0 0 0 0 
0 0 0 0 0 0 0 0 0 
0 0 0 0 0 0 0 0 0 
0 0 0 0 0 0 0 0 0 
0 0 0 0 0 0 0 0 0 
0 0 0 0 0 0 0 0 0 
0 0 0 0 0 0 0 0 0 
0 0 0 0 0 0 0 0 0 
0 0 0 0 0 0 0 0 0 
0 0 0 0 0 0 0 0 0 
0 0 0 0 0 0 0 0 0 
0 0 0 0 0 0 0 0 0 
0 0 0 0 0 0 0 0 0 
0 0 0 0 0 0 0 0 0 
0 0 0 0 0 0 0 0 0 
0 0 0 0 0 0 0 0 0 
0 0 0 0 0 0 0 0 0 
0 0 0 0 0 0 0 0 0 
0 0 0 0 0 0 0 0 0 
0 0 0 0 0 0 0 0 0 
0 0 0 0 0 0 0 0 0 
0 0 0 0 0 0 0 0 0 
0 0 0 0 0 0 0 0 0 
0 0 0 0 0 0 0 0 0 
0 0 0 0 0 0 0 0 0 
0 0 0 0 0 0 0 0 0 
0 0 0 0 0 0 0 0 0 
0 0 0 0 0 0 0 0 0 
0 0 0 0 0 0 0 0 0 
0 0 0 0 0 0 0 0 0 
0 0 0 0 0 0 0 0 0 
0 0 0 0 0 0 0 0 0 
0 0 0 0 0 0 0 0 0 
0 0 0 0 0 0 0 0 0 
0 0 0 0 0 0 0 0 0 
0 0 0 0 0 0 0 0 0 
0 0 0 0 0 0 0 0 0 
0 0 0 0 0 0 0 0 0 
0 0 0 0 0 0 0 0 0 
0 0 0 0 0 0 0 0 0 
0 0 0 0 0 0 0 0 0 
0 0 0 0 0 0 0 0 0 
0 0 0 0 0 0 0 0 0 
0 0 0 0 0 0 0 0 0 
0 0 0 0 0 0 0 0 0 
0 0 0 0 0 0 0 0 0 
0 0 0 0 0 0 0 0 0 
0 0 0 0 0 0 0 0 0 
0 0 0 0 0 0 0 0 0 
0 0 0 0 0 0 0 0 0 
0 0 0 0 0 0 0 0 0 
0 0 0 0 0 0 0 0 0 
0 0 0 0 0 0 0 0 0 
0 0 0 0 0 0 0 0 0 
0 0 0 0 0 0 0 0 0 
0 0 0 0 0 0 0 0 0 
0 0 0 0 0 0 0 0 0 
0 0 0 0 0 0 0 0 0 
0 0 0 0 0 0 0 0 0 
0 0 0 0 0 0 0 0 0 
0 0 0 0 0 0 0 0 0 
0 0 0 0 0 0 0 0 0 
0 0 0 0 0 0 0 0 0 
0 0 0 0 0 0 0 0 0 
0 0 0 0 0 0 0 0 0 
0 0 0 0 0 0 0 0 0 
0 0 0 0 0 0 0 0 0 
0 0 0 0 0 0 0 0 0 
0 0 0 0 0 0 0 0 0 
0 0 0 0 0 0 0 0 0 
0 0 0 0 0 0 0 0 0 
0 0 0 0 0 0 0 0 0 
0 0 0 0 0 0 0 0 0 
0 0 0 0 0 0 0 0 0 
0 0 0 0 0 0 0 0 0 
0 0 0 0 0 0 0 0 0 
0 0 0 0 0 0 0 0 0 
0 0 0 0 0 0 0 0 0 
0 0 0 0 0 0 0 0 0 
0 0 0 0 0 0 0 0 0 
0 0 0 0 0 0 0 0 0 
0 0 0 0 0 0 0 0 0 
0 0 0 0 0 0 0 0 0 
0 0 0 0 0 0 0 0 0 
0 0 0 0 0 0 0 0 0 
0 0 0 0 0 0 0 0 0 
0 0 0 0 0 0 0 0 0 
0 0 0 0 0 0 0 0 0 
0 0 0 0 0 0 0 0 0 
0 0 0 0 0 0 0 0 0 
0 0 0 0 0 0 0 0 0 
0 0 0 0 0 0 0 0 0 
0 0 0 0 0 0 0 0 0 
0 0 0 0 0 0 0 0 0 
0 0 0 0 0 0 0 0 0 
0 0 0 0 0 0 0 0 0 
0 0 0 0 0 0 0 0 0 
0 0 0 0 0 0 0 0 0 
0 0 0 0 0 0 0 0 0 
0 0 0 0 0 0 0 0 0 
0 0 0 0 0 0 0 0 0 
0 0 0 0 0 0 0 0 0 
0 0 0 0 0 0 0 0 0 
0 0 0 0 0 0 0 0 0 
0 0 0 0 0 0 0 0 0 
0 0 0 0 0 0 0 0 0 
0 0 0 0 0 0 0 0 0 
0 0 0 0 0 0 0 0 0 
0 0 0 0 0 0 0 0 0 
0 0 0 0 0 0 0 0 0 
0 0 0 0 0 0 0 0 0 
0 0 0 0 0 0 0 0 0 
0 0 0 0 0 0 0 0 0 
0 0 0 0 0 0 0 0 0 
0 0 0 0 0 0 0 0 0 
0 0 0 0 0 0 0 0 0 
0 0 0 0 0 0 0 0 0 
0 0 0 0 0 0 0 0 0 
0 0 0 0 0 0 0 0 0 
0 0 0 0 0 0 0 0 0 
0 0 0 0 0 0 0 0 0 
0 0 0 0 0 0 0 0 0 
0 0 0 0 0 0 0 0 0 
0 0 0 0 0 0 0 0 0 
0 0 0 0 0 0 0 0 0 
0 0 0 0 0 0 0 0 0 
0 0 0 0 0 0 0 0 0 
0 0 0 0 0 0 0 0 0 
0 0 0 0 0 0 0 0 0 
0 0 0 0 0 0 0 0 0 
0 0 0 0 0 0 0 0 0 
0 0 0 0 0 0 0 0 0 
0 0 0 0 0 0 0 0 0 
0 0 0 0 0 0 0 0 0 
0 0 0 0 0 0 0 0 0 
0 0 0 0 0 0 0 0 0 
0 0 0 0 0 0 0 0 0 
0 0 0 0 0 0 0 0 0 
0 0 0 0 0 0 0 0 0 
0 0 0 0 0 0 0 0 0 
0 0 0 0 0 0 0 0 0 
0 0 0 0 0 0 0 0 0 
0 0 0 0 0 0 0 0 0 
0 0 0 0 0 0 0 0 0 
0 0 0 0 0 0 0 0 0 
0 0 0 0 0 0 0 0 0 
0 0 0 0 0 0 0 0 0 
0 0 0 0 0 0 0 0 0 
0 0 0 0 0 0 0 0 0 
0 0 0 0 0 0 0 0 0 
0 0 0 0 0 0 0 0 0 
0 0 0 0 0 0 0 0 0 
0 0 0 0 0 0 0 0 0 
0 0 0 0 0 0 0 0 0 
0 0 0 0 0 0 0 0 0 
0 0 0 0 0 0 0 0 0 
0 0 0 0 0 0 0 0 0 
0 0 0 0 0 0 0 0 0 
0 0 0 0 0 0 0 0 0 
0 0 0 0 0 0 0 0 0 
0 0 0 0 0 0 0 0 0 
0 0 0 0 0 0 0 0 0 
0 0 0 0 0 0 0 0 0 
0 0 0 0 0 0 0 0 0 
0 0 0 0 0 0 0 0 0 
0 0 0 0 0 0 0 0 0 
0 0 0 0 0 0 0 0 0 
0 0 0 0 0 0 0 0 0 
0 0 0 0 0 0 0 0 0 
0 0 0 0 0 0 0 0 0 
0 0 0 0 0 0 0 0 0 
0 0 0 0 0 0 0 0 0 
0 0 0 0 0 0 0 0 0 
0 0 0 0 0 0 0 0 0 
0 0 0 0 0 0 0 0 0 
0 0 0 0 0 0 0 0 0 
0 0 0 0 0 0 0 0 0 
0 0 0 0 0 0 0 0 0 
0 0 0 0 0 0 0 0 0 
0 0 0 0 0 0 0 0 0 
0 0 0 0 0 0 0 0 0 
0 0 0 0 0 0 0 0 0 
0 0 0 0 0 0 0 0 0 
0 0 0 0 0 0 0 0 0 
0 0 0 0 0 0 0 0 0 
0 0 0 0 0 0 0 0 0 
0 0 0 0 0 0 0 0 0 
0 0 0 0 0 0 0 0 0 
0 0 0 0 0 0 0 0 0 
0 0 0 0 0 0 0 0 0 
0 0 0 0 0 0 0 0 0 
0 0 0 0 0 0 0 0 0 
0 0 0 0 0 0 0 0 0 
0 0 0 0 0 0 0 0 0 
0 0 0 0 0 0 0 0 0 
0 0 0 0 0 0 0 0 0 
0 0 0 0 0 0 0 0 0 
0 0 0 0 0 0 0 0 0 
0 0 0 0 0 0 0 0 0 
0 0 0 0 0 0 0 0 0 
0 0 0 0 0 0 0 0 0 
0 0 0 0 0 0 0 0 0 
0 0 0 0 0 0 0 0 0 
0 0 0 0 0 0 0 0 0 
0 0 0 0 0 0 0 0 0 
0 0 0 0 0 0 0 0 0 
0 0 0 0 0 0 0 0 0 
0 0 0 0 0 0 0 0 0 
0 0 0 0 0 0 0 0 0 
0 0 0 0 0 0 0 0 0 
0 0 0 0 0 0 0 0 0 
0 0 0 0 0 0 0 0 0 
0 0 0 0 0 0 0 0 0 
0 0 0 0 0 0 0 0 0 
0 0 0 0 0 0 0 0 0 
0 0 0 0 0 0 0 0 0 
0 0 0 0 0 0 0 0 0 
0 0 0 0 0 0 0 0 0 
0 0 0 0 0 0 0 0 0 
0 0 0 0 0 0 0 0 0 
0 0 0 0 0 0 0 0 0 
0 0 0 0 0 0 0 0 0 
0 0 0 0 0 0 0 0 0 
0 0 0 0 0 0 0 0 0 
0 0 0 0 0 0 0 0 0 
0 0 0 0 0 0 0 0 0 
0 0 0 0 0 0 0 0 0 
0 0 0 0 0 0 0 0 0 
0 0 0 0 0 0 0 0 0 
0 0 0 0 0 0 0 0 0 
0 0 0 0 0 0 0 0 0 
0 0 0 0 0 0 0 0 0 
0 0 0 0 0 0 0 0 0 
0 0 0 0 0 0 0 0 0 
0 0 0 0 0 0 0 0 0 
0 0 0 0 0 0 0 0 0 
0 0 0 0 0 0 0 0 0 
0 0 0 0 0 0 0 0 0 
0 0 0 0 0 0 0 0 0 
0 0 0 0 0 0 0 0 0 
0 0 0 0 0 0 0 0 0 
0 0 0 0 0 0 0 0 0 
0 0 0 0 0 0 0 0 0 
0 0 0 0 0 0 0 0 0 
0 0 0 0 0 0 0 0 0 
0 0 0 0 0 0 0 0 0 
0 0 0 0 0 0 0 0 0 
0 0 0 0 0 0 0 0 0 
0 0 0 0 0 0 0 0 0 
0 0 0 0 0 0 0 0 0 
0 0 0 0 0 0 0 0 0 
0 0 0 0 0 0 0 0 0 
0 0 0 0 0 0 0 0 0 
0 0 0 0 0 0 0 0 0 
0 0 0 0 0 0 0 0 0 
0 0 0 0 0 0 0 0 0 
0 0 0 0 0 0 0 0 0 
0 0 0 0 0 0 0 0 0 
0 0 0 0 0 0 0 0 0 
0 0 0 0 0 0 0 0 0 
0 0 0 0 0 0 0 0 0 
0 0 0 0 0 0 0 0 0 
0 0 0 0 0 0 0 0 0 
0 0 0 0 0 0 0 0 0 
0 0 0 0 0 0 0 0 0 
0 0 0 0 0 0 0 0 0 
0 0 0 0 0 0 0 0 0 
0 0 0 0 0 0 0 0 0 
0 0 0 0 0 0 0 0 0 
0 0 0 0 0 0 0 0 0 
0 0 0 0 0 0 0 0 0 
0 0 0 0 0 0 0 0 0 
0 0 0 0 0 0 0 0 0 
0 0 0 0 0 0 0 0 0 
0 0 0 0 0 0 0 0 0 
0 0 0 0 0 0 0 0 0 
0 0 0 0 0 0 0 0 0 
0 0 0 0 0 0 0 0 0 
0 0 0 0 0 0 0 0 0 
0 0 0 0 0 0 0 0 0 
0 0 0 0 0 0 0 0 0 
0 0 0 0 0 0 0 0 0 
0 0 0 0 0 0 0 0 0 
0 0 0 0 0 0 0 0 0 
0 0 0 0 0 0 0 0 0 
0 0 0 0 0 0 0 0 0 
0 0 0 0 0 0 0 0 0 
0 0 0 0 0 0 0 0 0 
0 0 0 0 0 0 0 0 0 
0 0 0 0 0 0 0 0 0 
0 0 0 0 0 0 0 0 0 
0 0 0 0 0 0 0 0 0 
0 0 0 0 0 0 0 0 0 
0 0 0 0 0 0 0 0 0 
0 0 0 0 0 0 0 0 0 
0 0 0 0 0 0 0 0 0 
0 0 0 0 0 0 0 0 0 
0 0 0 0 0 0 0 0 0 
0 0 0 0 0 0 0 0 0 
0 0 0 0 0 0 0 0 0 
0 0 0 0 0 0 0 0 0 
0 0 0 0 0 0 0 0 0 
0 0 0 0 0 0 0 0 0 
0 0 0 0 0 0 0 0 0 
0 0 0 0 0 0 0 0 0 
0 0 0 0 0 0 0 0 0 
0 0 0 0 0 0 0 0 0 
0 0 0 0 0 0 0 0 0 
0 0 0 0 0 0 0 0 0 
0 0 0 0 0 0 0 0 0 
0 0 0 0 0 0 0 0 0 
0 0 0 0 0 0 0 0 0 
0 0 0 0 0 0 0 0 0 
0 0 0 0 0 0 0 0 0 
0 0 0 0 0 0 0 0 0 
0 0 0 0 0 0 0 0 0 
0 0 0 0 0 0 0 0 0 
0 0 0 0 0 0 0 0 0 
0 0 0 0 0 0 0 0 0 
0 0 0 0 0 0 0 0 0 
0 0 0 0 0 0 0 0 0 
0 0 0 0 0 0 0 0 0 
0 0 0 0 0 0 0 0 0 
0 0 0 0 0 0 0 0 0 
0 0 0 0 0 0 0 0 0 
0 0 0 0 0 0 0 0 0 
0 0 0 0 0 0 0 0 0 
0 0 0 0 0 0 0 0 0 
0 0 0 0 0 0 0 0 0 
0 0 0 0 0 0 0 0 0 
0 0 0 0 0 0 0 0 0 
0 0 0 0 0 0 0 0 0 
0 0 0 0 0 0 0 0 0 
0 0 0 0 0 0 0 0 0 
0 0 0 0 0 0 0 0 0 
0 0 0 0 0 0 0 0 0 
0 0 0 0 0 0 0 0 0 
0 0 0 0 0 0 0 0 0 
0 0 0 0 0 0 0 0 0 
0 0 0 0 0 0 0 0 0 
0 0 0 0 0 0 0 0 0 
0 0 0 0 0 0 0 0 0 
0 0 0 0 0 0 0 0 0 
0 0 0 0 0 0 0 0 0 
0 0 0 0 0 0 0 0 0 
0 0 0 0 0 0 0 0 0 
0 0 0 0 0 0 0 0 0 
0 0 0 0 0 0 0 0 0 
0 0 0 0 0 0 0 0 0 
0 0 0 0 0 0 0 0 0 
0 0 0 0 0 0 0 0 0 
0 0 0 0 0 0 0 0 0 
0 0 0 0 0 0 0 0 0 
0 0 0 0 0 0 0 0 0 
0 0 0 0 0 0 0 0 0 
0 0 0 0 0 0 0 0 0 
0 0 0 0 0 0 0 0 0 
0 0 0 0 0 0 0 0 0 
0 0 0 0 0 0 0 0 0 
0 0 0 0 0 0 0 0 0 
0 0 0 0 0 0 0 0 0 
0 0 0 0 0 0 0 0 0 
0 0 0 0 0 0 0 0 0 
0 0 0 0 0 0 0 0 0 
0 0 0 0 0 0 0 0 0 
0 0 0 0 0 0 0 0 0 
0 0 0 0 0 0 0 0 0 
0 0 0 0 0 0 0 0 0 
0 0 0 0 0 0 0 0 0 
0 0 0 0 0 0 0 0 0 
0 0 0 0 0 0 0 0 0 
0 0 0 0 0 0 0 0 0 
0 0 0 0 0 0 0 0 0 
0 0 0 0 0 0 0 0 0 
0 0 0 0 0 0 0 0 0 
0 0 0 0 0 0 0 0 0 
0 0 0 0 0 0 0 0 0 
0 0 0 0 0 0 0 0 0 
0 0 0 0 0 0 0 0 0 
0 0 0 0 0 0 0 0 0 
0 0 0 0 0 0 0 0 0 
0 0 0 0 0 0 0 0 0 
0 0 0 0 0 0 0 0 0 
0 0 0 0 0 0 0 0 0 
0 0 0 0 0 0 0 0 0 
0 0 0 0 0 0 0 0 0 
0 0 0 0 0 0 0 0 0 
0 0 0 0 0 0 0 0 0 
0 0 0 0 0 0 0 0 0 
0 0 0 0 0 0 0 0 0 
0 0 0 0 0 0 0 0 0 
0 0 0 0 0 0 0 0 0 
0 0 0 0 0 0 0 0 0 
0 0 0 0 0 0 0 0 0 
0 0 0 0 0 0 0 0 0 
0 0 0 0 0 0 0 0 0 
0 0 0 0 0 0 0 0 0 
0 0 0 0 0 0 0 0 0 
0 0 0 0 0 0 0 0 0 
0 0 0 0 0 0 0 0 0 
0 0 0 0 0 0 0 0 0 
0 0 0 0 0 0 0 0 0 
0 0 0 0 0 0 0 0 0 
0 0 0 0 0 0 0 0 0 
0 0 0 0 0 0 0 0 0 
0 0 0 0 0 0 0 0 0 
0 0 0 0 0 0 0 0 0 
0 0 0 0 0 0 0 0 0 
0 0 0 0 0 0 0 0 0 
0 0 0 0 0 0 0 0 0 
0 0 0 0 0 0 0 0 0 
0 0 0 0 0 0 0 0 0 
0 0 0 0 0 0 0 0 0 
0 0 0 0 0 0 0 0 0 
0 0 0 0 0 0 0 0 0 
0 0 0 0 0 0 0 0 0 
0 0 0 0 0 0 0 0 0 
0 0 0 0 0 0 0 0 0 
0 0 0 0 0 0 0 0 0 
0 0 0 0 0 0 0 0 0 
0 0 0 0 0 0 0 0 0 
0 0 0 0 0 0 0 0 0 
0 0 0 0 0 0 0 0 0 
0 0 0 0 0 0 0 0 0 
0 0 0 0 0 0 0 0 0 
0 0 0 0 0 0 0 0 0 
0 0 0 0 0 0 0 0 0 
0 0 0 0 0 0 0 0 0 
0 0 0 0 0 0 0 0 0 
0 0 0 0 0 0 0 0 0 
0 0 0 0 0 0 0 0 0 
0 0 0 0 0 0 0 0 0 
0 0 0 0 0 0 0 0 0 
0 0 0 0 0 0 0 0 0 
0 0 0 0 0 0 0 0 0 
0 0 0 0 0 0 0 0 0 
0 0 0 0 0 0 0 0 0 
0 0 0 0 0 0 0 0 0 
0 0 0 0 0 0 0 0 0 
0 0 0 0 0 0 0 0 0 
0 0 0 0 0 0 0 0 0 
0 0 0 0 0 0 0 0 0 
0 0 0 0 0 0 0 0 0 
0 0 0 0 0 0 0 0 0 
0 0 0 0 0 0 0 0 0 
0 0 0 0 0 0 0 0 0 
0 0 0 0 0 0 0 0 0 
0 0 0 0 0 0 0 0 0 
0 0 0 0 0 0 0 0 0 
0 0 0 0 0 0 0 0 0 
0 0 0 0 0 0 0 0 0 
0 0 0 0 0 0 0 0 0 
0 0 0 0 0 0 0 0 0 
0 0 0 0 0 0 0 0 0 
0 0 0 0 0 0 0 0 0 
0 0 0 0 0 0 0 0 0 
0 0 0 0 0 0 0 0 0 
0 0 0 0 0 0 0 0 0 
0 0 0 0 0 0 0 0 0 
0 0 0 0 0 0 0 0 0 
0 0 0 0 0 0 0 0 0 
0 0 0 0 0 0 0 0 0 
0 0 0 0 0 0 0 0 0 
0 0 0 0 0 0 0 0 0 
0 0 0 0 0 0 0 0 0 
0 0 0 0 0 0 0 0 0 
0 0 0 0 0 0 0 0 0 
0 0 0 0 0 0 0 0 0 
0 0 0 0 0 0 0 0 0 
0 0 0 0 0 0 0 0 0 
0 0 0 0 0 0 0 0 0 
0 0 0 0 0 0 0 0 0 
0 0 0 0 0 0 0 0 0 
0 0 0 0 0 0 0 0 0 
0 0 0 0 0 0 0 0 0 
0 0 0 0 0 0 0 0 0 
0 0 0 0 0 0 0 0 0 
0 0 0 0 0 0 0 0 0 
0 0 0 0 0 0 0 0 0 
0 0 0 0 0 0 0 0 0 
0 0 0 0 0 0 0 0 0 
0 0 0 0 0 0 0 0 0 
0 0 0 0 0 0 0 0 0 
0 0 0 0 0 0 0 0 0 
0 0 0 0 0 0 0 0 0 
0 0 0 0 0 0 0 0 0 
0 0 0 0 0 0 0 0 0 
0 0 0 0 0 0 0 0 0 
0 0 0 0 0 0 0 0 0 
0 0 0 0 0 0 0 0 0 
0 0 0 0 0 0 0 0 0 
0 0 0 0 0 0 0 0 0 
0 0 0 0 0 0 0 0 0 
0 0 0 0 0 0 0 0 0 
0 0 0 0 0 0 0 0 0 
0 0 0 0 0 0 0 0 0 
0 0 0 0 0 0 0 0 0 
0 0 0 0 0 0 0 0 0 
0 0 0 0 0 0 0 0 0 
0 0 0 0 0 0 0 0 0 
0 0 0 0 0 0 0 0 0 
0 0 0 0 0 0 0 0 0 
0 0 0 0 0 0 0 0 0 
0 0 0 0 0 0 0 0 0 
0 0 0 0 0 0 0 0 0 
0 0 0 0 0 0 0 0 0 
0 0 0 0 0 0 0 0 0 
0 0 0 0 0 0 0 0 0 
0 0 0 0 0 0 0 0 0 
0 0 0 0 0 0 0 0 0 
0 0 0 0 0 0 0 0 0 
0 0 0 0 0 0 0 0 0 
0 0 0 0 0 0 0 0 0 
0 0 0 0 0 0 0 0 0 
0 0 0 0 0 0 0 0 0 
0 0 0 0 0 0 0 0 0 
0 0 0 0 0 0 0 0 0 
0 0 0 0 0 0 0 0 0 
0 0 0 0 0 0 0 0 0 
0 0 0 0 0 0 0 0 0 
0 0 0 0 0 0 0 0 0 
0 0 0 0 0 0 0 0 0 
0 0 0 0 0 0 0 0 0 
0 0 0 0 0 0 0 0 0 
0 0 0 0 0 0 0 0 0 
0 0 0 0 0 0 0 0 0 
0 0 0 0 0 0 0 0 0 
0 0 0 0 0 0 0 0 0 
0 0 0 0 0 0 0 0 0 
0 0 0 0 0 0 0 0 0 
0 0 0 0 0 0 0 0 0 
0 0 0 0 0 0 0 0 0 
0 0 0 0 0 0 0 0 0 
0 0 0 0 0 0 0 0 0 
0 0 0 0 0 0 0 0 0 
0 0 0 0 0 0 0 0 0 
0 0 0 0 0 0 0 0 0 
0 0 0 0 0 0 0 0 0 
0 0 0 0 0 0 0 0 0 
0 0 0 0 0 0 0 0 0 
0 0 0 0 0 0 0 0 0 
0 0 0 0 0 0 0 0 0 
0 0 0 0 0 0 0 0 0 
0 0 0 0 0 0 0 0 0 
0 0 0 0 0 0 0 0 0 
0 0 0 0 0 0 0 0 0 
0 0 0 0 0 0 0 0 0 
0 0 0 0 0 0 0 0 0 
0 0 0 0 0 0 0 0 0 
0 0 0 0 0 0 0 0 0 
0 0 0 0 0 0 0 0 0 
0 0 0 0 0 0 0 0 0 
0 0 0 0 0 0 0 0 0 
0 0 0 0 0 0 0 0 0 
0 0 0 0 0 0 0 0 0 
0 0 0 0 0 0 0 0 0 
0 0 0 0 0 0 0 0 0 
0 0 0 0 0 0 0 0 0 
0 0 0 0 0 0 0 0 0 
0 0 0 0 0 0 0 0 0 
0 0 0 0 0 0 0 0 0 
0 0 0 0 0 0 0 0 0 
0 0 0 0 0 0 0 0 0 
0 0 0 0 0 0 0 0 0 
0 0 0 0 0 0 0 0 0 
0 0 0 0 0 0 0 0 0 
0 0 0 0 0 0 0 0 0 
0 0 0 0 0 0 0 0 0 
0 0 0 0 0 0 0 0 0 
0 0 0 0 0 0 0 0 0 
0 0 0 0 0 0 0 0 0 
0 0 0 0 0 0 0 0 0 
0 0 0 0 0 0 0 0 0 
0 0 0 0 0 0 0 0 0 
0 0 0 0 0 0 0 0 0 
0 0 0 0 0 0 0 0 0 
0 0 0 0 0 0 0 0 0 
0 0 0 0 0 0 0 0 0 
0 0 0 0 0 0 0 0 0 
0 0 0 0 0 0 0 0 0 
0 0 0 0 0 0 0 0 0 
0 0 0 0 0 0 0 0 0 
0 0 0 0 0 0 0 0 0 
0 0 0 0 0 0 0 0 0 
0 0 0 0 0 0 0 0 0 
0 0 0 0 0 0 0 0 0 
0 0 0 0 0 0 0 0 0 
0 0 0 0 0 0 0 0 0 
0 0 0 0 0 0 0 0 0 
0 0 0 0 0 0 0 0 0 
0 0 0 0 0 0 0 0 0 
0 0 0 0 0 0 0 0 0 
0 0 0 0 0 0 0 0 0 
0 0 0 0 0 0 0 0 0 
0 0 0 0 0 0 0 0 0 
0 0 0 0 0 0 0 0 0 
0 0 0 0 0 0 0 0 0 
0 0 0 0 0 0 0 0 0 
0 0 0 0 0 0 0 0 0 
0 0 0 0 0 0 0 0 0 
0 0 0 0 0 0 0 0 0 
0 0 0 0 0 0 0 0 0 
0 0 0 0 0 0 0 0 0 
0 0 0 0 0 0 0 0 0 
0 0 0 0 0 0 0 0 0 
0 0 0 0 0 0 0 0 0 
0 0 0 0 0 0 0 0 0 
0 0 0 0 0 0 0 0 0 
0 0 0 0 0 0 0 0 0 
0 0 0 0 0 0 0 0 0 
0 0 0 0 0 0 0 0 0 
0 0 0 0 0 0 0 0 0 
0 0 0 0 0 0 0 0 0 
0 0 0 0 0 0 0 0 0 
0 0 0 0 0 0 0 0 0 
0 0 0 0 0 0 0 0 0 
0 0 0 0 0 0 0 0 0 
0 0 0 0 0 0 0 0 0 
0 0 0 0 0 0 0 0 0 
0 0 0 0 0 0 0 0 0 
0 0 0 0 0 0 0 0 0 
0 0 0 0 0 0 0 0 0 
0 0 0 0 0 0 0 0 0 
0 0 0 0 0 0 0 0 0 
0 0 0 0 0 0 0 0 0 
0 0 0 0 0 0 0 0 0 
0 0 0 0 0 0 0 0 0 
0 0 0 0 0 0 0 0 0 
0 0 0 0 0 0 0 0 0 
0 0 0 0 0 0 0 0 0 
0 0 0 0 0 0 0 0 0 
0 0 0 0 0 0 0 0 0 
0 0 0 0 0 0 0 0 0 
0 0 0 0 0 0 0 0 0 
0 0 0 0 0 0 0 0 0 
0 0 0 0 0 0 0 0 0 
0 0 0 0 0 0 0 0 0 
0 0 0 0 0 0 0 0 0 
0 0 0 0 0 0 0 0 0 
0 0 0 0 0 0 0 0 0 
0 0 0 0 0 0 0 0 0 
0 0 0 0 0 0 0 0 0 
0 0 0 0 0 0 0 0 0 
0 0 0 0 0 0 0 0 0 
0 0 0 0 0 0 0 0 0 
0 0 0 0 0 0 0 0 0 
0 0 0 0 0 0 0 0 0 
0 0 0 0 0 0 0 0 0 
0 0 0 0 0 0 0 0 0 
0 0 0 0 0 0 0 0 0 
0 0 0 0 0 0 0 0 0 
0 0 0 0 0 0 0 0 0 
0 0 0 0 0 0 0 0 0 
0 0 0 0 0 0 0 0 0 
0 0 0 0 0 0 0 0 0 
0 0 0 0 0 0 0 0 0 
0 0 0 0 0 0 0 0 0 
0 0 0 0 0 0 0 0 0 
0 0 0 0 0 0 0 0 0 
0 0 0 0 0 0 0 0 0 
0 0 0 0 0 0 0 0 0 
0 0 0 0 0 0 0 0 0 
0 0 0 0 0 0 0 0 0 
0 0 0 0 0 0 0 0 0 
0 0 0 0 0 0 0 0 0 
0 0 0 0 0 0 0 0 0 
0 0 0 0 0 0 0 0 0 
0 0 0 0 0 0 0 0 0 
0 0 0 0 0 0 0 0 0 
0 0 0 0 0 0 0 0 0 
0 0 0 0 0 0 0 0 0 
0 0 0 0 0 0 0 0 0 
0 0 0 0 0 0 0 0 0 
0 0 0 0 0 0 0 0 0 
0 0 0 0 0 0 0 0 0 
0 0 0 0 0 0 0 0 0 
0 0 0 0 0 0 0 0 0 
0 0 0 0 0 0 0 0 0 
0 0 0 0 0 0 0 0 0 
0 0 0 0 0 0 0 0 0 
0 0 0 0 0 0 0 0 0 
0 0 0 0 0 0 0 0 0 
0 0 0 0 0 0 0 0 0 
0 0 0 0 0 0 0 0 0 
0 0 0 0 0 0 0 0 0 
0 0 0 0 0 0 0 0 0 
0 0 0 0 0 0 0 0 0 
0 0 0 0 0 0 0 0 0 
0 0 0 0 0 0 0 0 0 
0 0 0 0 0 0 0 0 0 
0 0 0 0 0 0 0 0 0 
0 0 0 0 0 0 0 0 0 
0 0 0 0 0 0 0 0 0 
0 0 0 0 0 0 0 0 0 
0 0 0 0 0 0 0 0 0 
0 0 0 0 0 0 0 0 0 
0 0 0 0 0 0 0 0 0 
0 0 0 0 0 0 0 0 0 
0 0 0 0 0 0 0 0 0 
0 0 0 0 0 0 0 0 0 
0 0 0 0 0 0 0 0 0 
0 0 0 0 0 0 0 0 0 
0 0 0 0 0 0 0 0 0 
0 0 0 0 0 0 0 0 0 
0 0 0 0 0 0 0 0 0 
0 0 0 0 0 0 0 0 0 
0 0 0 0 0 0 0 0 0 
0 0 0 0 0 0 0 0 0 
0 0 0 0 0 0 0 0 0 
0 0 0 0 0 0 0 0 0 
0 0 0 0 0 0 0 0 0 
0 0 0 0 0 0 0 0 0 
0 0 0 0 0 0 0 0 0 
0 0 0 0 0 0 0 0 0 
0 0 0 0 0 0 0 0 0 
0 0 0 0 0 0 0 0 0 
0 0 0 0 0 0 0 0 0 
0 0 0 0 0 0 0 0 0 
0 0 0 0 0 0 0 0 0 
0 0 0 0 0 0 0 0 0 
0 0 0 0 0 0 0 0 0 
0 0 0 0 0 0 0 0 0 
0 0 0 0 0 0 0 0 0 
0 0 0 0 0 0 0 0 0 
0 0 0 0 0 0 0 0 0 
0 0 0 0 0 0 0 0 0 
0 0 0 0 0 0 0 0 0 
0 0 0 0 0 0 0 0 0 
0 0 0 0 0 0 0 0 0 
0 0 0 0 0 0 0 0 0 
0 0 0 0 0 0 0 0 0 
0 0 0 0 0 0 0 0 0 
0 0 0 0 0 0 0 0 0 
0 0 0 0 0 0 0 0 0 
0 0 0 0 0 0 0 0 0 
0 0 0 0 0 0 0 0 0 
0 0 0 0 0 0 0 0 0 
0 0 0 0 0 0 0 0 0 
0 0 0 0 0 0 0 0 0 
0 0 0 0 0 0 0 0 0 
0 0 0 0 0 0 0 0 0 
0 0 0 0 0 0 0 0 0 
0 0 0 0 0 0 0 0 0 
0 0 0 0 0 0 0 0 0 
0 0 0 0 0 0 0 0 0 
0 0 0 0 0 0 0 0 0 
0 0 0 0 0 0 0 0 0 
0 0 0 0 0 0 0 0 0 
0 0 0 0 0 0 0 0 0 
0 0 0 0 0 0 0 0 0 
0 0 0 0 0 0 0 0 0 
0 0 0 0 0 0 0 0 0 
0 0 0 0 0 0 0 0 0 
0 0 0 0 0 0 0 0 0 
0 0 0 0 0 0 0 0 0 
0 0 0 0 0 0 0 0 0 
0 0 0 0 0 0 0 0 0 
0 0 0 0 0 0 0 0 0 
0 0 0 0 0 0 0 0 0 
0 0 0 0 0 0 0 0 0 
0 0 0 0 0 0 0 0 0 
0 0 0 0 0 0 0 0 0 
0 0 0 0 0 0 0 0 0 
0 0 0 0 0 0 0 0 0 
0 0 0 0 0 0 0 0 0 
0 0 0 0 0 0 0 0 0 
0 0 0 0 0 0 0 0 0 
0 0 0 0 0 0 0 0 0 
0 0 0 0 0 0 0 0 0 
0 0 0 0 0 0 0 0 0 
0 0 0 0 0 0 0 0 0 
0 0 0 0 0 0 0 0 0 
0 0 0 0 0 0 0 0 0 
0 0 0 0 0 0 0 0 0 
0 0 0 0 0 0 0 0 0 
0 0 0 0 0 0 0 0 0 
0 0 0 0 0 0 0 0 0 
0 0 0 0 0 0 0 0 0 
0 0 0 0 0 0 0 0 0 
0 0 0 0 0 0 0 0 0 
0 0 0 0 0 0 0 0 0 
0 0 0 0 0 0 0 0 0 
0 0 0 0 0 0 0 0 0 
0 0 0 0 0 0 0 0 0 
0 0 0 0 0 0 0 0 0 
0 0 0 0 0 0 0 0 0 
0 0 0 0 0 0 0 0 0 
0 0 0 0 0 0 0 0 0 
0 0 0 0 0 0 0 0 0 
0 0 0 0 0 0 0 0 0 
0 0 0 0 0 0 0 0 0 
0 0 0 0 0 0 0 0 0 
0 0 0 0 0 0 0 0 0 
0 0 0 0 0 0 0 0 0 
0 0 0 0 0 0 0 0 0 
0 0 0 0 0 0 0 0 0 
0 0 0 0 0 0 0 0 0 
0 0 0 0 0 0 0 0 0 
0 0 0 0 0 0 0 0 0 
0 0 0 0 0 0 0 0 0 
0 0 0 0 0 0 0 0 0 
0 0 0 0 0 0 0 0 0 
0 0 0 0 0 0 0 0 0 
0 0 0 0 0 0 0 0 0 
0 0 0 0 0 0 0 0 0 
0 0 0 0 0 0 0 0 0 
0 0 0 0 0 0 0 0 0 
0 0 0 0 0 0 0 0 0 
0 0 0 0 0 0 0 0 0 
0 0 0 0 0 0 0 0 0 
0 0 0 0 0 0 0 0 0 
0 0 0 0 0 0 0 0 0 
0 0 0 0 0 0 0 0 0 
0 0 0 0 0 0 0 0 0 
0 0 0 0 0 0 0 0 0 
0 0 0 0 0 0 0 0 0 
0 0 0 0 0 0 0 0 0 
0 0 0 0 0 0 0 0 0 
0 0 0 0 0 0 0 0 0 
0 0 0 0 0 0 0 0 0 
0 0 0 0 0 0 0 0 0 
0 0 0 0 0 0 0 0 0 
0 0 0 0 0 0 0 0 0 
0 0 0 0 0 0 0 0 0 
0 0 0 0 0 0 0 0 0 
0 0 0 0 0 0 0 0 0 
0 0 0 0 0 0 0 0 0 
0 0 0 0 0 0 0 0 0 
0 0 0 0 0 0 0 0 0 
0 0 0 0 0 0 0 0 0 
0 0 0 0 0 0 0 0 0 
0 0 0 0 0 0 0 0 0 
0 0 0 0 0 0 0 0 0 
0 0 0 0 0 0 0 0 0 
0 0 0 0 0 0 0 0 0 
0 0 0 0 0 0 0 0 0 
0 0 0 0 0 0 0 0 0 
0 0 0 0 0 0 0 0 0 
0 0 0 0 0 0 0 0 0 
0 0 0 0 0 0 0 0 0 
0 0 0 0 0 0 0 0 0 
0 0 0 0 0 0 0 0 0 
0 0 0 0 0 0 0 0 0 
0 0 0 0 0 0 0 0 0 
0 0 0 0 0 0 0 0 0 
0 0 0 0 0 0 0 0 0 
0 0 0 0 0 0 0 0 0 
0 0 0 0 0 0 0 0 0 
0 0 0 0 0 0 0 0 0 
0 0 0 0 0 0 0 0 0 
0 0 0 0 0 0 0 0 0 
0 0 0 0 0 0 0 0 0 
0 0 0 0 0 0 0 0 0 
0 0 0 0 0 0 0 0 0 
0 0 0 0 0 0 0 0 0 
0 0 0 0 0 0 0 0 0 
0 0 0 0 0 0 0 0 0 
0 0 0 0 0 0 0 0 0 
0 0 0 0 0 0 0 0 0 
0 0 0 0 0 0 0 0 0 
0 0 0 0 0 0 0 0 0 
0 0 0 0 0 0 0 0 0 
0 0 0 0 0 0 0 0 0 
0 0 0 0 0 0 0 0 0 
0 0 0 0 0 0 0 0 0 
0 0 0 0 0 0 0 0 0 
0 0 0 0 0 0 0 0 0 
0 0 0 0 0 0 0 0 0 
0 0 0 0 0 0 0 0 0 
0 0 0 0 0 0 0 0 0 
0 0 0 0 0 0 0 0 0 
0 0 0 0 0 0 0 0 0 
0 0 0 0 0 0 0 0 0 
0 0 0 0 0 0 0 0 0 
0 0 0 0 0 0 0 0 0 
0 0 0 0 0 0 0 0 0 
0 0 0 0 0 0 0 0 0 
0 0 0 0 0 0 0 0 0 
0 0 0 0 0 0 0 0 0 
0 0 0 0 0 0 0 0 0 
0 0 0 0 0 0 0 0 0 
0 0 0 0 0 0 0 0 0 
0 0 0 0 0 0 0 0 0 
0 0 0 0 0 0 0 0 0 
0 0 0 0 0 0 0 0 0 
0 0 0 0 0 0 0 0 0 
0 0 0 0 0 0 0 0 0 
0 0 0 0 0 0 0 0 0 
0 0 0 0 0 0 0 0 0 
0 0 0 0 0 0 0 0 0 
0 0 0 0 0 0 0 0 0 
0 0 0 0 0 0 0 0 0 
0 0 0 0 0 0 0 0 0 
0 0 0 0 0 0 0 0 0 
0 0 0 0 0 0 0 0 0 
0 0 0 0 0 0 0 0 0 
0 0 0 0 0 0 0 0 0 
0 0 0 0 0 0 0 0 0 
0 0 0 0 0 0 0 0 0 
0 0 0 0 0 0 0 0 0 
0 0 0 0 0 0 0 0 0 
0 0 0 0 0 0 0 0 0 
0 0 0 0 0 0 0 0 0 
0 0 0 0 0 0 0 0 0 
0 0 0 0 0 0 0 0 0 
0 0 0 0 0 0 0 0 0 
0 0 0 0 0 0 0 0 0 
0 0 0 0 0 0 0 0 0 
0 0 0 0 0 0 0 0 0 
0 0 0 0 0 0 0 0 0 
0 0 0 0 0 0 0 0 0 
0 0 0 0 0 0 0 0 0 
0 0 0 0 0 0 0 0 0 
0 0 0 0 0 0 0 0 0 
0 0 0 0 0 0 0 0 0 
0 0 0 0 0 0 0 0 0 
0 0 0 0 0 0 0 0 0 
0 0 0 0 0 0 0 0 0 
0 0 0 0 0 0 0 0 0 
0 0 0 0 0 0 0 0 0 
0 0 0 0 0 0 0 0 0 
0 0 0 0 0 0 0 0 0 
0 0 0 0 0 0 0 0 0 
0 0 0 0 0 0 0 0 0 
0 0 0 0 0 0 0 0 0 
0 0 0 0 0 0 0 0 0 
0 0 0 0 0 0 0 0 0 
0 0 0 0 0 0 0 0 0 
0 0 0 0 0 0 0 0 0 
0 0 0 0 0 0 0 0 0 
0 0 0 0 0 0 0 0 0 
0 0 0 0 0 0 0 0 0 
0 0 0 0 0 0 0 0 0 
0 0 0 0 0 0 0 0 0 
0 0 0 0 0 0 0 0 0 
0 0 0 0 0 0 0 0 0 
0 0 0 0 0 0 0 0 0 
0 0 0 0 0 0 0 0 0 
0 0 0 0 0 0 0 0 0 
0 0 0 0 0 0 0 0 0 
0 0 0 0 0 0 0 0 0 
0 0 0 0 0 0 0 0 0 
0 0 0 0 0 0 0 0 0 
0 0 0 0 0 0 0 0 0 
0 0 0 0 0 0 0 0 0 
0 0 0 0 0 0 0 0 0 
0 0 0 0 0 0 0 0 0 
0 0 0 0 0 0 0 0 0 
0 0 0 0 0 0 0 0 0 
0 0 0 0 0 0 0 0 0 
0 0 0 0 0 0 0 0 0 
0 0 0 0 0 0 0 0 0 
0 0 0 0 0 0 0 0 0 
0 0 0 0 0 0 0 0 0 
0 0 0 0 0 0 0 0 0 
0 0 0 0 0 0 0 0 0 
0 0 0 0 0 0 0 0 0 
0 0 0 0 0 0 0 0 0 
0 0 0 0 0 0 0 0 0 
0 0 0 0 0 0 0 0 0 
0 0 0 0 0 0 0 0 0 
0 0 0 0 0 0 0 0 0 
0 0 0 0 0 0 0 0 0 
0 0 0 0 0 0 0 0 0 
0 0 0 0 0 0 0 0 0 
0 0 0 0 0 0 0 0 0 
0 0 0 0 0 0 0 0 0 
0 0 0 0 0 0 0 0 0 
0 0 0 0 0 0 0 0 0 
0 0 0 0 0 0 0 0 0 
0 0 0 0 0 0 0 0 0 
0 0 0 0 0 0 0 0 0 
0 0 0 0 0 0 0 0 0 
0 0 0 0 0 0 0 0 0 
0 0 0 0 0 0 0 0 0 
0 0 0 0 0 0 0 0 0 
0 0 0 0 0 0 0 0 0 
0 0 0 0 0 0 0 0 0 
0 0 0 0 0 0 0 0 0 
0 0 0 0 0 0 0 0 0 
0 0 0 0 0 0 0 0 0 
0 0 0 0 0 0 0 0 0 
0 0 0 0 0 0 0 0 0 
0 0 0 0 0 0 0 0 0 
0 0 0 0 0 0 0 0 0 
0 0 0 0 0 0 0 0 0 
0 0 0 0 0 0 0 0 0 
0 0 0 0 0 0 0 0 0 
0 0 0 0 0 0 0 0 0 
0 0 0 0 0 0 0 0 0 
0 0 0 0 0 0 0 0 0 
0 0 0 0 0 0 0 0 0 
0 0 0 0 0 0 0 0 0 
0 0 0 0 0 0 0 0 0 
0 0 0 0 0 0 0 0 0 
0 0 0 0 0 0 0 0 0 
0 0 0 0 0 0 0 0 0 
0 0 0 0 0 0 0 0 0 
0 0 0 0 0 0 0 0 0 
0 0 0 0 0 0 0 0 0 
0 0 0 0 0 0 0 0 0 
0 0 0 0 0 0 0 0 0 
0 0 0 0 0 0 0 0 0 
0 0 0 0 0 0 0 0 0 
0 0 0 0 0 0 0 0 0 
0 0 0 0 0 0 0 0 0 
0 0 0 0 0 0 0 0 0 
0 0 0 0 0 0 0 0 0 
0 0 0 0 0 0 0 0 0 
0 0 0 0 0 0 0 0 0 
0 0 0 0 0 0 0 0 0 
0 0 0 0 0 0 0 0 0 
0 0 0 0 0 0 0 0 0 
0 0 0 0 0 0 0 0 0 
0 0 0 0 0 0 0 0 0 
0 0 0 0 0 0 0 0 0 
0 0 0 0 0 0 0 0 0 
0 0 0 0 0 0 0 0 0 
0 0 0 0 0 0 0 0 0 
0 0 0 0 0 0 0 0 0 
0 0 0 0 0 0 0 0 0 
0 0 0 0 0 0 0 0 0 
0 0 0 0 0 0 0 0 0 
0 0 0 0 0 0 0 0 0 
0 0 0 0 0 0 0 0 0 
0 0 0 0 0 0 0 0 0 
0 0 0 0 0 0 0 0 0 
0 0 0 0 0 0 0 0 0 
0 0 0 0 0 0 0 0 0 
0 0 0 0 0 0 0 0 0 
0 0 0 0 0 0 0 0 0 
0 0 0 0 0 0 0 0 0 
0 0 0 0 0 0 0 0 0 
0 0 0 0 0 0 0 0 0 
0 0 0 0 0 0 0 0 0 
0 0 0 0 0 0 0 0 0 
0 0 0 0 0 0 0 0 0 
0 0 0 0 0 0 0 0 0 
0 0 0 0 0 0 0 0 0 
0 0 0 0 0 0 0 0 0 
0 0 0 0 0 0 0 0 0 
0 0 0 0 0 0 0 0 0 
0 0 0 0 0 0 0 0 0 
0 0 0 0 0 0 0 0 0 
0 0 0 0 0 0 0 0 0 
0 0 0 0 0 0 0 0 0 
0 0 0 0 0 0 0 0 0 
0 0 0 0 0 0 0 0 0 
0 0 0 0 0 0 0 0 0 
0 0 0 0 0 0 0 0 0 
0 0 0 0 0 0 0 0 0 
0 0 0 0 0 0 0 0 0 
0 0 0 0 0 0 0 0 0 
0 0 0 0 0 0 0 0 0 
0 0 0 0 0 0 0 0 0 
0 0 0 0 0 0 0 0 0 
0 0 0 0 0 0 0 0 0 
0 0 0 0 0 0 0 0 0 
0 0 0 0 0 0 0 0 0 
0 0 0 0 0 0 0 0 0 
0 0 0 0 0 0 0 0 0 
0 0 0 0 0 0 0 0 0 
0 0 0 0 0 0 0 0 0 
0 0 0 0 0 0 0 0 0 
0 0 0 0 0 0 0 0 0 
0 0 0 0 0 0 0 0 0 
0 0 0 0 0 0 0 0 0 
0 0 0 0 0 0 0 0 0 
0 0 0 0 0 0 0 0 0 
0 0 0 0 0 0 0 0 0 
0 0 0 0 0 0 0 0 0 
0 0 0 0 0 0 0 0 0 
0 0 0 0 0 0 0 0 0 
0 0 0 0 0 0 0 0 0 
0 0 0 0 0 0 0 0 0 
0 0 0 0 0 0 0 0 0 
0 0 0 0 0 0 0 0 0 
0 0 0 0 0 0 0 0 0 
0 0 0 0 0 0 0 0 0 
0 0 0 0 0 0 0 0 0 
0 0 0 0 0 0 0 0 0 
0 0 0 0 0 0 0 0 0 
0 0 0 0 0 0 0 0 0 
0 0 0 0 0 0 0 0 0 
0 0 0 0 0 0 0 0 0 
0 0 0 0 0 0 0 0 0 
0 0 0 0 0 0 0 0 0 
0 0 0 0 0 0 0 0 0 
0 0 0 0 0 0 0 0 0 
0 0 0 0 0 0 0 0 0 
0 0 0 0 0 0 0 0 0 
0 0 0 0 0 0 0 0 0 
0 0 0 0 0 0 0 0 0 
0 0 0 0 0 0 0 0 0 
0 0 0 0 0 0 0 0 0 
0 0 0 0 0 0 0 0 0 
0 0 0 0 0 0 0 0 0 
0 0 0 0 0 0 0 0 0 
0 0 0 0 0 0 0 0 0 
0 0 0 0 0 0 0 0 0 
0 0 0 0 0 0 0 0 0 
0 0 0 0 0 0 0 0 0 
0 0 0 0 0 0 0 0 0 
0 0 0 0 0 0 0 0 0 
0 0 0 0 0 0 0 0 0 
0 0 0 0 0 0 0 0 0 
0 0 0 0 0 0 0 0 0 
0 0 0 0 0 0 0 0 0 
0 0 0 0 0 0 0 0 0 
0 0 0 0 0 0 0 0 0 
0 0 0 0 0 0 0 0 0 
0 0 0 0 0 0 0 0 0 
0 0 0 0 0 0 0 0 0 
0 0 0 0 0 0 0 0 0 
0 0 0 0 0 0 0 0 0 
0 0 0 0 0 0 0 0 0 
0 0 0 0 0 0 0 0 0 
0 0 0 0 0 0 0 0 0 
0 0 0 0 0 0 0 0 0 
0 0 0 0 0 0 0 0 0 
0 0 0 0 0 0 0 0 0 
0 0 0 0 0 0 0 0 0 
0 0 0 0 0 0 0 0 0 
0 0 0 0 0 0 0 0 0 
0 0 0 0 0 0 0 0 0 
0 0 0 0 0 0 0 0 0 
0 0 0 0 0 0 0 0 0 
0 0 0 0 0 0 0 0 0 
0 0 0 0 0 0 0 0 0 
0 0 0 0 0 0 0 0 0 
0 0 0 0 0 0 0 0 0 
0 0 0 0 0 0 0 0 0 
0 0 0 0 0 0 0 0 0 
0 0 0 0 0 0 0 0 0 
0 0 0 0 0 0 0 0 0 
0 0 0 0 0 0 0 0 0 
0 0 0 0 0 0 0 0 0 
0 0 0 0 0 0 0 0 0 
0 0 0 0 0 0 0 0 0 
0 0 0 0 0 0 0 0 0 
0 0 0 0 0 0 0 0 0 
0 0 0 0 0 0 0 0 0 
0 0 0 0 0 0 0 0 0 
0 0 0 0 0 0 0 0 0 
0 0 0 0 0 0 0 0 0 
0 0 0 0 0 0 0 0 0 
0 0 0 0 0 0 0 0 0 
0 0 0 0 0 0 0 0 0 
0 0 0 0 0 0 0 0 0 
0 0 0 0 0 0 0 0 0 
0 0 0 0 0 0 0 0 0 
0 0 0 0 0 0 0 0 0 
0 0 0 0 0 0 0 0 0 
0 0 0 0 0 0 0 0 0 
0 0 0 0 0 0 0 0 0 
0 0 0 0 0 0 0 0 0 
0 0 0 0 0 0 0 0 0 
0 0 0 0 0 0 0 0 0 
0 0 0 0 0 0 0 0 0 
0 0 0 0 0 0 0 0 0 
0 0 0 0 0 0 0 0 0 
0 0 0 0 0 0 0 0 0 
0 0 0 0 0 0 0 0 0 
0 0 0 0 0 0 0 0 0 
0 0 0 0 0 0 0 0 0 
0 0 0 0 0 0 0 0 0 
0 0 0 0 0 0 0 0 0 
0 0 0 0 0 0 0 0 0 
0 0 0 0 0 0 0 0 0 
0 0 0 0 0 0 0 0 0 
0 0 0 0 0 0 0 0 0 
0 0 0 0 0 0 0 0 0 
0 0 0 0 0 0 0 0 0 
0 0 0 0 0 0 0 0 0 
0 0 0 0 0 0 0 0 0 
0 0 0 0 0 0 0 0 0 
0 0 0 0 0 0 0 0 0 
0 0 0 0 0 0 0 0 0 
0 0 0 0 0 0 0 0 0 
0 0 0 0 0 0 0 0 0 
0 0 0 0 0 0 0 0 0 
0 0 0 0 0 0 0 0 0 
0 0 0 0 0 0 0 0 0 
0 0 0 0 0 0 0 0 0 
0 0 0 0 0 0 0 0 0 
0 0 0 0 0 0 0 0 0 
0 0 0 0 0 0 0 0 0 
0 0 0 0 0 0 0 0 0 
0 0 0 0 0 0 0 0 0 
0 0 0 0 0 0 0 0 0 
0 0 0 0 0 0 0 0 0 
0 0 0 0 0 0 0 0 0 
0 0 0 0 0 0 0 0 0 
0 0 0 0 0 0 0 0 0 
0 0 0 0 0 0 0 0 0 
0 0 0 0 0 0 0 0 0 
0 0 0 0 0 0 0 0 0 
0 0 0 0 0 0 0 0 0 
0 0 0 0 0 0 0 0 0 
0 0 0 0 0 0 0 0 0 
0 0 0 0 0 0 0 0 0 
0 0 0 0 0 0 0 0 0 
0 0 0 0 0 0 0 0 0 
0 0 0 0 0 0 0 0 0 
0 0 0 0 0 0 0 0 0 
0 0 0 0 0 0 0 0 0 
0 0 0 0 0 0 0 0 0 
0 0 0 0 0 0 0 0 0 
0 0 0 0 0 0 0 0 0 
0 0 0 0 0 0 0 0 0 
0 0 0 0 0 0 0 0 0 
0 0 0 0 0 0 0 0 0 
0 0 0 0 0 0 0 0 0 
0 0 0 0 0 0 0 0 0 
0 0 0 0 0 0 0 0 0 
0 0 0 0 0 0 0 0 0 
0 0 0 0 0 0 0 0 0 
0 0 0 0 0 0 0 0 0 
0 0 0 0 0 0 0 0 0 
0 0 0 0 0 0 0 0 0 
0 0 0 0 0 0 0 0 0 
0 0 0 0 0 0 0 0 0 
0 0 0 0 0 0 0 0 0 
0 0 0 0 0 0 0 0 0 
0 0 0 0 0 0 0 0 0 
0 0 0 0 0 0 0 0 0 
0 0 0 0 0 0 0 0 0 
0 0 0 0 0 0 0 0 0 
0 0 0 0 0 0 0 0 0 
0 0 0 0 0 0 0 0 0 
0 0 0 0 0 0 0 0 0 
0 0 0 0 0 0 0 0 0 
0 0 0 0 0 0 0 0 0 
0 0 0 0 0 0 0 0 0 
0 0 0 0 0 0 0 0 0 
0 0 0 0 0 0 0 0 0 
0 0 0 0 0 0 0 0 0 
0 0 0 0 0 0 0 0 0 
0 0 0 0 0 0 0 0 0 
0 0 0 0 0 0 0 0 0 
0 0 0 0 0 0 0 0 0 
0 0 0 0 0 0 0 0 0 
0 0 0 0 0 0 0 0 0 
0 0 0 0 0 0 0 0 0 
0 0 0 0 0 0 0 0 0 
0 0 0 0 0 0 0 0 0 
0 0 0 0 0 0 0 0 0 
0 0 0 0 0 0 0 0 0 
0 0 0 0 0 0 0 0 0 
0 0 0 0 0 0 0 0 0 
0 0 0 0 0 0 0 0 0 
0 0 0 0 0 0 0 0 0 
0 0 0 0 0 0 0 0 0 
0 0 0 0 0 0 0 0 0 
0 0 0 0 0 0 0 0 0 
0 0 0 0 0 0 0 0 0 
0 0 0 0 0 0 0 0 0 
0 0 0 0 0 0 0 0 0 
0 0 0 0 0 0 0 0 0 
0 0 0 0 0 0 0 0 0 
0 0 0 0 0 0 0 0 0 
0 0 0 0 0 0 0 0 0 
0 0 0 0 0 0 0 0 0 
0 0 0 0 0 0 0 0 0 
0 0 0 0 0 0 0 0 0 
0 0 0 0 0 0 0 0 0 
0 0 0 0 0 0 0 0 0 
0 0 0 0 0 0 0 0 0 
0 0 0 0 0 0 0 0 0 
0 0 0 0 0 0 0 0 0 
0 0 0 0 0 0 0 0 0 
0 0 0 0 0 0 0 0 0 
0 0 0 0 0 0 0 0 0 
0 0 0 0 0 0 0 0 0 
0 0 0 0 0 0 0 0 0 
0 0 0 0 0 0 0 0 0 
0 0 0 0 0 0 0 0 0 
0 0 0 0 0 0 0 0 0 
0 0 0 0 0 0 0 0 0 
0 0 0 0 0 0 0 0 0 
0 0 0 0 0 0 0 0 0 
0 0 0 0 0 0 0 0 0 
0 0 0 0 0 0 0 0 0 
0 0 0 0 0 0 0 0 0 
0 0 0 0 0 0 0 0 0 
0 0 0 0 0 0 0 0 0 
0 0 0 0 0 0 0 0 0 
0 0 0 0 0 0 0 0 0 
0 0 0 0 0 0 0 0 0 
0 0 0 0 0 0 0 0 0 
0 0 0 0 0 0 0 0 0 
0 0 0 0 0 0 0 0 0 
0 0 0 0 0 0 0 0 0 
0 0 0 0 0 0 0 0 0 
0 0 0 0 0 0 0 0 0 
0 0 0 0 0 0 0 0 0 
0 0 0 0 0 0 0 0 0 
0 0 0 0 0 0 0 0 0 
0 0 0 0 0 0 0 0 0 
0 0 0 0 0 0 0 0 0 
0 0 0 0 0 0 0 0 0 
0 0 0 0 0 0 0 0 0 
0 0 0 0 0 0 0 0 0 
0 0 0 0 0 0 0 0 0 
0 0 0 0 0 0 0 0 0 
0 0 0 0 0 0 0 0 0 
0 0 0 0 0 0 0 0 0 
0 0 0 0 0 0 0 0 0 
0 0 0 0 0 0 0 0 0 
0 0 0 0 0 0 0 0 0 
0 0 0 0 0 0 0 0 0 
0 0 0 0 0 0 0 0 0 
0 0 0 0 0 0 0 0 0 
0 0 0 0 0 0 0 0 0 
0 0 0 0 0 0 0 0 0 
0 0 0 0 0 0 0 0 0 
0 0 0 0 0 0 0 0 0 
0 0 0 0 0 0 0 0 0 
0 0 0 0 0 0 0 0 0 
0 0 0 0 0 0 0 0 0 
0 0 0 0 0 0 0 0 0 
0 0 0 0 0 0 0 0 0 
0 0 0 0 0 0 0 0 0 
0 0 0 0 0 0 0 0 0 
0 0 0 0 0 0 0 0 0 
0 0 0 0 0 0 0 0 0 
0 0 0 0 0 0 0 0 0 
0 0 0 0 0 0 0 0 0 
0 0 0 0 0 0 0 0 0 
0 0 0 0 0 0 0 0 0 
0 0 0 0 0 0 0 0 0 
0 0 0 0 0 0 0 0 0 
0 0 0 0 0 0 0 0 0 
0 0 0 0 0 0 0 0 0 
0 0 0 0 0 0 0 0 0 
0 0 0 0 0 0 0 0 0 
0 0 0 0 0 0 0 0 0 
0 0 0 0 0 0 0 0 0 
0 0 0 0 0 0 0 0 0 
0 0 0 0 0 0 0 0 0 
0 0 0 0 0 0 0 0 0 
0 0 0 0 0 0 0 0 0 
0 0 0 0 0 0 0 0 0 
0 0 0 0 0 0 0 0 0 
0 0 0 0 0 0 0 0 0 
0 0 0 0 0 0 0 0 0 
0 0 0 0 0 0 0 0 0 
0 0 0 0 0 0 0 0 0 
0 0 0 0 0 0 0 0 0 
0 0 0 0 0 0 0 0 0 
0 0 0 0 0 0 0 0 0 
0 0 0 0 0 0 0 0 0 
0 0 0 0 0 0 0 0 0 
0 0 0 0 0 0 0 0 0 
0 0 0 0 0 0 0 0 0 
0 0 0 0 0 0 0 0 0 
0 0 0 0 0 0 0 0 0 
0 0 0 0 0 0 0 0 0 
0 0 0 0 0 0 0 0 0 
0 0 0 0 0 0 0 0 0 
0 0 0 0 0 0 0 0 0 
0 0 0 0 0 0 0 0 0 
0 0 0 0 0 0 0 0 0 
0 0 0 0 0 0 0 0 0 
0 0 0 0 0 0 0 0 0 
0 0 0 0 0 0 0 0 0 
0 0 0 0 0 0 0 0 0 
0 0 0 0 0 0 0 0 0 
0 0 0 0 0 0 0 0 0 
0 0 0 0 0 0 0 0 0 
0 0 0 0 0 0 0 0 0 
0 0 0 0 0 0 0 0 0 
0 0 0 0 0 0 0 0 0 
0 0 0 0 0 0 0 0 0 
0 0 0 0 0 0 0 0 0 
0 0 0 0 0 0 0 0 0 
0 0 0 0 0 0 0 0 0 
0 0 0 0 0 0 0 0 0 
0 0 0 0 0 0 0 0 0 
0 0 0 0 0 0 0 0 0 
0 0 0 0 0 0 0 0 0 
0 0 0 0 0 0 0 0 0 
0 0 0 0 0 0 0 0 0 
0 0 0 0 0 0 0 0 0 
0 0 0 0 0 0 0 0 0 
0 0 0 0 0 0 0 0 0 
0 0 0 0 0 0 0 0 0 
0 0 0 0 0 0 0 0 0 
0 0 0 0 0 0 0 0 0 
0 0 0 0 0 0 0 0 0 
0 0 0 0 0 0 0 0 0 
0 0 0 0 0 0 0 0 0 
0 0 0 0 0 0 0 0 0 
0 0 0 0 0 0 0 0 0 
0 0 0 0 0 0 0 0 0 
0 0 0 0 0 0 0 0 0 
0 0 0 0 0 0 0 0 0 
0 0 0 0 0 0 0 0 0 
0 0 0 0 0 0 0 0 0 
0 0 0 0 0 0 0 0 0 
0 0 0 0 0 0 0 0 0 
0 0 0 0 0 0 0 0 0 
0 0 0 0 0 0 0 0 0 
0 0 0 0 0 0 0 0 0 
0 0 0 0 0 0 0 0 0 
0 0 0 0 0 0 0 0 0 
0 0 0 0 0 0 0 0 0 
0 0 0 0 0 0 0 0 0 
0 0 0 0 0 0 0 0 0 
0 0 0 0 0 0 0 0 0 
0 0 0 0 0 0 0 0 0 
0 0 0 0 0 0 0 0 0 
0 0 0 0 0 0 0 0 0 
0 0 0 0 0 0 0 0 0 
0 0 0 0 0 0 0 0 0 
0 0 0 0 0 0 0 0 0 
0 0 0 0 0 0 0 0 0 
0 0 0 0 0 0 0 0 0 
0 0 0 0 0 0 0 0 0 
0 0 0 0 0 0 0 0 0 
0 0 0 0 0 0 0 0 0 
0 0 0 0 0 0 0 0 0 
0 0 0 0 0 0 0 0 0 
0 0 0 0 0 0 0 0 0 
0 0 0 0 0 0 0 0 0 
0 0 0 0 0 0 0 0 0 
0 0 0 0 0 0 0 0 0 
0 0 0 0 0 0 0 0 0 
0 0 0 0 0 0 0 0 0 
0 0 0 0 0 0 0 0 0 
0 0 0 0 0 0 0 0 0 
0 0 0 0 0 0 0 0 0 
0 0 0 0 0 0 0 0 0 
0 0 0 0 0 0 0 0 0 
0 0 0 0 0 0 0 0 0 
0 0 0 0 0 0 0 0 0 
0 0 0 0 0 0 0 0 0 
0 0 0 0 0 0 0 0 0 
0 0 0 0 0 0 0 0 0 
0 0 0 0 0 0 0 0 0 
0 0 0 0 0 0 0 0 0 
0 0 0 0 0 0 0 0 0 
0 0 0 0 0 0 0 0 0 
0 0 0 0 0 0 0 0 0 
0 0 0 0 0 0 0 0 0 
0 0 0 0 0 0 0 0 0 
0 0 0 0 0 0 0 0 0 
0 0 0 0 0 0 0 0 0 
0 0 0 0 0 0 0 0 0 
0 0 0 0 0 0 0 0 0 
0 0 0 0 0 0 0 0 0 
0 0 0 0 0 0 0 0 0 
0 0 0 0 0 0 0 0 0 
0 0 0 0 0 0 0 0 0 
0 0 0 0 0 0 0 0 0 
0 0 0 0 0 0 0 0 0 
0 0 0 0 0 0 0 0 0 
0 0 0 0 0 0 0 0 0 
0 0 0 0 0 0 0 0 0 
0 0 0 0 0 0 0 0 0 
0 0 0 0 0 0 0 0 0 
0 0 0 0 0 0 0 0 0 
0 0 0 0 0 0 0 0 0 
0 0 0 0 0 0 0 0 0 
0 0 0 0 0 0 0 0 0 
0 0 0 0 0 0 0 0 0 
0 0 0 0 0 0 0 0 0 
0 0 0 0 0 0 0 0 0 
0 0 0 0 0 0 0 0 0 
0 0 0 0 0 0 0 0 0 
0 0 0 0 0 0 0 0 0 
0 0 0 0 0 0 0 0 0 
0 0 0 0 0 0 0 0 0 
0 0 0 0 0 0 0 0 0 
0 0 0 0 0 0 0 0 0 
0 0 0 0 0 0 0 0 0 
0 0 0 0 0 0 0 0 0 
0 0 0 0 0 0 0 0 0 
0 0 0 0 0 0 0 0 0 
0 0 0 0 0 0 0 0 0 
0 0 0 0 0 0 0 0 0 
0 0 0 0 0 0 0 0 0 
0 0 0 0 0 0 0 0 0 
0 0 0 0 0 0 0 0 0 
0 0 0 0 0 0 0 0 0 
0 0 0 0 0 0 0 0 0 
0 0 0 0 0 0 0 0 0 
0 0 0 0 0 0 0 0 0 
0 0 0 0 0 0 0 0 0 
0 0 0 0 0 0 0 0 0 
0 0 0 0 0 0 0 0 0 
0 0 0 0 0 0 0 0 0 
0 0 0 0 0 0 0 0 0 
0 0 0 0 0 0 0 0 0 
0 0 0 0 0 0 0 0 0 
0 0 0 0 0 0 0 0 0 
0 0 0 0 0 0 0 0 0 
0 0 0 0 0 0 0 0 0 
0 0 0 0 0 0 0 0 0 
0 0 0 0 0 0 0 0 0 
0 0 0 0 0 0 0 0 0 
0 0 0 0 0 0 0 0 0 
0 0 0 0 0 0 0 0 0 
0 0 0 0 0 0 0 0 0 
0 0 0 0 0 0 0 0 0 
0 0 0 0 0 0 0 0 0 
0 0 0 0 0 0 0 0 0 
0 0 0 0 0 0 0 0 0 
0 0 0 0 0 0 0 0 0 
0 0 0 0 0 0 0 0 0 
0 0 0 0 0 0 0 0 0 
0 0 0 0 0 0 0 0 0 
0 0 0 0 0 0 0 0 0 
0 0 0 0 0 0 0 0 0 
0 0 0 0 0 0 0 0 0 
0 0 0 0 0 0 0 0 0 
0 0 0 0 0 0 0 0 0 
0 0 0 0 0 0 0 0 0 
0 0 0 0 0 0 0 0 0 
0 0 0 0 0 0 0 0 0 
0 0 0 0 0 0 0 0 0 
0 0 0 0 0 0 0 0 0 
0 0 0 0 0 0 0 0 0 
0 0 0 0 0 0 0 0 0 
0 0 0 0 0 0 0 0 0 
0 0 0 0 0 0 0 0 0 
0 0 0 0 0 0 0 0 0 
0 0 0 0 0 0 0 0 0 
0 0 0 0 0 0 0 0 0 
0 0 0 0 0 0 0 0 0 
0 0 0 0 0 0 0 0 0 
0 0 0 0 0 0 0 0 0 
0 0 0 0 0 0 0 0 0 
0 0 0 0 0 0 0 0 0 
0 0 0 0 0 0 0 0 0 
0 0 0 0 0 0 0 0 0 
0 0 0 0 0 0 0 0 0 
0 0 0 0 0 0 0 0 0 
0 0 0 0 0 0 0 0 0 
0 0 0 0 0 0 0 0 0 
0 0 0 0 0 0 0 0 0 
0 0 0 0 0 0 0 0 0 
0 0 0 0 0 0 0 0 0 
0 0 0 0 0 0 0 0 0 
0 0 0 0 0 0 0 0 0 
0 0 0 0 0 0 0 0 0 
0 0 0 0 0 0 0 0 0 
0 0 0 0 0 0 0 0 0 
0 0 0 0 0 0 0 0 0 
0 0 0 0 0 0 0 0 0 
0 0 0 0 0 0 0 0 0 
0 0 0 0 0 0 0 0 0 
0 0 0 0 0 0 0 0 0 
0 0 0 0 0 0 0 0 0 
0 0 0 0 0 0 0 0 0 
0 0 0 0 0 0 0 0 0 
0 0 0 0 0 0 0 0 0 
0 0 0 0 0 0 0 0 0 
0 0 0 0 0 0 0 0 0 
0 0 0 0 0 0 0 0 0 
0 0 0 0 0 0 0 0 0 
0 0 0 0 0 0 0 0 0 
0 0 0 0 0 0 0 0 0 
0 0 0 0 0 0 0 0 0 
0 0 0 0 0 0 0 0 0 
0 0 0 0 0 0 0 0 0 
0 0 0 0 0 0 0 0 0 
0 0 0 0 0 0 0 0 0 
0 0 0 0 0 0 0 0 0 
0 0 0 0 0 0 0 0 0 
0 0 0 0 0 0 0 0 0 
0 0 0 0 0 0 0 0 0 
0 0 0 0 0 0 0 0 0 
0 0 0 0 0 0 0 0 0 
0 0 0 0 0 0 0 0 0 
0 0 0 0 0 0 0 0 0 
0 0 0 0 0 0 0 0 0 
0 0 0 0 0 0 0 0 0 
0 0 0 0 0 0 0 0 0 
0 0 0 0 0 0 0 0 0 
0 0 0 0 0 0 0 0 0 
0 0 0 0 0 0 0 0 0 
0 0 0 0 0 0 0 0 0 
0 0 0 0 0 0 0 0 0 
0 0 0 0 0 0 0 0 0 
0 0 0 0 0 0 0 0 0 
0 0 0 0 0 0 0 0 0 
0 0 0 0 0 0 0 0 0 
0 0 0 0 0 0 0 0 0 
0 0 0 0 0 0 0 0 0 
0 0 0 0 0 0 0 0 0 
0 0 0 0 0 0 0 0 0 
0 0 0 0 0 0 0 0 0 
0 0 0 0 0 0 0 0 0 
0 0 0 0 0 0 0 0 0 
0 0 0 0 0 0 0 0 0 
0 0 0 0 0 0 0 0 0 
0 0 0 0 0 0 0 0 0 
0 0 0 0 0 0 0 0 0 
0 0 0 0 0 0 0 0 0 
0 0 0 0 0 0 0 0 0 
0 0 0 0 0 0 0 0 0 
0 0 0 0 0 0 0 0 0 
0 0 0 0 0 0 0 0 0 
0 0 0 0 0 0 0 0 0 
0 0 0 0 0 0 0 0 0 
0 0 0 0 0 0 0 0 0 
0 0 0 0 0 0 0 0 0 
0 0 0 0 0 0 0 0 0 
0 0 0 0 0 0 0 0 0 
0 0 0 0 0 0 0 0 0 
0 0 0 0 0 0 0 0 0 
0 0 0 0 0 0 0 0 0 
0 0 0 0 0 0 0 0 0 
0 0 0 0 0 0 0 0 0 
0 0 0 0 0 0 0 0 0 
0 0 0 0 0 0 0 0 0 
0 0 0 0 0 0 0 0 0 
0 0 0 0 0 0 0 0 0 
0 0 0 0 0 0 0 0 0 
0 0 0 0 0 0 0 0 0 
0 0 0 0 0 0 0 0 0 
0 0 0 0 0 0 0 0 0 
0 0 0 0 0 0 0 0 0 
0 0 0 0 0 0 0 0 0 
0 0 0 0 0 0 0 0 0 
0 0 0 0 0 0 0 0 0 
0 0 0 0 0 0 0 0 0 
0 0 0 0 0 0 0 0 0 
0 0 0 0 0 0 0 0 0 
0 0 0 0 0 0 0 0 0 
0 0 0 0 0 0 0 0 0 
0 0 0 0 0 0 0 0 0 
0 0 0 0 0 0 0 0 0 
0 0 0 0 0 0 0 0 0 
0 0 0 0 0 0 0 0 0 
0 0 0 0 0 0 0 0 0 
0 0 0 0 0 0 0 0 0 
0 0 0 0 0 0 0 0 0 
0 0 0 0 0 0 0 0 0 
0 0 0 0 0 0 0 0 0 
0 0 0 0 0 0 0 0 0 
0 0 0 0 0 0 0 0 0 
0 0 0 0 0 0 0 0 0 
0 0 0 0 0 0 0 0 0 
0 0 0 0 0 0 0 0 0 
0 0 0 0 0 0 0 0 0 
0 0 0 0 0 0 0 0 0 
0 0 0 0 0 0 0 0 0 
0 0 0 0 0 0 0 0 0 
0 0 0 0 0 0 0 0 0 
0 0 0 0 0 0 0 0 0 
0 0 0 0 0 0 0 0 0 
0 0 0 0 0 0 0 0 0 
0 0 0 0 0 0 0 0 0 
0 0 0 0 0 0 0 0 0 
0 0 0 0 0 0 0 0 0 
0 0 0 0 0 0 0 0 0 
0 0 0 0 0 0 0 0 0 
0 0 0 0 0 0 0 0 0 
0 0 0 0 0 0 0 0 0 
0 0 0 0 0 0 0 0 0 
0 0 0 0 0 0 0 0 0 
0 0 0 0 0 0 0 0 0 
0 0 0 0 0 0 0 0 0 
0 0 0 0 0 0 0 0 0 
0 0 0 0 0 0 0 0 0 
0 0 0 0 0 0 0 0 0 
0 0 0 0 0 0 0 0 0 
0 0 0 0 0 0 0 0 0 
0 0 0 0 0 0 0 0 0 
0 0 0 0 0 0 0 0 0 
0 0 0 0 0 0 0 0 0 
0 0 0 0 0 0 0 0 0 
0 0 0 0 0 0 0 0 0 
0 0 0 0 0 0 0 0 0 
0 0 0 0 0 0 0 0 0 
0 0 0 0 0 0 0 0 0 
0 0 0 0 0 0 0 0 0 
0 0 0 0 0 0 0 0 0 
0 0 0 0 0 0 0 0 0 
0 0 0 0 0 0 0 0 0 
0 0 0 0 0 0 0 0 0 
0 0 0 0 0 0 0 0 0 
0 0 0 0 0 0 0 0 0 
0 0 0 0 0 0 0 0 0 
0 0 0 0 0 0 0 0 0 
0 0 0 0 0 0 0 0 0 
0 0 0 0 0 0 0 0 0 
0 0 0 0 0 0 0 0 0 
0 0 0 0 0 0 0 0 0 
0 0 0 0 0 0 0 0 0 
0 0 0 0 0 0 0 0 0 
0 0 0 0 0 0 0 0 0 
0 0 0 0 0 0 0 0 0 
0 0 0 0 0 0 0 0 0 
0 0 0 0 0 0 0 0 0 
0 0 0 0 0 0 0 0 0 
0 0 0 0 0 0 0 0 0 
0 0 0 0 0 0 0 0 0 
0 0 0 0 0 0 0 0 0 
0 0 0 0 0 0 0 0 0 
0 0 0 0 0 0 0 0 0 
0 0 0 0 0 0 0 0 0 
0 0 0 0 0 0 0 0 0 
0 0 0 0 0 0 0 0 0 
0 0 0 0 0 0 0 0 0 
0 0 0 0 0 0 0 0 0 
0 0 0 0 0 0 0 0 0 
0 0 0 0 0 0 0 0 0 
0 0 0 0 0 0 0 0 0 
0 0 0 0 0 0 0 0 0 
0 0 0 0 0 0 0 0 0 
0 0 0 0 0 0 0 0 0 
0 0 0 0 0 0 0 0 0 
0 0 0 0 0 0 0 0 0 
0 0 0 0 0 0 0 0 0 
0 0 0 0 0 0 0 0 0 
0 0 0 0 0 0 0 0 0 
0 0 0 0 0 0 0 0 0 
0 0 0 0 0 0 0 0 0 
0 0 0 0 0 0 0 0 0 
0 0 0 0 0 0 0 0 0 
0 0 0 0 0 0 0 0 0 
0 0 0 0 0 0 0 0 0 
0 0 0 0 0 0 0 0 0 
0 0 0 0 0 0 0 0 0 
0 0 0 0 0 0 0 0 0 
0 0 0 0 0 0 0 0 0 
0 0 0 0 0 0 0 0 0 
0 0 0 0 0 0 0 0 0 
0 0 0 0 0 0 0 0 0 
0 0 0 0 0 0 0 0 0 
0 0 0 0 0 0 0 0 0 
0 0 0 0 0 0 0 0 0 
0 0 0 0 0 0 0 0 0 
0 0 0 0 0 0 0 0 0 
0 0 0 0 0 0 0 0 0 
0 0 0 0 0 0 0 0 0 
0 0 0 0 0 0 0 0 0 
0 0 0 0 0 0 0 0 0 
0 0 0 0 0 0 0 0 0 
0 0 0 0 0 0 0 0 0 
0 0 0 0 0 0 0 0 0 
0 0 0 0 0 0 0 0 0 
0 0 0 0 0 0 0 0 0 
0 0 0 0 0 0 0 0 0 
0 0 0 0 0 0 0 0 0 
0 0 0 0 0 0 0 0 0 
0 0 0 0 0 0 0 0 0 
0 0 0 0 0 0 0 0 0 
0 0 0 0 0 0 0 0 0 
0 0 0 0 0 0 0 0 0 
0 0 0 0 0 0 0 0 0 
0 0 0 0 0 0 0 0 0 
0 0 0 0 0 0 0 0 0 
0 0 0 0 0 0 0 0 0 
0 0 0 0 0 0 0 0 0 
0 0 0 0 0 0 0 0 0 
0 0 0 0 0 0 0 0 0 
0 0 0 0 0 0 0 0 0 
0 0 0 0 0 0 0 0 0 
0 0 0 0 0 0 0 0 0 
0 0 0 0 0 0 0 0 0 
0 0 0 0 0 0 0 0 0 
0 0 0 0 0 0 0 0 0 
0 0 0 0 0 0 0 0 0 
0 0 0 0 0 0 0 0 0 
0 0 0 0 0 0 0 0 0 
0 0 0 0 0 0 0 0 0 
0 0 0 0 0 0 0 0 0 
0 0 0 0 0 0 0 0 0 
0 0 0 0 0 0 0 0 0 
0 0 0 0 0 0 0 0 0 
0 0 0 0 0 0 0 0 0 
0 0 0 0 0 0 0 0 0 
0 0 0 0 0 0 0 0 0 
0 0 0 0 0 0 0 0 0 
0 0 0 0 0 0 0 0 0 
0 0 0 0 0 0 0 0 0 
0 0 0 0 0 0 0 0 0 
0 0 0 0 0 0 0 0 0 
0 0 0 0 0 0 0 0 0 
0 0 0 0 0 0 0 0 0 
0 0 0 0 0 0 0 0 0 
0 0 0 0 0 0 0 0 0 
0 0 0 0 0 0 0 0 0 
0 0 0 0 0 0 0 0 0 
0 0 0 0 0 0 0 0 0 
0 0 0 0 0 0 0 0 0 
0 0 0 0 0 0 0 0 0 
0 0 0 0 0 0 0 0 0 
0 0 0 0 0 0 0 0 0 
0 0 0 0 0 0 0 0 0 
0 0 0 0 0 0 0 0 0 
0 0 0 0 0 0 0 0 0 
0 0 0 0 0 0 0 0 0 
0 0 0 0 0 0 0 0 0 
0 0 0 0 0 0 0 0 0 
0 0 0 0 0 0 0 0 0 
0 0 0 0 0 0 0 0 0 
0 0 0 0 0 0 0 0 0 
0 0 0 0 0 0 0 0 0 
0 0 0 0 0 0 0 0 0 
0 0 0 0 0 0 0 0 0 
0 0 0 0 0 0 0 0 0 
0 0 0 0 0 0 0 0 0 
0 0 0 0 0 0 0 0 0 
0 0 0 0 0 0 0 0 0 
0 0 0 0 0 0 0 0 0 
0 0 0 0 0 0 0 0 0 
0 0 0 0 0 0 0 0 0 
0 0 0 0 0 0 0 0 0 
0 0 0 0 0 0 0 0 0 
0 0 0 0 0 0 0 0 0 
0 0 0 0 0 0 0 0 0 
0 0 0 0 0 0 0 0 0 
0 0 0 0 0 0 0 0 0 
0 0 0 0 0 0 0 0 0 
0 0 0 0 0 0 0 0 0 
0 0 0 0 0 0 0 0 0 
0 0 0 0 0 0 0 0 0 
0 0 0 0 0 0 0 0 0 
0 0 0 0 0 0 0 0 0 
0 0 0 0 0 0 0 0 0 
0 0 0 0 0 0 0 0 0 
0 0 0 0 0 0 0 0 0 
0 0 0 0 0 0 0 0 0 
0 0 0 0 0 0 0 0 0 
0 0 0 0 0 0 0 0 0 
0 0 0 0 0 0 0 0 0 
0 0 0 0 0 0 0 0 0 
0 0 0 0 0 0 0 0 0 
0 0 0 0 0 0 0 0 0 
0 0 0 0 0 0 0 0 0 
0 0 0 0 0 0 0 0 0 
0 0 0 0 0 0 0 0 0 
0 0 0 0 0 0 0 0 0 
0 0 0 0 0 0 0 0 0 
0 0 0 0 0 0 0 0 0 
0 0 0 0 0 0 0 0 0 
0 0 0 0 0 0 0 0 0 
0 0 0 0 0 0 0 0 0 
0 0 0 0 0 0 0 0 0 
0 0 0 0 0 0 0 0 0 
0 0 0 0 0 0 0 0 0 
0 0 0 0 0 0 0 0 0 
0 0 0 0 0 0 0 0 0 
0 0 0 0 0 0 0 0 0 
0 0 0 0 0 0 0 0 0 
0 0 0 0 0 0 0 0 0 
0 0 0 0 0 0 0 0 0 
0 0 0 0 0 0 0 0 0 
0 0 0 0 0 0 0 0 0 
0 0 0 0 0 0 0 0 0 
0 0 0 0 0 0 0 0 0 
0 0 0 0 0 0 0 0 0 
0 0 0 0 0 0 0 0 0 
0 0 0 0 0 0 0 0 0 
0 0 0 0 0 0 0 0 0 
0 0 0 0 0 0 0 0 0 
0 0 0 0 0 0 0 0 0 
0 0 0 0 0 0 0 0 0 
0 0 0 0 0 0 0 0 0 
0 0 0 0 0 0 0 0 0 
0 0 0 0 0 0 0 0 0 
0 0 0 0 0 0 0 0 0 
0 0 0 0 0 0 0 0 0 
0 0 0 0 0 0 0 0 0 
0 0 0 0 0 0 0 0 0 
0 0 0 0 0 0 0 0 0 
0 0 0 0 0 0 0 0 0 
0 0 0 0 0 0 0 0 0 
0 0 0 0 0 0 0 0 0 
0 0 0 0 0 0 0 0 0 
0 0 0 0 0 0 0 0 0 
0 0 0 0 0 0 0 0 0 
0 0 0 0 0 0 0 0 0 
0 0 0 0 0 0 0 0 0 
0 0 0 0 0 0 0 0 0 
0 0 0 0 0 0 0 0 0 
0 0 0 0 0 0 0 0 0 
0 0 0 0 0 0 0 0 0 
0 0 0 0 0 0 0 0 0 
0 0 0 0 0 0 0 0 0 
0 0 0 0 0 0 0 0 0 
0 0 0 0 0 0 0 0 0 
0 0 0 0 0 0 0 0 0 
0 0 0 0 0 0 0 0 0 
0 0 0 0 0 0 0 0 0 
0 0 0 0 0 0 0 0 0 
0 0 0 0 0 0 0 0 0 
0 0 0 0 0 0 0 0 0 
0 0 0 0 0 0 0 0 0 
0 0 0 0 0 0 0 0 0 
0 0 0 0 0 0 0 0 0 
0 0 0 0 0 0 0 0 0 
0 0 0 0 0 0 0 0 0 
0 0 0 0 0 0 0 0 0 
0 0 0 0 0 0 0 0 0 
0 0 0 0 0 0 0 0 0 
0 0 0 0 0 0 0 0 0 
0 0 0 0 0 0 0 0 0 
0 0 0 0 0 0 0 0 0 
0 0 0 0 0 0 0 0 0 
0 0 0 0 0 0 0 0 0 
0 0 0 0 0 0 0 0 0 
0 0 0 0 0 0 0 0 0 
0 0 0 0 0 0 0 0 0 
0 0 0 0 0 0 0 0 0 
0 0 0 0 0 0 0 0 0 
0 0 0 0 0 0 0 0 0 
0 0 0 0 0 0 0 0 0 
0 0 0 0 0 0 0 0 0 
0 0 0 0 0 0 0 0 0 
0 0 0 0 0 0 0 0 0 
0 0 0 0 0 0 0 0 0 
0 0 0 0 0 0 0 0 0 
0 0 0 0 0 0 0 0 0 
0 0 0 0 0 0 0 0 0 
0 0 0 0 0 0 0 0 0 
0 0 0 0 0 0 0 0 0 
0 0 0 0 0 0 0 0 0 
0 0 0 0 0 0 0 0 0 
0 0 0 0 0 0 0 0 0 
0 0 0 0 0 0 0 0 0 
0 0 0 0 0 0 0 0 0 
0 0 0 0 0 0 0 0 0 
0 0 0 0 0 0 0 0 0 
0 0 0 0 0 0 0 0 0 
0 0 0 0 0 0 0 0 0 
0 0 0 0 0 0 0 0 0 
0 0 0 0 0 0 0 0 0 
0 0 0 0 0 0 0 0 0 
0 0 0 0 0 0 0 0 0 
0 0 0 0 0 0 0 0 0 
0 0 0 0 0 0 0 0 0 
0 0 0 0 0 0 0 0 0 
0 0 0 0 0 0 0 0 0 
0 0 0 0 0 0 0 0 0 
0 0 0 0 0 0 0 0 0 
0 0 0 0 0 0 0 0 0 
0 0 0 0 0 0 0 0 0 
0 0 0 0 0 0 0 0 0 
0 0 0 0 0 0 0 0 0 
0 0 0 0 0 0 0 0 0 
0 0 0 0 0 0 0 0 0 
0 0 0 0 0 0 0 0 0 
0 0 0 0 0 0 0 0 0 
0 0 0 0 0 0 0 0 0 
0 0 0 0 0 0 0 0 0 
0 0 0 0 0 0 0 0 0 
0 0 0 0 0 0 0 0 0 
0 0 0 0 0 0 0 0 0 
0 0 0 0 0 0 0 0 0 
0 0 0 0 0 0 0 0 0 
0 0 0 0 0 0 0 0 0 
0 0 0 0 0 0 0 0 0 
0 0 0 0 0 0 0 0 0 
0 0 0 0 0 0 0 0 0 
0 0 0 0 0 0 0 0 0 
0 0 0 0 0 0 0 0 0 
0 0 0 0 0 0 0 0 0 
0 0 0 0 0 0 0 0 0 
0 0 0 0 0 0 0 0 0 
0 0 0 0 0 0 0 0 0 
0 0 0 0 0 0 0 0 0 
0 0 0 0 0 0 0 0 0 
0 0 0 0 0 0 0 0 0 
0 0 0 0 0 0 0 0 0 
0 0 0 0 0 0 0 0 0 
0 0 0 0 0 0 0 0 0 
0 0 0 0 0 0 0 0 0 
0 0 0 0 0 0 0 0 0 
0 0 0 0 0 0 0 0 0 
0 0 0 0 0 0 0 0 0 
0 0 0 0 0 0 0 0 0 
0 0 0 0 0 0 0 0 0 
0 0 0 0 0 0 0 0 0 
0 0 0 0 0 0 0 0 0 
0 0 0 0 0 0 0 0 0 
0 0 0 0 0 0 0 0 0 
0 0 0 0 0 0 0 0 0 
0 0 0 0 0 0 0 0 0 
0 0 0 0 0 0 0 0 0 
0 0 0 0 0 0 0 0 0 
0 0 0 0 0 0 0 0 0 
0 0 0 0 0 0 0 0 0 
0 0 0 0 0 0 0 0 0 
0 0 0 0 0 0 0 0 0 
0 0 0 0 0 0 0 0 0 
0 0 0 0 0 0 0 0 0 
0 0 0 0 0 0 0 0 0 
0 0 0 0 0 0 0 0 0 
0 0 0 0 0 0 0 0 0 
0 0 0 0 0 0 0 0 0 
0 0 0 0 0 0 0 0 0 
0 0 0 0 0 0 0 0 0 
0 0 0 0 0 0 0 0 0 
0 0 0 0 0 0 0 0 0 
0 0 0 0 0 0 0 0 0 
0 0 0 0 0 0 0 0 0 
0 0 0 0 0 0 0 0 0 
0 0 0 0 0 0 0 0 0 
0 0 0 0 0 0 0 0 0 
0 0 0 0 0 0 0 0 0 
0 0 0 0 0 0 0 0 0 
0 0 0 0 0 0 0 0 0 
0 0 0 0 0 0 0 0 0 
0 0 0 0 0 0 0 0 0 
0 0 0 0 0 0 0 0 0 
0 0 0 0 0 0 0 0 0 
0 0 0 0 0 0 0 0 0 
0 0 0 0 0 0 0 0 0 
0 0 0 0 0 0 0 0 0 
0 0 0 0 0 0 0 0 0 
0 0 0 0 0 0 0 0 0 
0 0 0 0 0 0 0 0 0 
0 0 0 0 0 0 0 0 0 
0 0 0 0 0 0 0 0 0 
0 0 0 0 0 0 0 0 0 
0 0 0 0 0 0 0 0 0 
0 0 0 0 0 0 0 0 0 
0 0 0 0 0 0 0 0 0 
0 0 0 0 0 0 0 0 0 
0 0 0 0 0 0 0 0 0 
0 0 0 0 0 0 0 0 0 
0 0 0 0 0 0 0 0 0 
0 0 0 0 0 0 0 0 0 
0 0 0 0 0 0 0 0 0 
0 0 0 0 0 0 0 0 0 
0 0 0 0 0 0 0 0 0 
0 0 0 0 0 0 0 0 0 
0 0 0 0 0 0 0 0 0 
0 0 0 0 0 0 0 0 0 
0 0 0 0 0 0 0 0 0 
0 0 0 0 0 0 0 0 0 
0 0 0 0 0 0 0 0 0 
0 0 0 0 0 0 0 0 0 
0 0 0 0 0 0 0 0 0 
0 0 0 0 0 0 0 0 0 
0 0 0 0 0 0 0 0 0 
0 0 0 0 0 0 0 0 0 
0 0 0 0 0 0 0 0 0 
0 0 0 0 0 0 0 0 0 
0 0 0 0 0 0 0 0 0 
0 0 0 0 0 0 0 0 0 
0 0 0 0 0 0 0 0 0 
0 0 0 0 0 0 0 0 0 
0 0 0 0 0 0 0 0 0 
0 0 0 0 0 0 0 0 0 
0 0 0 0 0 0 0 0 0 
0 0 0 0 0 0 0 0 0 
0 0 0 0 0 0 0 0 0 
0 0 0 0 0 0 0 0 0 
0 0 0 0 0 0 0 0 0 
0 0 0 0 0 0 0 0 0 
0 0 0 0 0 0 0 0 0 
0 0 0 0 0 0 0 0 0 
0 0 0 0 0 0 0 0 0 
0 0 0 0 0 0 0 0 0 
0 0 0 0 0 0 0 0 0 
0 0 0 0 0 0 0 0 0 
0 0 0 0 0 0 0 0 0 
0 0 0 0 0 0 0 0 0 
0 0 0 0 0 0 0 0 0 
0 0 0 0 0 0 0 0 0 
0 0 0 0 0 0 0 0 0 
0 0 0 0 0 0 0 0 0 
0 0 0 0 0 0 0 0 0 
0 0 0 0 0 0 0 0 0 
0 0 0 0 0 0 0 0 0 
0 0 0 0 0 0 0 0 0 
0 0 0 0 0 0 0 0 0 
0 0 0 0 0 0 0 0 0 
0 0 0 0 0 0 0 0 0 
0 0 0 0 0 0 0 0 0 
0 0 0 0 0 0 0 0 0 
0 0 0 0 0 0 0 0 0 
0 0 0 0 0 0 0 0 0 
0 0 0 0 0 0 0 0 0 
0 0 0 0 0 0 0 0 0 
0 0 0 0 0 0 0 0 0 
0 0 0 0 0 0 0 0 0 
0 0 0 0 0 0 0 0 0 
0 0 0 0 0 0 0 0 0 
0 0 0 0 0 0 0 0 0 
0 0 0 0 0 0 0 0 0 
0 0 0 0 0 0 0 0 0 
0 0 0 0 0 0 0 0 0 
0 0 0 0 0 0 0 0 0 
0 0 0 0 0 0 0 0 0 
0 0 0 0 0 0 0 0 0 
0 0 0 0 0 0 0 0 0 
0 0 0 0 0 0 0 0 0 
0 0 0 0 0 0 0 0 0 
0 0 0 0 0 0 0 0 0 
0 0 0 0 0 0 0 0 0 
0 0 0 0 0 0 0 0 0 
0 0 0 0 0 0 0 0 0 
0 0 0 0 0 0 0 0 0 
0 0 0 0 0 0 0 0 0 
0 0 0 0 0 0 0 0 0 
0 0 0 0 0 0 0 0 0 
0 0 0 0 0 0 0 0 0 
0 0 0 0 0 0 0 0 0 
0 0 0 0 0 0 0 0 0 
0 0 0 0 0 0 0 0 0 
0 0 0 0 0 0 0 0 0 
0 0 0 0 0 0 0 0 0 
0 0 0 0 0 0 0 0 0 
0 0 0 0 0 0 0 0 0 
0 0 0 0 0 0 0 0 0 
0 0 0 0 0 0 0 0 0 
0 0 0 0 0 0 0 0 0 
0 0 0 0 0 0 0 0 0 
0 0 0 0 0 0 0 0 0 
0 0 0 0 0 0 0 0 0 
0 0 0 0 0 0 0 0 0 
0 0 0 0 0 0 0 0 0 
0 0 0 0 0 0 0 0 0 
0 0 0 0 0 0 0 0 0 
0 0 0 0 0 0 0 0 0 
0 0 0 0 0 0 0 0 0 
0 0 0 0 0 0 0 0 0 
0 0 0 0 0 0 0 0 0 
0 0 0 0 0 0 0 0 0 
0 0 0 0 0 0 0 0 0 
0 0 0 0 0 0 0 0 0 
0 0 0 0 0 0 0 0 0 
0 0 0 0 0 0 0 0 0 
0 0 0 0 0 0 0 0 0 
0 0 0 0 0 0 0 0 0 
0 0 0 0 0 0 0 0 0 
0 0 0 0 0 0 0 0 0 
0 0 0 0 0 0 0 0 0 
0 0 0 0 0 0 0 0 0 
0 0 0 0 0 0 0 0 0 
0 0 0 0 0 0 0 0 0 
0 0 0 0 0 0 0 0 0 
0 0 0 0 0 0 0 0 0 
0 0 0 0 0 0 0 0 0 
0 0 0 0 0 0 0 0 0 
0 0 0 0 0 0 0 0 0 
0 0 0 0 0 0 0 0 0 
0 0 0 0 0 0 0 0 0 
0 0 0 0 0 0 0 0 0 
0 0 0 0 0 0 0 0 0 
0 0 0 0 0 0 0 0 0 
0 0 0 0 0 0 0 0 0 
0 0 0 0 0 0 0 0 0 
0 0 0 0 0 0 0 0 0 
0 0 0 0 0 0 0 0 0 
0 0 0 0 0 0 0 0 0 
0 0 0 0 0 0 0 0 0 
0 0 0 0 0 0 0 0 0 
0 0 0 0 0 0 0 0 0 
0 0 0 0 0 0 0 0 0 
0 0 0 0 0 0 0 0 0 
0 0 0 0 0 0 0 0 0 
0 0 0 0 0 0 0 0 0 
0 0 0 0 0 0 0 0 0 
0 0 0 0 0 0 0 0 0 
0 0 0 0 0 0 0 0 0 
0 0 0 0 0 0 0 0 0 
0 0 0 0 0 0 0 0 0 
0 0 0 0 0 0 0 0 0 
0 0 0 0 0 0 0 0 0 
0 0 0 0 0 0 0 0 0 
0 0 0 0 0 0 0 0 0 
0 0 0 0 0 0 0 0 0 
0 0 0 0 0 0 0 0 0 
0 0 0 0 0 0 0 0 0 
0 0 0 0 0 0 0 0 0 
0 0 0 0 0 0 0 0 0 
0 0 0 0 0 0 0 0 0 
0 0 0 0 0 0 0 0 0 
0 0 0 0 0 0 0 0 0 
0 0 0 0 0 0 0 0 0 
0 0 0 0 0 0 0 0 0 
0 0 0 0 0 0 0 0 0 
0 0 0 0 0 0 0 0 0 
0 0 0 0 0 0 0 0 0 
0 0 0 0 0 0 0 0 0 
0 0 0 0 0 0 0 0 0 
0 0 0 0 0 0 0 0 0 
0 0 0 0 0 0 0 0 0 
0 0 0 0 0 0 0 0 0 
0 0 0 0 0 0 0 0 0 
0 0 0 0 0 0 0 0 0 
0 0 0 0 0 0 0 0 0 
0 0 0 0 0 0 0 0 0 
0 0 0 0 0 0 0 0 0 
0 0 0 0 0 0 0 0 0 
0 0 0 0 0 0 0 0 0 
0 0 0 0 0 0 0 0 0 
0 0 0 0 0 0 0 0 0 
0 0 0 0 0 0 0 0 0 
0 0 0 0 0 0 0 0 0 
0 0 0 0 0 0 0 0 0 
0 0 0 0 0 0 0 0 0 
0 0 0 0 0 0 0 0 0 
0 0 0 0 0 0 0 0 0 
0 0 0 0 0 0 0 0 0 
0 0 0 0 0 0 0 0 0 
0 0 0 0 0 0 0 0 0 
0 0 0 0 0 0 0 0 0 
0 0 0 0 0 0 0 0 0 
0 0 0 0 0 0 0 0 0 
0 0 0 0 0 0 0 0 0 
0 0 0 0 0 0 0 0 0 
0 0 0 0 0 0 0 0 0 
0 0 0 0 0 0 0 0 0 
0 0 0 0 0 0 0 0 0 
0 0 0 0 0 0 0 0 0 
0 0 0 0 0 0 0 0 0 
0 0 0 0 0 0 0 0 0 
0 0 0 0 0 0 0 0 0 
0 0 0 0 0 0 0 0 0 
0 0 0 0 0 0 0 0 0 
0 0 0 0 0 0 0 0 0 
0 0 0 0 0 0 0 0 0 
0 0 0 0 0 0 0 0 0 
0 0 0 0 0 0 0 0 0 
0 0 0 0 0 0 0 0 0 
0 0 0 0 0 0 0 0 0 
0 0 0 0 0 0 0 0 0 
0 0 0 0 0 0 0 0 0 
0 0 0 0 0 0 0 0 0 
0 0 0 0 0 0 0 0 0 
0 0 0 0 0 0 0 0 0 
0 0 0 0 0 0 0 0 0 
0 0 0 0 0 0 0 0 0 
0 0 0 0 0 0 0 0 0 
0 0 0 0 0 0 0 0 0 
0 0 0 0 0 0 0 0 0 
0 0 0 0 0 0 0 0 0 
0 0 0 0 0 0 0 0 0 
0 0 0 0 0 0 0 0 0 
0 0 0 0 0 0 0 0 0 
0 0 0 0 0 0 0 0 0 
0 0 0 0 0 0 0 0 0 
0 0 0 0 0 0 0 0 0 
0 0 0 0 0 0 0 0 0 
0 0 0 0 0 0 0 0 0 
0 0 0 0 0 0 0 0 0 
0 0 0 0 0 0 0 0 0 
0 0 0 0 0 0 0 0 0 
0 0 0 0 0 0 0 0 0 
0 0 0 0 0 0 0 0 0 
0 0 0 0 0 0 0 0 0 
0 0 0 0 0 0 0 0 0 
0 0 0 0 0 0 0 0 0 
0 0 0 0 0 0 0 0 0 
0 0 0 0 0 0 0 0 0 
0 0 0 0 0 0 0 0 0 
0 0 0 0 0 0 0 0 0 
0 0 0 0 0 0 0 0 0 
0 0 0 0 0 0 0 0 0 
0 0 0 0 0 0 0 0 0 
0 0 0 0 0 0 0 0 0 
0 0 0 0 0 0 0 0 0 
0 0 0 0 0 0 0 0 0 
0 0 0 0 0 0 0 0 0 
0 0 0 0 0 0 0 0 0 
0 0 0 0 0 0 0 0 0 
0 0 0 0 0 0 0 0 0 
0 0 0 0 0 0 0 0 0 
0 0 0 0 0 0 0 0 0 
0 0 0 0 0 0 0 0 0 
0 0 0 0 0 0 0 0 0 
0 0 0 0 0 0 0 0 0 
0 0 0 0 0 0 0 0 0 
0 0 0 0 0 0 0 0 0 
0 0 0 0 0 0 0 0 0 
0 0 0 0 0 0 0 0 0 
0 0 0 0 0 0 0 0 0 
0 0 0 0 0 0 0 0 0 
0 0 0 0 0 0 0 0 0 
0 0 0 0 0 0 0 0 0 
0 0 0 0 0 0 0 0 0 
0 0 0 0 0 0 0 0 0 
0 0 0 0 0 0 0 0 0 
0 0 0 0 0 0 0 0 0 
0 0 0 0 0 0 0 0 0 
0 0 0 0 0 0 0 0 0 
0 0 0 0 0 0 0 0 0 
0 0 0 0 0 0 0 0 0 
0 0 0 0 0 0 0 0 0 
0 0 0 0 0 0 0 0 0 
0 0 0 0 0 0 0 0 0 
0 0 0 0 0 0 0 0 0 
0 0 0 0 0 0 0 0 0 
0 0 0 0 0 0 0 0 0 
0 0 0 0 0 0 0 0 0 
0 0 0 0 0 0 0 0 0 
0 0 0 0 0 0 0 0 0 
0 0 0 0 0 0 0 0 0 
0 0 0 0 0 0 0 0 0 
0 0 0 0 0 0 0 0 0 
0 0 0 0 0 0 0 0 0 
0 0 0 0 0 0 0 0 0 
0 0 0 0 0 0 0 0 0 
0 0 0 0 0 0 0 0 0 
0 0 0 0 0 0 0 0 0 
0 0 0 0 0 0 0 0 0 
0 0 0 0 0 0 0 0 0 
0 0 0 0 0 0 0 0 0 
0 0 0 0 0 0 0 0 0 
0 0 0 0 0 0 0 0 0 
0 0 0 0 0 0 0 0 0 
0 0 0 0 0 0 0 0 0 
0 0 0 0 0 0 0 0 0 
0 0 0 0 0 0 0 0 0 
0 0 0 0 0 0 0 0 0 
0 0 0 0 0 0 0 0 0 
0 0 0 0 0 0 0 0 0 
0 0 0 0 0 0 0 0 0 
0 0 0 0 0 0 0 0 0 
0 0 0 0 0 0 0 0 0 
0 0 0 0 0 0 0 0 0 
0 0 0 0 0 0 0 0 0 
0 0 0 0 0 0 0 0 0 
0 0 0 0 0 0 0 0 0 
0 0 0 0 0 0 0 0 0 
0 0 0 0 0 0 0 0 0 
0 0 0 0 0 0 0 0 0 
0 0 0 0 0 0 0 0 0 
0 0 0 0 0 0 0 0 0 
0 0 0 0 0 0 0 0 0 
0 0 0 0 0 0 0 0 0 
0 0 0 0 0 0 0 0 0 
0 0 0 0 0 0 0 0 0 
0 0 0 0 0 0 0 0 0 
0 0 0 0 0 0 0 0 0 
0 0 0 0 0 0 0 0 0 
0 0 0 0 0 0 0 0 0 
0 0 0 0 0 0 0 0 0 
0 0 0 0 0 0 0 0 0 
0 0 0 0 0 0 0 0 0 
0 0 0 0 0 0 0 0 0 
0 0 0 0 0 0 0 0 0 
0 0 0 0 0 0 0 0 0 
0 0 0 0 0 0 0 0 0 
0 0 0 0 0 0 0 0 0 
0 0 0 0 0 0 0 0 0 
0 0 0 0 0 0 0 0 0 
0 0 0 0 0 0 0 0 0 
0 0 0 0 0 0 0 0 0 
0 0 0 0 0 0 0 0 0 
0 0 0 0 0 0 0 0 0 
0 0 0 0 0 0 0 0 0 
0 0 0 0 0 0 0 0 0 
0 0 0 0 0 0 0 0 0 
0 0 0 0 0 0 0 0 0 
0 0 0 0 0 0 0 0 0 
0 0 0 0 0 0 0 0 0 
0 0 0 0 0 0 0 0 0 
0 0 0 0 0 0 0 0 0 
0 0 0 0 0 0 0 0 0 
0 0 0 0 0 0 0 0 0 
0 0 0 0 0 0 0 0 0 
0 0 0 0 0 0 0 0 0 
0 0 0 0 0 0 0 0 0 
0 0 0 0 0 0 0 0 0 
0 0 0 0 0 0 0 0 0 
0 0 0 0 0 0 0 0 0 
0 0 0 0 0 0 0 0 0 
0 0 0 0 0 0 0 0 0 
0 0 0 0 0 0 0 0 0 
0 0 0 0 0 0 0 0 0 
0 0 0 0 0 0 0 0 0 
0 0 0 0 0 0 0 0 0 
0 0 0 0 0 0 0 0 0 
0 0 0 0 0 0 0 0 0 
0 0 0 0 0 0 0 0 0 
0 0 0 0 0 0 0 0 0 
0 0 0 0 0 0 0 0 0 
0 0 0 0 0 0 0 0 0 
0 0 0 0 0 0 0 0 0 
0 0 0 0 0 0 0 0 0 
0 0 0 0 0 0 0 0 0 
0 0 0 0 0 0 0 0 0 
0 0 0 0 0 0 0 0 0 
0 0 0 0 0 0 0 0 0 
0 0 0 0 0 0 0 0 0 
0 0 0 0 0 0 0 0 0 
0 0 0 0 0 0 0 0 0 
0 0 0 0 0 0 0 0 0 
0 0 0 0 0 0 0 0 0 
0 0 0 0 0 0 0 0 0 
0 0 0 0 0 0 0 0 0 
0 0 0 0 0 0 0 0 0 
0 0 0 0 0 0 0 0 0 
0 0 0 0 0 0 0 0 0 
0 0 0 0 0 0 0 0 0 
0 0 0 0 0 0 0 0 0 
0 0 0 0 0 0 0 0 0 
0 0 0 0 0 0 0 0 0 
0 0 0 0 0 0 0 0 0 
0 0 0 0 0 0 0 0 0 
0 0 0 0 0 0 0 0 0 
0 0 0 0 0 0 0 0 0 
0 0 0 0 0 0 0 0 0 
0 0 0 0 0 0 0 0 0 
0 0 0 0 0 0 0 0 0 
0 0 0 0 0 0 0 0 0 
0 0 0 0 0 0 0 0 0 
0 0 0 0 0 0 0 0 0 
0 0 0 0 0 0 0 0 0 
0 0 0 0 0 0 0 0 0 
0 0 0 0 0 0 0 0 0 
0 0 0 0 0 0 0 0 0 
0 0 0 0 0 0 0 0 0 
0 0 0 0 0 0 0 0 0 
0 0 0 0 0 0 0 0 0 
0 0 0 0 0 0 0 0 0 
0 0 0 0 0 0 0 0 0 
0 0 0 0 0 0 0 0 0 
0 0 0 0 0 0 0 0 0 
0 0 0 0 0 0 0 0 0 
0 0 0 0 0 0 0 0 0 
0 0 0 0 0 0 0 0 0 
0 0 0 0 0 0 0 0 0 
0 0 0 0 0 0 0 0 0 
0 0 0 0 0 0 0 0 0 
0 0 0 0 0 0 0 0 0 
0 0 0 0 0 0 0 0 0 
0 0 0 0 0 0 0 0 0 
0 0 0 0 0 0 0 0 0 
0 0 0 0 0 0 0 0 0 
0 0 0 0 0 0 0 0 0 
0 0 0 0 0 0 0 0 0 
0 0 0 0 0 0 0 0 0 
0 0 0 0 0 0 0 0 0 
0 0 0 0 0 0 0 0 0 
0 0 0 0 0 0 0 0 0 
0 0 0 0 0 0 0 0 0 
0 0 0 0 0 0 0 0 0 
0 0 0 0 0 0 0 0 0 
0 0 0 0 0 0 0 0 0 
0 0 0 0 0 0 0 0 0 
0 0 0 0 0 0 0 0 0 
0 0 0 0 0 0 0 0 0 
0 0 0 0 0 0 0 0 0 
0 0 0 0 0 0 0 0 0 
0 0 0 0 0 0 0 0 0 
0 0 0 0 0 0 0 0 0 
0 0 0 0 0 0 0 0 0 
0 0 0 0 0 0 0 0 0 
0 0 0 0 0 0 0 0 0 
0 0 0 0 0 0 0 0 0 
0 0 0 0 0 0 0 0 0 
0 0 0 0 0 0 0 0 0 
0 0 0 0 0 0 0 0 0 
0 0 0 0 0 0 0 0 0 
0 0 0 0 0 0 0 0 0 
0 0 0 0 0 0 0 0 0 
0 0 0 0 0 0 0 0 0 
0 0 0 0 0 0 0 0 0 
0 0 0 0 0 0 0 0 0 
0 0 0 0 0 0 0 0 0 
0 0 0 0 0 0 0 0 0 
0 0 0 0 0 0 0 0 0 
0 0 0 0 0 0 0 0 0 
0 0 0 0 0 0 0 0 0 
0 0 0 0 0 0 0 0 0 
0 0 0 0 0 0 0 0 0 
0 0 0 0 0 0 0 0 0 
0 0 0 0 0 0 0 0 0 
0 0 0 0 0 0 0 0 0 
0 0 0 0 0 0 0 0 0 
0 0 0 0 0 0 0 0 0 
0 0 0 0 0 0 0 0 0 
0 0 0 0 0 0 0 0 0 
0 0 0 0 0 0 0 0 0 
0 0 0 0 0 0 0 0 0 
0 0 0 0 0 0 0 0 0 
0 0 0 0 0 0 0 0 0 
0 0 0 0 0 0 0 0 0 
0 0 0 0 0 0 0 0 0 
0 0 0 0 0 0 0 0 0 
0 0 0 0 0 0 0 0 0 
0 0 0 0 0 0 0 0 0 
0 0 0 0 0 0 0 0 0 
0 0 0 0 0 0 0 0 0 
0 0 0 0 0 0 0 0 0 
0 0 0 0 0 0 0 0 0 
0 0 0 0 0 0 0 0 0 
0 0 0 0 0 0 0 0 0 
0 0 0 0 0 0 0 0 0 
0 0 0 0 0 0 0 0 0 
0 0 0 0 0 0 0 0 0 
0 0 0 0 0 0 0 0 0 
0 0 0 0 0 0 0 0 0 
0 0 0 0 0 0 0 0 0 
0 0 0 0 0 0 0 0 0 
0 0 0 0 0 0 0 0 0 
0 0 0 0 0 0 0 0 0 
0 0 0 0 0 0 0 0 0 
0 0 0 0 0 0 0 0 0 
0 0 0 0 0 0 0 0 0 
0 0 0 0 0 0 0 0 0 
0 0 0 0 0 0 0 0 0 
0 0 0 0 0 0 0 0 0 
0 0 0 0 0 0 0 0 0 
0 0 0 0 0 0 0 0 0 
0 0 0 0 0 0 0 0 0 
0 0 0 0 0 0 0 0 0 
0 0 0 0 0 0 0 0 0 
0 0 0 0 0 0 0 0 0 
0 0 0 0 0 0 0 0 0 
0 0 0 0 0 0 0 0 0 
0 0 0 0 0 0 0 0 0 
0 0 0 0 0 0 0 0 0 
0 0 0 0 0 0 0 0 0 
0 0 0 0 0 0 0 0 0 
0 0 0 0 0 0 0 0 0 
0 0 0 0 0 0 0 0 0 
0 0 0 0 0 0 0 0 0 
0 0 0 0 0 0 0 0 0 
0 0 0 0 0 0 0 0 0 
0 0 0 0 0 0 0 0 0 
0 0 0 0 0 0 0 0 0 
0 0 0 0 0 0 0 0 0 
0 0 0 0 0 0 0 0 0 
0 0 0 0 0 0 0 0 0 
0 0 0 0 0 0 0 0 0 
0 0 0 0 0 0 0 0 0 
0 0 0 0 0 0 0 0 0 
0 0 0 0 0 0 0 0 0 
0 0 0 0 0 0 0 0 0 
0 0 0 0 0 0 0 0 0 
0 0 0 0 0 0 0 0 0 
0 0 0 0 0 0 0 0 0 
0 0 0 0 0 0 0 0 0 
0 0 0 0 0 0 0 0 0 
0 0 0 0 0 0 0 0 0 
0 0 0 0 0 0 0 0 0 
0 0 0 0 0 0 0 0 0 
0 0 0 0 0 0 0 0 0 
0 0 0 0 0 0 0 0 0 
0 0 0 0 0 0 0 0 0 
0 0 0 0 0 0 0 0 0 
0 0 0 0 0 0 0 0 0 
0 0 0 0 0 0 0 0 0 
0 0 0 0 0 0 0 0 0 
0 0 0 0 0 0 0 0 0 
0 0 0 0 0 0 0 0 0 
0 0 0 0 0 0 0 0 0 
0 0 0 0 0 0 0 0 0 
0 0 0 0 0 0 0 0 0 
0 0 0 0 0 0 0 0 0 
0 0 0 0 0 0 0 0 0 
0 0 0 0 0 0 0 0 0 
0 0 0 0 0 0 0 0 0 
0 0 0 0 0 0 0 0 0 
0 0 0 0 0 0 0 0 0 
0 0 0 0 0 0 0 0 0 
0 0 0 0 0 0 0 0 0 
0 0 0 0 0 0 0 0 0 
0 0 0 0 0 0 0 0 0 
0 0 0 0 0 0 0 0 0 
0 0 0 0 0 0 0 0 0 
0 0 0 0 0 0 0 0 0 
0 0 0 0 0 0 0 0 0 
0 0 0 0 0 0 0 0 0 
0 0 0 0 0 0 0 0 0 
0 0 0 0 0 0 0 0 0 
0 0 0 0 0 0 0 0 0 
0 0 0 0 0 0 0 0 0 
0 0 0 0 0 0 0 0 0 
0 0 0 0 0 0 0 0 0 
0 0 0 0 0 0 0 0 0 
0 0 0 0 0 0 0 0 0 
0 0 0 0 0 0 0 0 0 
0 0 0 0 0 0 0 0 0 
0 0 0 0 0 0 0 0 0 
0 0 0 0 0 0 0 0 0 
0 0 0 0 0 0 0 0 0 
0 0 0 0 0 0 0 0 0 
0 0 0 0 0 0 0 0 0 
0 0 0 0 0 0 0 0 0 
0 0 0 0 0 0 0 0 0 
0 0 0 0 0 0 0 0 0 
0 0 0 0 0 0 0 0 0 
0 0 0 0 0 0 0 0 0 
0 0 0 0 0 0 0 0 0 
0 0 0 0 0 0 0 0 0 
0 0 0 0 0 0 0 0 0 
0 0 0 0 0 0 0 0 0 
0 0 0 0 0 0 0 0 0 
0 0 0 0 0 0 0 0 0 
0 0 0 0 0 0 0 0 0 
0 0 0 0 0 0 0 0 0 
0 0 0 0 0 0 0 0 0 
0 0 0 0 0 0 0 0 0 
0 0 0 0 0 0 0 0 0 
0 0 0 0 0 0 0 0 0 
0 0 0 0 0 0 0 0 0 
0 0 0 0 0 0 0 0 0 
0 0 0 0 0 0 0 0 0 
0 0 0 0 0 0 0 0 0 
0 0 0 0 0 0 0 0 0 
0 0 0 0 0 0 0 0 0 
0 0 0 0 0 0 0 0 0 
0 0 0 0 0 0 0 0 0 
0 0 0 0 0 0 0 0 0 
0 0 0 0 0 0 0 0 0 
0 0 0 0 0 0 0 0 0 
0 0 0 0 0 0 0 0 0 
0 0 0 0 0 0 0 0 0 
0 0 0 0 0 0 0 0 0 
0 0 0 0 0 0 0 0 0 
0 0 0 0 0 0 0 0 0 
0 0 0 0 0 0 0 0 0 
0 0 0 0 0 0 0 0 0 
0 0 0 0 0 0 0 0 0 
0 0 0 0 0 0 0 0 0 
0 0 0 0 0 0 0 0 0 
0 0 0 0 0 0 0 0 0 
0 0 0 0 0 0 0 0 0 
0 0 0 0 0 0 0 0 0 
0 0 0 0 0 0 0 0 0 
0 0 0 0 0 0 0 0 0 
0 0 0 0 0 0 0 0 0 
0 0 0 0 0 0 0 0 0 
0 0 0 0 0 0 0 0 0 
0 0 0 0 0 0 0 0 0 
0 0 0 0 0 0 0 0 0 
0 0 0 0 0 0 0 0 0 
0 0 0 0 0 0 0 0 0 
0 0 0 0 0 0 0 0 0 
0 0 0 0 0 0 0 0 0 
0 0 0 0 0 0 0 0 0 
0 0 0 0 0 0 0 0 0 
0 0 0 0 0 0 0 0 0 
0 0 0 0 0 0 0 0 0 
0 0 0 0 0 0 0 0 0 
0 0 0 0 0 0 0 0 0 
0 0 0 0 0 0 0 0 0 
0 0 0 0 0 0 0 0 0 
0 0 0 0 0 0 0 0 0 
0 0 0 0 0 0 0 0 0 
0 0 0 0 0 0 0 0 0 
0 0 0 0 0 0 0 0 0 
0 0 0 0 0 0 0 0 0 
0 0 0 0 0 0 0 0 0 
0 0 0 0 0 0 0 0 0 
0 0 0 0 0 0 0 0 0 
0 0 0 0 0 0 0 0 0 
0 0 0 0 0 0 0 0 0 
0 0 0 0 0 0 0 0 0 
0 0 0 0 0 0 0 0 0 
0 0 0 0 0 0 0 0 0 
0 0 0 0 0 0 0 0 0 
0 0 0 0 0 0 0 0 0 
0 0 0 0 0 0 0 0 0 
0 0 0 0 0 0 0 0 0 
0 0 0 0 0 0 0 0 0 
0 0 0 0 0 0 0 0 0 
0 0 0 0 0 0 0 0 0 
0 0 0 0 0 0 0 0 0 
0 0 0 0 0 0 0 0 0 
0 0 0 0 0 0 0 0 0 
0 0 0 0 0 0 0 0 0 
0 0 0 0 0 0 0 0 0 
0 0 0 0 0 0 0 0 0 
0 0 0 0 0 0 0 0 0 
0 0 0 0 0 0 0 0 0 
0 0 0 0 0 0 0 0 0 
0 0 0 0 0 0 0 0 0 
0 0 0 0 0 0 0 0 0 
0 0 0 0 0 0 0 0 0 
0 0 0 0 0 0 0 0 0 
0 0 0 0 0 0 0 0 0 
0 0 0 0 0 0 0 0 0 
0 0 0 0 0 0 0 0 0 
0 0 0 0 0 0 0 0 0 
0 0 0 0 0 0 0 0 0 
0 0 0 0 0 0 0 0 0 
0 0 0 0 0 0 0 0 0 
0 0 0 0 0 0 0 0 0 
0 0 0 0 0 0 0 0 0 
0 0 0 0 0 0 0 0 0 
0 0 0 0 0 0 0 0 0 
0 0 0 0 0 0 0 0 0 
0 0 0 0 0 0 0 0 0 
0 0 0 0 0 0 0 0 0 
0 0 0 0 0 0 0 0 0 
0 0 0 0 0 0 0 0 0 
0 0 0 0 0 0 0 0 0 
0 0 0 0 0 0 0 0 0 
0 0 0 0 0 0 0 0 0 
0 0 0 0 0 0 0 0 0 
0 0 0 0 0 0 0 0 0 
0 0 0 0 0 0 0 0 0 
0 0 0 0 0 0 0 0 0 
0 0 0 0 0 0 0 0 0 
0 0 0 0 0 0 0 0 0 
0 0 0 0 0 0 0 0 0 
0 0 0 0 0 0 0 0 0 
0 0 0 0 0 0 0 0 0 
0 0 0 0 0 0 0 0 0 
0 0 0 0 0 0 0 0 0 
0 0 0 0 0 0 0 0 0 
0 0 0 0 0 0 0 0 0 
0 0 0 0 0 0 0 0 0 
0 0 0 0 0 0 0 0 0 
0 0 0 0 0 0 0 0 0 
0 0 0 0 0 0 0 0 0 
0 0 0 0 0 0 0 0 0 
0 0 0 0 0 0 0 0 0 
0 0 0 0 0 0 0 0 0 
0 0 0 0 0 0 0 0 0 
0 0 0 0 0 0 0 0 0 
0 0 0 0 0 0 0 0 0 
0 0 0 0 0 0 0 0 0 
0 0 0 0 0 0 0 0 0 
0 0 0 0 0 0 0 0 0 
0 0 0 0 0 0 0 0 0 
0 0 0 0 0 0 0 0 0 
0 0 0 0 0 0 0 0 0 
0 0 0 0 0 0 0 0 0 
0 0 0 0 0 0 0 0 0 
0 0 0 0 0 0 0 0 0 
0 0 0 0 0 0 0 0 0 
0 0 0 0 0 0 0 0 0 
0 0 0 0 0 0 0 0 0 
0 0 0 0 0 0 0 0 0 
0 0 0 0 0 0 0 0 0 
0 0 0 0 0 0 0 0 0 
0 0 0 0 0 0 0 0 0 
0 0 0 0 0 0 0 0 0 
0 0 0 0 0 0 0 0 0 
0 0 0 0 0 0 0 0 0 
0 0 0 0 0 0 0 0 0 
0 0 0 0 0 0 0 0 0 
0 0 0 0 0 0 0 0 0 
0 0 0 0 0 0 0 0 0 
0 0 0 0 0 0 0 0 0 
0 0 0 0 0 0 0 0 0 
0 0 0 0 0 0 0 0 0 
0 0 0 0 0 0 0 0 0 
0 0 0 0 0 0 0 0 0 
0 0 0 0 0 0 0 0 0 
0 0 0 0 0 0 0 0 0 
0 0 0 0 0 0 0 0 0 
0 0 0 0 0 0 0 0 0 
0 0 0 0 0 0 0 0 0 
0 0 0 0 0 0 0 0 0 
0 0 0 0 0 0 0 0 0 
0 0 0 0 0 0 0 0 0 
0 0 0 0 0 0 0 0 0 
0 0 0 0 0 0 0 0 0 
0 0 0 0 0 0 0 0 0 
0 0 0 0 0 0 0 0 0 
0 0 0 0 0 0 0 0 0 
0 0 0 0 0 0 0 0 0 
0 0 0 0 0 0 0 0 0 
0 0 0 0 0 0 0 0 0 
0 0 0 0 0 0 0 0 0 
0 0 0 0 0 0 0 0 0 
0 0 0 0 0 0 0 0 0 
0 0 0 0 0 0 0 0 0 
0 0 0 0 0 0 0 0 0 
0 0 0 0 0 0 0 0 0 
0 0 0 0 0 0 0 0 0 
0 0 0 0 0 0 0 0 0 
0 0 0 0 0 0 0 0 0 
0 0 0 0 0 0 0 0 0 
0 0 0 0 0 0 0 0 0 
0 0 0 0 0 0 0 0 0 
0 0 0 0 0 0 0 0 0 
0 0 0 0 0 0 0 0 0 
0 0 0 0 0 0 0 0 0 
0 0 0 0 0 0 0 0 0 
0 0 0 0 0 0 0 0 0 
0 0 0 0 0 0 0 0 0 
0 0 0 0 0 0 0 0 0 
0 0 0 0 0 0 0 0 0 
0 0 0 0 0 0 0 0 0 
0 0 0 0 0 0 0 0 0 
0 0 0 0 0 0 0 0 0 
0 0 0 0 0 0 0 0 0 
0 0 0 0 0 0 0 0 0 
0 0 0 0 0 0 0 0 0 
0 0 0 0 0 0 0 0 0 
0 0 0 0 0 0 0 0 0 
0 0 0 0 0 0 0 0 0 
0 0 0 0 0 0 0 0 0 
0 0 0 0 0 0 0 0 0 
0 0 0 0 0 0 0 0 0 
0 0 0 0 0 0 0 0 0 
0 0 0 0 0 0 0 0 0 
0 0 0 0 0 0 0 0 0 
0 0 0 0 0 0 0 0 0 
0 0 0 0 0 0 0 0 0 
0 0 0 0 0 0 0 0 0 
0 0 0 0 0 0 0 0 0 
0 0 0 0 0 0 0 0 0 
0 0 0 0 0 0 0 0 0 
0 0 0 0 0 0 0 0 0 
0 0 0 0 0 0 0 0 0 
0 0 0 0 0 0 0 0 0 
0 0 0 0 0 0 0 0 0 
0 0 0 0 0 0 0 0 0 
0 0 0 0 0 0 0 0 0 
0 0 0 0 0 0 0 0 0 
0 0 0 0 0 0 0 0 0 
0 0 0 0 0 0 0 0 0 
0 0 0 0 0 0 0 0 0 
0 0 0 0 0 0 0 0 0 
0 0 0 0 0 0 0 0 0 
0 0 0 0 0 0 0 0 0 
0 0 0 0 0 0 0 0 0 
0 0 0 0 0 0 0 0 0 
0 0 0 0 0 0 0 0 0 
0 0 0 0 0 0 0 0 0 
0 0 0 0 0 0 0 0 0 
0 0 0 0 0 0 0 0 0 
0 0 0 0 0 0 0 0 0 
0 0 0 0 0 0 0 0 0 
0 0 0 0 0 0 0 0 0 
0 0 0 0 0 0 0 0 0 
0 0 0 0 0 0 0 0 0 
0 0 0 0 0 0 0 0 0 
0 0 0 0 0 0 0 0 0 
0 0 0 0 0 0 0 0 0 
0 0 0 0 0 0 0 0 0 
0 0 0 0 0 0 0 0 0 
0 0 0 0 0 0 0 0 0 
0 0 0 0 0 0 0 0 0 
0 0 0 0 0 0 0 0 0 
0 0 0 0 0 0 0 0 0 
0 0 0 0 0 0 0 0 0 
0 0 0 0 0 0 0 0 0 
0 0 0 0 0 0 0 0 0 
0 0 0 0 0 0 0 0 0 
0 0 0 0 0 0 0 0 0 
0 0 0 0 0 0 0 0 0 
0 0 0 0 0 0 0 0 0 
0 0 0 0 0 0 0 0 0 
0 0 0 0 0 0 0 0 0 
0 0 0 0 0 0 0 0 0 
0 0 0 0 0 0 0 0 0 
0 0 0 0 0 0 0 0 0 
0 0 0 0 0 0 0 0 0 
0 0 0 0 0 0 0 0 0 
0 0 0 0 0 0 0 0 0 
0 0 0 0 0 0 0 0 0 
0 0 0 0 0 0 0 0 0 
0 0 0 0 0 0 0 0 0 
0 0 0 0 0 0 0 0 0 
0 0 0 0 0 0 0 0 0 
0 0 0 0 0 0 0 0 0 
0 0 0 0 0 0 0 0 0 
0 0 0 0 0 0 0 0 0 
0 0 0 0 0 0 0 0 0 
0 0 0 0 0 0 0 0 0 
0 0 0 0 0 0 0 0 0 
0 0 0 0 0 0 0 0 0 
0 0 0 0 0 0 0 0 0 
0 0 0 0 0 0 0 0 0 
0 0 0 0 0 0 0 0 0 
0 0 0 0 0 0 0 0 0 
0 0 0 0 0 0 0 0 0 
0 0 0 0 0 0 0 0 0 
0 0 0 0 0 0 0 0 0 
0 0 0 0 0 0 0 0 0 
0 0 0 0 0 0 0 0 0 
0 0 0 0 0 0 0 0 0 
0 0 0 0 0 0 0 0 0 
0 0 0 0 0 0 0 0 0 
0 0 0 0 0 0 0 0 0 
0 0 0 0 0 0 0 0 0 
0 0 0 0 0 0 0 0 0 
0 0 0 0 0 0 0 0 0 
0 0 0 0 0 0 0 0 0 
0 0 0 0 0 0 0 0 0 
0 0 0 0 0 0 0 0 0 
0 0 0 0 0 0 0 0 0 
0 0 0 0 0 0 0 0 0 
0 0 0 0 0 0 0 0 0 
0 0 0 0 0 0 0 0 0 
0 0 0 0 0 0 0 0 0 
0 0 0 0 0 0 0 0 0 
0 0 0 0 0 0 0 0 0 
0 0 0 0 0 0 0 0 0 
0 0 0 0 0 0 0 0 0 
0 0 0 0 0 0 0 0 0 
0 0 0 0 0 0 0 0 0 
0 0 0 0 0 0 0 0 0 
0 0 0 0 0 0 0 0 0 
0 0 0 0 0 0 0 0 0 
0 0 0 0 0 0 0 0 0 
0 0 0 0 0 0 0 0 0 
0 0 0 0 0 0 0 0 0 
0 0 0 0 0 0 0 0 0 
0 0 0 0 0 0 0 0 0 
0 0 0 0 0 0 0 0 0 
0 0 0 0 0 0 0 0 0 
0 0 0 0 0 0 0 0 0 
0 0 0 0 0 0 0 0 0 
0 0 0 0 0 0 0 0 0 
0 0 0 0 0 0 0 0 0 
0 0 0 0 0 0 0 0 0 
0 0 0 0 0 0 0 0 0 
0 0 0 0 0 0 0 0 0 
0 0 0 0 0 0 0 0 0 
0 0 0 0 0 0 0 0 0 
0 0 0 0 0 0 0 0 0 
0 0 0 0 0 0 0 0 0 
0 0 0 0 0 0 0 0 0 
0 0 0 0 0 0 0 0 0 
0 0 0 0 0 0 0 0 0 
0 0 0 0 0 0 0 0 0 
0 0 0 0 0 0 0 0 0 
0 0 0 0 0 0 0 0 0 
0 0 0 0 0 0 0 0 0 
0 0 0 0 0 0 0 0 0 
0 0 0 0 0 0 0 0 0 
0 0 0 0 0 0 0 0 0 
0 0 0 0 0 0 0 0 0 
0 0 0 0 0 0 0 0 0 
0 0 0 0 0 0 0 0 0 
0 0 0 0 0 0 0 0 0 
0 0 0 0 0 0 0 0 0 
0 0 0 0 0 0 0 0 0 
0 0 0 0 0 0 0 0 0 
0 0 0 0 0 0 0 0 0 
0 0 0 0 0 0 0 0 0 
0 0 0 0 0 0 0 0 0 
0 0 0 0 0 0 0 0 0 
0 0 0 0 0 0 0 0 0 
0 0 0 0 0 0 0 0 0 
0 0 0 0 0 0 0 0 0 
0 0 0 0 0 0 0 0 0 
0 0 0 0 0 0 0 0 0 
0 0 0 0 0 0 0 0 0 
0 0 0 0 0 0 0 0 0 
0 0 0 0 0 0 0 0 0 
0 0 0 0 0 0 0 0 0 
0 0 0 0 0 0 0 0 0 
0 0 0 0 0 0 0 0 0 
0 0 0 0 0 0 0 0 0 
0 0 0 0 0 0 0 0 0 
0 0 0 0 0 0 0 0 0 
0 0 0 0 0 0 0 0 0 
0 0 0 0 0 0 0 0 0 
0 0 0 0 0 0 0 0 0 
0 0 0 0 0 0 0 0 0 
0 0 0 0 0 0 0 0 0 
0 0 0 0 0 0 0 0 0 
0 0 0 0 0 0 0 0 0 
0 0 0 0 0 0 0 0 0 
0 0 0 0 0 0 0 0 0 
0 0 0 0 0 0 0 0 0 
0 0 0 0 0 0 0 0 0 
0 0 0 0 0 0 0 0 0 
0 0 0 0 0 0 0 0 0 
0 0 0 0 0 0 0 0 0 
0 0 0 0 0 0 0 0 0 
0 0 0 0 0 0 0 0 0 
0 0 0 0 0 0 0 0 0 
0 0 0 0 0 0 0 0 0 
0 0 0 0 0 0 0 0 0 
0 0 0 0 0 0 0 0 0 
0 0 0 0 0 0 0 0 0 
0 0 0 0 0 0 0 0 0 
0 0 0 0 0 0 0 0 0 
0 0 0 0 0 0 0 0 0 
0 0 0 0 0 0 0 0 0 
0 0 0 0 0 0 0 0 0 
0 0 0 0 0 0 0 0 0 
0 0 0 0 0 0 0 0 0 
0 0 0 0 0 0 0 0 0 
0 0 0 0 0 0 0 0 0 
0 0 0 0 0 0 0 0 0 
0 0 0 0 0 0 0 0 0 
0 0 0 0 0 0 0 0 0 
0 0 0 0 0 0 0 0 0 
0 0 0 0 0 0 0 0 0 
0 0 0 0 0 0 0 0 0 
0 0 0 0 0 0 0 0 0 
0 0 0 0 0 0 0 0 0 
0 0 0 0 0 0 0 0 0 
0 0 0 0 0 0 0 0 0 
0 0 0 0 0 0 0 0 0 
0 0 0 0 0 0 0 0 0 
0 0 0 0 0 0 0 0 0 
0 0 0 0 0 0 0 0 0 
0 0 0 0 0 0 0 0 0 
0 0 0 0 0 0 0 0 0 
0 0 0 0 0 0 0 0 0 
0 0 0 0 0 0 0 0 0 
0 0 0 0 0 0 0 0 0 
0 0 0 0 0 0 0 0 0 
0 0 0 0 0 0 0 0 0 
0 0 0 0 0 0 0 0 0 
0 0 0 0 0 0 0 0 0 
0 0 0 0 0 0 0 0 0 
0 0 0 0 0 0 0 0 0 
0 0 0 0 0 0 0 0 0 
0 0 0 0 0 0 0 0 0 
0 0 0 0 0 0 0 0 0 
0 0 0 0 0 0 0 0 0 
0 0 0 0 0 0 0 0 0 
0 0 0 0 0 0 0 0 0 
0 0 0 0 0 0 0 0 0 
0 0 0 0 0 0 0 0 0 
0 0 0 0 0 0 0 0 0 
0 0 0 0 0 0 0 0 0 
0 0 0 0 0 0 0 0 0 
0 0 0 0 0 0 0 0 0 
0 0 0 0 0 0 0 0 0 
0 0 0 0 0 0 0 0 0 
0 0 0 0 0 0 0 0 0 
0 0 0 0 0 0 0 0 0 
0 0 0 0 0 0 0 0 0 
0 0 0 0 0 0 0 0 0 
0 0 0 0 0 0 0 0 0 
0 0 0 0 0 0 0 0 0 
0 0 0 0 0 0 0 0 0 
0 0 0 0 0 0 0 0 0 
0 0 0 0 0 0 0 0 0 
0 0 0 0 0 0 0 0 0 
0 0 0 0 0 0 0 0 0 
0 0 0 0 0 0 0 0 0 
0 0 0 0 0 0 0 0 0 
0 0 0 0 0 0 0 0 0 
0 0 0 0 0 0 0 0 0 
0 0 0 0 0 0 0 0 0 
0 0 0 0 0 0 0 0 0 
0 0 0 0 0 0 0 0 0 
0 0 0 0 0 0 0 0 0 
0 0 0 0 0 0 0 0 0 
0 0 0 0 0 0 0 0 0 
0 0 0 0 0 0 0 0 0 
0 0 0 0 0 0 0 0 0 
0 0 0 0 0 0 0 0 0 
0 0 0 0 0 0 0 0 0 
0 0 0 0 0 0 0 0 0 
0 0 0 0 0 0 0 0 0 
0 0 0 0 0 0 0 0 0 
0 0 0 0 0 0 0 0 0 
0 0 0 0 0 0 0 0 0 
0 0 0 0 0 0 0 0 0 
0 0 0 0 0 0 0 0 0 
0 0 0 0 0 0 0 0 0 
0 0 0 0 0 0 0 0 0 
0 0 0 0 0 0 0 0 0 
0 0 0 0 0 0 0 0 0 
0 0 0 0 0 0 0 0 0 
0 0 0 0 0 0 0 0 0 
0 0 0 0 0 0 0 0 0 
0 0 0 0 0 0 0 0 0 
0 0 0 0 0 0 0 0 0 
0 0 0 0 0 0 0 0 0 
0 0 0 0 0 0 0 0 0 
0 0 0 0 0 0 0 0 0 
0 0 0 0 0 0 0 0 0 
0 0 0 0 0 0 0 0 0 
0 0 0 0 0 0 0 0 0 
0 0 0 0 0 0 0 0 0 
0 0 0 0 0 0 0 0 0 
0 0 0 0 0 0 0 0 0 
0 0 0 0 0 0 0 0 0 
0 0 0 0 0 0 0 0 0 
0 0 0 0 0 0 0 0 0 
0 0 0 0 0 0 0 0 0 
0 0 0 0 0 0 0 0 0 
0 0 0 0 0 0 0 0 0 
0 0 0 0 0 0 0 0 0 
0 0 0 0 0 0 0 0 0 
0 0 0 0 0 0 0 0 0 
0 0 0 0 0 0 0 0 0 
0 0 0 0 0 0 0 0 0 
0 0 0 0 0 0 0 0 0 
0 0 0 0 0 0 0 0 0 
0 0 0 0 0 0 0 0 0 
0 0 0 0 0 0 0 0 0 
0 0 0 0 0 0 0 0 0 
0 0 0 0 0 0 0 0 0 
0 0 0 0 0 0 0 0 0 
0 0 0 0 0 0 0 0 0 
0 0 0 0 0 0 0 0 0 
0 0 0 0 0 0 0 0 0 
0 0 0 0 0 0 0 0 0 
0 0 0 0 0 0 0 0 0 
0 0 0 0 0 0 0 0 0 
0 0 0 0 0 0 0 0 0 
0 0 0 0 0 0 0 0 0 
0 0 0 0 0 0 0 0 0 
0 0 0 0 0 0 0 0 0 
0 0 0 0 0 0 0 0 0 
0 0 0 0 0 0 0 0 0 
0 0 0 0 0 0 0 0 0 
0 0 0 0 0 0 0 0 0 
0 0 0 0 0 0 0 0 0 
0 0 0 0 0 0 0 0 0 
0 0 0 0 0 0 0 0 0 
0 0 0 0 0 0 0 0 0 
0 0 0 0 0 0 0 0 0 
0 0 0 0 0 0 0 0 0 
0 0 0 0 0 0 0 0 0 
0 0 0 0 0 0 0 0 0 
0 0 0 0 0 0 0 0 0 
0 0 0 0 0 0 0 0 0 
0 0 0 0 0 0 0 0 0 
0 0 0 0 0 0 0 0 0 
0 0 0 0 0 0 0 0 0 
0 0 0 0 0 0 0 0 0 
0 0 0 0 0 0 0 0 0 
0 0 0 0 0 0 0 0 0 
0 0 0 0 0 0 0 0 0 
0 0 0 0 0 0 0 0 0 
0 0 0 0 0 0 0 0 0 
0 0 0 0 0 0 0 0 0 
0 0 0 0 0 0 0 0 0 
0 0 0 0 0 0 0 0 0 
0 0 0 0 0 0 0 0 0 
0 0 0 0 0 0 0 0 0 
0 0 0 0 0 0 0 0 0 
0 0 0 0 0 0 0 0 0 
0 0 0 0 0 0 0 0 0 
0 0 0 0 0 0 0 0 0 
0 0 0 0 0 0 0 0 0 
0 0 0 0 0 0 0 0 0 
0 0 0 0 0 0 0 0 0 
0 0 0 0 0 0 0 0 0 
0 0 0 0 0 0 0 0 0 
0 0 0 0 0 0 0 0 0 
0 0 0 0 0 0 0 0 0 
0 0 0 0 0 0 0 0 0 
0 0 0 0 0 0 0 0 0 
0 0 0 0 0 0 0 0 0 
0 0 0 0 0 0 0 0 0 
0 0 0 0 0 0 0 0 0 
0 0 0 0 0 0 0 0 0 
0 0 0 0 0 0 0 0 0 
0 0 0 0 0 0 0 0 0 
0 0 0 0 0 0 0 0 0 
0 0 0 0 0 0 0 0 0 
0 0 0 0 0 0 0 0 0 
0 0 0 0 0 0 0 0 0 
0 0 0 0 0 0 0 0 0 
0 0 0 0 0 0 0 0 0 
0 0 0 0 0 0 0 0 0 
0 0 0 0 0 0 0 0 0 
0 0 0 0 0 0 0 0 0 
0 0 0 0 0 0 0 0 0 
0 0 0 0 0 0 0 0 0 
0 0 0 0 0 0 0 0 0 
0 0 0 0 0 0 0 0 0 
0 0 0 0 0 0 0 0 0 
0 0 0 0 0 0 0 0 0 
0 0 0 0 0 0 0 0 0 
0 0 0 0 0 0 0 0 0 
0 0 0 0 0 0 0 0 0 
0 0 0 0 0 0 0 0 0 
0 0 0 0 0 0 0 0 0 
0 0 0 0 0 0 0 0 0 
0 0 0 0 0 0 0 0 0 
0 0 0 0 0 0 0 0 0 
0 0 0 0 0 0 0 0 0 
0 0 0 0 0 0 0 0 0 
0 0 0 0 0 0 0 0 0 
0 0 0 0 0 0 0 0 0 
0 0 0 0 0 0 0 0 0 
0 0 0 0 0 0 0 0 0 
0 0 0 0 0 0 0 0 0 
0 0 0 0 0 0 0 0 0 
0 0 0 0 0 0 0 0 0 
0 0 0 0 0 0 0 0 0 
0 0 0 0 0 0 0 0 0 
0 0 0 0 0 0 0 0 0 
0 0 0 0 0 0 0 0 0 
0 0 0 0 0 0 0 0 0 
0 0 0 0 0 0 0 0 0 
0 0 0 0 0 0 0 0 0 
0 0 0 0 0 0 0 0 0 
0 0 0 0 0 0 0 0 0 
0 0 0 0 0 0 0 0 0 
0 0 0 0 0 0 0 0 0 
0 0 0 0 0 0 0 0 0 
0 0 0 0 0 0 0 0 0 
0 0 0 0 0 0 0 0 0 
0 0 0 0 0 0 0 0 0 
0 0 0 0 0 0 0 0 0 
0 0 0 0 0 0 0 0 0 
0 0 0 0 0 0 0 0 0 
0 0 0 0 0 0 0 0 0 
0 0 0 0 0 0 0 0 0 
0 0 0 0 0 0 0 0 0 
0 0 0 0 0 0 0 0 0 
0 0 0 0 0 0 0 0 0 
0 0 0 0 0 0 0 0 0 
0 0 0 0 0 0 0 0 0 
0 0 0 0 0 0 0 0 0 
0 0 0 0 0 0 0 0 0 
0 0 0 0 0 0 0 0 0 
0 0 0 0 0 0 0 0 0 
0 0 0 0 0 0 0 0 0 
0 0 0 0 0 0 0 0 0 
0 0 0 0 0 0 0 0 0 
0 0 0 0 0 0 0 0 0 
0 0 0 0 0 0 0 0 0 
0 0 0 0 0 0 0 0 0 
0 0 0 0 0 0 0 0 0 
0 0 0 0 0 0 0 0 0 
0 0 0 0 0 0 0 0 0 
0 0 0 0 0 0 0 0 0 
0 0 0 0 0 0 0 0 0 
0 0 0 0 0 0 0 0 0 
0 0 0 0 0 0 0 0 0 
0 0 0 0 0 0 0 0 0 
0 0 0 0 0 0 0 0 0 
0 0 0 0 0 0 0 0 0 
0 0 0 0 0 0 0 0 0 
0 0 0 0 0 0 0 0 0 
0 0 0 0 0 0 0 0 0 
0 0 0 0 0 0 0 0 0 
0 0 0 0 0 0 0 0 0 
0 0 0 0 0 0 0 0 0 
0 0 0 0 0 0 0 0 0 
0 0 0 0 0 0 0 0 0 
0 0 0 0 0 0 0 0 0 
0 0 0 0 0 0 0 0 0 
0 0 0 0 0 0 0 0 0 
0 0 0 0 0 0 0 0 0 
0 0 0 0 0 0 0 0 0 
0 0 0 0 0 0 0 0 0 
0 0 0 0 0 0 0 0 0 
0 0 0 0 0 0 0 0 0 
0 0 0 0 0 0 0 0 0 
0 0 0 0 0 0 0 0 0 
0 0 0 0 0 0 0 0 0 
0 0 0 0 0 0 0 0 0 
0 0 0 0 0 0 0 0 0 
0 0 0 0 0 0 0 0 0 
0 0 0 0 0 0 0 0 0 
0 0 0 0 0 0 0 0 0 
0 0 0 0 0 0 0 0 0 
0 0 0 0 0 0 0 0 0 
0 0 0 0 0 0 0 0 0 
0 0 0 0 0 0 0 0 0 
0 0 0 0 0 0 0 0 0 
0 0 0 0 0 0 0 0 0 
0 0 0 0 0 0 0 0 0 
0 0 0 0 0 0 0 0 0 
0 0 0 0 0 0 0 0 0 
0 0 0 0 0 0 0 0 0 
0 0 0 0 0 0 0 0 0 
0 0 0 0 0 0 0 0 0 
0 0 0 0 0 0 0 0 0 
0 0 0 0 0 0 0 0 0 
0 0 0 0 0 0 0 0 0 
0 0 0 0 0 0 0 0 0 
0 0 0 0 0 0 0 0 0 
0 0 0 0 0 0 0 0 0 
0 0 0 0 0 0 0 0 0 
0 0 0 0 0 0 0 0 0 
0 0 0 0 0 0 0 0 0 
0 0 0 0 0 0 0 0 0 
0 0 0 0 0 0 0 0 0 
0 0 0 0 0 0 0 0 0 
0 0 0 0 0 0 0 0 0 
0 0 0 0 0 0 0 0 0 
0 0 0 0 0 0 0 0 0 
0 0 0 0 0 0 0 0 0 
0 0 0 0 0 0 0 0 0 
0 0 0 0 0 0 0 0 0 
0 0 0 0 0 0 0 0 0 
0 0 0 0 0 0 0 0 0 
0 0 0 0 0 0 0 0 0 
0 0 0 0 0 0 0 0 0 
0 0 0 0 0 0 0 0 0 
0 0 0 0 0 0 0 0 0 
0 0 0 0 0 0 0 0 0 
0 0 0 0 0 0 0 0 0 
0 0 0 0 0 0 0 0 0 
0 0 0 0 0 0 0 0 0 
0 0 0 0 0 0 0 0 0 
0 0 0 0 0 0 0 0 0 
0 0 0 0 0 0 0 0 0 
0 0 0 0 0 0 0 0 0 
0 0 0 0 0 0 0 0 0 
0 0 0 0 0 0 0 0 0 
0 0 0 0 0 0 0 0 0 
0 0 0 0 0 0 0 0 0 
0 0 0 0 0 0 0 0 0 
0 0 0 0 0 0 0 0 0 
0 0 0 0 0 0 0 0 0 
0 0 0 0 0 0 0 0 0 
0 0 0 0 0 0 0 0 0 
0 0 0 0 0 0 0 0 0 
0 0 0 0 0 0 0 0 0 
0 0 0 0 0 0 0 0 0 
0 0 0 0 0 0 0 0 0 
0 0 0 0 0 0 0 0 0 
0 0 0 0 0 0 0 0 0 
0 0 0 0 0 0 0 0 0 
0 0 0 0 0 0 0 0 0 
0 0 0 0 0 0 0 0 0 
0 0 0 0 0 0 0 0 0 
0 0 0 0 0 0 0 0 0 
0 0 0 0 0 0 0 0 0 
0 0 0 0 0 0 0 0 0 
0 0 0 0 0 0 0 0 0 
0 0 0 0 0 0 0 0 0 
0 0 0 0 0 0 0 0 0 
0 0 0 0 0 0 0 0 0 
0 0 0 0 0 0 0 0 0 
0 0 0 0 0 0 0 0 0 
0 0 0 0 0 0 0 0 0 
0 0 0 0 0 0 0 0 0 
0 0 0 0 0 0 0 0 0 
0 0 0 0 0 0 0 0 0 
0 0 0 0 0 0 0 0 0 
0 0 0 0 0 0 0 0 0 
0 0 0 0 0 0 0 0 0 
0 0 0 0 0 0 0 0 0 
0 0 0 0 0 0 0 0 0 
0 0 0 0 0 0 0 0 0 
0 0 0 0 0 0 0 0 0 
0 0 0 0 0 0 0 0 0 
0 0 0 0 0 0 0 0 0 
0 0 0 0 0 0 0 0 0 
0 0 0 0 0 0 0 0 0 
0 0 0 0 0 0 0 0 0 
0 0 0 0 0 0 0 0 0 
0 0 0 0 0 0 0 0 0 
0 0 0 0 0 0 0 0 0 
0 0 0 0 0 0 0 0 0 
0 0 0 0 0 0 0 0 0 
0 0 0 0 0 0 0 0 0 
0 0 0 0 0 0 0 0 0 
0 0 0 0 0 0 0 0 0 
0 0 0 0 0 0 0 0 0 
0 0 0 0 0 0 0 0 0 
0 0 0 0 0 0 0 0 0 
0 0 0 0 0 0 0 0 0 
0 0 0 0 0 0 0 0 0 
0 0 0 0 0 0 0 0 0 
0 0 0 0 0 0 0 0 0 
0 0 0 0 0 0 0 0 0 
0 0 0 0 0 0 0 0 0 
0 0 0 0 0 0 0 0 0 
0 0 0 0 0 0 0 0 0 
0 0 0 0 0 0 0 0 0 
0 0 0 0 0 0 0 0 0 
0 0 0 0 0 0 0 0 0 
0 0 0 0 0 0 0 0 0 
0 0 0 0 0 0 0 0 0 
0 0 0 0 0 0 0 0 0 
0 0 0 0 0 0 0 0 0 
0 0 0 0 0 0 0 0 0 
0 0 0 0 0 0 0 0 0 
0 0 0 0 0 0 0 0 0 
0 0 0 0 0 0 0 0 0 
0 0 0 0 0 0 0 0 0 
0 0 0 0 0 0 0 0 0 
0 0 0 0 0 0 0 0 0 
0 0 0 0 0 0 0 0 0 
0 0 0 0 0 0 0 0 0 
0 0 0 0 0 0 0 0 0 
0 0 0 0 0 0 0 0 0 
0 0 0 0 0 0 0 0 0 
0 0 0 0 0 0 0 0 0 
0 0 0 0 0 0 0 0 0 
0 0 0 0 0 0 0 0 0 
0 0 0 0 0 0 0 0 0 
0 0 0 0 0 0 0 0 0 
0 0 0 0 0 0 0 0 0 
0 0 0 0 0 0 0 0 0 
0 0 0 0 0 0 0 0 0 
0 0 0 0 0 0 0 0 0 
0 0 0 0 0 0 0 0 0 
0 0 0 0 0 0 0 0 0 
0 0 0 0 0 0 0 0 0 
0 0 0 0 0 0 0 0 0 
0 0 0 0 0 0 0 0 0 
0 0 0 0 0 0 0 0 0 
0 0 0 0 0 0 0 0 0 
0 0 0 0 0 0 0 0 0 
0 0 0 0 0 0 0 0 0 
0 0 0 0 0 0 0 0 0 
0 0 0 0 0 0 0 0 0 
0 0 0 0 0 0 0 0 0 
0 0 0 0 0 0 0 0 0 
0 0 0 0 0 0 0 0 0 
0 0 0 0 0 0 0 0 0 
0 0 0 0 0 0 0 0 0 
0 0 0 0 0 0 0 0 0 
0 0 0 0 0 0 0 0 0 
0 0 0 0 0 0 0 0 0 
0 0 0 0 0 0 0 0 0 
0 0 0 0 0 0 0 0 0 
0 0 0 0 0 0 0 0 0 
0 0 0 0 0 0 0 0 0 
0 0 0 0 0 0 0 0 0 
0 0 0 0 0 0 0 0 0 
0 0 0 0 0 0 0 0 0 
0 0 0 0 0 0 0 0 0 
0 0 0 0 0 0 0 0 0 
0 0 0 0 0 0 0 0 0 
0 0 0 0 0 0 0 0 0 
0 0 0 0 0 0 0 0 0 
0 0 0 0 0 0 0 0 0 
0 0 0 0 0 0 0 0 0 
0 0 0 0 0 0 0 0 0 
0 0 0 0 0 0 0 0 0 
0 0 0 0 0 0 0 0 0 
0 0 0 0 0 0 0 0 0 
0 0 0 0 0 0 0 0 0 
0 0 0 0 0 0 0 0 0 
0 0 0 0 0 0 0 0 0 
0 0 0 0 0 0 0 0 0 
0 0 0 0 0 0 0 0 0 
0 0 0 0 0 0 0 0 0 
0 0 0 0 0 0 0 0 0 
0 0 0 0 0 0 0 0 0 
0 0 0 0 0 0 0 0 0 
0 0 0 0 0 0 0 0 0 
0 0 0 0 0 0 0 0 0 
0 0 0 0 0 0 0 0 0 
0 0 0 0 0 0 0 0 0 
0 0 0 0 0 0 0 0 0 
0 0 0 0 0 0 0 0 0 
0 0 0 0 0 0 0 0 0 
0 0 0 0 0 0 0 0 0 
0 0 0 0 0 0 0 0 0 
0 0 0 0 0 0 0 0 0 
0 0 0 0 0 0 0 0 0 
0 0 0 0 0 0 0 0 0 
0 0 0 0 0 0 0 0 0 
0 0 0 0 0 0 0 0 0 
0 0 0 0 0 0 0 0 0 
0 0 0 0 0 0 0 0 0 
0 0 0 0 0 0 0 0 0 
0 0 0 0 0 0 0 0 0 
0 0 0 0 0 0 0 0 0 
0 0 0 0 0 0 0 0 0 
0 0 0 0 0 0 0 0 0 
0 0 0 0 0 0 0 0 0 
0 0 0 0 0 0 0 0 0 
0 0 0 0 0 0 0 0 0 
0 0 0 0 0 0 0 0 0 
0 0 0 0 0 0 0 0 0 
0 0 0 0 0 0 0 0 0 
0 0 0 0 0 0 0 0 0 
0 0 0 0 0 0 0 0 0 
0 0 0 0 0 0 0 0 0 
0 0 0 0 0 0 0 0 0 
0 0 0 0 0 0 0 0 0 
0 0 0 0 0 0 0 0 0 
0 0 0 0 0 0 0 0 0 
0 0 0 0 0 0 0 0 0 
0 0 0 0 0 0 0 0 0 
0 0 0 0 0 0 0 0 0 
0 0 0 0 0 0 0 0 0 
0 0 0 0 0 0 0 0 0 
0 0 0 0 0 0 0 0 0 
0 0 0 0 0 0 0 0 0 
0 0 0 0 0 0 0 0 0 
0 0 0 0 0 0 0 0 0 
0 0 0 0 0 0 0 0 0 
0 0 0 0 0 0 0 0 0 
0 0 0 0 0 0 0 0 0 
0 0 0 0 0 0 0 0 0 
0 0 0 0 0 0 0 0 0 
0 0 0 0 0 0 0 0 0 
0 0 0 0 0 0 0 0 0 
0 0 0 0 0 0 0 0 0 
0 0 0 0 0 0 0 0 0 
0 0 0 0 0 0 0 0 0 
0 0 0 0 0 0 0 0 0 
0 0 0 0 0 0 0 0 0 
0 0 0 0 0 0 0 0 0 
0 0 0 0 0 0 0 0 0 
0 0 0 0 0 0 0 0 0 
0 0 0 0 0 0 0 0 0 
0 0 0 0 0 0 0 0 0 
0 0 0 0 0 0 0 0 0 
0 0 0 0 0 0 0 0 0 
0 0 0 0 0 0 0 0 0 
0 0 0 0 0 0 0 0 0 
0 0 0 0 0 0 0 0 0 
0 0 0 0 0 0 0 0 0 
0 0 0 0 0 0 0 0 0 
0 0 0 0 0 0 0 0 0 
0 0 0 0 0 0 0 0 0 
0 0 0 0 0 0 0 0 0 
0 0 0 0 0 0 0 0 0 
0 0 0 0 0 0 0 0 0 
0 0 0 0 0 0 0 0 0 
0 0 0 0 0 0 0 0 0 
0 0 0 0 0 0 0 0 0 
0 0 0 0 0 0 0 0 0 
0 0 0 0 0 0 0 0 0 
0 0 0 0 0 0 0 0 0 
0 0 0 0 0 0 0 0 0 
0 0 0 0 0 0 0 0 0 
0 0 0 0 0 0 0 0 0 
0 0 0 0 0 0 0 0 0 
0 0 0 0 0 0 0 0 0 
0 0 0 0 0 0 0 0 0 
0 0 0 0 0 0 0 0 0 
0 0 0 0 0 0 0 0 0 
0 0 0 0 0 0 0 0 0 
0 0 0 0 0 0 0 0 0 
0 0 0 0 0 0 0 0 0 
0 0 0 0 0 0 0 0 0 
0 0 0 0 0 0 0 0 0 
0 0 0 0 0 0 0 0 0 
0 0 0 0 0 0 0 0 0 
0 0 0 0 0 0 0 0 0 
0 0 0 0 0 0 0 0 0 
0 0 0 0 0 0 0 0 0 
0 0 0 0 0 0 0 0 0 
0 0 0 0 0 0 0 0 0 
0 0 0 0 0 0 0 0 0 
0 0 0 0 0 0 0 0 0 
0 0 0 0 0 0 0 0 0 
0 0 0 0 0 0 0 0 0 
0 0 0 0 0 0 0 0 0 
0 0 0 0 0 0 0 0 0 
0 0 0 0 0 0 0 0 0 
0 0 0 0 0 0 0 0 0 
0 0 0 0 0 0 0 0 0 
0 0 0 0 0 0 0 0 0 
0 0 0 0 0 0 0 0 0 
0 0 0 0 0 0 0 0 0 
0 0 0 0 0 0 0 0 0 
0 0 0 0 0 0 0 0 0 
0 0 0 0 0 0 0 0 0 
0 0 0 0 0 0 0 0 0 
0 0 0 0 0 0 0 0 0 
0 0 0 0 0 0 0 0 0 
0 0 0 0 0 0 0 0 0 
0 0 0 0 0 0 0 0 0 
0 0 0 0 0 0 0 0 0 
0 0 0 0 0 0 0 0 0 
0 0 0 0 0 0 0 0 0 
0 0 0 0 0 0 0 0 0 
0 0 0 0 0 0 0 0 0 
0 0 0 0 0 0 0 0 0 
0 0 0 0 0 0 0 0 0 
0 0 0 0 0 0 0 0 0 
0 0 0 0 0 0 0 0 0 
0 0 0 0 0 0 0 0 0 
0 0 0 0 0 0 0 0 0 
0 0 0 0 0 0 0 0 0 
0 0 0 0 0 0 0 0 0 
0 0 0 0 0 0 0 0 0 
0 0 0 0 0 0 0 0 0 
0 0 0 0 0 0 0 0 0 
0 0 0 0 0 0 0 0 0 
0 0 0 0 0 0 0 0 0 
0 0 0 0 0 0 0 0 0 
0 0 0 0 0 0 0 0 0 
0 0 0 0 0 0 0 0 0 
0 0 0 0 0 0 0 0 0 
0 0 0 0 0 0 0 0 0 
0 0 0 0 0 0 0 0 0 
0 0 0 0 0 0 0 0 0 
0 0 0 0 0 0 0 0 0 
0 0 0 0 0 0 0 0 0 
0 0 0 0 0 0 0 0 0 
0 0 0 0 0 0 0 0 0 
0 0 0 0 0 0 0 0 0 
0 0 0 0 0 0 0 0 0 
0 0 0 0 0 0 0 0 0 
0 0 0 0 0 0 0 0 0 
0 0 0 0 0 0 0 0 0 
0 0 0 0 0 0 0 0 0 
0 0 0 0 0 0 0 0 0 
0 0 0 0 0 0 0 0 0 
0 0 0 0 0 0 0 0 0 
0 0 0 0 0 0 0 0 0 
0 0 0 0 0 0 0 0 0 
0 0 0 0 0 0 0 0 0 
0 0 0 0 0 0 0 0 0 
0 0 0 0 0 0 0 0 0 
0 0 0 0 0 0 0 0 0 
0 0 0 0 0 0 0 0 0 
0 0 0 0 0 0 0 0 0 
0 0 0 0 0 0 0 0 0 
0 0 0 0 0 0 0 0 0 
0 0 0 0 0 0 0 0 0 
0 0 0 0 0 0 0 0 0 
0 0 0 0 0 0 0 0 0 
0 0 0 0 0 0 0 0 0 
0 0 0 0 0 0 0 0 0 
0 0 0 0 0 0 0 0 0 
0 0 0 0 0 0 0 0 0 
0 0 0 0 0 0 0 0 0 
0 0 0 0 0 0 0 0 0 
0 0 0 0 0 0 0 0 0 
0 0 0 0 0 0 0 0 0 
0 0 0 0 0 0 0 0 0 
0 0 0 0 0 0 0 0 0 
0 0 0 0 0 0 0 0 0 
0 0 0 0 0 0 0 0 0 
0 0 0 0 0 0 0 0 0 
0 0 0 0 0 0 0 0 0 
0 0 0 0 0 0 0 0 0 
0 0 0 0 0 0 0 0 0 
0 0 0 0 0 0 0 0 0 
0 0 0 0 0 0 0 0 0 
0 0 0 0 0 0 0 0 0 
0 0 0 0 0 0 0 0 0 
0 0 0 0 0 0 0 0 0 
0 0 0 0 0 0 0 0 0 
0 0 0 0 0 0 0 0 0 
0 0 0 0 0 0 0 0 0 
0 0 0 0 0 0 0 0 0 
0 0 0 0 0 0 0 0 0 
0 0 0 0 0 0 0 0 0 
0 0 0 0 0 0 0 0 0 
0 0 0 0 0 0 0 0 0 
0 0 0 0 0 0 0 0 0 
0 0 0 0 0 0 0 0 0 
0 0 0 0 0 0 0 0 0 
0 0 0 0 0 0 0 0 0 
0 0 0 0 0 0 0 0 0 
0 0 0 0 0 0 0 0 0 
0 0 0 0 0 0 0 0 0 
0 0 0 0 0 0 0 0 0 
0 0 0 0 0 0 0 0 0 
0 0 0 0 0 0 0 0 0 
0 0 0 0 0 0 0 0 0 
0 0 0 0 0 0 0 0 0 
0 0 0 0 0 0 0 0 0 
0 0 0 0 0 0 0 0 0 
0 0 0 0 0 0 0 0 0 
0 0 0 0 0 0 0 0 0 
0 0 0 0 0 0 0 0 0 
0 0 0 0 0 0 0 0 0 
0 0 0 0 0 0 0 0 0 
0 0 0 0 0 0 0 0 0 
0 0 0 0 0 0 0 0 0 
0 0 0 0 0 0 0 0 0 
0 0 0 0 0 0 0 0 0 
0 0 0 0 0 0 0 0 0 
0 0 0 0 0 0 0 0 0 
0 0 0 0 0 0 0 0 0 
0 0 0 0 0 0 0 0 0 
0 0 0 0 0 0 0 0 0 
0 0 0 0 0 0 0 0 0 
0 0 0 0 0 0 0 0 0 
0 0 0 0 0 0 0 0 0 
0 0 0 0 0 0 0 0 0 
0 0 0 0 0 0 0 0 0 
0 0 0 0 0 0 0 0 0 
0 0 0 0 0 0 0 0 0 
0 0 0 0 0 0 0 0 0 
0 0 0 0 0 0 0 0 0 
0 0 0 0 0 0 0 0 0 
0 0 0 0 0 0 0 0 0 
0 0 0 0 0 0 0 0 0 
0 0 0 0 0 0 0 0 0 
0 0 0 0 0 0 0 0 0 
0 0 0 0 0 0 0 0 0 
0 0 0 0 0 0 0 0 0 
0 0 0 0 0 0 0 0 0 
0 0 0 0 0 0 0 0 0 
0 0 0 0 0 0 0 0 0 
0 0 0 0 0 0 0 0 0 
0 0 0 0 0 0 0 0 0 
0 0 0 0 0 0 0 0 0 
0 0 0 0 0 0 0 0 0 
0 0 0 0 0 0 0 0 0 
0 0 0 0 0 0 0 0 0 
0 0 0 0 0 0 0 0 0 
0 0 0 0 0 0 0 0 0 
0 0 0 0 0 0 0 0 0 
0 0 0 0 0 0 0 0 0 
0 0 0 0 0 0 0 0 0 
0 0 0 0 0 0 0 0 0 
0 0 0 0 0 0 0 0 0 
0 0 0 0 0 0 0 0 0 
0 0 0 0 0 0 0 0 0 
0 0 0 0 0 0 0 0 0 
0 0 0 0 0 0 0 0 0 
0 0 0 0 0 0 0 0 0 
0 0 0 0 0 0 0 0 0 
0 0 0 0 0 0 0 0 0 
0 0 0 0 0 0 0 0 0 
0 0 0 0 0 0 0 0 0 
0 0 0 0 0 0 0 0 0 
0 0 0 0 0 0 0 0 0 
0 0 0 0 0 0 0 0 0 
0 0 0 0 0 0 0 0 0 
0 0 0 0 0 0 0 0 0 
0 0 0 0 0 0 0 0 0 
0 0 0 0 0 0 0 0 0 
0 0 0 0 0 0 0 0 0 
0 0 0 0 0 0 0 0 0 
0 0 0 0 0 0 0 0 0 
0 0 0 0 0 0 0 0 0 
0 0 0 0 0 0 0 0 0 
0 0 0 0 0 0 0 0 0 
0 0 0 0 0 0 0 0 0 
0 0 0 0 0 0 0 0 0 
0 0 0 0 0 0 0 0 0 
0 0 0 0 0 0 0 0 0 
0 0 0 0 0 0 0 0 0 
0 0 0 0 0 0 0 0 0 
0 0 0 0 0 0 0 0 0 
0 0 0 0 0 0 0 0 0 
0 0 0 0 0 0 0 0 0 
0 0 0 0 0 0 0 0 0 
0 0 0 0 0 0 0 0 0 
0 0 0 0 0 0 0 0 0 
0 0 0 0 0 0 0 0 0 
0 0 0 0 0 0 0 0 0 
0 0 0 0 0 0 0 0 0 
0 0 0 0 0 0 0 0 0 
0 0 0 0 0 0 0 0 0 
0 0 0 0 0 0 0 0 0 
0 0 0 0 0 0 0 0 0 
0 0 0 0 0 0 0 0 0 
0 0 0 0 0 0 0 0 0 
0 0 0 0 0 0 0 0 0 
0 0 0 0 0 0 0 0 0 
0 0 0 0 0 0 0 0 0 
0 0 0 0 0 0 0 0 0 
0 0 0 0 0 0 0 0 0 
0 0 0 0 0 0 0 0 0 
0 0 0 0 0 0 0 0 0 
0 0 0 0 0 0 0 0 0 
0 0 0 0 0 0 0 0 0 
0 0 0 0 0 0 0 0 0 
0 0 0 0 0 0 0 0 0 
0 0 0 0 0 0 0 0 0 
0 0 0 0 0 0 0 0 0 
0 0 0 0 0 0 0 0 0 
0 0 0 0 0 0 0 0 0 
0 0 0 0 0 0 0 0 0 
0 0 0 0 0 0 0 0 0 
0 0 0 0 0 0 0 0 0 
0 0 0 0 0 0 0 0 0 
0 0 0 0 0 0 0 0 0 
0 0 0 0 0 0 0 0 0 
0 0 0 0 0 0 0 0 0 
0 0 0 0 0 0 0 0 0 
0 0 0 0 0 0 0 0 0 
0 0 0 0 0 0 0 0 0 
0 0 0 0 0 0 0 0 0 
0 0 0 0 0 0 0 0 0 
0 0 0 0 0 0 0 0 0 
0 0 0 0 0 0 0 0 0 
0 0 0 0 0 0 0 0 0 
0 0 0 0 0 0 0 0 0 
0 0 0 0 0 0 0 0 0 
0 0 0 0 0 0 0 0 0 
0 0 0 0 0 0 0 0 0 
0 0 0 0 0 0 0 0 0 
0 0 0 0 0 0 0 0 0 
0 0 0 0 0 0 0 0 0 
0 0 0 0 0 0 0 0 0 
0 0 0 0 0 0 0 0 0 
0 0 0 0 0 0 0 0 0 
0 0 0 0 0 0 0 0 0 
0 0 0 0 0 0 0 0 0 
0 0 0 0 0 0 0 0 0 
0 0 0 0 0 0 0 0 0 
0 0 0 0 0 0 0 0 0 
0 0 0 0 0 0 0 0 0 
0 0 0 0 0 0 0 0 0 
0 0 0 0 0 0 0 0 0 
0 0 0 0 0 0 0 0 0 
0 0 0 0 0 0 0 0 0 
0 0 0 0 0 0 0 0 0 
0 0 0 0 0 0 0 0 0 
0 0 0 0 0 0 0 0 0 
0 0 0 0 0 0 0 0 0 
0 0 0 0 0 0 0 0 0 
0 0 0 0 0 0 0 0 0 
0 0 0 0 0 0 0 0 0 
0 0 0 0 0 0 0 0 0 
0 0 0 0 0 0 0 0 0 
0 0 0 0 0 0 0 0 0 
0 0 0 0 0 0 0 0 0 
0 0 0 0 0 0 0 0 0 
0 0 0 0 0 0 0 0 0 
0 0 0 0 0 0 0 0 0 
0 0 0 0 0 0 0 0 0 
0 0 0 0 0 0 0 0 0 
0 0 0 0 0 0 0 0 0 
0 0 0 0 0 0 0 0 0 
0 0 0 0 0 0 0 0 0 
0 0 0 0 0 0 0 0 0 
0 0 0 0 0 0 0 0 0 
0 0 0 0 0 0 0 0 0 
0 0 0 0 0 0 0 0 0 
0 0 0 0 0 0 0 0 0 
0 0 0 0 0 0 0 0 0 
0 0 0 0 0 0 0 0 0 
0 0 0 0 0 0 0 0 0 
0 0 0 0 0 0 0 0 0 
0 0 0 0 0 0 0 0 0 
0 0 0 0 0 0 0 0 0 
0 0 0 0 0 0 0 0 0 
0 0 0 0 0 0 0 0 0 
0 0 0 0 0 0 0 0 0 
0 0 0 0 0 0 0 0 0 
0 0 0 0 0 0 0 0 0 
0 0 0 0 0 0 0 0 0 
0 0 0 0 0 0 0 0 0 
0 0 0 0 0 0 0 0 0 
0 0 0 0 0 0 0 0 0 
0 0 0 0 0 0 0 0 0 
0 0 0 0 0 0 0 0 0 
0 0 0 0 0 0 0 0 0 
0 0 0 0 0 0 0 0 0 
0 0 0 0 0 0 0 0 0 
0 0 0 0 0 0 0 0 0 
0 0 0 0 0 0 0 0 0 
0 0 0 0 0 0 0 0 0 
0 0 0 0 0 0 0 0 0 
0 0 0 0 0 0 0 0 0 
0 0 0 0 0 0 0 0 0 
0 0 0 0 0 0 0 0 0 
0 0 0 0 0 0 0 0 0 
0 0 0 0 0 0 0 0 0 
0 0 0 0 0 0 0 0 0 
0 0 0 0 0 0 0 0 0 
0 0 0 0 0 0 0 0 0 
0 0 0 0 0 0 0 0 0 
0 0 0 0 0 0 0 0 0 
0 0 0 0 0 0 0 0 0 
0 0 0 0 0 0 0 0 0 
0 0 0 0 0 0 0 0 0 
0 0 0 0 0 0 0 0 0 
0 0 0 0 0 0 0 0 0 
0 0 0 0 0 0 0 0 0 
0 0 0 0 0 0 0 0 0 
0 0 0 0 0 0 0 0 0 
0 0 0 0 0 0 0 0 0 
0 0 0 0 0 0 0 0 0 
0 0 0 0 0 0 0 0 0 
0 0 0 0 0 0 0 0 0 
0 0 0 0 0 0 0 0 0 
0 0 0 0 0 0 0 0 0 
0 0 0 0 0 0 0 0 0 
0 0 0 0 0 0 0 0 0 
0 0 0 0 0 0 0 0 0 
0 0 0 0 0 0 0 0 0 
0 0 0 0 0 0 0 0 0 
0 0 0 0 0 0 0 0 0 
0 0 0 0 0 0 0 0 0 
0 0 0 0 0 0 0 0 0 
0 0 0 0 0 0 0 0 0 
0 0 0 0 0 0 0 0 0 
0 0 0 0 0 0 0 0 0 
0 0 0 0 0 0 0 0 0 
0 0 0 0 0 0 0 0 0 
0 0 0 0 0 0 0 0 0 
0 0 0 0 0 0 0 0 0 
0 0 0 0 0 0 0 0 0 
0 0 0 0 0 0 0 0 0 
0 0 0 0 0 0 0 0 0 
0 0 0 0 0 0 0 0 0 
0 0 0 0 0 0 0 0 0 
0 0 0 0 0 0 0 0 0 
0 0 0 0 0 0 0 0 0 
0 0 0 0 0 0 0 0 0 
0 0 0 0 0 0 0 0 0 
0 0 0 0 0 0 0 0 0 
0 0 0 0 0 0 0 0 0 
0 0 0 0 0 0 0 0 0 
0 0 0 0 0 0 0 0 0 
0 0 0 0 0 0 0 0 0 
0 0 0 0 0 0 0 0 0 
0 0 0 0 0 0 0 0 0 
0 0 0 0 0 0 0 0 0 
0 0 0 0 0 0 0 0 0 
0 0 0 0 0 0 0 0 0 
0 0 0 0 0 0 0 0 0 
0 0 0 0 0 0 0 0 0 
0 0 0 0 0 0 0 0 0 
0 0 0 0 0 0 0 0 0 
0 0 0 0 0 0 0 0 0 
0 0 0 0 0 0 0 0 0 
0 0 0 0 0 0 0 0 0 
0 0 0 0 0 0 0 0 0 
0 0 0 0 0 0 0 0 0 
0 0 0 0 0 0 0 0 0 
0 0 0 0 0 0 0 0 0 
0 0 0 0 0 0 0 0 0 
0 0 0 0 0 0 0 0 0 
0 0 0 0 0 0 0 0 0 
0 0 0 0 0 0 0 0 0 
0 0 0 0 0 0 0 0 0 
0 0 0 0 0 0 0 0 0 
0 0 0 0 0 0 0 0 0 
0 0 0 0 0 0 0 0 0 
0 0 0 0 0 0 0 0 0 
0 0 0 0 0 0 0 0 0 
0 0 0 0 0 0 0 0 0 
0 0 0 0 0 0 0 0 0 
0 0 0 0 0 0 0 0 0 
0 0 0 0 0 0 0 0 0 
0 0 0 0 0 0 0 0 0 
0 0 0 0 0 0 0 0 0 
0 0 0 0 0 0 0 0 0 
0 0 0 0 0 0 0 0 0 
0 0 0 0 0 0 0 0 0 
0 0 0 0 0 0 0 0 0 
0 0 0 0 0 0 0 0 0 
0 0 0 0 0 0 0 0 0 
0 0 0 0 0 0 0 0 0 
0 0 0 0 0 0 0 0 0 
0 0 0 0 0 0 0 0 0 
0 0 0 0 0 0 0 0 0 
0 0 0 0 0 0 0 0 0 
0 0 0 0 0 0 0 0 0 
0 0 0 0 0 0 0 0 0 
0 0 0 0 0 0 0 0 0 
0 0 0 0 0 0 0 0 0 
0 0 0 0 0 0 0 0 0 
0 0 0 0 0 0 0 0 0 
0 0 0 0 0 0 0 0 0 
0 0 0 0 0 0 0 0 0 
0 0 0 0 0 0 0 0 0 
0 0 0 0 0 0 0 0 0 
0 0 0 0 0 0 0 0 0 
0 0 0 0 0 0 0 0 0 
0 0 0 0 0 0 0 0 0 
0 0 0 0 0 0 0 0 0 
0 0 0 0 0 0 0 0 0 
0 0 0 0 0 0 0 0 0 
0 0 0 0 0 0 0 0 0 
0 0 0 0 0 0 0 0 0 
0 0 0 0 0 0 0 0 0 
0 0 0 0 0 0 0 0 0 
0 0 0 0 0 0 0 0 0 
0 0 0 0 0 0 0 0 0 
0 0 0 0 0 0 0 0 0 
0 0 0 0 0 0 0 0 0 
0 0 0 0 0 0 0 0 0 
0 0 0 0 0 0 0 0 0 
0 0 0 0 0 0 0 0 0 
0 0 0 0 0 0 0 0 0 
0 0 0 0 0 0 0 0 0 
0 0 0 0 0 0 0 0 0 
0 0 0 0 0 0 0 0 0 
0 0 0 0 0 0 0 0 0 
0 0 0 0 0 0 0 0 0 
0 0 0 0 0 0 0 0 0 
0 0 0 0 0 0 0 0 0 
0 0 0 0 0 0 0 0 0 
0 0 0 0 0 0 0 0 0 
0 0 0 0 0 0 0 0 0 
0 0 0 0 0 0 0 0 0 
0 0 0 0 0 0 0 0 0 
0 0 0 0 0 0 0 0 0 
0 0 0 0 0 0 0 0 0 
0 0 0 0 0 0 0 0 0 
0 0 0 0 0 0 0 0 0 
0 0 0 0 0 0 0 0 0 
0 0 0 0 0 0 0 0 0 
0 0 0 0 0 0 0 0 0 
0 0 0 0 0 0 0 0 0 
0 0 0 0 0 0 0 0 0 
0 0 0 0 0 0 0 0 0 
0 0 0 0 0 0 0 0 0 
0 0 0 0 0 0 0 0 0 
0 0 0 0 0 0 0 0 0 
0 0 0 0 0 0 0 0 0 
0 0 0 0 0 0 0 0 0 
0 0 0 0 0 0 0 0 0 
0 0 0 0 0 0 0 0 0 
0 0 0 0 0 0 0 0 0 
0 0 0 0 0 0 0 0 0 
0 0 0 0 0 0 0 0 0 
0 0 0 0 0 0 0 0 0 
0 0 0 0 0 0 0 0 0 
0 0 0 0 0 0 0 0 0 
0 0 0 0 0 0 0 0 0 
0 0 0 0 0 0 0 0 0 
0 0 0 0 0 0 0 0 0 
0 0 0 0 0 0 0 0 0 
0 0 0 0 0 0 0 0 0 
0 0 0 0 0 0 0 0 0 
0 0 0 0 0 0 0 0 0 
0 0 0 0 0 0 0 0 0 
0 0 0 0 0 0 0 0 0 
0 0 0 0 0 0 0 0 0 
0 0 0 0 0 0 0 0 0 
0 0 0 0 0 0 0 0 0 
0 0 0 0 0 0 0 0 0 
0 0 0 0 0 0 0 0 0 
0 0 0 0 0 0 0 0 0 
0 0 0 0 0 0 0 0 0 
0 0 0 0 0 0 0 0 0 
0 0 0 0 0 0 0 0 0 
0 0 0 0 0 0 0 0 0 
0 0 0 0 0 0 0 0 0 
0 0 0 0 0 0 0 0 0 
0 0 0 0 0 0 0 0 0 
0 0 0 0 0 0 0 0 0 
0 0 0 0 0 0 0 0 0 
0 0 0 0 0 0 0 0 0 
0 0 0 0 0 0 0 0 0 
0 0 0 0 0 0 0 0 0 
0 0 0 0 0 0 0 0 0 
0 0 0 0 0 0 0 0 0 
0 0 0 0 0 0 0 0 0 
0 0 0 0 0 0 0 0 0 
0 0 0 0 0 0 0 0 0 
0 0 0 0 0 0 0 0 0 
0 0 0 0 0 0 0 0 0 
0 0 0 0 0 0 0 0 0 
0 0 0 0 0 0 0 0 0 
0 0 0 0 0 0 0 0 0 
0 0 0 0 0 0 0 0 0 
0 0 0 0 0 0 0 0 0 
0 0 0 0 0 0 0 0 0 
0 0 0 0 0 0 0 0 0 
0 0 0 0 0 0 0 0 0 
0 0 0 0 0 0 0 0 0 
0 0 0 0 0 0 0 0 0 
0 0 0 0 0 0 0 0 0 
0 0 0 0 0 0 0 0 0 
0 0 0 0 0 0 0 0 0 
0 0 0 0 0 0 0 0 0 
0 0 0 0 0 0 0 0 0 
0 0 0 0 0 0 0 0 0 
0 0 0 0 0 0 0 0 0 
0 0 0 0 0 0 0 0 0 
0 0 0 0 0 0 0 0 0 
0 0 0 0 0 0 0 0 0 
0 0 0 0 0 0 0 0 0 
0 0 0 0 0 0 0 0 0 
0 0 0 0 0 0 0 0 0 
0 0 0 0 0 0 0 0 0 
0 0 0 0 0 0 0 0 0 
0 0 0 0 0 0 0 0 0 
0 0 0 0 0 0 0 0 0 
0 0 0 0 0 0 0 0 0 
0 0 0 0 0 0 0 0 0 
0 0 0 0 0 0 0 0 0 
0 0 0 0 0 0 0 0 0 
0 0 0 0 0 0 0 0 0 
0 0 0 0 0 0 0 0 0 
0 0 0 0 0 0 0 0 0 
0 0 0 0 0 0 0 0 0 
0 0 0 0 0 0 0 0 0 
0 0 0 0 0 0 0 0 0 
0 0 0 0 0 0 0 0 0 
0 0 0 0 0 0 0 0 0 
0 0 0 0 0 0 0 0 0 
0 0 0 0 0 0 0 0 0 
0 0 0 0 0 0 0 0 0 
0 0 0 0 0 0 0 0 0 
0 0 0 0 0 0 0 0 0 
0 0 0 0 0 0 0 0 0 
0 0 0 0 0 0 0 0 0 
0 0 0 0 0 0 0 0 0 
0 0 0 0 0 0 0 0 0 
0 0 0 0 0 0 0 0 0 
0 0 0 0 0 0 0 0 0 
0 0 0 0 0 0 0 0 0 
0 0 0 0 0 0 0 0 0 
0 0 0 0 0 0 0 0 0 
0 0 0 0 0 0 0 0 0 
0 0 0 0 0 0 0 0 0 
0 0 0 0 0 0 0 0 0 
0 0 0 0 0 0 0 0 0 
0 0 0 0 0 0 0 0 0 
0 0 0 0 0 0 0 0 0 
0 0 0 0 0 0 0 0 0 
0 0 0 0 0 0 0 0 0 
0 0 0 0 0 0 0 0 0 
0 0 0 0 0 0 0 0 0 
0 0 0 0 0 0 0 0 0 
0 0 0 0 0 0 0 0 0 
0 0 0 0 0 0 0 0 0 
0 0 0 0 0 0 0 0 0 
0 0 0 0 0 0 0 0 0 
0 0 0 0 0 0 0 0 0 
0 0 0 0 0 0 0 0 0 
0 0 0 0 0 0 0 0 0 
0 0 0 0 0 0 0 0 0 
0 0 0 0 0 0 0 0 0 
0 0 0 0 0 0 0 0 0 
0 0 0 0 0 0 0 0 0 
0 0 0 0 0 0 0 0 0 
0 0 0 0 0 0 0 0 0 
0 0 0 0 0 0 0 0 0 
0 0 0 0 0 0 0 0 0 
0 0 0 0 0 0 0 0 0 
0 0 0 0 0 0 0 0 0 
0 0 0 0 0 0 0 0 0 
0 0 0 0 0 0 0 0 0 
0 0 0 0 0 0 0 0 0 
0 0 0 0 0 0 0 0 0 
0 0 0 0 0 0 0 0 0 
0 0 0 0 0 0 0 0 0 
0 0 0 0 0 0 0 0 0 
0 0 0 0 0 0 0 0 0 
0 0 0 0 0 0 0 0 0 
0 0 0 0 0 0 0 0 0 
0 0 0 0 0 0 0 0 0 
0 0 0 0 0 0 0 0 0 
0 0 0 0 0 0 0 0 0 
0 0 0 0 0 0 0 0 0 
0 0 0 0 0 0 0 0 0 
0 0 0 0 0 0 0 0 0 
0 0 0 0 0 0 0 0 0 
0 0 0 0 0 0 0 0 0 
0 0 0 0 0 0 0 0 0 
0 0 0 0 0 0 0 0 0 
0 0 0 0 0 0 0 0 0 
0 0 0 0 0 0 0 0 0 
0 0 0 0 0 0 0 0 0 
0 0 0 0 0 0 0 0 0 
0 0 0 0 0 0 0 0 0 
0 0 0 0 0 0 0 0 0 
0 0 0 0 0 0 0 0 0 
0 0 0 0 0 0 0 0 0 
0 0 0 0 0 0 0 0 0 
0 0 0 0 0 0 0 0 0 
0 0 0 0 0 0 0 0 0 
0 0 0 0 0 0 0 0 0 
0 0 0 0 0 0 0 0 0 
0 0 0 0 0 0 0 0 0 
0 0 0 0 0 0 0 0 0 
0 0 0 0 0 0 0 0 0 
0 0 0 0 0 0 0 0 0 
0 0 0 0 0 0 0 0 0 
0 0 0 0 0 0 0 0 0 
0 0 0 0 0 0 0 0 0 
0 0 0 0 0 0 0 0 0 
0 0 0 0 0 0 0 0 0 
0 0 0 0 0 0 0 0 0 
0 0 0 0 0 0 0 0 0 
0 0 0 0 0 0 0 0 0 
0 0 0 0 0 0 0 0 0 
0 0 0 0 0 0 0 0 0 
0 0 0 0 0 0 0 0 0 
0 0 0 0 0 0 0 0 0 
0 0 0 0 0 0 0 0 0 
0 0 0 0 0 0 0 0 0 
0 0 0 0 0 0 0 0 0 
0 0 0 0 0 0 0 0 0 
0 0 0 0 0 0 0 0 0 
0 0 0 0 0 0 0 0 0 
0 0 0 0 0 0 0 0 0 
0 0 0 0 0 0 0 0 0 
0 0 0 0 0 0 0 0 0 
0 0 0 0 0 0 0 0 0 
0 0 0 0 0 0 0 0 0 
0 0 0 0 0 0 0 0 0 
0 0 0 0 0 0 0 0 0 
0 0 0 0 0 0 0 0 0 
0 0 0 0 0 0 0 0 0 
0 0 0 0 0 0 0 0 0 
0 0 0 0 0 0 0 0 0 
0 0 0 0 0 0 0 0 0 
0 0 0 0 0 0 0 0 0 
0 0 0 0 0 0 0 0 0 
0 0 0 0 0 0 0 0 0 
0 0 0 0 0 0 0 0 0 
0 0 0 0 0 0 0 0 0 
0 0 0 0 0 0 0 0 0 
0 0 0 0 0 0 0 0 0 
0 0 0 0 0 0 0 0 0 
0 0 0 0 0 0 0 0 0 
0 0 0 0 0 0 0 0 0 
0 0 0 0 0 0 0 0 0 
0 0 0 0 0 0 0 0 0 
0 0 0 0 0 0 0 0 0 
0 0 0 0 0 0 0 0 0 
0 0 0 0 0 0 0 0 0 
0 0 0 0 0 0 0 0 0 
0 0 0 0 0 0 0 0 0 
0 0 0 0 0 0 0 0 0 
0 0 0 0 0 0 0 0 0 
0 0 0 0 0 0 0 0 0 
0 0 0 0 0 0 0 0 0 
0 0 0 0 0 0 0 0 0 
0 0 0 0 0 0 0 0 0 
0 0 0 0 0 0 0 0 0 
0 0 0 0 0 0 0 0 0 
0 0 0 0 0 0 0 0 0 
0 0 0 0 0 0 0 0 0 
0 0 0 0 0 0 0 0 0 
0 0 0 0 0 0 0 0 0 
0 0 0 0 0 0 0 0 0 
0 0 0 0 0 0 0 0 0 
0 0 0 0 0 0 0 0 0 
0 0 0 0 0 0 0 0 0 
0 0 0 0 0 0 0 0 0 
0 0 0 0 0 0 0 0 0 
0 0 0 0 0 0 0 0 0 
0 0 0 0 0 0 0 0 0 
0 0 0 0 0 0 0 0 0 
0 0 0 0 0 0 0 0 0 
0 0 0 0 0 0 0 0 0 
0 0 0 0 0 0 0 0 0 
0 0 0 0 0 0 0 0 0 
0 0 0 0 0 0 0 0 0 
0 0 0 0 0 0 0 0 0 
0 0 0 0 0 0 0 0 0 
0 0 0 0 0 0 0 0 0 
0 0 0 0 0 0 0 0 0 
0 0 0 0 0 0 0 0 0 
0 0 0 0 0 0 0 0 0 
0 0 0 0 0 0 0 0 0 
0 0 0 0 0 0 0 0 0 
0 0 0 0 0 0 0 0 0 
0 0 0 0 0 0 0 0 0 
0 0 0 0 0 0 0 0 0 
0 0 0 0 0 0 0 0 0 
0 0 0 0 0 0 0 0 0 
0 0 0 0 0 0 0 0 0 
0 0 0 0 0 0 0 0 0 
0 0 0 0 0 0 0 0 0 
0 0 0 0 0 0 0 0 0 
0 0 0 0 0 0 0 0 0 
0 0 0 0 0 0 0 0 0 
0 0 0 0 0 0 0 0 0 
0 0 0 0 0 0 0 0 0 
0 0 0 0 0 0 0 0 0 
0 0 0 0 0 0 0 0 0 
0 0 0 0 0 0 0 0 0 
0 0 0 0 0 0 0 0 0 
0 0 0 0 0 0 0 0 0 
0 0 0 0 0 0 0 0 0 
0 0 0 0 0 0 0 0 0 
0 0 0 0 0 0 0 0 0 
0 0 0 0 0 0 0 0 0 
0 0 0 0 0 0 0 0 0 
0 0 0 0 0 0 0 0 0 
0 0 0 0 0 0 0 0 0 
0 0 0 0 0 0 0 0 0 
0 0 0 0 0 0 0 0 0 
0 0 0 0 0 0 0 0 0 
0 0 0 0 0 0 0 0 0 
0 0 0 0 0 0 0 0 0 
0 0 0 0 0 0 0 0 0 
0 0 0 0 0 0 0 0 0 
0 0 0 0 0 0 0 0 0 
0 0 0 0 0 0 0 0 0 
0 0 0 0 0 0 0 0 0 
0 0 0 0 0 0 0 0 0 
0 0 0 0 0 0 0 0 0 
0 0 0 0 0 0 0 0 0 
0 0 0 0 0 0 0 0 0 
0 0 0 0 0 0 0 0 0 
0 0 0 0 0 0 0 0 0 
0 0 0 0 0 0 0 0 0 
0 0 0 0 0 0 0 0 0 
0 0 0 0 0 0 0 0 0 
0 0 0 0 0 0 0 0 0 
0 0 0 0 0 0 0 0 0 
0 0 0 0 0 0 0 0 0 
0 0 0 0 0 0 0 0 0 
0 0 0 0 0 0 0 0 0 
0 0 0 0 0 0 0 0 0 
0 0 0 0 0 0 0 0 0 
0 0 0 0 0 0 0 0 0 
0 0 0 0 0 0 0 0 0 
0 0 0 0 0 0 0 0 0 
0 0 0 0 0 0 0 0 0 
0 0 0 0 0 0 0 0 0 
0 0 0 0 0 0 0 0 0 
0 0 0 0 0 0 0 0 0 
0 0 0 0 0 0 0 0 0 
0 0 0 0 0 0 0 0 0 
0 0 0 0 0 0 0 0 0 
0 0 0 0 0 0 0 0 0 
0 0 0 0 0 0 0 0 0 
0 0 0 0 0 0 0 0 0 
0 0 0 0 0 0 0 0 0 
0 0 0 0 0 0 0 0 0 
0 0 0 0 0 0 0 0 0 
0 0 0 0 0 0 0 0 0 
0 0 0 0 0 0 0 0 0 
0 0 0 0 0 0 0 0 0 
0 0 0 0 0 0 0 0 0 
0 0 0 0 0 0 0 0 0 
0 0 0 0 0 0 0 0 0 
0 0 0 0 0 0 0 0 0 
0 0 0 0 0 0 0 0 0 
0 0 0 0 0 0 0 0 0 
0 0 0 0 0 0 0 0 0 
0 0 0 0 0 0 0 0 0 
0 0 0 0 0 0 0 0 0 
0 0 0 0 0 0 0 0 0 
0 0 0 0 0 0 0 0 0 
0 0 0 0 0 0 0 0 0 
0 0 0 0 0 0 0 0 0 
0 0 0 0 0 0 0 0 0 
0 0 0 0 0 0 0 0 0 
0 0 0 0 0 0 0 0 0 
0 0 0 0 0 0 0 0 0 
0 0 0 0 0 0 0 0 0 
0 0 0 0 0 0 0 0 0 
0 0 0 0 0 0 0 0 0 
0 0 0 0 0 0 0 0 0 
0 0 0 0 0 0 0 0 0 
0 0 0 0 0 0 0 0 0 
0 0 0 0 0 0 0 0 0 
0 0 0 0 0 0 0 0 0 
0 0 0 0 0 0 0 0 0 
0 0 0 0 0 0 0 0 0 
0 0 0 0 0 0 0 0 0 
0 0 0 0 0 0 0 0 0 
0 0 0 0 0 0 0 0 0 
0 0 0 0 0 0 0 0 0 
0 0 0 0 0 0 0 0 0 
0 0 0 0 0 0 0 0 0 
0 0 0 0 0 0 0 0 0 
0 0 0 0 0 0 0 0 0 
0 0 0 0 0 0 0 0 0 
0 0 0 0 0 0 0 0 0 
0 0 0 0 0 0 0 0 0 
0 0 0 0 0 0 0 0 0 
0 0 0 0 0 0 0 0 0 
0 0 0 0 0 0 0 0 0 
0 0 0 0 0 0 0 0 0 
0 0 0 0 0 0 0 0 0 
0 0 0 0 0 0 0 0 0 
0 0 0 0 0 0 0 0 0 
0 0 0 0 0 0 0 0 0 
0 0 0 0 0 0 0 0 0 
0 0 0 0 0 0 0 0 0 
0 0 0 0 0 0 0 0 0 
0 0 0 0 0 0 0 0 0 
0 0 0 0 0 0 0 0 0 
0 0 0 0 0 0 0 0 0 
0 0 0 0 0 0 0 0 0 
0 0 0 0 0 0 0 0 0 
0 0 0 0 0 0 0 0 0 
0 0 0 0 0 0 0 0 0 
0 0 0 0 0 0 0 0 0 
0 0 0 0 0 0 0 0 0 
0 0 0 0 0 0 0 0 0 
0 0 0 0 0 0 0 0 0 
0 0 0 0 0 0 0 0 0 
0 0 0 0 0 0 0 0 0 
0 0 0 0 0 0 0 0 0 
0 0 0 0 0 0 0 0 0 
0 0 0 0 0 0 0 0 0 
0 0 0 0 0 0 0 0 0 
0 0 0 0 0 0 0 0 0 
0 0 0 0 0 0 0 0 0 
0 0 0 0 0 0 0 0 0 
0 0 0 0 0 0 0 0 0 
0 0 0 0 0 0 0 0 0 
0 0 0 0 0 0 0 0 0 
0 0 0 0 0 0 0 0 0 
0 0 0 0 0 0 0 0 0 
0 0 0 0 0 0 0 0 0 
0 0 0 0 0 0 0 0 0 
0 0 0 0 0 0 0 0 0 
0 0 0 0 0 0 0 0 0 
0 0 0 0 0 0 0 0 0 
0 0 0 0 0 0 0 0 0 
0 0 0 0 0 0 0 0 0 
0 0 0 0 0 0 0 0 0 
0 0 0 0 0 0 0 0 0 
0 0 0 0 0 0 0 0 0 
0 0 0 0 0 0 0 0 0 
0 0 0 0 0 0 0 0 0 
0 0 0 0 0 0 0 0 0 
0 0 0 0 0 0 0 0 0 
0 0 0 0 0 0 0 0 0 
0 0 0 0 0 0 0 0 0 
0 0 0 0 0 0 0 0 0 
0 0 0 0 0 0 0 0 0 
0 0 0 0 0 0 0 0 0 
0 0 0 0 0 0 0 0 0 
0 0 0 0 0 0 0 0 0 
0 0 0 0 0 0 0 0 0 
0 0 0 0 0 0 0 0 0 
0 0 0 0 0 0 0 0 0 
0 0 0 0 0 0 0 0 0 
0 0 0 0 0 0 0 0 0 
0 0 0 0 0 0 0 0 0 
0 0 0 0 0 0 0 0 0 
0 0 0 0 0 0 0 0 0 
0 0 0 0 0 0 0 0 0 
0 0 0 0 0 0 0 0 0 
0 0 0 0 0 0 0 0 0 
0 0 0 0 0 0 0 0 0 
0 0 0 0 0 0 0 0 0 
0 0 0 0 0 0 0 0 0 
0 0 0 0 0 0 0 0 0 
0 0 0 0 0 0 0 0 0 
0 0 0 0 0 0 0 0 0 
0 0 0 0 0 0 0 0 0 
0 0 0 0 0 0 0 0 0 
0 0 0 0 0 0 0 0 0 
0 0 0 0 0 0 0 0 0 
0 0 0 0 0 0 0 0 0 
0 0 0 0 0 0 0 0 0 
0 0 0 0 0 0 0 0 0 
0 0 0 0 0 0 0 0 0 
0 0 0 0 0 0 0 0 0 
0 0 0 0 0 0 0 0 0 
0 0 0 0 0 0 0 0 0 
0 0 0 0 0 0 0 0 0 
0 0 0 0 0 0 0 0 0 
0 0 0 0 0 0 0 0 0 
0 0 0 0 0 0 0 0 0 
0 0 0 0 0 0 0 0 0 
0 0 0 0 0 0 0 0 0 
0 0 0 0 0 0 0 0 0 
0 0 0 0 0 0 0 0 0 
0 0 0 0 0 0 0 0 0 
0 0 0 0 0 0 0 0 0 
0 0 0 0 0 0 0 0 0 
0 0 0 0 0 0 0 0 0 
0 0 0 0 0 0 0 0 0 
0 0 0 0 0 0 0 0 0 
0 0 0 0 0 0 0 0 0 
0 0 0 0 0 0 0 0 0 
0 0 0 0 0 0 0 0 0 
0 0 0 0 0 0 0 0 0 
0 0 0 0 0 0 0 0 0 
0 0 0 0 0 0 0 0 0 
0 0 0 0 0 0 0 0 0 
0 0 0 0 0 0 0 0 0 
0 0 0 0 0 0 0 0 0 
0 0 0 0 0 0 0 0 0 
0 0 0 0 0 0 0 0 0 
0 0 0 0 0 0 0 0 0 
0 0 0 0 0 0 0 0 0 
0 0 0 0 0 0 0 0 0 
0 0 0 0 0 0 0 0 0 
0 0 0 0 0 0 0 0 0 
0 0 0 0 0 0 0 0 0 
0 0 0 0 0 0 0 0 0 
0 0 0 0 0 0 0 0 0 
0 0 0 0 0 0 0 0 0 
0 0 0 0 0 0 0 0 0 
0 0 0 0 0 0 0 0 0 
0 0 0 0 0 0 0 0 0 
0 0 0 0 0 0 0 0 0 
0 0 0 0 0 0 0 0 0 
0 0 0 0 0 0 0 0 0 
0 0 0 0 0 0 0 0 0 
0 0 0 0 0 0 0 0 0 
0 0 0 0 0 0 0 0 0 
0 0 0 0 0 0 0 0 0 
0 0 0 0 0 0 0 0 0 
0 0 0 0 0 0 0 0 0 
0 0 0 0 0 0 0 0 0 
0 0 0 0 0 0 0 0 0 
0 0 0 0 0 0 0 0 0 
0 0 0 0 0 0 0 0 0 
0 0 0 0 0 0 0 0 0 
0 0 0 0 0 0 0 0 0 
0 0 0 0 0 0 0 0 0 
0 0 0 0 0 0 0 0 0 
0 0 0 0 0 0 0 0 0 
0 0 0 0 0 0 0 0 0 
0 0 0 0 0 0 0 0 0 
0 0 0 0 0 0 0 0 0 
0 0 0 0 0 0 0 0 0 
0 0 0 0 0 0 0 0 0 
0 0 0 0 0 0 0 0 0 
0 0 0 0 0 0 0 0 0 
0 0 0 0 0 0 0 0 0 
0 0 0 0 0 0 0 0 0 
0 0 0 0 0 0 0 0 0 
0 0 0 0 0 0 0 0 0 
0 0 0 0 0 0 0 0 0 
0 0 0 0 0 0 0 0 0 
0 0 0 0 0 0 0 0 0 
0 0 0 0 0 0 0 0 0 
0 0 0 0 0 0 0 0 0 
0 0 0 0 0 0 0 0 0 
0 0 0 0 0 0 0 0 0 
0 0 0 0 0 0 0 0 0 
0 0 0 0 0 0 0 0 0 
0 0 0 0 0 0 0 0 0 
0 0 0 0 0 0 0 0 0 
0 0 0 0 0 0 0 0 0 
0 0 0 0 0 0 0 0 0 
0 0 0 0 0 0 0 0 0 
0 0 0 0 0 0 0 0 0 
0 0 0 0 0 0 0 0 0 
0 0 0 0 0 0 0 0 0 
0 0 0 0 0 0 0 0 0 
0 0 0 0 0 0 0 0 0 
0 0 0 0 0 0 0 0 0 
0 0 0 0 0 0 0 0 0 
0 0 0 0 0 0 0 0 0 
0 0 0 0 0 0 0 0 0 
0 0 0 0 0 0 0 0 0 
0 0 0 0 0 0 0 0 0 
0 0 0 0 0 0 0 0 0 
0 0 0 0 0 0 0 0 0 
0 0 0 0 0 0 0 0 0 
0 0 0 0 0 0 0 0 0 
0 0 0 0 0 0 0 0 0 
0 0 0 0 0 0 0 0 0 
0 0 0 0 0 0 0 0 0 
0 0 0 0 0 0 0 0 0 
0 0 0 0 0 0 0 0 0 
0 0 0 0 0 0 0 0 0 
0 0 0 0 0 0 0 0 0 
0 0 0 0 0 0 0 0 0 
0 0 0 0 0 0 0 0 0 
0 0 0 0 0 0 0 0 0 
0 0 0 0 0 0 0 0 0 
0 0 0 0 0 0 0 0 0 
0 0 0 0 0 0 0 0 0 
0 0 0 0 0 0 0 0 0 
0 0 0 0 0 0 0 0 0 
0 0 0 0 0 0 0 0 0 
0 0 0 0 0 0 0 0 0 
0 0 0 0 0 0 0 0 0 
0 0 0 0 0 0 0 0 0 
0 0 0 0 0 0 0 0 0 
0 0 0 0 0 0 0 0 0 
0 0 0 0 0 0 0 0 0 
0 0 0 0 0 0 0 0 0 
0 0 0 0 0 0 0 0 0 
0 0 0 0 0 0 0 0 0 
0 0 0 0 0 0 0 0 0 
0 0 0 0 0 0 0 0 0 
0 0 0 0 0 0 0 0 0 
0 0 0 0 0 0 0 0 0 
0 0 0 0 0 0 0 0 0 
0 0 0 0 0 0 0 0 0 
0 0 0 0 0 0 0 0 0 
0 0 0 0 0 0 0 0 0 
0 0 0 0 0 0 0 0 0 
0 0 0 0 0 0 0 0 0 
0 0 0 0 0 0 0 0 0 
0 0 0 0 0 0 0 0 0 
0 0 0 0 0 0 0 0 0 
0 0 0 0 0 0 0 0 0 
0 0 0 0 0 0 0 0 0 
0 0 0 0 0 0 0 0 0 
0 0 0 0 0 0 0 0 0 
0 0 0 0 0 0 0 0 0 
0 0 0 0 0 0 0 0 0 
0 0 0 0 0 0 0 0 0 
0 0 0 0 0 0 0 0 0 
0 0 0 0 0 0 0 0 0 
0 0 0 0 0 0 0 0 0 
0 0 0 0 0 0 0 0 0 
0 0 0 0 0 0 0 0 0 
0 0 0 0 0 0 0 0 0 
0 0 0 0 0 0 0 0 0 
0 0 0 0 0 0 0 0 0 
0 0 0 0 0 0 0 0 0 
0 0 0 0 0 0 0 0 0 
0 0 0 0 0 0 0 0 0 
0 0 0 0 0 0 0 0 0 
0 0 0 0 0 0 0 0 0 
0 0 0 0 0 0 0 0 0 
0 0 0 0 0 0 0 0 0 
0 0 0 0 0 0 0 0 0 
0 0 0 0 0 0 0 0 0 
0 0 0 0 0 0 0 0 0 
0 0 0 0 0 0 0 0 0 
0 0 0 0 0 0 0 0 0 
0 0 0 0 0 0 0 0 0 
0 0 0 0 0 0 0 0 0 
0 0 0 0 0 0 0 0 0 
0 0 0 0 0 0 0 0 0 
0 0 0 0 0 0 0 0 0 
0 0 0 0 0 0 0 0 0 
0 0 0 0 0 0 0 0 0 
0 0 0 0 0 0 0 0 0 
0 0 0 0 0 0 0 0 0 
0 0 0 0 0 0 0 0 0 
0 0 0 0 0 0 0 0 0 
0 0 0 0 0 0 0 0 0 
0 0 0 0 0 0 0 0 0 
0 0 0 0 0 0 0 0 0 
0 0 0 0 0 0 0 0 0 
0 0 0 0 0 0 0 0 0 
0 0 0 0 0 0 0 0 0 
0 0 0 0 0 0 0 0 0 
0 0 0 0 0 0 0 0 0 
0 0 0 0 0 0 0 0 0 
0 0 0 0 0 0 0 0 0 
0 0 0 0 0 0 0 0 0 
0 0 0 0 0 0 0 0 0 
0 0 0 0 0 0 0 0 0 
0 0 0 0 0 0 0 0 0 
0 0 0 0 0 0 0 0 0 
0 0 0 0 0 0 0 0 0 
0 0 0 0 0 0 0 0 0 
0 0 0 0 0 0 0 0 0 
0 0 0 0 0 0 0 0 0 
0 0 0 0 0 0 0 0 0 
0 0 0 0 0 0 0 0 0 
0 0 0 0 0 0 0 0 0 
0 0 0 0 0 0 0 0 0 
0 0 0 0 0 0 0 0 0 
0 0 0 0 0 0 0 0 0 
0 0 0 0 0 0 0 0 0 
0 0 0 0 0 0 0 0 0 
0 0 0 0 0 0 0 0 0 
0 0 0 0 0 0 0 0 0 
0 0 0 0 0 0 0 0 0 
0 0 0 0 0 0 0 0 0 
0 0 0 0 0 0 0 0 0 
0 0 0 0 0 0 0 0 0 
0 0 0 0 0 0 0 0 0 
0 0 0 0 0 0 0 0 0 
0 0 0 0 0 0 0 0 0 
0 0 0 0 0 0 0 0 0 
0 0 0 0 0 0 0 0 0 
0 0 0 0 0 0 0 0 0 
0 0 0 0 0 0 0 0 0 
0 0 0 0 0 0 0 0 0 
0 0 0 0 0 0 0 0 0 
0 0 0 0 0 0 0 0 0 
0 0 0 0 0 0 0 0 0 
0 0 0 0 0 0 0 0 0 
0 0 0 0 0 0 0 0 0 
0 0 0 0 0 0 0 0 0 
0 0 0 0 0 0 0 0 0 
0 0 0 0 0 0 0 0 0 
0 0 0 0 0 0 0 0 0 
0 0 0 0 0 0 0 0 0 
0 0 0 0 0 0 0 0 0 
0 0 0 0 0 0 0 0 0 
0 0 0 0 0 0 0 0 0 
0 0 0 0 0 0 0 0 0 
0 0 0 0 0 0 0 0 0 
0 0 0 0 0 0 0 0 0 
0 0 0 0 0 0 0 0 0 
0 0 0 0 0 0 0 0 0 
0 0 0 0 0 0 0 0 0 
0 0 0 0 0 0 0 0 0 
0 0 0 0 0 0 0 0 0 
0 0 0 0 0 0 0 0 0 
0 0 0 0 0 0 0 0 0 
0 0 0 0 0 0 0 0 0 
0 0 0 0 0 0 0 0 0 
0 0 0 0 0 0 0 0 0 
0 0 0 0 0 0 0 0 0 
0 0 0 0 0 0 0 0 0 
0 0 0 0 0 0 0 0 0 
0 0 0 0 0 0 0 0 0 
0 0 0 0 0 0 0 0 0 
0 0 0 0 0 0 0 0 0 
0 0 0 0 0 0 0 0 0 
0 0 0 0 0 0 0 0 0 
0 0 0 0 0 0 0 0 0 
0 0 0 0 0 0 0 0 0 
0 0 0 0 0 0 0 0 0 
0 0 0 0 0 0 0 0 0 
0 0 0 0 0 0 0 0 0 
0 0 0 0 0 0 0 0 0 
0 0 0 0 0 0 0 0 0 
0 0 0 0 0 0 0 0 0 
0 0 0 0 0 0 0 0 0 
0 0 0 0 0 0 0 0 0 
0 0 0 0 0 0 0 0 0 
0 0 0 0 0 0 0 0 0 
0 0 0 0 0 0 0 0 0 
0 0 0 0 0 0 0 0 0 
0 0 0 0 0 0 0 0 0 
0 0 0 0 0 0 0 0 0 
0 0 0 0 0 0 0 0 0 
0 0 0 0 0 0 0 0 0 
0 0 0 0 0 0 0 0 0 
0 0 0 0 0 0 0 0 0 
0 0 0 0 0 0 0 0 0 
0 0 0 0 0 0 0 0 0 
0 0 0 0 0 0 0 0 0 
0 0 0 0 0 0 0 0 0 
0 0 0 0 0 0 0 0 0 
0 0 0 0 0 0 0 0 0 
0 0 0 0 0 0 0 0 0 
0 0 0 0 0 0 0 0 0 
0 0 0 0 0 0 0 0 0 
0 0 0 0 0 0 0 0 0 
0 0 0 0 0 0 0 0 0 
0 0 0 0 0 0 0 0 0 
0 0 0 0 0 0 0 0 0 
0 0 0 0 0 0 0 0 0 
0 0 0 0 0 0 0 0 0 
0 0 0 0 0 0 0 0 0 
0 0 0 0 0 0 0 0 0 
0 0 0 0 0 0 0 0 0 
0 0 0 0 0 0 0 0 0 
0 0 0 0 0 0 0 0 0 
0 0 0 0 0 0 0 0 0 
0 0 0 0 0 0 0 0 0 
0 0 0 0 0 0 0 0 0 
0 0 0 0 0 0 0 0 0 
0 0 0 0 0 0 0 0 0 
0 0 0 0 0 0 0 0 0 
0 0 0 0 0 0 0 0 0 
0 0 0 0 0 0 0 0 0 
0 0 0 0 0 0 0 0 0 
0 0 0 0 0 0 0 0 0 
0 0 0 0 0 0 0 0 0 
0 0 0 0 0 0 0 0 0 
0 0 0 0 0 0 0 0 0 
0 0 0 0 0 0 0 0 0 
0 0 0 0 0 0 0 0 0 
0 0 0 0 0 0 0 0 0 
0 0 0 0 0 0 0 0 0 
0 0 0 0 0 0 0 0 0 
0 0 0 0 0 0 0 0 0 
0 0 0 0 0 0 0 0 0 
0 0 0 0 0 0 0 0 0 
0 0 0 0 0 0 0 0 0 
0 0 0 0 0 0 0 0 0 
0 0 0 0 0 0 0 0 0 
0 0 0 0 0 0 0 0 0 
0 0 0 0 0 0 0 0 0 
0 0 0 0 0 0 0 0 0 
0 0 0 0 0 0 0 0 0 
0 0 0 0 0 0 0 0 0 
0 0 0 0 0 0 0 0 0 
0 0 0 0 0 0 0 0 0 
0 0 0 0 0 0 0 0 0 
0 0 0 0 0 0 0 0 0 
0 0 0 0 0 0 0 0 0 
0 0 0 0 0 0 0 0 0 
0 0 0 0 0 0 0 0 0 
0 0 0 0 0 0 0 0 0 
0 0 0 0 0 0 0 0 0 
0 0 0 0 0 0 0 0 0 
0 0 0 0 0 0 0 0 0 
0 0 0 0 0 0 0 0 0 
0 0 0 0 0 0 0 0 0 
0 0 0 0 0 0 0 0 0 
0 0 0 0 0 0 0 0 0 
0 0 0 0 0 0 0 0 0 
0 0 0 0 0 0 0 0 0 
0 0 0 0 0 0 0 0 0 
0 0 0 0 0 0 0 0 0 
0 0 0 0 0 0 0 0 0 
0 0 0 0 0 0 0 0 0 
0 0 0 0 0 0 0 0 0 
0 0 0 0 0 0 0 0 0 
0 0 0 0 0 0 0 0 0 
0 0 0 0 0 0 0 0 0 
0 0 0 0 0 0 0 0 0 
0 0 0 0 0 0 0 0 0 
0 0 0 0 0 0 0 0 0 
0 0 0 0 0 0 0 0 0 
0 0 0 0 0 0 0 0 0 
0 0 0 0 0 0 0 0 0 
0 0 0 0 0 0 0 0 0 
0 0 0 0 0 0 0 0 0 
0 0 0 0 0 0 0 0 0 
0 0 0 0 0 0 0 0 0 
0 0 0 0 0 0 0 0 0 
0 0 0 0 0 0 0 0 0 
0 0 0 0 0 0 0 0 0 
0 0 0 0 0 0 0 0 0 
0 0 0 0 0 0 0 0 0 
0 0 0 0 0 0 0 0 0 
0 0 0 0 0 0 0 0 0 
0 0 0 0 0 0 0 0 0 
0 0 0 0 0 0 0 0 0 
0 0 0 0 0 0 0 0 0 
0 0 0 0 0 0 0 0 0 
0 0 0 0 0 0 0 0 0 
0 0 0 0 0 0 0 0 0 
0 0 0 0 0 0 0 0 0 
0 0 0 0 0 0 0 0 0 
0 0 0 0 0 0 0 0 0 
0 0 0 0 0 0 0 0 0 
0 0 0 0 0 0 0 0 0 
0 0 0 0 0 0 0 0 0 
0 0 0 0 0 0 0 0 0 
0 0 0 0 0 0 0 0 0 
0 0 0 0 0 0 0 0 0 
0 0 0 0 0 0 0 0 0 
0 0 0 0 0 0 0 0 0 
0 0 0 0 0 0 0 0 0 
0 0 0 0 0 0 0 0 0 
0 0 0 0 0 0 0 0 0 
0 0 0 0 0 0 0 0 0 
0 0 0 0 0 0 0 0 0 
0 0 0 0 0 0 0 0 0 
0 0 0 0 0 0 0 0 0 
0 0 0 0 0 0 0 0 0 
0 0 0 0 0 0 0 0 0 
0 0 0 0 0 0 0 0 0 
0 0 0 0 0 0 0 0 0 
0 0 0 0 0 0 0 0 0 
0 0 0 0 0 0 0 0 0 
0 0 0 0 0 0 0 0 0 
0 0 0 0 0 0 0 0 0 
0 0 0 0 0 0 0 0 0 
0 0 0 0 0 0 0 0 0 
0 0 0 0 0 0 0 0 0 
0 0 0 0 0 0 0 0 0 
0 0 0 0 0 0 0 0 0 
0 0 0 0 0 0 0 0 0 
0 0 0 0 0 0 0 0 0 
0 0 0 0 0 0 0 0 0 
0 0 0 0 0 0 0 0 0 
0 0 0 0 0 0 0 0 0 
0 0 0 0 0 0 0 0 0 
0 0 0 0 0 0 0 0 0 
0 0 0 0 0 0 0 0 0 
0 0 0 0 0 0 0 0 0 
0 0 0 0 0 0 0 0 0 
0 0 0 0 0 0 0 0 0 
0 0 0 0 0 0 0 0 0 
0 0 0 0 0 0 0 0 0 
0 0 0 0 0 0 0 0 0 
0 0 0 0 0 0 0 0 0 
0 0 0 0 0 0 0 0 0 
0 0 0 0 0 0 0 0 0 
0 0 0 0 0 0 0 0 0 
0 0 0 0 0 0 0 0 0 
0 0 0 0 0 0 0 0 0 
0 0 0 0 0 0 0 0 0 
0 0 0 0 0 0 0 0 0 
0 0 0 0 0 0 0 0 0 
0 0 0 0 0 0 0 0 0 
0 0 0 0 0 0 0 0 0 
0 0 0 0 0 0 0 0 0 
0 0 0 0 0 0 0 0 0 
0 0 0 0 0 0 0 0 0 
0 0 0 0 0 0 0 0 0 
0 0 0 0 0 0 0 0 0 
0 0 0 0 0 0 0 0 0 
0 0 0 0 0 0 0 0 0 
0 0 0 0 0 0 0 0 0 
0 0 0 0 0 0 0 0 0 
0 0 0 0 0 0 0 0 0 
0 0 0 0 0 0 0 0 0 
0 0 0 0 0 0 0 0 0 
0 0 0 0 0 0 0 0 0 
0 0 0 0 0 0 0 0 0 
0 0 0 0 0 0 0 0 0 
0 0 0 0 0 0 0 0 0 
0 0 0 0 0 0 0 0 0 
0 0 0 0 0 0 0 0 0 
0 0 0 0 0 0 0 0 0 
0 0 0 0 0 0 0 0 0 
0 0 0 0 0 0 0 0 0 
0 0 0 0 0 0 0 0 0 
0 0 0 0 0 0 0 0 0 
0 0 0 0 0 0 0 0 0 
0 0 0 0 0 0 0 0 0 
0 0 0 0 0 0 0 0 0 
0 0 0 0 0 0 0 0 0 
0 0 0 0 0 0 0 0 0 
0 0 0 0 0 0 0 0 0 
0 0 0 0 0 0 0 0 0 
0 0 0 0 0 0 0 0 0 
0 0 0 0 0 0 0 0 0 
0 0 0 0 0 0 0 0 0 
0 0 0 0 0 0 0 0 0 
0 0 0 0 0 0 0 0 0 
0 0 0 0 0 0 0 0 0 
0 0 0 0 0 0 0 0 0 
0 0 0 0 0 0 0 0 0 
0 0 0 0 0 0 0 0 0 
0 0 0 0 0 0 0 0 0 
0 0 0 0 0 0 0 0 0 
0 0 0 0 0 0 0 0 0 
0 0 0 0 0 0 0 0 0 
0 0 0 0 0 0 0 0 0 
0 0 0 0 0 0 0 0 0 
0 0 0 0 0 0 0 0 0 
0 0 0 0 0 0 0 0 0 
0 0 0 0 0 0 0 0 0 
0 0 0 0 0 0 0 0 0 
0 0 0 0 0 0 0 0 0 
0 0 0 0 0 0 0 0 0 
0 0 0 0 0 0 0 0 0 
0 0 0 0 0 0 0 0 0 
0 0 0 0 0 0 0 0 0 
0 0 0 0 0 0 0 0 0 
0 0 0 0 0 0 0 0 0 
0 0 0 0 0 0 0 0 0 
0 0 0 0 0 0 0 0 0 
0 0 0 0 0 0 0 0 0 
0 0 0 0 0 0 0 0 0 
0 0 0 0 0 0 0 0 0 
0 0 0 0 0 0 0 0 0 
0 0 0 0 0 0 0 0 0 
0 0 0 0 0 0 0 0 0 
0 0 0 0 0 0 0 0 0 
0 0 0 0 0 0 0 0 0 
0 0 0 0 0 0 0 0 0 
0 0 0 0 0 0 0 0 0 
0 0 0 0 0 0 0 0 0 
0 0 0 0 0 0 0 0 0 
0 0 0 0 0 0 0 0 0 
0 0 0 0 0 0 0 0 0 
0 0 0 0 0 0 0 0 0 
0 0 0 0 0 0 0 0 0 
0 0 0 0 0 0 0 0 0 
0 0 0 0 0 0 0 0 0 
0 0 0 0 0 0 0 0 0 
0 0 0 0 0 0 0 0 0 
0 0 0 0 0 0 0 0 0 
0 0 0 0 0 0 0 0 0 
0 0 0 0 0 0 0 0 0 
0 0 0 0 0 0 0 0 0 
0 0 0 0 0 0 0 0 0 
0 0 0 0 0 0 0 0 0 
0 0 0 0 0 0 0 0 0 
0 0 0 0 0 0 0 0 0 
0 0 0 0 0 0 0 0 0 
0 0 0 0 0 0 0 0 0 
0 0 0 0 0 0 0 0 0 
0 0 0 0 0 0 0 0 0 
0 0 0 0 0 0 0 0 0 
0 0 0 0 0 0 0 0 0 
0 0 0 0 0 0 0 0 0 
0 0 0 0 0 0 0 0 0 
0 0 0 0 0 0 0 0 0 
0 0 0 0 0 0 0 0 0 
0 0 0 0 0 0 0 0 0 
0 0 0 0 0 0 0 0 0 
0 0 0 0 0 0 0 0 0 
0 0 0 0 0 0 0 0 0 
0 0 0 0 0 0 0 0 0 
0 0 0 0 0 0 0 0 0 
0 0 0 0 0 0 0 0 0 
0 0 0 0 0 0 0 0 0 
0 0 0 0 0 0 0 0 0 
0 0 0 0 0 0 0 0 0 
0 0 0 0 0 0 0 0 0 
0 0 0 0 0 0 0 0 0 
0 0 0 0 0 0 0 0 0 
0 0 0 0 0 0 0 0 0 
0 0 0 0 0 0 0 0 0 
0 0 0 0 0 0 0 0 0 
0 0 0 0 0 0 0 0 0 
0 0 0 0 0 0 0 0 0 
0 0 0 0 0 0 0 0 0 
0 0 0 0 0 0 0 0 0 
0 0 0 0 0 0 0 0 0 
0 0 0 0 0 0 0 0 0 
0 0 0 0 0 0 0 0 0 
0 0 0 0 0 0 0 0 0 
0 0 0 0 0 0 0 0 0 
0 0 0 0 0 0 0 0 0 
0 0 0 0 0 0 0 0 0 
0 0 0 0 0 0 0 0 0 
0 0 0 0 0 0 0 0 0 
0 0 0 0 0 0 0 0 0 
0 0 0 0 0 0 0 0 0 
0 0 0 0 0 0 0 0 0 
0 0 0 0 0 0 0 0 0 
0 0 0 0 0 0 0 0 0 
0 0 0 0 0 0 0 0 0 
0 0 0 0 0 0 0 0 0 
0 0 0 0 0 0 0 0 0 
0 0 0 0 0 0 0 0 0 
0 0 0 0 0 0 0 0 0 
0 0 0 0 0 0 0 0 0 
0 0 0 0 0 0 0 0 0 
0 0 0 0 0 0 0 0 0 
0 0 0 0 0 0 0 0 0 
0 0 0 0 0 0 0 0 0 
0 0 0 0 0 0 0 0 0 
0 0 0 0 0 0 0 0 0 
0 0 0 0 0 0 0 0 0 
0 0 0 0 0 0 0 0 0 
0 0 0 0 0 0 0 0 0 
0 0 0 0 0 0 0 0 0 
0 0 0 0 0 0 0 0 0 
0 0 0 0 0 0 0 0 0 
0 0 0 0 0 0 0 0 0 
0 0 0 0 0 0 0 0 0 
0 0 0 0 0 0 0 0 0 
0 0 0 0 0 0 0 0 0 
0 0 0 0 0 0 0 0 0 
0 0 0 0 0 0 0 0 0 
0 0 0 0 0 0 0 0 0 
0 0 0 0 0 0 0 0 0 
0 0 0 0 0 0 0 0 0 
0 0 0 0 0 0 0 0 0 
0 0 0 0 0 0 0 0 0 
0 0 0 0 0 0 0 0 0 
0 0 0 0 0 0 0 0 0 
0 0 0 0 0 0 0 0 0 
0 0 0 0 0 0 0 0 0 
0 0 0 0 0 0 0 0 0 
0 0 0 0 0 0 0 0 0 
0 0 0 0 0 0 0 0 0 
0 0 0 0 0 0 0 0 0 
0 0 0 0 0 0 0 0 0 
0 0 0 0 0 0 0 0 0 
0 0 0 0 0 0 0 0 0 
0 0 0 0 0 0 0 0 0 
0 0 0 0 0 0 0 0 0 
0 0 0 0 0 0 0 0 0 
0 0 0 0 0 0 0 0 0 
0 0 0 0 0 0 0 0 0 
0 0 0 0 0 0 0 0 0 
0 0 0 0 0 0 0 0 0 
0 0 0 0 0 0 0 0 0 
0 0 0 0 0 0 0 0 0 
0 0 0 0 0 0 0 0 0 
0 0 0 0 0 0 0 0 0 
0 0 0 0 0 0 0 0 0 
0 0 0 0 0 0 0 0 0 
0 0 0 0 0 0 0 0 0 
0 0 0 0 0 0 0 0 0 
0 0 0 0 0 0 0 0 0 
0 0 0 0 0 0 0 0 0 
0 0 0 0 0 0 0 0 0 
0 0 0 0 0 0 0 0 0 
0 0 0 0 0 0 0 0 0 
0 0 0 0 0 0 0 0 0 
0 0 0 0 0 0 0 0 0 
0 0 0 0 0 0 0 0 0 
0 0 0 0 0 0 0 0 0 
0 0 0 0 0 0 0 0 0 
0 0 0 0 0 0 0 0 0 
0 0 0 0 0 0 0 0 0 
0 0 0 0 0 0 0 0 0 
0 0 0 0 0 0 0 0 0 
0 0 0 0 0 0 0 0 0 
0 0 0 0 0 0 0 0 0 
0 0 0 0 0 0 0 0 0 
0 0 0 0 0 0 0 0 0 
0 0 0 0 0 0 0 0 0 
0 0 0 0 0 0 0 0 0 
0 0 0 0 0 0 0 0 0 
0 0 0 0 0 0 0 0 0 
0 0 0 0 0 0 0 0 0 
0 0 0 0 0 0 0 0 0 
0 0 0 0 0 0 0 0 0 
0 0 0 0 0 0 0 0 0 
0 0 0 0 0 0 0 0 0 
0 0 0 0 0 0 0 0 0 
0 0 0 0 0 0 0 0 0 
0 0 0 0 0 0 0 0 0 
0 0 0 0 0 0 0 0 0 
0 0 0 0 0 0 0 0 0 
0 0 0 0 0 0 0 0 0 
0 0 0 0 0 0 0 0 0 
0 0 0 0 0 0 0 0 0 
0 0 0 0 0 0 0 0 0 
0 0 0 0 0 0 0 0 0 
0 0 0 0 0 0 0 0 0 
0 0 0 0 0 0 0 0 0 
0 0 0 0 0 0 0 0 0 
0 0 0 0 0 0 0 0 0 
0 0 0 0 0 0 0 0 0 
0 0 0 0 0 0 0 0 0 
0 0 0 0 0 0 0 0 0 
0 0 0 0 0 0 0 0 0 
0 0 0 0 0 0 0 0 0 
0 0 0 0 0 0 0 0 0 
0 0 0 0 0 0 0 0 0 
0 0 0 0 0 0 0 0 0 
0 0 0 0 0 0 0 0 0 
0 0 0 0 0 0 0 0 0 
0 0 0 0 0 0 0 0 0 
0 0 0 0 0 0 0 0 0 
0 0 0 0 0 0 0 0 0 
0 0 0 0 0 0 0 0 0 
0 0 0 0 0 0 0 0 0 
0 0 0 0 0 0 0 0 0 
0 0 0 0 0 0 0 0 0 
0 0 0 0 0 0 0 0 0 
0 0 0 0 0 0 0 0 0 
0 0 0 0 0 0 0 0 0 
0 0 0 0 0 0 0 0 0 
0 0 0 0 0 0 0 0 0 
0 0 0 0 0 0 0 0 0 
0 0 0 0 0 0 0 0 0 
0 0 0 0 0 0 0 0 0 
0 0 0 0 0 0 0 0 0 
0 0 0 0 0 0 0 0 0 
0 0 0 0 0 0 0 0 0 
0 0 0 0 0 0 0 0 0 
0 0 0 0 0 0 0 0 0 
0 0 0 0 0 0 0 0 0 
0 0 0 0 0 0 0 0 0 
0 0 0 0 0 0 0 0 0 
0 0 0 0 0 0 0 0 0 
0 0 0 0 0 0 0 0 0 
0 0 0 0 0 0 0 0 0 
0 0 0 0 0 0 0 0 0 
0 0 0 0 0 0 0 0 0 
0 0 0 0 0 0 0 0 0 
0 0 0 0 0 0 0 0 0 
0 0 0 0 0 0 0 0 0 
0 0 0 0 0 0 0 0 0 
0 0 0 0 0 0 0 0 0 
0 0 0 0 0 0 0 0 0 
0 0 0 0 0 0 0 0 0 
0 0 0 0 0 0 0 0 0 
0 0 0 0 0 0 0 0 0 
0 0 0 0 0 0 0 0 0 
0 0 0 0 0 0 0 0 0 
0 0 0 0 0 0 0 0 0 
0 0 0 0 0 0 0 0 0 
0 0 0 0 0 0 0 0 0 
0 0 0 0 0 0 0 0 0 
0 0 0 0 0 0 0 0 0 
0 0 0 0 0 0 0 0 0 
0 0 0 0 0 0 0 0 0 
0 0 0 0 0 0 0 0 0 
0 0 0 0 0 0 0 0 0 
0 0 0 0 0 0 0 0 0 
0 0 0 0 0 0 0 0 0 
0 0 0 0 0 0 0 0 0 
0 0 0 0 0 0 0 0 0 
0 0 0 0 0 0 0 0 0 
0 0 0 0 0 0 0 0 0 
0 0 0 0 0 0 0 0 0 
0 0 0 0 0 0 0 0 0 
0 0 0 0 0 0 0 0 0 
0 0 0 0 0 0 0 0 0 
0 0 0 0 0 0 0 0 0 
0 0 0 0 0 0 0 0 0 
0 0 0 0 0 0 0 0 0 
0 0 0 0 0 0 0 0 0 
0 0 0 0 0 0 0 0 0 
0 0 0 0 0 0 0 0 0 
0 0 0 0 0 0 0 0 0 
0 0 0 0 0 0 0 0 0 
0 0 0 0 0 0 0 0 0 
0 0 0 0 0 0 0 0 0 
0 0 0 0 0 0 0 0 0 
0 0 0 0 0 0 0 0 0 
0 0 0 0 0 0 0 0 0 
0 0 0 0 0 0 0 0 0 
0 0 0 0 0 0 0 0 0 
0 0 0 0 0 0 0 0 0 
0 0 0 0 0 0 0 0 0 
0 0 0 0 0 0 0 0 0 
0 0 0 0 0 0 0 0 0 
0 0 0 0 0 0 0 0 0 
0 0 0 0 0 0 0 0 0 
0 0 0 0 0 0 0 0 0 
0 0 0 0 0 0 0 0 0 
0 0 0 0 0 0 0 0 0 
0 0 0 0 0 0 0 0 0 
0 0 0 0 0 0 0 0 0 
0 0 0 0 0 0 0 0 0 
0 0 0 0 0 0 0 0 0 
0 0 0 0 0 0 0 0 0 
0 0 0 0 0 0 0 0 0 
0 0 0 0 0 0 0 0 0 
0 0 0 0 0 0 0 0 0 
0 0 0 0 0 0 0 0 0 
0 0 0 0 0 0 0 0 0 
0 0 0 0 0 0 0 0 0 
0 0 0 0 0 0 0 0 0 
0 0 0 0 0 0 0 0 0 
0 0 0 0 0 0 0 0 0 
0 0 0 0 0 0 0 0 0 
0 0 0 0 0 0 0 0 0 
0 0 0 0 0 0 0 0 0 
0 0 0 0 0 0 0 0 0 
0 0 0 0 0 0 0 0 0 
0 0 0 0 0 0 0 0 0 
0 0 0 0 0 0 0 0 0 
0 0 0 0 0 0 0 0 0 
0 0 0 0 0 0 0 0 0 
0 0 0 0 0 0 0 0 0 
0 0 0 0 0 0 0 0 0 
0 0 0 0 0 0 0 0 0 
0 0 0 0 0 0 0 0 0 
0 0 0 0 0 0 0 0 0 
0 0 0 0 0 0 0 0 0 
0 0 0 0 0 0 0 0 0 
0 0 0 0 0 0 0 0 0 
0 0 0 0 0 0 0 0 0 
0 0 0 0 0 0 0 0 0 
0 0 0 0 0 0 0 0 0 
0 0 0 0 0 0 0 0 0 
0 0 0 0 0 0 0 0 0 
0 0 0 0 0 0 0 0 0 
0 0 0 0 0 0 0 0 0 
0 0 0 0 0 0 0 0 0 
0 0 0 0 0 0 0 0 0 
0 0 0 0 0 0 0 0 0 
0 0 0 0 0 0 0 0 0 
0 0 0 0 0 0 0 0 0 
0 0 0 0 0 0 0 0 0 
0 0 0 0 0 0 0 0 0 
0 0 0 0 0 0 0 0 0 
0 0 0 0 0 0 0 0 0 
0 0 0 0 0 0 0 0 0 
0 0 0 0 0 0 0 0 0 
0 0 0 0 0 0 0 0 0 
0 0 0 0 0 0 0 0 0 
0 0 0 0 0 0 0 0 0 
0 0 0 0 0 0 0 0 0 
0 0 0 0 0 0 0 0 0 
0 0 0 0 0 0 0 0 0 
0 0 0 0 0 0 0 0 0 
0 0 0 0 0 0 0 0 0 
0 0 0 0 0 0 0 0 0 
0 0 0 0 0 0 0 0 0 
0 0 0 0 0 0 0 0 0 
0 0 0 0 0 0 0 0 0 
0 0 0 0 0 0 0 0 0 
0 0 0 0 0 0 0 0 0 
0 0 0 0 0 0 0 0 0 
0 0 0 0 0 0 0 0 0 
0 0 0 0 0 0 0 0 0 
0 0 0 0 0 0 0 0 0 
0 0 0 0 0 0 0 0 0 
0 0 0 0 0 0 0 0 0 
0 0 0 0 0 0 0 0 0 
0 0 0 0 0 0 0 0 0 
0 0 0 0 0 0 0 0 0 
0 0 0 0 0 0 0 0 0 
0 0 0 0 0 0 0 0 0 
0 0 0 0 0 0 0 0 0 
0 0 0 0 0 0 0 0 0 
0 0 0 0 0 0 0 0 0 
0 0 0 0 0 0 0 0 0 
0 0 0 0 0 0 0 0 0 
0 0 0 0 0 0 0 0 0 
0 0 0 0 0 0 0 0 0 
0 0 0 0 0 0 0 0 0 
0 0 0 0 0 0 0 0 0 
0 0 0 0 0 0 0 0 0 
0 0 0 0 0 0 0 0 0 
0 0 0 0 0 0 0 0 0 
0 0 0 0 0 0 0 0 0 
0 0 0 0 0 0 0 0 0 
0 0 0 0 0 0 0 0 0 
0 0 0 0 0 0 0 0 0 
0 0 0 0 0 0 0 0 0 
0 0 0 0 0 0 0 0 0 
0 0 0 0 0 0 0 0 0 
0 0 0 0 0 0 0 0 0 
0 0 0 0 0 0 0 0 0 
0 0 0 0 0 0 0 0 0 
0 0 0 0 0 0 0 0 0 
0 0 0 0 0 0 0 0 0 
0 0 0 0 0 0 0 0 0 
0 0 0 0 0 0 0 0 0 
0 0 0 0 0 0 0 0 0 
0 0 0 0 0 0 0 0 0 
0 0 0 0 0 0 0 0 0 
0 0 0 0 0 0 0 0 0 
0 0 0 0 0 0 0 0 0 
0 0 0 0 0 0 0 0 0 
0 0 0 0 0 0 0 0 0 
0 0 0 0 0 0 0 0 0 
0 0 0 0 0 0 0 0 0 
0 0 0 0 0 0 0 0 0 
0 0 0 0 0 0 0 0 0 
0 0 0 0 0 0 0 0 0 
0 0 0 0 0 0 0 0 0 
0 0 0 0 0 0 0 0 0 
0 0 0 0 0 0 0 0 0 
0 0 0 0 0 0 0 0 0 
0 0 0 0 0 0 0 0 0 
0 0 0 0 0 0 0 0 0 
0 0 0 0 0 0 0 0 0 
0 0 0 0 0 0 0 0 0 
0 0 0 0 0 0 0 0 0 
0 0 0 0 0 0 0 0 0 
0 0 0 0 0 0 0 0 0 
0 0 0 0 0 0 0 0 0 
0 0 0 0 0 0 0 0 0 
0 0 0 0 0 0 0 0 0 
0 0 0 0 0 0 0 0 0 
0 0 0 0 0 0 0 0 0 
0 0 0 0 0 0 0 0 0 
0 0 0 0 0 0 0 0 0 
0 0 0 0 0 0 0 0 0 
0 0 0 0 0 0 0 0 0 
0 0 0 0 0 0 0 0 0 
0 0 0 0 0 0 0 0 0 
0 0 0 0 0 0 0 0 0 
0 0 0 0 0 0 0 0 0 
0 0 0 0 0 0 0 0 0 
0 0 0 0 0 0 0 0 0 
0 0 0 0 0 0 0 0 0 
0 0 0 0 0 0 0 0 0 
0 0 0 0 0 0 0 0 0 
0 0 0 0 0 0 0 0 0 
0 0 0 0 0 0 0 0 0 
0 0 0 0 0 0 0 0 0 
0 0 0 0 0 0 0 0 0 
0 0 0 0 0 0 0 0 0 
0 0 0 0 0 0 0 0 0 
0 0 0 0 0 0 0 0 0 
0 0 0 0 0 0 0 0 0 
0 0 0 0 0 0 0 0 0 
0 0 0 0 0 0 0 0 0 
0 0 0 0 0 0 0 0 0 
0 0 0 0 0 0 0 0 0 
0 0 0 0 0 0 0 0 0 
0 0 0 0 0 0 0 0 0 
0 0 0 0 0 0 0 0 0 
0 0 0 0 0 0 0 0 0 
0 0 0 0 0 0 0 0 0 
0 0 0 0 0 0 0 0 0 
0 0 0 0 0 0 0 0 0 
0 0 0 0 0 0 0 0 0 
0 0 0 0 0 0 0 0 0 
0 0 0 0 0 0 0 0 0 
0 0 0 0 0 0 0 0 0 
0 0 0 0 0 0 0 0 0 
0 0 0 0 0 0 0 0 0 
0 0 0 0 0 0 0 0 0 
0 0 0 0 0 0 0 0 0 
0 0 0 0 0 0 0 0 0 
0 0 0 0 0 0 0 0 0 
0 0 0 0 0 0 0 0 0 
0 0 0 0 0 0 0 0 0 
0 0 0 0 0 0 0 0 0 
0 0 0 0 0 0 0 0 0 
0 0 0 0 0 0 0 0 0 
0 0 0 0 0 0 0 0 0 
0 0 0 0 0 0 0 0 0 
0 0 0 0 0 0 0 0 0 
0 0 0 0 0 0 0 0 0 
0 0 0 0 0 0 0 0 0 
0 0 0 0 0 0 0 0 0 
0 0 0 0 0 0 0 0 0 
0 0 0 0 0 0 0 0 0 
0 0 0 0 0 0 0 0 0 
0 0 0 0 0 0 0 0 0 
0 0 0 0 0 0 0 0 0 
0 0 0 0 0 0 0 0 0 
0 0 0 0 0 0 0 0 0 
0 0 0 0 0 0 0 0 0 
0 0 0 0 0 0 0 0 0 
0 0 0 0 0 0 0 0 0 
0 0 0 0 0 0 0 0 0 
0 0 0 0 0 0 0 0 0 
0 0 0 0 0 0 0 0 0 
0 0 0 0 0 0 0 0 0 
0 0 0 0 0 0 0 0 0 
0 0 0 0 0 0 0 0 0 
0 0 0 0 0 0 0 0 0 
0 0 0 0 0 0 0 0 0 
0 0 0 0 0 0 0 0 0 
0 0 0 0 0 0 0 0 0 
0 0 0 0 0 0 0 0 0 
0 0 0 0 0 0 0 0 0 
0 0 0 0 0 0 0 0 0 
0 0 0 0 0 0 0 0 0 
0 0 0 0 0 0 0 0 0 
0 0 0 0 0 0 0 0 0 
0 0 0 0 0 0 0 0 0 
0 0 0 0 0 0 0 0 0 
0 0 0 0 0 0 0 0 0 
0 0 0 0 0 0 0 0 0 
0 0 0 0 0 0 0 0 0 
0 0 0 0 0 0 0 0 0 
0 0 0 0 0 0 0 0 0 
0 0 0 0 0 0 0 0 0 
0 0 0 0 0 0 0 0 0 
0 0 0 0 0 0 0 0 0 
0 0 0 0 0 0 0 0 0 
0 0 0 0 0 0 0 0 0 
0 0 0 0 0 0 0 0 0 
0 0 0 0 0 0 0 0 0 
0 0 0 0 0 0 0 0 0 
0 0 0 0 0 0 0 0 0 
0 0 0 0 0 0 0 0 0 
0 0 0 0 0 0 0 0 0 
0 0 0 0 0 0 0 0 0 
0 0 0 0 0 0 0 0 0 
0 0 0 0 0 0 0 0 0 
0 0 0 0 0 0 0 0 0 
0 0 0 0 0 0 0 0 0 
0 0 0 0 0 0 0 0 0 
0 0 0 0 0 0 0 0 0 
0 0 0 0 0 0 0 0 0 
0 0 0 0 0 0 0 0 0 
0 0 0 0 0 0 0 0 0 
0 0 0 0 0 0 0 0 0 
0 0 0 0 0 0 0 0 0 
0 0 0 0 0 0 0 0 0 
0 0 0 0 0 0 0 0 0 
0 0 0 0 0 0 0 0 0 
0 0 0 0 0 0 0 0 0 
0 0 0 0 0 0 0 0 0 
0 0 0 0 0 0 0 0 0 
0 0 0 0 0 0 0 0 0 
0 0 0 0 0 0 0 0 0 
0 0 0 0 0 0 0 0 0 
0 0 0 0 0 0 0 0 0 
0 0 0 0 0 0 0 0 0 
0 0 0 0 0 0 0 0 0 
0 0 0 0 0 0 0 0 0 
0 0 0 0 0 0 0 0 0 
0 0 0 0 0 0 0 0 0 
0 0 0 0 0 0 0 0 0 
0 0 0 0 0 0 0 0 0 
0 0 0 0 0 0 0 0 0 
0 0 0 0 0 0 0 0 0 
0 0 0 0 0 0 0 0 0 
0 0 0 0 0 0 0 0 0 
0 0 0 0 0 0 0 0 0 
0 0 0 0 0 0 0 0 0 
0 0 0 0 0 0 0 0 0 
0 0 0 0 0 0 0 0 0 
0 0 0 0 0 0 0 0 0 
0 0 0 0 0 0 0 0 0 
0 0 0 0 0 0 0 0 0 
0 0 0 0 0 0 0 0 0 
0 0 0 0 0 0 0 0 0 
0 0 0 0 0 0 0 0 0 
0 0 0 0 0 0 0 0 0 
0 0 0 0 0 0 0 0 0 
0 0 0 0 0 0 0 0 0 
0 0 0 0 0 0 0 0 0 
0 0 0 0 0 0 0 0 0 
0 0 0 0 0 0 0 0 0 
0 0 0 0 0 0 0 0 0 
0 0 0 0 0 0 0 0 0 
0 0 0 0 0 0 0 0 0 
0 0 0 0 0 0 0 0 0 
0 0 0 0 0 0 0 0 0 
0 0 0 0 0 0 0 0 0 
0 0 0 0 0 0 0 0 0 
0 0 0 0 0 0 0 0 0 
0 0 0 0 0 0 0 0 0 
0 0 0 0 0 0 0 0 0 
0 0 0 0 0 0 0 0 0 
0 0 0 0 0 0 0 0 0 
0 0 0 0 0 0 0 0 0 
0 0 0 0 0 0 0 0 0 
0 0 0 0 0 0 0 0 0 
0 0 0 0 0 0 0 0 0 
0 0 0 0 0 0 0 0 0 
0 0 0 0 0 0 0 0 0 
0 0 0 0 0 0 0 0 0 
0 0 0 0 0 0 0 0 0 
0 0 0 0 0 0 0 0 0 
0 0 0 0 0 0 0 0 0 
0 0 0 0 0 0 0 0 0 
0 0 0 0 0 0 0 0 0 
0 0 0 0 0 0 0 0 0 
0 0 0 0 0 0 0 0 0 
0 0 0 0 0 0 0 0 0 
0 0 0 0 0 0 0 0 0 
0 0 0 0 0 0 0 0 0 
0 0 0 0 0 0 0 0 0 
0 0 0 0 0 0 0 0 0 
0 0 0 0 0 0 0 0 0 
0 0 0 0 0 0 0 0 0 
0 0 0 0 0 0 0 0 0 
0 0 0 0 0 0 0 0 0 
0 0 0 0 0 0 0 0 0 
0 0 0 0 0 0 0 0 0 
0 0 0 0 0 0 0 0 0 
0 0 0 0 0 0 0 0 0 
0 0 0 0 0 0 0 0 0 
0 0 0 0 0 0 0 0 0 
0 0 0 0 0 0 0 0 0 
0 0 0 0 0 0 0 0 0 
0 0 0 0 0 0 0 0 0 
0 0 0 0 0 0 0 0 0 
0 0 0 0 0 0 0 0 0 
0 0 0 0 0 0 0 0 0 
0 0 0 0 0 0 0 0 0 
0 0 0 0 0 0 0 0 0 
0 0 0 0 0 0 0 0 0 
0 0 0 0 0 0 0 0 0 
0 0 0 0 0 0 0 0 0 
0 0 0 0 0 0 0 0 0 
0 0 0 0 0 0 0 0 0 
0 0 0 0 0 0 0 0 0 
0 0 0 0 0 0 0 0 0 
0 0 0 0 0 0 0 0 0 
0 0 0 0 0 0 0 0 0 
0 0 0 0 0 0 0 0 0 
0 0 0 0 0 0 0 0 0 
0 0 0 0 0 0 0 0 0 
0 0 0 0 0 0 0 0 0 
0 0 0 0 0 0 0 0 0 
0 0 0 0 0 0 0 0 0 
0 0 0 0 0 0 0 0 0 
0 0 0 0 0 0 0 0 0 
0 0 0 0 0 0 0 0 0 
0 0 0 0 0 0 0 0 0 
0 0 0 0 0 0 0 0 0 
0 0 0 0 0 0 0 0 0 
0 0 0 0 0 0 0 0 0 
0 0 0 0 0 0 0 0 0 
0 0 0 0 0 0 0 0 0 
0 0 0 0 0 0 0 0 0 
0 0 0 0 0 0 0 0 0 
0 0 0 0 0 0 0 0 0 
0 0 0 0 0 0 0 0 0 
0 0 0 0 0 0 0 0 0 
0 0 0 0 0 0 0 0 0 
0 0 0 0 0 0 0 0 0 
0 0 0 0 0 0 0 0 0 
0 0 0 0 0 0 0 0 0 
0 0 0 0 0 0 0 0 0 
0 0 0 0 0 0 0 0 0 
0 0 0 0 0 0 0 0 0 
0 0 0 0 0 0 0 0 0 
0 0 0 0 0 0 0 0 0 
0 0 0 0 0 0 0 0 0 
0 0 0 0 0 0 0 0 0 
0 0 0 0 0 0 0 0 0 
0 0 0 0 0 0 0 0 0 
0 0 0 0 0 0 0 0 0 
0 0 0 0 0 0 0 0 0 
0 0 0 0 0 0 0 0 0 
0 0 0 0 0 0 0 0 0 
0 0 0 0 0 0 0 0 0 
0 0 0 0 0 0 0 0 0 
0 0 0 0 0 0 0 0 0 
0 0 0 0 0 0 0 0 0 
0 0 0 0 0 0 0 0 0 
0 0 0 0 0 0 0 0 0 
0 0 0 0 0 0 0 0 0 
0 0 0 0 0 0 0 0 0 
0 0 0 0 0 0 0 0 0 
0 0 0 0 0 0 0 0 0 
0 0 0 0 0 0 0 0 0 
0 0 0 0 0 0 0 0 0 
0 0 0 0 0 0 0 0 0 
0 0 0 0 0 0 0 0 0 
0 0 0 0 0 0 0 0 0 
0 0 0 0 0 0 0 0 0 
0 0 0 0 0 0 0 0 0 
0 0 0 0 0 0 0 0 0 
0 0 0 0 0 0 0 0 0 
0 0 0 0 0 0 0 0 0 
0 0 0 0 0 0 0 0 0 
0 0 0 0 0 0 0 0 0 
0 0 0 0 0 0 0 0 0 
0 0 0 0 0 0 0 0 0 
0 0 0 0 0 0 0 0 0 
0 0 0 0 0 0 0 0 0 
0 0 0 0 0 0 0 0 0 
0 0 0 0 0 0 0 0 0 
0 0 0 0 0 0 0 0 0 
0 0 0 0 0 0 0 0 0 
0 0 0 0 0 0 0 0 0 
0 0 0 0 0 0 0 0 0 
0 0 0 0 0 0 0 0 0 
0 0 0 0 0 0 0 0 0 
0 0 0 0 0 0 0 0 0 
0 0 0 0 0 0 0 0 0 
0 0 0 0 0 0 0 0 0 
0 0 0 0 0 0 0 0 0 
0 0 0 0 0 0 0 0 0 
0 0 0 0 0 0 0 0 0 
0 0 0 0 0 0 0 0 0 
0 0 0 0 0 0 0 0 0 
0 0 0 0 0 0 0 0 0 
0 0 0 0 0 0 0 0 0 
0 0 0 0 0 0 0 0 0 
0 0 0 0 0 0 0 0 0 
0 0 0 0 0 0 0 0 0 
0 0 0 0 0 0 0 0 0 
0 0 0 0 0 0 0 0 0 
0 0 0 0 0 0 0 0 0 
0 0 0 0 0 0 0 0 0 
0 0 0 0 0 0 0 0 0 
0 0 0 0 0 0 0 0 0 
0 0 0 0 0 0 0 0 0 
0 0 0 0 0 0 0 0 0 
0 0 0 0 0 0 0 0 0 
0 0 0 0 0 0 0 0 0 
0 0 0 0 0 0 0 0 0 
0 0 0 0 0 0 0 0 0 
0 0 0 0 0 0 0 0 0 
0 0 0 0 0 0 0 0 0 
0 0 0 0 0 0 0 0 0 
0 0 0 0 0 0 0 0 0 
0 0 0 0 0 0 0 0 0 
0 0 0 0 0 0 0 0 0 
0 0 0 0 0 0 0 0 0 
0 0 0 0 0 0 0 0 0 
0 0 0 0 0 0 0 0 0 
0 0 0 0 0 0 0 0 0 
0 0 0 0 0 0 0 0 0 
0 0 0 0 0 0 0 0 0 
0 0 0 0 0 0 0 0 0 
0 0 0 0 0 0 0 0 0 
0 0 0 0 0 0 0 0 0 
0 0 0 0 0 0 0 0 0 
0 0 0 0 0 0 0 0 0 
0 0 0 0 0 0 0 0 0 
0 0 0 0 0 0 0 0 0 
0 0 0 0 0 0 0 0 0 
0 0 0 0 0 0 0 0 0 
0 0 0 0 0 0 0 0 0 
0 0 0 0 0 0 0 0 0 
0 0 0 0 0 0 0 0 0 
0 0 0 0 0 0 0 0 0 
0 0 0 0 0 0 0 0 0 
0 0 0 0 0 0 0 0 0 
0 0 0 0 0 0 0 0 0 
0 0 0 0 0 0 0 0 0 
0 0 0 0 0 0 0 0 0 
0 0 0 0 0 0 0 0 0 
0 0 0 0 0 0 0 0 0 
0 0 0 0 0 0 0 0 0 
0 0 0 0 0 0 0 0 0 
0 0 0 0 0 0 0 0 0 
0 0 0 0 0 0 0 0 0 
0 0 0 0 0 0 0 0 0 
0 0 0 0 0 0 0 0 0 
0 0 0 0 0 0 0 0 0 
0 0 0 0 0 0 0 0 0 
0 0 0 0 0 0 0 0 0 
0 0 0 0 0 0 0 0 0 
0 0 0 0 0 0 0 0 0 
0 0 0 0 0 0 0 0 0 
0 0 0 0 0 0 0 0 0 
0 0 0 0 0 0 0 0 0 
0 0 0 0 0 0 0 0 0 
0 0 0 0 0 0 0 0 0 
0 0 0 0 0 0 0 0 0 
0 0 0 0 0 0 0 0 0 
0 0 0 0 0 0 0 0 0 
0 0 0 0 0 0 0 0 0 
0 0 0 0 0 0 0 0 0 
0 0 0 0 0 0 0 0 0 
0 0 0 0 0 0 0 0 0 
0 0 0 0 0 0 0 0 0 
0 0 0 0 0 0 0 0 0 
0 0 0 0 0 0 0 0 0 
0 0 0 0 0 0 0 0 0 
0 0 0 0 0 0 0 0 0 
0 0 0 0 0 0 0 0 0 
0 0 0 0 0 0 0 0 0 
0 0 0 0 0 0 0 0 0 
0 0 0 0 0 0 0 0 0 
0 0 0 0 0 0 0 0 0 
0 0 0 0 0 0 0 0 0 
0 0 0 0 0 0 0 0 0 
0 0 0 0 0 0 0 0 0 
0 0 0 0 0 0 0 0 0 
0 0 0 0 0 0 0 0 0 
0 0 0 0 0 0 0 0 0 
0 0 0 0 0 0 0 0 0 
0 0 0 0 0 0 0 0 0 
0 0 0 0 0 0 0 0 0 
0 0 0 0 0 0 0 0 0 
0 0 0 0 0 0 0 0 0 
0 0 0 0 0 0 0 0 0 
0 0 0 0 0 0 0 0 0 
0 0 0 0 0 0 0 0 0 
0 0 0 0 0 0 0 0 0 
0 0 0 0 0 0 0 0 0 
0 0 0 0 0 0 0 0 0 
0 0 0 0 0 0 0 0 0 
0 0 0 0 0 0 0 0 0 
0 0 0 0 0 0 0 0 0 
0 0 0 0 0 0 0 0 0 
0 0 0 0 0 0 0 0 0 
0 0 0 0 0 0 0 0 0 
0 0 0 0 0 0 0 0 0 
0 0 0 0 0 0 0 0 0 
0 0 0 0 0 0 0 0 0 
0 0 0 0 0 0 0 0 0 
0 0 0 0 0 0 0 0 0 
0 0 0 0 0 0 0 0 0 
0 0 0 0 0 0 0 0 0 
0 0 0 0 0 0 0 0 0 
0 0 0 0 0 0 0 0 0 
0 0 0 0 0 0 0 0 0 
0 0 0 0 0 0 0 0 0 
0 0 0 0 0 0 0 0 0 
0 0 0 0 0 0 0 0 0 
0 0 0 0 0 0 0 0 0 
0 0 0 0 0 0 0 0 0 
0 0 0 0 0 0 0 0 0 
0 0 0 0 0 0 0 0 0 
0 0 0 0 0 0 0 0 0 
0 0 0 0 0 0 0 0 0 
0 0 0 0 0 0 0 0 0 
0 0 0 0 0 0 0 0 0 
0 0 0 0 0 0 0 0 0 
0 0 0 0 0 0 0 0 0 
0 0 0 0 0 0 0 0 0 
0 0 0 0 0 0 0 0 0 
0 0 0 0 0 0 0 0 0 
0 0 0 0 0 0 0 0 0 
0 0 0 0 0 0 0 0 0 
0 0 0 0 0 0 0 0 0 
0 0 0 0 0 0 0 0 0 
0 0 0 0 0 0 0 0 0 
0 0 0 0 0 0 0 0 0 
0 0 0 0 0 0 0 0 0 
0 0 0 0 0 0 0 0 0 
0 0 0 0 0 0 0 0 0 
0 0 0 0 0 0 0 0 0 
0 0 0 0 0 0 0 0 0 
0 0 0 0 0 0 0 0 0 
0 0 0 0 0 0 0 0 0 
0 0 0 0 0 0 0 0 0 
0 0 0 0 0 0 0 0 0 
0 0 0 0 0 0 0 0 0 
0 0 0 0 0 0 0 0 0 
0 0 0 0 0 0 0 0 0 
0 0 0 0 0 0 0 0 0 
0 0 0 0 0 0 0 0 0 
0 0 0 0 0 0 0 0 0 
0 0 0 0 0 0 0 0 0 
0 0 0 0 0 0 0 0 0 
0 0 0 0 0 0 0 0 0 
0 0 0 0 0 0 0 0 0 
0 0 0 0 0 0 0 0 0 
0 0 0 0 0 0 0 0 0 
0 0 0 0 0 0 0 0 0 
0 0 0 0 0 0 0 0 0 
0 0 0 0 0 0 0 0 0 
0 0 0 0 0 0 0 0 0 
0 0 0 0 0 0 0 0 0 
0 0 0 0 0 0 0 0 0 
0 0 0 0 0 0 0 0 0 
0 0 0 0 0 0 0 0 0 
0 0 0 0 0 0 0 0 0 
0 0 0 0 0 0 0 0 0 
0 0 0 0 0 0 0 0 0 
0 0 0 0 0 0 0 0 0 
0 0 0 0 0 0 0 0 0 
0 0 0 0 0 0 0 0 0 
0 0 0 0 0 0 0 0 0 
0 0 0 0 0 0 0 0 0 
0 0 0 0 0 0 0 0 0 
0 0 0 0 0 0 0 0 0 
0 0 0 0 0 0 0 0 0 
0 0 0 0 0 0 0 0 0 
0 0 0 0 0 0 0 0 0 
0 0 0 0 0 0 0 0 0 
0 0 0 0 0 0 0 0 0 
0 0 0 0 0 0 0 0 0 
0 0 0 0 0 0 0 0 0 
0 0 0 0 0 0 0 0 0 
0 0 0 0 0 0 0 0 0 
0 0 0 0 0 0 0 0 0 
0 0 0 0 0 0 0 0 0 
0 0 0 0 0 0 0 0 0 
0 0 0 0 0 0 0 0 0 
0 0 0 0 0 0 0 0 0 
0 0 0 0 0 0 0 0 0 
0 0 0 0 0 0 0 0 0 
0 0 0 0 0 0 0 0 0 
0 0 0 0 0 0 0 0 0 
0 0 0 0 0 0 0 0 0 
0 0 0 0 0 0 0 0 0 
0 0 0 0 0 0 0 0 0 
0 0 0 0 0 0 0 0 0 
0 0 0 0 0 0 0 0 0 
0 0 0 0 0 0 0 0 0 
0 0 0 0 0 0 0 0 0 
0 0 0 0 0 0 0 0 0 
0 0 0 0 0 0 0 0 0 
0 0 0 0 0 0 0 0 0 
0 0 0 0 0 0 0 0 0 
0 0 0 0 0 0 0 0 0 
0 0 0 0 0 0 0 0 0 
0 0 0 0 0 0 0 0 0 
0 0 0 0 0 0 0 0 0 
0 0 0 0 0 0 0 0 0 
0 0 0 0 0 0 0 0 0 
0 0 0 0 0 0 0 0 0 
0 0 0 0 0 0 0 0 0 
0 0 0 0 0 0 0 0 0 
0 0 0 0 0 0 0 0 0 
0 0 0 0 0 0 0 0 0 
0 0 0 0 0 0 0 0 0 
0 0 0 0 0 0 0 0 0 
0 0 0 0 0 0 0 0 0 
0 0 0 0 0 0 0 0 0 
0 0 0 0 0 0 0 0 0 
0 0 0 0 0 0 0 0 0 
0 0 0 0 0 0 0 0 0 
0 0 0 0 0 0 0 0 0 
0 0 0 0 0 0 0 0 0 
0 0 0 0 0 0 0 0 0 
0 0 0 0 0 0 0 0 0 
0 0 0 0 0 0 0 0 0 
0 0 0 0 0 0 0 0 0 
0 0 0 0 0 0 0 0 0 
0 0 0 0 0 0 0 0 0 
0 0 0 0 0 0 0 0 0 
0 0 0 0 0 0 0 0 0 
0 0 0 0 0 0 0 0 0 
0 0 0 0 0 0 0 0 0 
0 0 0 0 0 0 0 0 0 
0 0 0 0 0 0 0 0 0 
0 0 0 0 0 0 0 0 0 
0 0 0 0 0 0 0 0 0 
0 0 0 0 0 0 0 0 0 
0 0 0 0 0 0 0 0 0 
0 0 0 0 0 0 0 0 0 
0 0 0 0 0 0 0 0 0 
0 0 0 0 0 0 0 0 0 
0 0 0 0 0 0 0 0 0 
0 0 0 0 0 0 0 0 0 
0 0 0 0 0 0 0 0 0 
0 0 0 0 0 0 0 0 0 
0 0 0 0 0 0 0 0 0 
0 0 0 0 0 0 0 0 0 
0 0 0 0 0 0 0 0 0 
0 0 0 0 0 0 0 0 0 
0 0 0 0 0 0 0 0 0 
0 0 0 0 0 0 0 0 0 
0 0 0 0 0 0 0 0 0 
0 0 0 0 0 0 0 0 0 
0 0 0 0 0 0 0 0 0 
0 0 0 0 0 0 0 0 0 
0 0 0 0 0 0 0 0 0 
0 0 0 0 0 0 0 0 0 
0 0 0 0 0 0 0 0 0 
0 0 0 0 0 0 0 0 0 
0 0 0 0 0 0 0 0 0 
0 0 0 0 0 0 0 0 0 
0 0 0 0 0 0 0 0 0 
0 0 0 0 0 0 0 0 0 
0 0 0 0 0 0 0 0 0 
0 0 0 0 0 0 0 0 0 
0 0 0 0 0 0 0 0 0 
0 0 0 0 0 0 0 0 0 
0 0 0 0 0 0 0 0 0 
0 0 0 0 0 0 0 0 0 
0 0 0 0 0 0 0 0 0 
0 0 0 0 0 0 0 0 0 
0 0 0 0 0 0 0 0 0 
0 0 0 0 0 0 0 0 0 
0 0 0 0 0 0 0 0 0 
0 0 0 0 0 0 0 0 0 
0 0 0 0 0 0 0 0 0 
0 0 0 0 0 0 0 0 0 
0 0 0 0 0 0 0 0 0 
0 0 0 0 0 0 0 0 0 
0 0 0 0 0 0 0 0 0 
0 0 0 0 0 0 0 0 0 
0 0 0 0 0 0 0 0 0 
0 0 0 0 0 0 0 0 0 
0 0 0 0 0 0 0 0 0 
0 0 0 0 0 0 0 0 0 
0 0 0 0 0 0 0 0 0 
0 0 0 0 0 0 0 0 0 
0 0 0 0 0 0 0 0 0 
0 0 0 0 0 0 0 0 0 
0 0 0 0 0 0 0 0 0 
0 0 0 0 0 0 0 0 0 
0 0 0 0 0 0 0 0 0 
0 0 0 0 0 0 0 0 0 
0 0 0 0 0 0 0 0 0 
0 0 0 0 0 0 0 0 0 
0 0 0 0 0 0 0 0 0 
0 0 0 0 0 0 0 0 0 
0 0 0 0 0 0 0 0 0 
0 0 0 0 0 0 0 0 0 
0 0 0 0 0 0 0 0 0 
0 0 0 0 0 0 0 0 0 
0 0 0 0 0 0 0 0 0 
0 0 0 0 0 0 0 0 0 
0 0 0 0 0 0 0 0 0 
0 0 0 0 0 0 0 0 0 
0 0 0 0 0 0 0 0 0 
0 0 0 0 0 0 0 0 0 
0 0 0 0 0 0 0 0 0 
0 0 0 0 0 0 0 0 0 
0 0 0 0 0 0 0 0 0 
0 0 0 0 0 0 0 0 0 
0 0 0 0 0 0 0 0 0 
0 0 0 0 0 0 0 0 0 
0 0 0 0 0 0 0 0 0 
0 0 0 0 0 0 0 0 0 
0 0 0 0 0 0 0 0 0 
0 0 0 0 0 0 0 0 0 
0 0 0 0 0 0 0 0 0 
0 0 0 0 0 0 0 0 0 
0 0 0 0 0 0 0 0 0 
0 0 0 0 0 0 0 0 0 
0 0 0 0 0 0 0 0 0 
0 0 0 0 0 0 0 0 0 
0 0 0 0 0 0 0 0 0 
0 0 0 0 0 0 0 0 0 
0 0 0 0 0 0 0 0 0 
0 0 0 0 0 0 0 0 0 
0 0 0 0 0 0 0 0 0 
0 0 0 0 0 0 0 0 0 
0 0 0 0 0 0 0 0 0 
0 0 0 0 0 0 0 0 0 
0 0 0 0 0 0 0 0 0 
0 0 0 0 0 0 0 0 0 
0 0 0 0 0 0 0 0 0 
0 0 0 0 0 0 0 0 0 
0 0 0 0 0 0 0 0 0 
0 0 0 0 0 0 0 0 0 
0 0 0 0 0 0 0 0 0 
0 0 0 0 0 0 0 0 0 
0 0 0 0 0 0 0 0 0 
0 0 0 0 0 0 0 0 0 
0 0 0 0 0 0 0 0 0 
0 0 0 0 0 0 0 0 0 
0 0 0 0 0 0 0 0 0 
0 0 0 0 0 0 0 0 0 
0 0 0 0 0 0 0 0 0 
0 0 0 0 0 0 0 0 0 
0 0 0 0 0 0 0 0 0 
0 0 0 0 0 0 0 0 0 
0 0 0 0 0 0 0 0 0 
0 0 0 0 0 0 0 0 0 
0 0 0 0 0 0 0 0 0 
0 0 0 0 0 0 0 0 0 
0 0 0 0 0 0 0 0 0 
0 0 0 0 0 0 0 0 0 
0 0 0 0 0 0 0 0 0 
0 0 0 0 0 0 0 0 0 
0 0 0 0 0 0 0 0 0 
0 0 0 0 0 0 0 0 0 
0 0 0 0 0 0 0 0 0 
0 0 0 0 0 0 0 0 0 
0 0 0 0 0 0 0 0 0 
0 0 0 0 0 0 0 0 0 
0 0 0 0 0 0 0 0 0 
0 0 0 0 0 0 0 0 0 
0 0 0 0 0 0 0 0 0 
0 0 0 0 0 0 0 0 0 
0 0 0 0 0 0 0 0 0 
0 0 0 0 0 0 0 0 0 
0 0 0 0 0 0 0 0 0 
0 0 0 0 0 0 0 0 0 
0 0 0 0 0 0 0 0 0 
0 0 0 0 0 0 0 0 0 
0 0 0 0 0 0 0 0 0 
0 0 0 0 0 0 0 0 0 
0 0 0 0 0 0 0 0 0 
0 0 0 0 0 0 0 0 0 
0 0 0 0 0 0 0 0 0 
0 0 0 0 0 0 0 0 0 
0 0 0 0 0 0 0 0 0 
0 0 0 0 0 0 0 0 0 
0 0 0 0 0 0 0 0 0 
0 0 0 0 0 0 0 0 0 
0 0 0 0 0 0 0 0 0 
0 0 0 0 0 0 0 0 0 
0 0 0 0 0 0 0 0 0 
0 0 0 0 0 0 0 0 0 
0 0 0 0 0 0 0 0 0 
0 0 0 0 0 0 0 0 0 
0 0 0 0 0 0 0 0 0 
0 0 0 0 0 0 0 0 0 
0 0 0 0 0 0 0 0 0 
0 0 0 0 0 0 0 0 0 
0 0 0 0 0 0 0 0 0 
0 0 0 0 0 0 0 0 0 
0 0 0 0 0 0 0 0 0 
0 0 0 0 0 0 0 0 0 
0 0 0 0 0 0 0 0 0 
0 0 0 0 0 0 0 0 0 
0 0 0 0 0 0 0 0 0 
0 0 0 0 0 0 0 0 0 
0 0 0 0 0 0 0 0 0 
0 0 0 0 0 0 0 0 0 
0 0 0 0 0 0 0 0 0 
0 0 0 0 0 0 0 0 0 
0 0 0 0 0 0 0 0 0 
0 0 0 0 0 0 0 0 0 
0 0 0 0 0 0 0 0 0 
0 0 0 0 0 0 0 0 0 
0 0 0 0 0 0 0 0 0 
0 0 0 0 0 0 0 0 0 
0 0 0 0 0 0 0 0 0 
0 0 0 0 0 0 0 0 0 
0 0 0 0 0 0 0 0 0 
0 0 0 0 0 0 0 0 0 
0 0 0 0 0 0 0 0 0 
0 0 0 0 0 0 0 0 0 
0 0 0 0 0 0 0 0 0 
0 0 0 0 0 0 0 0 0 
0 0 0 0 0 0 0 0 0 
0 0 0 0 0 0 0 0 0 
0 0 0 0 0 0 0 0 0 
0 0 0 0 0 0 0 0 0 
0 0 0 0 0 0 0 0 0 
0 0 0 0 0 0 0 0 0 
0 0 0 0 0 0 0 0 0 
0 0 0 0 0 0 0 0 0 
0 0 0 0 0 0 0 0 0 
0 0 0 0 0 0 0 0 0 
0 0 0 0 0 0 0 0 0 
0 0 0 0 0 0 0 0 0 
0 0 0 0 0 0 0 0 0 
0 0 0 0 0 0 0 0 0 
0 0 0 0 0 0 0 0 0 
0 0 0 0 0 0 0 0 0 
0 0 0 0 0 0 0 0 0 
0 0 0 0 0 0 0 0 0 
0 0 0 0 0 0 0 0 0 
0 0 0 0 0 0 0 0 0 
0 0 0 0 0 0 0 0 0 
0 0 0 0 0 0 0 0 0 
0 0 0 0 0 0 0 0 0 
0 0 0 0 0 0 0 0 0 
0 0 0 0 0 0 0 0 0 
0 0 0 0 0 0 0 0 0 
0 0 0 0 0 0 0 0 0 
0 0 0 0 0 0 0 0 0 
0 0 0 0 0 0 0 0 0 
0 0 0 0 0 0 0 0 0 
0 0 0 0 0 0 0 0 0 
0 0 0 0 0 0 0 0 0 
0 0 0 0 0 0 0 0 0 
0 0 0 0 0 0 0 0 0 
0 0 0 0 0 0 0 0 0 
0 0 0 0 0 0 0 0 0 
0 0 0 0 0 0 0 0 0 
0 0 0 0 0 0 0 0 0 
0 0 0 0 0 0 0 0 0 
0 0 0 0 0 0 0 0 0 
0 0 0 0 0 0 0 0 0 
0 0 0 0 0 0 0 0 0 
0 0 0 0 0 0 0 0 0 
0 0 0 0 0 0 0 0 0 
0 0 0 0 0 0 0 0 0 
0 0 0 0 0 0 0 0 0 
0 0 0 0 0 0 0 0 0 
0 0 0 0 0 0 0 0 0 
0 0 0 0 0 0 0 0 0 
0 0 0 0 0 0 0 0 0 
0 0 0 0 0 0 0 0 0 
0 0 0 0 0 0 0 0 0 
0 0 0 0 0 0 0 0 0 
0 0 0 0 0 0 0 0 0 
0 0 0 0 0 0 0 0 0 
0 0 0 0 0 0 0 0 0 
0 0 0 0 0 0 0 0 0 
0 0 0 0 0 0 0 0 0 
0 0 0 0 0 0 0 0 0 
0 0 0 0 0 0 0 0 0 
0 0 0 0 0 0 0 0 0 
0 0 0 0 0 0 0 0 0 
0 0 0 0 0 0 0 0 0 
0 0 0 0 0 0 0 0 0 
0 0 0 0 0 0 0 0 0 
0 0 0 0 0 0 0 0 0 
0 0 0 0 0 0 0 0 0 
0 0 0 0 0 0 0 0 0 
0 0 0 0 0 0 0 0 0 
0 0 0 0 0 0 0 0 0 
0 0 0 0 0 0 0 0 0 
0 0 0 0 0 0 0 0 0 
0 0 0 0 0 0 0 0 0 
0 0 0 0 0 0 0 0 0 
0 0 0 0 0 0 0 0 0 
0 0 0 0 0 0 0 0 0 
0 0 0 0 0 0 0 0 0 
0 0 0 0 0 0 0 0 0 
0 0 0 0 0 0 0 0 0 
0 0 0 0 0 0 0 0 0 
0 0 0 0 0 0 0 0 0 
0 0 0 0 0 0 0 0 0 
0 0 0 0 0 0 0 0 0 
0 0 0 0 0 0 0 0 0 
0 0 0 0 0 0 0 0 0 
0 0 0 0 0 0 0 0 0 
0 0 0 0 0 0 0 0 0 
0 0 0 0 0 0 0 0 0 
0 0 0 0 0 0 0 0 0 
0 0 0 0 0 0 0 0 0 
0 0 0 0 0 0 0 0 0 
0 0 0 0 0 0 0 0 0 
0 0 0 0 0 0 0 0 0 
0 0 0 0 0 0 0 0 0 
0 0 0 0 0 0 0 0 0 
0 0 0 0 0 0 0 0 0 
0 0 0 0 0 0 0 0 0 
0 0 0 0 0 0 0 0 0 
0 0 0 0 0 0 0 0 0 
0 0 0 0 0 0 0 0 0 
0 0 0 0 0 0 0 0 0 
0 0 0 0 0 0 0 0 0 
0 0 0 0 0 0 0 0 0 
0 0 0 0 0 0 0 0 0 
0 0 0 0 0 0 0 0 0 
0 0 0 0 0 0 0 0 0 
0 0 0 0 0 0 0 0 0 
0 0 0 0 0 0 0 0 0 
0 0 0 0 0 0 0 0 0 
0 0 0 0 0 0 0 0 0 
0 0 0 0 0 0 0 0 0 
0 0 0 0 0 0 0 0 0 
0 0 0 0 0 0 0 0 0 
0 0 0 0 0 0 0 0 0 
0 0 0 0 0 0 0 0 0 
0 0 0 0 0 0 0 0 0 
0 0 0 0 0 0 0 0 0 
0 0 0 0 0 0 0 0 0 
0 0 0 0 0 0 0 0 0 
0 0 0 0 0 0 0 0 0 
0 0 0 0 0 0 0 0 0 
0 0 0 0 0 0 0 0 0 
0 0 0 0 0 0 0 0 0 
0 0 0 0 0 0 0 0 0 
0 0 0 0 0 0 0 0 0 
0 0 0 0 0 0 0 0 0 
0 0 0 0 0 0 0 0 0 
0 0 0 0 0 0 0 0 0 
0 0 0 0 0 0 0 0 0 
0 0 0 0 0 0 0 0 0 
0 0 0 0 0 0 0 0 0 
0 0 0 0 0 0 0 0 0 
0 0 0 0 0 0 0 0 0 
0 0 0 0 0 0 0 0 0 
0 0 0 0 0 0 0 0 0 
0 0 0 0 0 0 0 0 0 
0 0 0 0 0 0 0 0 0 
0 0 0 0 0 0 0 0 0 
0 0 0 0 0 0 0 0 0 
0 0 0 0 0 0 0 0 0 
0 0 0 0 0 0 0 0 0 
0 0 0 0 0 0 0 0 0 
0 0 0 0 0 0 0 0 0 
0 0 0 0 0 0 0 0 0 
0 0 0 0 0 0 0 0 0 
0 0 0 0 0 0 0 0 0 
0 0 0 0 0 0 0 0 0 
0 0 0 0 0 0 0 0 0 
0 0 0 0 0 0 0 0 0 
0 0 0 0 0 0 0 0 0 
0 0 0 0 0 0 0 0 0 
0 0 0 0 0 0 0 0 0 
0 0 0 0 0 0 0 0 0 
0 0 0 0 0 0 0 0 0 
0 0 0 0 0 0 0 0 0 
0 0 0 0 0 0 0 0 0 
0 0 0 0 0 0 0 0 0 
0 0 0 0 0 0 0 0 0 
0 0 0 0 0 0 0 0 0 
0 0 0 0 0 0 0 0 0 
0 0 0 0 0 0 0 0 0 
0 0 0 0 0 0 0 0 0 
0 0 0 0 0 0 0 0 0 
0 0 0 0 0 0 0 0 0 
0 0 0 0 0 0 0 0 0 
0 0 0 0 0 0 0 0 0 
0 0 0 0 0 0 0 0 0 
0 0 0 0 0 0 0 0 0 
0 0 0 0 0 0 0 0 0 
0 0 0 0 0 0 0 0 0 
0 0 0 0 0 0 0 0 0 
0 0 0 0 0 0 0 0 0 
0 0 0 0 0 0 0 0 0 
0 0 0 0 0 0 0 0 0 
0 0 0 0 0 0 0 0 0 
0 0 0 0 0 0 0 0 0 
0 0 0 0 0 0 0 0 0 
0 0 0 0 0 0 0 0 0 
0 0 0 0 0 0 0 0 0 
0 0 0 0 0 0 0 0 0 
0 0 0 0 0 0 0 0 0 
0 0 0 0 0 0 0 0 0 
0 0 0 0 0 0 0 0 0 
0 0 0 0 0 0 0 0 0 
0 0 0 0 0 0 0 0 0 
0 0 0 0 0 0 0 0 0 
0 0 0 0 0 0 0 0 0 
0 0 0 0 0 0 0 0 0 
0 0 0 0 0 0 0 0 0 
0 0 0 0 0 0 0 0 0 
0 0 0 0 0 0 0 0 0 
0 0 0 0 0 0 0 0 0 
0 0 0 0 0 0 0 0 0 
0 0 0 0 0 0 0 0 0 
0 0 0 0 0 0 0 0 0 
0 0 0 0 0 0 0 0 0 
0 0 0 0 0 0 0 0 0 
0 0 0 0 0 0 0 0 0 
0 0 0 0 0 0 0 0 0 
0 0 0 0 0 0 0 0 0 
0 0 0 0 0 0 0 0 0 
0 0 0 0 0 0 0 0 0 
0 0 0 0 0 0 0 0 0 
0 0 0 0 0 0 0 0 0 
0 0 0 0 0 0 0 0 0 
0 0 0 0 0 0 0 0 0 
0 0 0 0 0 0 0 0 0 
0 0 0 0 0 0 0 0 0 
0 0 0 0 0 0 0 0 0 
0 0 0 0 0 0 0 0 0 
0 0 0 0 0 0 0 0 0 
0 0 0 0 0 0 0 0 0 
0 0 0 0 0 0 0 0 0 
0 0 0 0 0 0 0 0 0 
0 0 0 0 0 0 0 0 0 
0 0 0 0 0 0 0 0 0 
0 0 0 0 0 0 0 0 0 
0 0 0 0 0 0 0 0 0 
0 0 0 0 0 0 0 0 0 
0 0 0 0 0 0 0 0 0 
0 0 0 0 0 0 0 0 0 
0 0 0 0 0 0 0 0 0 
0 0 0 0 0 0 0 0 0 
0 0 0 0 0 0 0 0 0 
0 0 0 0 0 0 0 0 0 
0 0 0 0 0 0 0 0 0 
0 0 0 0 0 0 0 0 0 
0 0 0 0 0 0 0 0 0 
0 0 0 0 0 0 0 0 0 
0 0 0 0 0 0 0 0 0 
0 0 0 0 0 0 0 0 0 
0 0 0 0 0 0 0 0 0 
0 0 0 0 0 0 0 0 0 
0 0 0 0 0 0 0 0 0 
0 0 0 0 0 0 0 0 0 
0 0 0 0 0 0 0 0 0 
0 0 0 0 0 0 0 0 0 
0 0 0 0 0 0 0 0 0 
0 0 0 0 0 0 0 0 0 
0 0 0 0 0 0 0 0 0 
0 0 0 0 0 0 0 0 0 
0 0 0 0 0 0 0 0 0 
0 0 0 0 0 0 0 0 0 
0 0 0 0 0 0 0 0 0 
0 0 0 0 0 0 0 0 0 
0 0 0 0 0 0 0 0 0 
0 0 0 0 0 0 0 0 0 
0 0 0 0 0 0 0 0 0 
0 0 0 0 0 0 0 0 0 
0 0 0 0 0 0 0 0 0 
0 0 0 0 0 0 0 0 0 
0 0 0 0 0 0 0 0 0 
0 0 0 0 0 0 0 0 0 
0 0 0 0 0 0 0 0 0 
0 0 0 0 0 0 0 0 0 
0 0 0 0 0 0 0 0 0 
0 0 0 0 0 0 0 0 0 
0 0 0 0 0 0 0 0 0 
0 0 0 0 0 0 0 0 0 
0 0 0 0 0 0 0 0 0 
0 0 0 0 0 0 0 0 0 
0 0 0 0 0 0 0 0 0 
0 0 0 0 0 0 0 0 0 
0 0 0 0 0 0 0 0 0 
0 0 0 0 0 0 0 0 0 
0 0 0 0 0 0 0 0 0 
0 0 0 0 0 0 0 0 0 
0 0 0 0 0 0 0 0 0 
0 0 0 0 0 0 0 0 0 
0 0 0 0 0 0 0 0 0 
0 0 0 0 0 0 0 0 0 
0 0 0 0 0 0 0 0 0 
0 0 0 0 0 0 0 0 0 
0 0 0 0 0 0 0 0 0 
0 0 0 0 0 0 0 0 0 
0 0 0 0 0 0 0 0 0 
0 0 0 0 0 0 0 0 0 
0 0 0 0 0 0 0 0 0 
0 0 0 0 0 0 0 0 0 
0 0 0 0 0 0 0 0 0 
0 0 0 0 0 0 0 0 0 
0 0 0 0 0 0 0 0 0 
0 0 0 0 0 0 0 0 0 
0 0 0 0 0 0 0 0 0 
0 0 0 0 0 0 0 0 0 
0 0 0 0 0 0 0 0 0 
0 0 0 0 0 0 0 0 0 
0 0 0 0 0 0 0 0 0 
0 0 0 0 0 0 0 0 0 
0 0 0 0 0 0 0 0 0 
0 0 0 0 0 0 0 0 0 
0 0 0 0 0 0 0 0 0 
0 0 0 0 0 0 0 0 0 
0 0 0 0 0 0 0 0 0 
0 0 0 0 0 0 0 0 0 
0 0 0 0 0 0 0 0 0 
0 0 0 0 0 0 0 0 0 
0 0 0 0 0 0 0 0 0 
0 0 0 0 0 0 0 0 0 
0 0 0 0 0 0 0 0 0 
0 0 0 0 0 0 0 0 0 
0 0 0 0 0 0 0 0 0 
0 0 0 0 0 0 0 0 0 
0 0 0 0 0 0 0 0 0 
0 0 0 0 0 0 0 0 0 
0 0 0 0 0 0 0 0 0 
0 0 0 0 0 0 0 0 0 
0 0 0 0 0 0 0 0 0 
0 0 0 0 0 0 0 0 0 
0 0 0 0 0 0 0 0 0 
0 0 0 0 0 0 0 0 0 
0 0 0 0 0 0 0 0 0 
0 0 0 0 0 0 0 0 0 
0 0 0 0 0 0 0 0 0 
0 0 0 0 0 0 0 0 0 
0 0 0 0 0 0 0 0 0 
0 0 0 0 0 0 0 0 0 
0 0 0 0 0 0 0 0 0 
0 0 0 0 0 0 0 0 0 
0 0 0 0 0 0 0 0 0 
0 0 0 0 0 0 0 0 0 
0 0 0 0 0 0 0 0 0 
0 0 0 0 0 0 0 0 0 
0 0 0 0 0 0 0 0 0 
0 0 0 0 0 0 0 0 0 
0 0 0 0 0 0 0 0 0 
0 0 0 0 0 0 0 0 0 
0 0 0 0 0 0 0 0 0 
0 0 0 0 0 0 0 0 0 
0 0 0 0 0 0 0 0 0 
0 0 0 0 0 0 0 0 0 
0 0 0 0 0 0 0 0 0 
0 0 0 0 0 0 0 0 0 
0 0 0 0 0 0 0 0 0 
0 0 0 0 0 0 0 0 0 
0 0 0 0 0 0 0 0 0 
0 0 0 0 0 0 0 0 0 
0 0 0 0 0 0 0 0 0 
0 0 0 0 0 0 0 0 0 
0 0 0 0 0 0 0 0 0 
0 0 0 0 0 0 0 0 0 
0 0 0 0 0 0 0 0 0 
0 0 0 0 0 0 0 0 0 
0 0 0 0 0 0 0 0 0 
0 0 0 0 0 0 0 0 0 
0 0 0 0 0 0 0 0 0 
0 0 0 0 0 0 0 0 0 
0 0 0 0 0 0 0 0 0 
0 0 0 0 0 0 0 0 0 
0 0 0 0 0 0 0 0 0 
0 0 0 0 0 0 0 0 0 
0 0 0 0 0 0 0 0 0 
0 0 0 0 0 0 0 0 0 
0 0 0 0 0 0 0 0 0 
0 0 0 0 0 0 0 0 0 
0 0 0 0 0 0 0 0 0 
0 0 0 0 0 0 0 0 0 
0 0 0 0 0 0 0 0 0 
0 0 0 0 0 0 0 0 0 
0 0 0 0 0 0 0 0 0 
0 0 0 0 0 0 0 0 0 
0 0 0 0 0 0 0 0 0 
0 0 0 0 0 0 0 0 0 
0 0 0 0 0 0 0 0 0 
0 0 0 0 0 0 0 0 0 
0 0 0 0 0 0 0 0 0 
0 0 0 0 0 0 0 0 0 
0 0 0 0 0 0 0 0 0 
0 0 0 0 0 0 0 0 0 
0 0 0 0 0 0 0 0 0 
0 0 0 0 0 0 0 0 0 
0 0 0 0 0 0 0 0 0 
0 0 0 0 0 0 0 0 0 
0 0 0 0 0 0 0 0 0 
0 0 0 0 0 0 0 0 0 
0 0 0 0 0 0 0 0 0 
0 0 0 0 0 0 0 0 0 
0 0 0 0 0 0 0 0 0 
0 0 0 0 0 0 0 0 0 
0 0 0 0 0 0 0 0 0 
0 0 0 0 0 0 0 0 0 
0 0 0 0 0 0 0 0 0 
0 0 0 0 0 0 0 0 0 
0 0 0 0 0 0 0 0 0 
0 0 0 0 0 0 0 0 0 
0 0 0 0 0 0 0 0 0 
0 0 0 0 0 0 0 0 0 
0 0 0 0 0 0 0 0 0 
0 0 0 0 0 0 0 0 0 
0 0 0 0 0 0 0 0 0 
0 0 0 0 0 0 0 0 0 
0 0 0 0 0 0 0 0 0 
0 0 0 0 0 0 0 0 0 
0 0 0 0 0 0 0 0 0 
0 0 0 0 0 0 0 0 0 
0 0 0 0 0 0 0 0 0 
0 0 0 0 0 0 0 0 0 
0 0 0 0 0 0 0 0 0 
0 0 0 0 0 0 0 0 0 
0 0 0 0 0 0 0 0 0 
0 0 0 0 0 0 0 0 0 
0 0 0 0 0 0 0 0 0 
0 0 0 0 0 0 0 0 0 
0 0 0 0 0 0 0 0 0 
0 0 0 0 0 0 0 0 0 
0 0 0 0 0 0 0 0 0 
0 0 0 0 0 0 0 0 0 
0 0 0 0 0 0 0 0 0 
0 0 0 0 0 0 0 0 0 
0 0 0 0 0 0 0 0 0 
0 0 0 0 0 0 0 0 0 
0 0 0 0 0 0 0 0 0 
0 0 0 0 0 0 0 0 0 
0 0 0 0 0 0 0 0 0 
0 0 0 0 0 0 0 0 0 
0 0 0 0 0 0 0 0 0 
0 0 0 0 0 0 0 0 0 
0 0 0 0 0 0 0 0 0 
0 0 0 0 0 0 0 0 0 
0 0 0 0 0 0 0 0 0 
0 0 0 0 0 0 0 0 0 
0 0 0 0 0 0 0 0 0 
0 0 0 0 0 0 0 0 0 
0 0 0 0 0 0 0 0 0 
0 0 0 0 0 0 0 0 0 
0 0 0 0 0 0 0 0 0 
0 0 0 0 0 0 0 0 0 
0 0 0 0 0 0 0 0 0 
0 0 0 0 0 0 0 0 0 
0 0 0 0 0 0 0 0 0 
0 0 0 0 0 0 0 0 0 
0 0 0 0 0 0 0 0 0 
0 0 0 0 0 0 0 0 0 
0 0 0 0 0 0 0 0 0 
0 0 0 0 0 0 0 0 0 
0 0 0 0 0 0 0 0 0 
0 0 0 0 0 0 0 0 0 
0 0 0 0 0 0 0 0 0 
0 0 0 0 0 0 0 0 0 
0 0 0 0 0 0 0 0 0 
0 0 0 0 0 0 0 0 0 
0 0 0 0 0 0 0 0 0 
0 0 0 0 0 0 0 0 0 
0 0 0 0 0 0 0 0 0 
0 0 0 0 0 0 0 0 0 
0 0 0 0 0 0 0 0 0 
0 0 0 0 0 0 0 0 0 
0 0 0 0 0 0 0 0 0 
0 0 0 0 0 0 0 0 0 
0 0 0 0 0 0 0 0 0 
0 0 0 0 0 0 0 0 0 
0 0 0 0 0 0 0 0 0 
0 0 0 0 0 0 0 0 0 
0 0 0 0 0 0 0 0 0 
0 0 0 0 0 0 0 0 0 
0 0 0 0 0 0 0 0 0 
0 0 0 0 0 0 0 0 0 
0 0 0 0 0 0 0 0 0 
0 0 0 0 0 0 0 0 0 
0 0 0 0 0 0 0 0 0 
0 0 0 0 0 0 0 0 0 
0 0 0 0 0 0 0 0 0 
0 0 0 0 0 0 0 0 0 
0 0 0 0 0 0 0 0 0 
0 0 0 0 0 0 0 0 0 
0 0 0 0 0 0 0 0 0 
0 0 0 0 0 0 0 0 0 
0 0 0 0 0 0 0 0 0 
0 0 0 0 0 0 0 0 0 
0 0 0 0 0 0 0 0 0 
0 0 0 0 0 0 0 0 0 
0 0 0 0 0 0 0 0 0 
0 0 0 0 0 0 0 0 0 
0 0 0 0 0 0 0 0 0 
0 0 0 0 0 0 0 0 0 
0 0 0 0 0 0 0 0 0 
0 0 0 0 0 0 0 0 0 
0 0 0 0 0 0 0 0 0 
0 0 0 0 0 0 0 0 0 
0 0 0 0 0 0 0 0 0 
0 0 0 0 0 0 0 0 0 
0 0 0 0 0 0 0 0 0 
0 0 0 0 0 0 0 0 0 
0 0 0 0 0 0 0 0 0 
0 0 0 0 0 0 0 0 0 
0 0 0 0 0 0 0 0 0 
0 0 0 0 0 0 0 0 0 
0 0 0 0 0 0 0 0 0 
0 0 0 0 0 0 0 0 0 
0 0 0 0 0 0 0 0 0 
0 0 0 0 0 0 0 0 0 
0 0 0 0 0 0 0 0 0 
0 0 0 0 0 0 0 0 0 
0 0 0 0 0 0 0 0 0 
0 0 0 0 0 0 0 0 0 
0 0 0 0 0 0 0 0 0 
0 0 0 0 0 0 0 0 0 
0 0 0 0 0 0 0 0 0 
0 0 0 0 0 0 0 0 0 
0 0 0 0 0 0 0 0 0 
0 0 0 0 0 0 0 0 0 
0 0 0 0 0 0 0 0 0 
0 0 0 0 0 0 0 0 0 
0 0 0 0 0 0 0 0 0 
0 0 0 0 0 0 0 0 0 
0 0 0 0 0 0 0 0 0 
0 0 0 0 0 0 0 0 0 
0 0 0 0 0 0 0 0 0 
0 0 0 0 0 0 0 0 0 
0 0 0 0 0 0 0 0 0 
0 0 0 0 0 0 0 0 0 
0 0 0 0 0 0 0 0 0 
0 0 0 0 0 0 0 0 0 
0 0 0 0 0 0 0 0 0 
0 0 0 0 0 0 0 0 0 
0 0 0 0 0 0 0 0 0 
0 0 0 0 0 0 0 0 0 
0 0 0 0 0 0 0 0 0 
0 0 0 0 0 0 0 0 0 
0 0 0 0 0 0 0 0 0 
0 0 0 0 0 0 0 0 0 
0 0 0 0 0 0 0 0 0 
0 0 0 0 0 0 0 0 0 
0 0 0 0 0 0 0 0 0 
0 0 0 0 0 0 0 0 0 
0 0 0 0 0 0 0 0 0 
0 0 0 0 0 0 0 0 0 
0 0 0 0 0 0 0 0 0 
0 0 0 0 0 0 0 0 0 
0 0 0 0 0 0 0 0 0 
0 0 0 0 0 0 0 0 0 
0 0 0 0 0 0 0 0 0 
0 0 0 0 0 0 0 0 0 
0 0 0 0 0 0 0 0 0 
0 0 0 0 0 0 0 0 0 
0 0 0 0 0 0 0 0 0 
0 0 0 0 0 0 0 0 0 
0 0 0 0 0 0 0 0 0 
0 0 0 0 0 0 0 0 0 
0 0 0 0 0 0 0 0 0 
0 0 0 0 0 0 0 0 0 
0 0 0 0 0 0 0 0 0 
0 0 0 0 0 0 0 0 0 
0 0 0 0 0 0 0 0 0 
0 0 0 0 0 0 0 0 0 
0 0 0 0 0 0 0 0 0 
0 0 0 0 0 0 0 0 0 
0 0 0 0 0 0 0 0 0 
0 0 0 0 0 0 0 0 0 
0 0 0 0 0 0 0 0 0 
0 0 0 0 0 0 0 0 0 
0 0 0 0 0 0 0 0 0 
0 0 0 0 0 0 0 0 0 
0 0 0 0 0 0 0 0 0 
0 0 0 0 0 0 0 0 0 
0 0 0 0 0 0 0 0 0 
0 0 0 0 0 0 0 0 0 
0 0 0 0 0 0 0 0 0 
0 0 0 0 0 0 0 0 0 
0 0 0 0 0 0 0 0 0 
0 0 0 0 0 0 0 0 0 
0 0 0 0 0 0 0 0 0 
0 0 0 0 0 0 0 0 0 
0 0 0 0 0 0 0 0 0 
0 0 0 0 0 0 0 0 0 
0 0 0 0 0 0 0 0 0 
0 0 0 0 0 0 0 0 0 
0 0 0 0 0 0 0 0 0 
0 0 0 0 0 0 0 0 0 
0 0 0 0 0 0 0 0 0 
0 0 0 0 0 0 0 0 0 
0 0 0 0 0 0 0 0 0 
0 0 0 0 0 0 0 0 0 
0 0 0 0 0 0 0 0 0 
0 0 0 0 0 0 0 0 0 
0 0 0 0 0 0 0 0 0 
0 0 0 0 0 0 0 0 0 
0 0 0 0 0 0 0 0 0 
0 0 0 0 0 0 0 0 0 
0 0 0 0 0 0 0 0 0 
0 0 0 0 0 0 0 0 0 
0 0 0 0 0 0 0 0 0 
0 0 0 0 0 0 0 0 0 
0 0 0 0 0 0 0 0 0 
0 0 0 0 0 0 0 0 0 
0 0 0 0 0 0 0 0 0 
0 0 0 0 0 0 0 0 0 
0 0 0 0 0 0 0 0 0 
0 0 0 0 0 0 0 0 0 
0 0 0 0 0 0 0 0 0 
0 0 0 0 0 0 0 0 0 
0 0 0 0 0 0 0 0 0 
0 0 0 0 0 0 0 0 0 
0 0 0 0 0 0 0 0 0 
0 0 0 0 0 0 0 0 0 
0 0 0 0 0 0 0 0 0 
0 0 0 0 0 0 0 0 0 
0 0 0 0 0 0 0 0 0 
0 0 0 0 0 0 0 0 0 
0 0 0 0 0 0 0 0 0 
0 0 0 0 0 0 0 0 0 
0 0 0 0 0 0 0 0 0 
0 0 0 0 0 0 0 0 0 
0 0 0 0 0 0 0 0 0 
0 0 0 0 0 0 0 0 0 
0 0 0 0 0 0 0 0 0 
0 0 0 0 0 0 0 0 0 
0 0 0 0 0 0 0 0 0 
0 0 0 0 0 0 0 0 0 
0 0 0 0 0 0 0 0 0 
0 0 0 0 0 0 0 0 0 
0 0 0 0 0 0 0 0 0 
0 0 0 0 0 0 0 0 0 
0 0 0 0 0 0 0 0 0 
0 0 0 0 0 0 0 0 0 
0 0 0 0 0 0 0 0 0 
0 0 0 0 0 0 0 0 0 
0 0 0 0 0 0 0 0 0 
0 0 0 0 0 0 0 0 0 
0 0 0 0 0 0 0 0 0 
0 0 0 0 0 0 0 0 0 
0 0 0 0 0 0 0 0 0 
0 0 0 0 0 0 0 0 0 
0 0 0 0 0 0 0 0 0 
0 0 0 0 0 0 0 0 0 
0 0 0 0 0 0 0 0 0 
0 0 0 0 0 0 0 0 0 
0 0 0 0 0 0 0 0 0 
0 0 0 0 0 0 0 0 0 
0 0 0 0 0 0 0 0 0 
0 0 0 0 0 0 0 0 0 
0 0 0 0 0 0 0 0 0 
0 0 0 0 0 0 0 0 0 
0 0 0 0 0 0 0 0 0 
0 0 0 0 0 0 0 0 0 
0 0 0 0 0 0 0 0 0 
0 0 0 0 0 0 0 0 0 
0 0 0 0 0 0 0 0 0 
0 0 0 0 0 0 0 0 0 
0 0 0 0 0 0 0 0 0 
0 0 0 0 0 0 0 0 0 
0 0 0 0 0 0 0 0 0 
0 0 0 0 0 0 0 0 0 
0 0 0 0 0 0 0 0 0 
0 0 0 0 0 0 0 0 0 
0 0 0 0 0 0 0 0 0 
0 0 0 0 0 0 0 0 0 
0 0 0 0 0 0 0 0 0 
0 0 0 0 0 0 0 0 0 
0 0 0 0 0 0 0 0 0 
0 0 0 0 0 0 0 0 0 
0 0 0 0 0 0 0 0 0 
0 0 0 0 0 0 0 0 0 
0 0 0 0 0 0 0 0 0 
0 0 0 0 0 0 0 0 0 
0 0 0 0 0 0 0 0 0 
0 0 0 0 0 0 0 0 0 
0 0 0 0 0 0 0 0 0 
0 0 0 0 0 0 0 0 0 
0 0 0 0 0 0 0 0 0 
0 0 0 0 0 0 0 0 0 
0 0 0 0 0 0 0 0 0 
0 0 0 0 0 0 0 0 0 
0 0 0 0 0 0 0 0 0 
0 0 0 0 0 0 0 0 0 
0 0 0 0 0 0 0 0 0 
0 0 0 0 0 0 0 0 0 
0 0 0 0 0 0 0 0 0 
0 0 0 0 0 0 0 0 0 
0 0 0 0 0 0 0 0 0 
0 0 0 0 0 0 0 0 0 
0 0 0 0 0 0 0 0 0 
0 0 0 0 0 0 0 0 0 
0 0 0 0 0 0 0 0 0 
0 0 0 0 0 0 0 0 0 
0 0 0 0 0 0 0 0 0 
0 0 0 0 0 0 0 0 0 
0 0 0 0 0 0 0 0 0 
0 0 0 0 0 0 0 0 0 
0 0 0 0 0 0 0 0 0 
0 0 0 0 0 0 0 0 0 
0 0 0 0 0 0 0 0 0 
0 0 0 0 0 0 0 0 0 
0 0 0 0 0 0 0 0 0 
0 0 0 0 0 0 0 0 0 
0 0 0 0 0 0 0 0 0 
0 0 0 0 0 0 0 0 0 
0 0 0 0 0 0 0 0 0 
0 0 0 0 0 0 0 0 0 
0 0 0 0 0 0 0 0 0 
0 0 0 0 0 0 0 0 0 
0 0 0 0 0 0 0 0 0 
0 0 0 0 0 0 0 0 0 
0 0 0 0 0 0 0 0 0 
0 0 0 0 0 0 0 0 0 
0 0 0 0 0 0 0 0 0 
0 0 0 0 0 0 0 0 0 
0 0 0 0 0 0 0 0 0 
0 0 0 0 0 0 0 0 0 
0 0 0 0 0 0 0 0 0 
0 0 0 0 0 0 0 0 0 
0 0 0 0 0 0 0 0 0 
0 0 0 0 0 0 0 0 0 
0 0 0 0 0 0 0 0 0 
0 0 0 0 0 0 0 0 0 
0 0 0 0 0 0 0 0 0 
0 0 0 0 0 0 0 0 0 
0 0 0 0 0 0 0 0 0 
0 0 0 0 0 0 0 0 0 
0 0 0 0 0 0 0 0 0 
0 0 0 0 0 0 0 0 0 
0 0 0 0 0 0 0 0 0 
0 0 0 0 0 0 0 0 0 
0 0 0 0 0 0 0 0 0 
0 0 0 0 0 0 0 0 0 
0 0 0 0 0 0 0 0 0 
0 0 0 0 0 0 0 0 0 
0 0 0 0 0 0 0 0 0 
0 0 0 0 0 0 0 0 0 
0 0 0 0 0 0 0 0 0 
0 0 0 0 0 0 0 0 0 
0 0 0 0 0 0 0 0 0 
0 0 0 0 0 0 0 0 0 
0 0 0 0 0 0 0 0 0 
0 0 0 0 0 0 0 0 0 
0 0 0 0 0 0 0 0 0 
0 0 0 0 0 0 0 0 0 
0 0 0 0 0 0 0 0 0 
0 0 0 0 0 0 0 0 0 
0 0 0 0 0 0 0 0 0 
0 0 0 0 0 0 0 0 0 
0 0 0 0 0 0 0 0 0 
0 0 0 0 0 0 0 0 0 
0 0 0 0 0 0 0 0 0 
0 0 0 0 0 0 0 0 0 
0 0 0 0 0 0 0 0 0 
0 0 0 0 0 0 0 0 0 
0 0 0 0 0 0 0 0 0 
0 0 0 0 0 0 0 0 0 
0 0 0 0 0 0 0 0 0 
0 0 0 0 0 0 0 0 0 
0 0 0 0 0 0 0 0 0 
0 0 0 0 0 0 0 0 0 
0 0 0 0 0 0 0 0 0 
0 0 0 0 0 0 0 0 0 
0 0 0 0 0 0 0 0 0 
0 0 0 0 0 0 0 0 0 
0 0 0 0 0 0 0 0 0 
0 0 0 0 0 0 0 0 0 
0 0 0 0 0 0 0 0 0 
0 0 0 0 0 0 0 0 0 
0 0 0 0 0 0 0 0 0 
0 0 0 0 0 0 0 0 0 
0 0 0 0 0 0 0 0 0 
0 0 0 0 0 0 0 0 0 
0 0 0 0 0 0 0 0 0 
0 0 0 0 0 0 0 0 0 
0 0 0 0 0 0 0 0 0 
0 0 0 0 0 0 0 0 0 
0 0 0 0 0 0 0 0 0 
0 0 0 0 0 0 0 0 0 
0 0 0 0 0 0 0 0 0 
0 0 0 0 0 0 0 0 0 
0 0 0 0 0 0 0 0 0 
0 0 0 0 0 0 0 0 0 
0 0 0 0 0 0 0 0 0 
0 0 0 0 0 0 0 0 0 
0 0 0 0 0 0 0 0 0 
0 0 0 0 0 0 0 0 0 
0 0 0 0 0 0 0 0 0 
0 0 0 0 0 0 0 0 0 
0 0 0 0 0 0 0 0 0 
0 0 0 0 0 0 0 0 0 
0 0 0 0 0 0 0 0 0 
0 0 0 0 0 0 0 0 0 
0 0 0 0 0 0 0 0 0 
0 0 0 0 0 0 0 0 0 
0 0 0 0 0 0 0 0 0 
0 0 0 0 0 0 0 0 0 
0 0 0 0 0 0 0 0 0 
0 0 0 0 0 0 0 0 0 
0 0 0 0 0 0 0 0 0 
0 0 0 0 0 0 0 0 0 
0 0 0 0 0 0 0 0 0 
0 0 0 0 0 0 0 0 0 
0 0 0 0 0 0 0 0 0 
0 0 0 0 0 0 0 0 0 
0 0 0 0 0 0 0 0 0 
0 0 0 0 0 0 0 0 0 
0 0 0 0 0 0 0 0 0 
0 0 0 0 0 0 0 0 0 
0 0 0 0 0 0 0 0 0 
0 0 0 0 0 0 0 0 0 
0 0 0 0 0 0 0 0 0 
0 0 0 0 0 0 0 0 0 
0 0 0 0 0 0 0 0 0 
0 0 0 0 0 0 0 0 0 
0 0 0 0 0 0 0 0 0 
0 0 0 0 0 0 0 0 0 
0 0 0 0 0 0 0 0 0 
0 0 0 0 0 0 0 0 0 
0 0 0 0 0 0 0 0 0 
0 0 0 0 0 0 0 0 0 
0 0 0 0 0 0 0 0 0 
0 0 0 0 0 0 0 0 0 
0 0 0 0 0 0 0 0 0 
0 0 0 0 0 0 0 0 0 
0 0 0 0 0 0 0 0 0 
0 0 0 0 0 0 0 0 0 
0 0 0 0 0 0 0 0 0 
0 0 0 0 0 0 0 0 0 
0 0 0 0 0 0 0 0 0 
0 0 0 0 0 0 0 0 0 
0 0 0 0 0 0 0 0 0 
0 0 0 0 0 0 0 0 0 
0 0 0 0 0 0 0 0 0 
0 0 0 0 0 0 0 0 0 
0 0 0 0 0 0 0 0 0 
0 0 0 0 0 0 0 0 0 
0 0 0 0 0 0 0 0 0 
0 0 0 0 0 0 0 0 0 
0 0 0 0 0 0 0 0 0 
0 0 0 0 0 0 0 0 0 
0 0 0 0 0 0 0 0 0 
0 0 0 0 0 0 0 0 0 
0 0 0 0 0 0 0 0 0 
0 0 0 0 0 0 0 0 0 
0 0 0 0 0 0 0 0 0 
0 0 0 0 0 0 0 0 0 
0 0 0 0 0 0 0 0 0 
0 0 0 0 0 0 0 0 0 
0 0 0 0 0 0 0 0 0 
0 0 0 0 0 0 0 0 0 
0 0 0 0 0 0 0 0 0 
0 0 0 0 0 0 0 0 0 
0 0 0 0 0 0 0 0 0 
0 0 0 0 0 0 0 0 0 
0 0 0 0 0 0 0 0 0 
0 0 0 0 0 0 0 0 0 
0 0 0 0 0 0 0 0 0 
0 0 0 0 0 0 0 0 0 
0 0 0 0 0 0 0 0 0 
0 0 0 0 0 0 0 0 0 
0 0 0 0 0 0 0 0 0 
0 0 0 0 0 0 0 0 0 
0 0 0 0 0 0 0 0 0 
0 0 0 0 0 0 0 0 0 
0 0 0 0 0 0 0 0 0 
0 0 0 0 0 0 0 0 0 
0 0 0 0 0 0 0 0 0 
0 0 0 0 0 0 0 0 0 
0 0 0 0 0 0 0 0 0 
0 0 0 0 0 0 0 0 0 
0 0 0 0 0 0 0 0 0 
0 0 0 0 0 0 0 0 0 
0 0 0 0 0 0 0 0 0 
0 0 0 0 0 0 0 0 0 
0 0 0 0 0 0 0 0 0 
0 0 0 0 0 0 0 0 0 
0 0 0 0 0 0 0 0 0 
0 0 0 0 0 0 0 0 0 
0 0 0 0 0 0 0 0 0 
0 0 0 0 0 0 0 0 0 
0 0 0 0 0 0 0 0 0 
0 0 0 0 0 0 0 0 0 
0 0 0 0 0 0 0 0 0 
0 0 0 0 0 0 0 0 0 
0 0 0 0 0 0 0 0 0 
0 0 0 0 0 0 0 0 0 
0 0 0 0 0 0 0 0 0 
0 0 0 0 0 0 0 0 0 
0 0 0 0 0 0 0 0 0 
0 0 0 0 0 0 0 0 0 
0 0 0 0 0 0 0 0 0 
0 0 0 0 0 0 0 0 0 
0 0 0 0 0 0 0 0 0 
0 0 0 0 0 0 0 0 0 
0 0 0 0 0 0 0 0 0 
0 0 0 0 0 0 0 0 0 
0 0 0 0 0 0 0 0 0 
0 0 0 0 0 0 0 0 0 
0 0 0 0 0 0 0 0 0 
0 0 0 0 0 0 0 0 0 
0 0 0 0 0 0 0 0 0 
0 0 0 0 0 0 0 0 0 
0 0 0 0 0 0 0 0 0 
0 0 0 0 0 0 0 0 0 
0 0 0 0 0 0 0 0 0 
0 0 0 0 0 0 0 0 0 
0 0 0 0 0 0 0 0 0 
0 0 0 0 0 0 0 0 0 
0 0 0 0 0 0 0 0 0 
0 0 0 0 0 0 0 0 0 
0 0 0 0 0 0 0 0 0 
0 0 0 0 0 0 0 0 0 
0 0 0 0 0 0 0 0 0 
0 0 0 0 0 0 0 0 0 
0 0 0 0 0 0 0 0 0 
0 0 0 0 0 0 0 0 0 
0 0 0 0 0 0 0 0 0 
0 0 0 0 0 0 0 0 0 
0 0 0 0 0 0 0 0 0 
0 0 0 0 0 0 0 0 0 
0 0 0 0 0 0 0 0 0 
0 0 0 0 0 0 0 0 0 
0 0 0 0 0 0 0 0 0 
0 0 0 0 0 0 0 0 0 
0 0 0 0 0 0 0 0 0 
0 0 0 0 0 0 0 0 0 
0 0 0 0 0 0 0 0 0 
0 0 0 0 0 0 0 0 0 
0 0 0 0 0 0 0 0 0 
0 0 0 0 0 0 0 0 0 
0 0 0 0 0 0 0 0 0 
0 0 0 0 0 0 0 0 0 
0 0 0 0 0 0 0 0 0 
0 0 0 0 0 0 0 0 0 
0 0 0 0 0 0 0 0 0 
0 0 0 0 0 0 0 0 0 
0 0 0 0 0 0 0 0 0 
0 0 0 0 0 0 0 0 0 
0 0 0 0 0 0 0 0 0 
0 0 0 0 0 0 0 0 0 
0 0 0 0 0 0 0 0 0 
0 0 0 0 0 0 0 0 0 
0 0 0 0 0 0 0 0 0 
0 0 0 0 0 0 0 0 0 
0 0 0 0 0 0 0 0 0 
0 0 0 0 0 0 0 0 0 
0 0 0 0 0 0 0 0 0 
0 0 0 0 0 0 0 0 0 
0 0 0 0 0 0 0 0 0 
0 0 0 0 0 0 0 0 0 
0 0 0 0 0 0 0 0 0 
0 0 0 0 0 0 0 0 0 
0 0 0 0 0 0 0 0 0 
0 0 0 0 0 0 0 0 0 
0 0 0 0 0 0 0 0 0 
0 0 0 0 0 0 0 0 0 
0 0 0 0 0 0 0 0 0 
0 0 0 0 0 0 0 0 0 
0 0 0 0 0 0 0 0 0 
0 0 0 0 0 0 0 0 0 
0 0 0 0 0 0 0 0 0 
0 0 0 0 0 0 0 0 0 
0 0 0 0 0 0 0 0 0 
0 0 0 0 0 0 0 0 0 
0 0 0 0 0 0 0 0 0 
0 0 0 0 0 0 0 0 0 
0 0 0 0 0 0 0 0 0 
0 0 0 0 0 0 0 0 0 
0 0 0 0 0 0 0 0 0 
0 0 0 0 0 0 0 0 0 
0 0 0 0 0 0 0 0 0 
0 0 0 0 0 0 0 0 0 
0 0 0 0 0 0 0 0 0 
0 0 0 0 0 0 0 0 0 
0 0 0 0 0 0 0 0 0 
0 0 0 0 0 0 0 0 0 
0 0 0 0 0 0 0 0 0 
0 0 0 0 0 0 0 0 0 
0 0 0 0 0 0 0 0 0 
0 0 0 0 0 0 0 0 0 
0 0 0 0 0 0 0 0 0 
0 0 0 0 0 0 0 0 0 
0 0 0 0 0 0 0 0 0 
0 0 0 0 0 0 0 0 0 
0 0 0 0 0 0 0 0 0 
0 0 0 0 0 0 0 0 0 
0 0 0 0 0 0 0 0 0 
0 0 0 0 0 0 0 0 0 
0 0 0 0 0 0 0 0 0 
0 0 0 0 0 0 0 0 0 
0 0 0 0 0 0 0 0 0 
0 0 0 0 0 0 0 0 0 
0 0 0 0 0 0 0 0 0 
0 0 0 0 0 0 0 0 0 
0 0 0 0 0 0 0 0 0 
0 0 0 0 0 0 0 0 0 
0 0 0 0 0 0 0 0 0 
0 0 0 0 0 0 0 0 0 
0 0 0 0 0 0 0 0 0 
0 0 0 0 0 0 0 0 0 
0 0 0 0 0 0 0 0 0 
0 0 0 0 0 0 0 0 0 
0 0 0 0 0 0 0 0 0 
0 0 0 0 0 0 0 0 0 
0 0 0 0 0 0 0 0 0 
0 0 0 0 0 0 0 0 0 
0 0 0 0 0 0 0 0 0 
0 0 0 0 0 0 0 0 0 
0 0 0 0 0 0 0 0 0 
0 0 0 0 0 0 0 0 0 
0 0 0 0 0 0 0 0 0 
0 0 0 0 0 0 0 0 0 
0 0 0 0 0 0 0 0 0 
0 0 0 0 0 0 0 0 0 
0 0 0 0 0 0 0 0 0 
0 0 0 0 0 0 0 0 0 
0 0 0 0 0 0 0 0 0 
0 0 0 0 0 0 0 0 0 
0 0 0 0 0 0 0 0 0 
0 0 0 0 0 0 0 0 0 
0 0 0 0 0 0 0 0 0 
0 0 0 0 0 0 0 0 0 
0 0 0 0 0 0 0 0 0 
0 0 0 0 0 0 0 0 0 
0 0 0 0 0 0 0 0 0 
0 0 0 0 0 0 0 0 0 
0 0 0 0 0 0 0 0 0 
0 0 0 0 0 0 0 0 0 
0 0 0 0 0 0 0 0 0 
0 0 0 0 0 0 0 0 0 
0 0 0 0 0 0 0 0 0 
0 0 0 0 0 0 0 0 0 
0 0 0 0 0 0 0 0 0 
0 0 0 0 0 0 0 0 0 
0 0 0 0 0 0 0 0 0 
0 0 0 0 0 0 0 0 0 
0 0 0 0 0 0 0 0 0 
0 0 0 0 0 0 0 0 0 
0 0 0 0 0 0 0 0 0 
0 0 0 0 0 0 0 0 0 
0 0 0 0 0 0 0 0 0 
0 0 0 0 0 0 0 0 0 
0 0 0 0 0 0 0 0 0 
0 0 0 0 0 0 0 0 0 
0 0 0 0 0 0 0 0 0 
0 0 0 0 0 0 0 0 0 
0 0 0 0 0 0 0 0 0 
0 0 0 0 0 0 0 0 0 
0 0 0 0 0 0 0 0 0 
0 0 0 0 0 0 0 0 0 
0 0 0 0 0 0 0 0 0 
0 0 0 0 0 0 0 0 0 
0 0 0 0 0 0 0 0 0 
0 0 0 0 0 0 0 0 0 
0 0 0 0 0 0 0 0 0 
0 0 0 0 0 0 0 0 0 
0 0 0 0 0 0 0 0 0 
0 0 0 0 0 0 0 0 0 
0 0 0 0 0 0 0 0 0 
0 0 0 0 0 0 0 0 0 
0 0 0 0 0 0 0 0 0 
0 0 0 0 0 0 0 0 0 
0 0 0 0 0 0 0 0 0 
0 0 0 0 0 0 0 0 0 
0 0 0 0 0 0 0 0 0 
0 0 0 0 0 0 0 0 0 
0 0 0 0 0 0 0 0 0 
0 0 0 0 0 0 0 0 0 
0 0 0 0 0 0 0 0 0 
0 0 0 0 0 0 0 0 0 
0 0 0 0 0 0 0 0 0 
0 0 0 0 0 0 0 0 0 
0 0 0 0 0 0 0 0 0 
0 0 0 0 0 0 0 0 0 
0 0 0 0 0 0 0 0 0 
0 0 0 0 0 0 0 0 0 
0 0 0 0 0 0 0 0 0 
0 0 0 0 0 0 0 0 0 
0 0 0 0 0 0 0 0 0 
0 0 0 0 0 0 0 0 0 
0 0 0 0 0 0 0 0 0 
0 0 0 0 0 0 0 0 0 
0 0 0 0 0 0 0 0 0 
0 0 0 0 0 0 0 0 0 
0 0 0 0 0 0 0 0 0 
0 0 0 0 0 0 0 0 0 
0 0 0 0 0 0 0 0 0 
0 0 0 0 0 0 0 0 0 
0 0 0 0 0 0 0 0 0 
0 0 0 0 0 0 0 0 0 
0 0 0 0 0 0 0 0 0 
0 0 0 0 0 0 0 0 0 
0 0 0 0 0 0 0 0 0 
0 0 0 0 0 0 0 0 0 
0 0 0 0 0 0 0 0 0 
0 0 0 0 0 0 0 0 0 
0 0 0 0 0 0 0 0 0 
0 0 0 0 0 0 0 0 0 
0 0 0 0 0 0 0 0 0 
0 0 0 0 0 0 0 0 0 
0 0 0 0 0 0 0 0 0 
0 0 0 0 0 0 0 0 0 
0 0 0 0 0 0 0 0 0 
0 0 0 0 0 0 0 0 0 
0 0 0 0 0 0 0 0 0 
0 0 0 0 0 0 0 0 0 
0 0 0 0 0 0 0 0 0 
0 0 0 0 0 0 0 0 0 
0 0 0 0 0 0 0 0 0 
0 0 0 0 0 0 0 0 0 
0 0 0 0 0 0 0 0 0 
0 0 0 0 0 0 0 0 0 
0 0 0 0 0 0 0 0 0 
0 0 0 0 0 0 0 0 0 
0 0 0 0 0 0 0 0 0 
0 0 0 0 0 0 0 0 0 
0 0 0 0 0 0 0 0 0 
0 0 0 0 0 0 0 0 0 
0 0 0 0 0 0 0 0 0 
0 0 0 0 0 0 0 0 0 
0 0 0 0 0 0 0 0 0 
0 0 0 0 0 0 0 0 0 
0 0 0 0 0 0 0 0 0 
0 0 0 0 0 0 0 0 0 
0 0 0 0 0 0 0 0 0 
0 0 0 0 0 0 0 0 0 
0 0 0 0 0 0 0 0 0 
0 0 0 0 0 0 0 0 0 
0 0 0 0 0 0 0 0 0 
0 0 0 0 0 0 0 0 0 
0 0 0 0 0 0 0 0 0 
0 0 0 0 0 0 0 0 0 
0 0 0 0 0 0 0 0 0 
0 0 0 0 0 0 0 0 0 
0 0 0 0 0 0 0 0 0 
0 0 0 0 0 0 0 0 0 
0 0 0 0 0 0 0 0 0 
0 0 0 0 0 0 0 0 0 
0 0 0 0 0 0 0 0 0 
0 0 0 0 0 0 0 0 0 
0 0 0 0 0 0 0 0 0 
0 0 0 0 0 0 0 0 0 
0 0 0 0 0 0 0 0 0 
0 0 0 0 0 0 0 0 0 
0 0 0 0 0 0 0 0 0 
0 0 0 0 0 0 0 0 0 
0 0 0 0 0 0 0 0 0 
0 0 0 0 0 0 0 0 0 
0 0 0 0 0 0 0 0 0 
0 0 0 0 0 0 0 0 0 
0 0 0 0 0 0 0 0 0 
0 0 0 0 0 0 0 0 0 
0 0 0 0 0 0 0 0 0 
0 0 0 0 0 0 0 0 0 
0 0 0 0 0 0 0 0 0 
0 0 0 0 0 0 0 0 0 
0 0 0 0 0 0 0 0 0 
0 0 0 0 0 0 0 0 0 
0 0 0 0 0 0 0 0 0 
0 0 0 0 0 0 0 0 0 
0 0 0 0 0 0 0 0 0 
0 0 0 0 0 0 0 0 0 
0 0 0 0 0 0 0 0 0 
0 0 0 0 0 0 0 0 0 
0 0 0 0 0 0 0 0 0 
0 0 0 0 0 0 0 0 0 
0 0 0 0 0 0 0 0 0 
0 0 0 0 0 0 0 0 0 
0 0 0 0 0 0 0 0 0 
0 0 0 0 0 0 0 0 0 
0 0 0 0 0 0 0 0 0 
0 0 0 0 0 0 0 0 0 
0 0 0 0 0 0 0 0 0 
0 0 0 0 0 0 0 0 0 
0 0 0 0 0 0 0 0 0 
0 0 0 0 0 0 0 0 0 
0 0 0 0 0 0 0 0 0 
0 0 0 0 0 0 0 0 0 
0 0 0 0 0 0 0 0 0 
0 0 0 0 0 0 0 0 0 
0 0 0 0 0 0 0 0 0 
0 0 0 0 0 0 0 0 0 
0 0 0 0 0 0 0 0 0 
0 0 0 0 0 0 0 0 0 
0 0 0 0 0 0 0 0 0 
0 0 0 0 0 0 0 0 0 
0 0 0 0 0 0 0 0 0 
0 0 0 0 0 0 0 0 0 
0 0 0 0 0 0 0 0 0 
0 0 0 0 0 0 0 0 0 
0 0 0 0 0 0 0 0 0 
0 0 0 0 0 0 0 0 0 
0 0 0 0 0 0 0 0 0 
0 0 0 0 0 0 0 0 0 
0 0 0 0 0 0 0 0 0 
0 0 0 0 0 0 0 0 0 
0 0 0 0 0 0 0 0 0 
0 0 0 0 0 0 0 0 0 
0 0 0 0 0 0 0 0 0 
0 0 0 0 0 0 0 0 0 
0 0 0 0 0 0 0 0 0 
0 0 0 0 0 0 0 0 0 
0 0 0 0 0 0 0 0 0 
0 0 0 0 0 0 0 0 0 
0 0 0 0 0 0 0 0 0 
0 0 0 0 0 0 0 0 0 
0 0 0 0 0 0 0 0 0 
0 0 0 0 0 0 0 0 0 
0 0 0 0 0 0 0 0 0 
0 0 0 0 0 0 0 0 0 
0 0 0 0 0 0 0 0 0 
0 0 0 0 0 0 0 0 0 
0 0 0 0 0 0 0 0 0 
0 0 0 0 0 0 0 0 0 
0 0 0 0 0 0 0 0 0 
0 0 0 0 0 0 0 0 0 
0 0 0 0 0 0 0 0 0 
0 0 0 0 0 0 0 0 0 
0 0 0 0 0 0 0 0 0 
0 0 0 0 0 0 0 0 0 
0 0 0 0 0 0 0 0 0 
0 0 0 0 0 0 0 0 0 
0 0 0 0 0 0 0 0 0 
0 0 0 0 0 0 0 0 0 
0 0 0 0 0 0 0 0 0 
0 0 0 0 0 0 0 0 0 
0 0 0 0 0 0 0 0 0 
0 0 0 0 0 0 0 0 0 
0 0 0 0 0 0 0 0 0 
0 0 0 0 0 0 0 0 0 
0 0 0 0 0 0 0 0 0 
0 0 0 0 0 0 0 0 0 
0 0 0 0 0 0 0 0 0 
0 0 0 0 0 0 0 0 0 
0 0 0 0 0 0 0 0 0 
0 0 0 0 0 0 0 0 0 
0 0 0 0 0 0 0 0 0 
0 0 0 0 0 0 0 0 0 
0 0 0 0 0 0 0 0 0 
0 0 0 0 0 0 0 0 0 
0 0 0 0 0 0 0 0 0 
0 0 0 0 0 0 0 0 0 
0 0 0 0 0 0 0 0 0 
0 0 0 0 0 0 0 0 0 
0 0 0 0 0 0 0 0 0 
0 0 0 0 0 0 0 0 0 
0 0 0 0 0 0 0 0 0 
0 0 0 0 0 0 0 0 0 
0 0 0 0 0 0 0 0 0 
0 0 0 0 0 0 0 0 0 
0 0 0 0 0 0 0 0 0 
0 0 0 0 0 0 0 0 0 
0 0 0 0 0 0 0 0 0 
0 0 0 0 0 0 0 0 0 
0 0 0 0 0 0 0 0 0 
0 0 0 0 0 0 0 0 0 
0 0 0 0 0 0 0 0 0 
0 0 0 0 0 0 0 0 0 
0 0 0 0 0 0 0 0 0 
0 0 0 0 0 0 0 0 0 
0 0 0 0 0 0 0 0 0 
0 0 0 0 0 0 0 0 0 
0 0 0 0 0 0 0 0 0 
0 0 0 0 0 0 0 0 0 
0 0 0 0 0 0 0 0 0 
0 0 0 0 0 0 0 0 0 
0 0 0 0 0 0 0 0 0 
0 0 0 0 0 0 0 0 0 
0 0 0 0 0 0 0 0 0 
0 0 0 0 0 0 0 0 0 
0 0 0 0 0 0 0 0 0 
0 0 0 0 0 0 0 0 0 
0 0 0 0 0 0 0 0 0 
0 0 0 0 0 0 0 0 0 
0 0 0 0 0 0 0 0 0 
0 0 0 0 0 0 0 0 0 
0 0 0 0 0 0 0 0 0 
0 0 0 0 0 0 0 0 0 
0 0 0 0 0 0 0 0 0 
0 0 0 0 0 0 0 0 0 
0 0 0 0 0 0 0 0 0 
0 0 0 0 0 0 0 0 0 
0 0 0 0 0 0 0 0 0 
0 0 0 0 0 0 0 0 0 
0 0 0 0 0 0 0 0 0 
0 0 0 0 0 0 0 0 0 
0 0 0 0 0 0 0 0 0 
0 0 0 0 0 0 0 0 0 
0 0 0 0 0 0 0 0 0 
0 0 0 0 0 0 0 0 0 
0 0 0 0 0 0 0 0 0 
0 0 0 0 0 0 0 0 0 
0 0 0 0 0 0 0 0 0 
0 0 0 0 0 0 0 0 0 
0 0 0 0 0 0 0 0 0 
0 0 0 0 0 0 0 0 0 
0 0 0 0 0 0 0 0 0 
0 0 0 0 0 0 0 0 0 
0 0 0 0 0 0 0 0 0 
0 0 0 0 0 0 0 0 0 
0 0 0 0 0 0 0 0 0 
0 0 0 0 0 0 0 0 0 
0 0 0 0 0 0 0 0 0 
0 0 0 0 0 0 0 0 0 
0 0 0 0 0 0 0 0 0 
0 0 0 0 0 0 0 0 0 
0 0 0 0 0 0 0 0 0 
0 0 0 0 0 0 0 0 0 
0 0 0 0 0 0 0 0 0 
0 0 0 0 0 0 0 0 0 
0 0 0 0 0 0 0 0 0 
0 0 0 0 0 0 0 0 0 
0 0 0 0 0 0 0 0 0 
0 0 0 0 0 0 0 0 0 
0 0 0 0 0 0 0 0 0 
0 0 0 0 0 0 0 0 0 
0 0 0 0 0 0 0 0 0 
0 0 0 0 0 0 0 0 0 
0 0 0 0 0 0 0 0 0 
0 0 0 0 0 0 0 0 0 
0 0 0 0 0 0 0 0 0 
0 0 0 0 0 0 0 0 0 
0 0 0 0 0 0 0 0 0 
0 0 0 0 0 0 0 0 0 
0 0 0 0 0 0 0 0 0 
0 0 0 0 0 0 0 0 0 
0 0 0 0 0 0 0 0 0 
0 0 0 0 0 0 0 0 0 
0 0 0 0 0 0 0 0 0 
0 0 0 0 0 0 0 0 0 
0 0 0 0 0 0 0 0 0 
0 0 0 0 0 0 0 0 0 
0 0 0 0 0 0 0 0 0 
0 0 0 0 0 0 0 0 0 
0 0 0 0 0 0 0 0 0 
0 0 0 0 0 0 0 0 0 
0 0 0 0 0 0 0 0 0 
0 0 0 0 0 0 0 0 0 
0 0 0 0 0 0 0 0 0 
0 0 0 0 0 0 0 0 0 
0 0 0 0 0 0 0 0 0 
0 0 0 0 0 0 0 0 0 
0 0 0 0 0 0 0 0 0 
0 0 0 0 0 0 0 0 0 
0 0 0 0 0 0 0 0 0 
0 0 0 0 0 0 0 0 0 
0 0 0 0 0 0 0 0 0 
0 0 0 0 0 0 0 0 0 
0 0 0 0 0 0 0 0 0 
0 0 0 0 0 0 0 0 0 
0 0 0 0 0 0 0 0 0 
0 0 0 0 0 0 0 0 0 
0 0 0 0 0 0 0 0 0 
0 0 0 0 0 0 0 0 0 
0 0 0 0 0 0 0 0 0 
0 0 0 0 0 0 0 0 0 
0 0 0 0 0 0 0 0 0 
0 0 0 0 0 0 0 0 0 
0 0 0 0 0 0 0 0 0 
0 0 0 0 0 0 0 0 0 
0 0 0 0 0 0 0 0 0 
0 0 0 0 0 0 0 0 0 
0 0 0 0 0 0 0 0 0 
0 0 0 0 0 0 0 0 0 
0 0 0 0 0 0 0 0 0 
0 0 0 0 0 0 0 0 0 
0 0 0 0 0 0 0 0 0 
0 0 0 0 0 0 0 0 0 
0 0 0 0 0 0 0 0 0 
0 0 0 0 0 0 0 0 0 
0 0 0 0 0 0 0 0 0 
0 0 0 0 0 0 0 0 0 
0 0 0 0 0 0 0 0 0 
0 0 0 0 0 0 0 0 0 
0 0 0 0 0 0 0 0 0 
0 0 0 0 0 0 0 0 0 
0 0 0 0 0 0 0 0 0 
0 0 0 0 0 0 0 0 0 
0 0 0 0 0 0 0 0 0 
0 0 0 0 0 0 0 0 0 
0 0 0 0 0 0 0 0 0 
0 0 0 0 0 0 0 0 0 
0 0 0 0 0 0 0 0 0 
0 0 0 0 0 0 0 0 0 
0 0 0 0 0 0 0 0 0 
0 0 0 0 0 0 0 0 0 
0 0 0 0 0 0 0 0 0 
0 0 0 0 0 0 0 0 0 
0 0 0 0 0 0 0 0 0 
0 0 0 0 0 0 0 0 0 
0 0 0 0 0 0 0 0 0 
0 0 0 0 0 0 0 0 0 
0 0 0 0 0 0 0 0 0 
0 0 0 0 0 0 0 0 0 
0 0 0 0 0 0 0 0 0 
0 0 0 0 0 0 0 0 0 
0 0 0 0 0 0 0 0 0 
0 0 0 0 0 0 0 0 0 
0 0 0 0 0 0 0 0 0 
0 0 0 0 0 0 0 0 0 
0 0 0 0 0 0 0 0 0 
0 0 0 0 0 0 0 0 0 
0 0 0 0 0 0 0 0 0 
0 0 0 0 0 0 0 0 0 
0 0 0 0 0 0 0 0 0 
0 0 0 0 0 0 0 0 0 
0 0 0 0 0 0 0 0 0 
0 0 0 0 0 0 0 0 0 
0 0 0 0 0 0 0 0 0 
0 0 0 0 0 0 0 0 0 
0 0 0 0 0 0 0 0 0 
0 0 0 0 0 0 0 0 0 
0 0 0 0 0 0 0 0 0 
0 0 0 0 0 0 0 0 0 
0 0 0 0 0 0 0 0 0 
0 0 0 0 0 0 0 0 0 
0 0 0 0 0 0 0 0 0 
0 0 0 0 0 0 0 0 0 
0 0 0 0 0 0 0 0 0 
0 0 0 0 0 0 0 0 0 
0 0 0 0 0 0 0 0 0 
0 0 0 0 0 0 0 0 0 
0 0 0 0 0 0 0 0 0 
0 0 0 0 0 0 0 0 0 
0 0 0 0 0 0 0 0 0 
0 0 0 0 0 0 0 0 0 
0 0 0 0 0 0 0 0 0 
0 0 0 0 0 0 0 0 0 
0 0 0 0 0 0 0 0 0 
0 0 0 0 0 0 0 0 0 
0 0 0 0 0 0 0 0 0 
0 0 0 0 0 0 0 0 0 
0 0 0 0 0 0 0 0 0 
0 0 0 0 0 0 0 0 0 
0 0 0 0 0 0 0 0 0 
0 0 0 0 0 0 0 0 0 
0 0 0 0 0 0 0 0 0 
0 0 0 0 0 0 0 0 0 
0 0 0 0 0 0 0 0 0 
0 0 0 0 0 0 0 0 0 
0 0 0 0 0 0 0 0 0 
0 0 0 0 0 0 0 0 0 
0 0 0 0 0 0 0 0 0 
0 0 0 0 0 0 0 0 0 
0 0 0 0 0 0 0 0 0 
0 0 0 0 0 0 0 0 0 
0 0 0 0 0 0 0 0 0 
0 0 0 0 0 0 0 0 0 
0 0 0 0 0 0 0 0 0 
0 0 0 0 0 0 0 0 0 
0 0 0 0 0 0 0 0 0 
0 0 0 0 0 0 0 0 0 
0 0 0 0 0 0 0 0 0 
0 0 0 0 0 0 0 0 0 
0 0 0 0 0 0 0 0 0 
0 0 0 0 0 0 0 0 0 
0 0 0 0 0 0 0 0 0 
0 0 0 0 0 0 0 0 0 
0 0 0 0 0 0 0 0 0 
0 0 0 0 0 0 0 0 0 
0 0 0 0 0 0 0 0 0 
0 0 0 0 0 0 0 0 0 
0 0 0 0 0 0 0 0 0 
0 0 0 0 0 0 0 0 0 
0 0 0 0 0 0 0 0 0 
0 0 0 0 0 0 0 0 0 
0 0 0 0 0 0 0 0 0 
0 0 0 0 0 0 0 0 0 
0 0 0 0 0 0 0 0 0 
0 0 0 0 0 0 0 0 0 
0 0 0 0 0 0 0 0 0 
0 0 0 0 0 0 0 0 0 
0 0 0 0 0 0 0 0 0 
0 0 0 0 0 0 0 0 0 
0 0 0 0 0 0 0 0 0 
0 0 0 0 0 0 0 0 0 
0 0 0 0 0 0 0 0 0 
0 0 0 0 0 0 0 0 0 
0 0 0 0 0 0 0 0 0 
0 0 0 0 0 0 0 0 0 
0 0 0 0 0 0 0 0 0 
0 0 0 0 0 0 0 0 0 
0 0 0 0 0 0 0 0 0 
0 0 0 0 0 0 0 0 0 
0 0 0 0 0 0 0 0 0 
0 0 0 0 0 0 0 0 0 
0 0 0 0 0 0 0 0 0 
0 0 0 0 0 0 0 0 0 
0 0 0 0 0 0 0 0 0 
0 0 0 0 0 0 0 0 0 
0 0 0 0 0 0 0 0 0 
0 0 0 0 0 0 0 0 0 
0 0 0 0 0 0 0 0 0 
0 0 0 0 0 0 0 0 0 
0 0 0 0 0 0 0 0 0 
0 0 0 0 0 0 0 0 0 
0 0 0 0 0 0 0 0 0 
0 0 0 0 0 0 0 0 0 
0 0 0 0 0 0 0 0 0 
0 0 0 0 0 0 0 0 0 
0 0 0 0 0 0 0 0 0 
0 0 0 0 0 0 0 0 0 
0 0 0 0 0 0 0 0 0 
0 0 0 0 0 0 0 0 0 
0 0 0 0 0 0 0 0 0 
0 0 0 0 0 0 0 0 0 
0 0 0 0 0 0 0 0 0 
0 0 0 0 0 0 0 0 0 
0 0 0 0 0 0 0 0 0 
0 0 0 0 0 0 0 0 0 
0 0 0 0 0 0 0 0 0 
0 0 0 0 0 0 0 0 0 
0 0 0 0 0 0 0 0 0 
0 0 0 0 0 0 0 0 0 
0 0 0 0 0 0 0 0 0 
0 0 0 0 0 0 0 0 0 
0 0 0 0 0 0 0 0 0 
0 0 0 0 0 0 0 0 0 
0 0 0 0 0 0 0 0 0 
0 0 0 0 0 0 0 0 0 
0 0 0 0 0 0 0 0 0 
0 0 0 0 0 0 0 0 0 
0 0 0 0 0 0 0 0 0 
0 0 0 0 0 0 0 0 0 
0 0 0 0 0 0 0 0 0 
0 0 0 0 0 0 0 0 0 
0 0 0 0 0 0 0 0 0 
0 0 0 0 0 0 0 0 0 
0 0 0 0 0 0 0 0 0 
0 0 0 0 0 0 0 0 0 
0 0 0 0 0 0 0 0 0 
0 0 0 0 0 0 0 0 0 
0 0 0 0 0 0 0 0 0 
0 0 0 0 0 0 0 0 0 
0 0 0 0 0 0 0 0 0 
0 0 0 0 0 0 0 0 0 
0 0 0 0 0 0 0 0 0 
0 0 0 0 0 0 0 0 0 
0 0 0 0 0 0 0 0 0 
0 0 0 0 0 0 0 0 0 
0 0 0 0 0 0 0 0 0 
0 0 0 0 0 0 0 0 0 
0 0 0 0 0 0 0 0 0 
0 0 0 0 0 0 0 0 0 
0 0 0 0 0 0 0 0 0 
0 0 0 0 0 0 0 0 0 
0 0 0 0 0 0 0 0 0 
0 0 0 0 0 0 0 0 0 
0 0 0 0 0 0 0 0 0 
0 0 0 0 0 0 0 0 0 
0 0 0 0 0 0 0 0 0 
0 0 0 0 0 0 0 0 0 
0 0 0 0 0 0 0 0 0 
0 0 0 0 0 0 0 0 0 
0 0 0 0 0 0 0 0 0 
0 0 0 0 0 0 0 0 0 
0 0 0 0 0 0 0 0 0 
0 0 0 0 0 0 0 0 0 
0 0 0 0 0 0 0 0 0 
0 0 0 0 0 0 0 0 0 
0 0 0 0 0 0 0 0 0 
0 0 0 0 0 0 0 0 0 
0 0 0 0 0 0 0 0 0 
0 0 0 0 0 0 0 0 0 
0 0 0 0 0 0 0 0 0 
0 0 0 0 0 0 0 0 0 
0 0 0 0 0 0 0 0 0 
0 0 0 0 0 0 0 0 0 
0 0 0 0 0 0 0 0 0 
0 0 0 0 0 0 0 0 0 
0 0 0 0 0 0 0 0 0 
0 0 0 0 0 0 0 0 0 
0 0 0 0 0 0 0 0 0 
0 0 0 0 0 0 0 0 0 
0 0 0 0 0 0 0 0 0 
0 0 0 0 0 0 0 0 0 
0 0 0 0 0 0 0 0 0 
0 0 0 0 0 0 0 0 0 
0 0 0 0 0 0 0 0 0 
0 0 0 0 0 0 0 0 0 
0 0 0 0 0 0 0 0 0 
0 0 0 0 0 0 0 0 0 
0 0 0 0 0 0 0 0 0 
0 0 0 0 0 0 0 0 0 
0 0 0 0 0 0 0 0 0 
0 0 0 0 0 0 0 0 0 
0 0 0 0 0 0 0 0 0 
0 0 0 0 0 0 0 0 0 
0 0 0 0 0 0 0 0 0 
0 0 0 0 0 0 0 0 0 
0 0 0 0 0 0 0 0 0 
0 0 0 0 0 0 0 0 0 
0 0 0 0 0 0 0 0 0 
0 0 0 0 0 0 0 0 0 
0 0 0 0 0 0 0 0 0 
0 0 0 0 0 0 0 0 0 
0 0 0 0 0 0 0 0 0 
0 0 0 0 0 0 0 0 0 
0 0 0 0 0 0 0 0 0 
0 0 0 0 0 0 0 0 0 
0 0 0 0 0 0 0 0 0 
0 0 0 0 0 0 0 0 0 
0 0 0 0 0 0 0 0 0 
0 0 0 0 0 0 0 0 0 
0 0 0 0 0 0 0 0 0 
0 0 0 0 0 0 0 0 0 
0 0 0 0 0 0 0 0 0 
0 0 0 0 0 0 0 0 0 
0 0 0 0 0 0 0 0 0 
0 0 0 0 0 0 0 0 0 
0 0 0 0 0 0 0 0 0 
0 0 0 0 0 0 0 0 0 
0 0 0 0 0 0 0 0 0 
0 0 0 0 0 0 0 0 0 
0 0 0 0 0 0 0 0 0 
0 0 0 0 0 0 0 0 0 
0 0 0 0 0 0 0 0 0 
0 0 0 0 0 0 0 0 0 
0 0 0 0 0 0 0 0 0 
0 0 0 0 0 0 0 0 0 
0 0 0 0 0 0 0 0 0 
0 0 0 0 0 0 0 0 0 
0 0 0 0 0 0 0 0 0 
0 0 0 0 0 0 0 0 0 
0 0 0 0 0 0 0 0 0 
0 0 0 0 0 0 0 0 0 
0 0 0 0 0 0 0 0 0 
0 0 0 0 0 0 0 0 0 
0 0 0 0 0 0 0 0 0 
0 0 0 0 0 0 0 0 0 
0 0 0 0 0 0 0 0 0 
0 0 0 0 0 0 0 0 0 
0 0 0 0 0 0 0 0 0 
0 0 0 0 0 0 0 0 0 
0 0 0 0 0 0 0 0 0 
0 0 0 0 0 0 0 0 0 
0 0 0 0 0 0 0 0 0 
0 0 0 0 0 0 0 0 0 
0 0 0 0 0 0 0 0 0 
0 0 0 0 0 0 0 0 0 
0 0 0 0 0 0 0 0 0 
0 0 0 0 0 0 0 0 0 
0 0 0 0 0 0 0 0 0 
0 0 0 0 0 0 0 0 0 
0 0 0 0 0 0 0 0 0 
0 0 0 0 0 0 0 0 0 
0 0 0 0 0 0 0 0 0 
0 0 0 0 0 0 0 0 0 
0 0 0 0 0 0 0 0 0 
0 0 0 0 0 0 0 0 0 
0 0 0 0 0 0 0 0 0 
0 0 0 0 0 0 0 0 0 
0 0 0 0 0 0 0 0 0 
0 0 0 0 0 0 0 0 0 
0 0 0 0 0 0 0 0 0 
0 0 0 0 0 0 0 0 0 
0 0 0 0 0 0 0 0 0 
0 0 0 0 0 0 0 0 0 
0 0 0 0 0 0 0 0 0 
0 0 0 0 0 0 0 0 0 
0 0 0 0 0 0 0 0 0 
0 0 0 0 0 0 0 0 0 
0 0 0 0 0 0 0 0 0 
0 0 0 0 0 0 0 0 0 
0 0 0 0 0 0 0 0 0 
0 0 0 0 0 0 0 0 0 
0 0 0 0 0 0 0 0 0 
0 0 0 0 0 0 0 0 0 
0 0 0 0 0 0 0 0 0 
0 0 0 0 0 0 0 0 0 
0 0 0 0 0 0 0 0 0 
0 0 0 0 0 0 0 0 0 
0 0 0 0 0 0 0 0 0 
0 0 0 0 0 0 0 0 0 
0 0 0 0 0 0 0 0 0 
0 0 0 0 0 0 0 0 0 
0 0 0 0 0 0 0 0 0 
0 0 0 0 0 0 0 0 0 
0 0 0 0 0 0 0 0 0 
0 0 0 0 0 0 0 0 0 
0 0 0 0 0 0 0 0 0 
0 0 0 0 0 0 0 0 0 
0 0 0 0 0 0 0 0 0 
0 0 0 0 0 0 0 0 0 
0 0 0 0 0 0 0 0 0 
0 0 0 0 0 0 0 0 0 
0 0 0 0 0 0 0 0 0 
0 0 0 0 0 0 0 0 0 
0 0 0 0 0 0 0 0 0 
0 0 0 0 0 0 0 0 0 
0 0 0 0 0 0 0 0 0 
0 0 0 0 0 0 0 0 0 
0 0 0 0 0 0 0 0 0 
0 0 0 0 0 0 0 0 0 
0 0 0 0 0 0 0 0 0 
0 0 0 0 0 0 0 0 0 
0 0 0 0 0 0 0 0 0 
0 0 0 0 0 0 0 0 0 
0 0 0 0 0 0 0 0 0 
0 0 0 0 0 0 0 0 0 
0 0 0 0 0 0 0 0 0 
0 0 0 0 0 0 0 0 0 
0 0 0 0 0 0 0 0 0 
0 0 0 0 0 0 0 0 0 
0 0 0 0 0 0 0 0 0 
0 0 0 0 0 0 0 0 0 
0 0 0 0 0 0 0 0 0 
0 0 0 0 0 0 0 0 0 
0 0 0 0 0 0 0 0 0 
0 0 0 0 0 0 0 0 0 
0 0 0 0 0 0 0 0 0 
0 0 0 0 0 0 0 0 0 
0 0 0 0 0 0 0 0 0 
0 0 0 0 0 0 0 0 0 
0 0 0 0 0 0 0 0 0 
0 0 0 0 0 0 0 0 0 
0 0 0 0 0 0 0 0 0 
0 0 0 0 0 0 0 0 0 
0 0 0 0 0 0 0 0 0 
0 0 0 0 0 0 0 0 0 
0 0 0 0 0 0 0 0 0 
0 0 0 0 0 0 0 0 0 
0 0 0 0 0 0 0 0 0 
0 0 0 0 0 0 0 0 0 
0 0 0 0 0 0 0 0 0 
0 0 0 0 0 0 0 0 0 
0 0 0 0 0 0 0 0 0 
0 0 0 0 0 0 0 0 0 
0 0 0 0 0 0 0 0 0 
0 0 0 0 0 0 0 0 0 
0 0 0 0 0 0 0 0 0 
0 0 0 0 0 0 0 0 0 
0 0 0 0 0 0 0 0 0 
0 0 0 0 0 0 0 0 0 
0 0 0 0 0 0 0 0 0 
0 0 0 0 0 0 0 0 0 
0 0 0 0 0 0 0 0 0 
0 0 0 0 0 0 0 0 0 
0 0 0 0 0 0 0 0 0 
0 0 0 0 0 0 0 0 0 
0 0 0 0 0 0 0 0 0 
0 0 0 0 0 0 0 0 0 
0 0 0 0 0 0 0 0 0 
0 0 0 0 0 0 0 0 0 
0 0 0 0 0 0 0 0 0 
0 0 0 0 0 0 0 0 0 
0 0 0 0 0 0 0 0 0 
0 0 0 0 0 0 0 0 0 
0 0 0 0 0 0 0 0 0 
0 0 0 0 0 0 0 0 0 
0 0 0 0 0 0 0 0 0 
0 0 0 0 0 0 0 0 0 
0 0 0 0 0 0 0 0 0 
0 0 0 0 0 0 0 0 0 
0 0 0 0 0 0 0 0 0 
0 0 0 0 0 0 0 0 0 
0 0 0 0 0 0 0 0 0 
0 0 0 0 0 0 0 0 0 
0 0 0 0 0 0 0 0 0 
0 0 0 0 0 0 0 0 0 
0 0 0 0 0 0 0 0 0 
0 0 0 0 0 0 0 0 0 
0 0 0 0 0 0 0 0 0 
0 0 0 0 0 0 0 0 0 
0 0 0 0 0 0 0 0 0 
0 0 0 0 0 0 0 0 0 
0 0 0 0 0 0 0 0 0 
0 0 0 0 0 0 0 0 0 
0 0 0 0 0 0 0 0 0 
0 0 0 0 0 0 0 0 0 
0 0 0 0 0 0 0 0 0 
0 0 0 0 0 0 0 0 0 
0 0 0 0 0 0 0 0 0 
0 0 0 0 0 0 0 0 0 
0 0 0 0 0 0 0 0 0 
0 0 0 0 0 0 0 0 0 
0 0 0 0 0 0 0 0 0 
0 0 0 0 0 0 0 0 0 
0 0 0 0 0 0 0 0 0 
0 0 0 0 0 0 0 0 0 
0 0 0 0 0 0 0 0 0 
0 0 0 0 0 0 0 0 0 
0 0 0 0 0 0 0 0 0 
0 0 0 0 0 0 0 0 0 
0 0 0 0 0 0 0 0 0 
0 0 0 0 0 0 0 0 0 
0 0 0 0 0 0 0 0 0 
0 0 0 0 0 0 0 0 0 
0 0 0 0 0 0 0 0 0 
0 0 0 0 0 0 0 0 0 
0 0 0 0 0 0 0 0 0 
0 0 0 0 0 0 0 0 0 
0 0 0 0 0 0 0 0 0 
0 0 0 0 0 0 0 0 0 
0 0 0 0 0 0 0 0 0 
0 0 0 0 0 0 0 0 0 
0 0 0 0 0 0 0 0 0 
0 0 0 0 0 0 0 0 0 
0 0 0 0 0 0 0 0 0 
0 0 0 0 0 0 0 0 0 
0 0 0 0 0 0 0 0 0 
0 0 0 0 0 0 0 0 0 
0 0 0 0 0 0 0 0 0 
0 0 0 0 0 0 0 0 0 
0 0 0 0 0 0 0 0 0 
0 0 0 0 0 0 0 0 0 
0 0 0 0 0 0 0 0 0 
0 0 0 0 0 0 0 0 0 
0 0 0 0 0 0 0 0 0 
0 0 0 0 0 0 0 0 0 
0 0 0 0 0 0 0 0 0 
0 0 0 0 0 0 0 0 0 
0 0 0 0 0 0 0 0 0 
0 0 0 0 0 0 0 0 0 
0 0 0 0 0 0 0 0 0 
0 0 0 0 0 0 0 0 0 
0 0 0 0 0 0 0 0 0 
0 0 0 0 0 0 0 0 0 
0 0 0 0 0 0 0 0 0 
0 0 0 0 0 0 0 0 0 
0 0 0 0 0 0 0 0 0 
0 0 0 0 0 0 0 0 0 
0 0 0 0 0 0 0 0 0 
0 0 0 0 0 0 0 0 0 
0 0 0 0 0 0 0 0 0 
0 0 0 0 0 0 0 0 0 
0 0 0 0 0 0 0 0 0 
0 0 0 0 0 0 0 0 0 
0 0 0 0 0 0 0 0 0 
0 0 0 0 0 0 0 0 0 
0 0 0 0 0 0 0 0 0 
0 0 0 0 0 0 0 0 0 
0 0 0 0 0 0 0 0 0 
0 0 0 0 0 0 0 0 0 
0 0 0 0 0 0 0 0 0 
0 0 0 0 0 0 0 0 0 
0 0 0 0 0 0 0 0 0 
0 0 0 0 0 0 0 0 0 
0 0 0 0 0 0 0 0 0 
0 0 0 0 0 0 0 0 0 
0 0 0 0 0 0 0 0 0 
0 0 0 0 0 0 0 0 0 
0 0 0 0 0 0 0 0 0 
0 0 0 0 0 0 0 0 0 
0 0 0 0 0 0 0 0 0 
0 0 0 0 0 0 0 0 0 
0 0 0 0 0 0 0 0 0 
0 0 0 0 0 0 0 0 0 
0 0 0 0 0 0 0 0 0 
0 0 0 0 0 0 0 0 0 
0 0 0 0 0 0 0 0 0 
0 0 0 0 0 0 0 0 0 
0 0 0 0 0 0 0 0 0 
0 0 0 0 0 0 0 0 0 
0 0 0 0 0 0 0 0 0 
0 0 0 0 0 0 0 0 0 
0 0 0 0 0 0 0 0 0 
0 0 0 0 0 0 0 0 0 
0 0 0 0 0 0 0 0 0 
0 0 0 0 0 0 0 0 0 
0 0 0 0 0 0 0 0 0 
0 0 0 0 0 0 0 0 0 
0 0 0 0 0 0 0 0 0 
0 0 0 0 0 0 0 0 0 
0 0 0 0 0 0 0 0 0 
0 0 0 0 0 0 0 0 0 
0 0 0 0 0 0 0 0 0 
0 0 0 0 0 0 0 0 0 
0 0 0 0 0 0 0 0 0 
0 0 0 0 0 0 0 0 0 
0 0 0 0 0 0 0 0 0 
0 0 0 0 0 0 0 0 0 
0 0 0 0 0 0 0 0 0 
0 0 0 0 0 0 0 0 0 
0 0 0 0 0 0 0 0 0 
0 0 0 0 0 0 0 0 0 
0 0 0 0 0 0 0 0 0 
0 0 0 0 0 0 0 0 0 
0 0 0 0 0 0 0 0 0 
0 0 0 0 0 0 0 0 0 
0 0 0 0 0 0 0 0 0 
0 0 0 0 0 0 0 0 0 
0 0 0 0 0 0 0 0 0 
0 0 0 0 0 0 0 0 0 
0 0 0 0 0 0 0 0 0 
0 0 0 0 0 0 0 0 0 
0 0 0 0 0 0 0 0 0 
0 0 0 0 0 0 0 0 0 
0 0 0 0 0 0 0 0 0 
0 0 0 0 0 0 0 0 0 
0 0 0 0 0 0 0 0 0 
0 0 0 0 0 0 0 0 0 
0 0 0 0 0 0 0 0 0 
0 0 0 0 0 0 0 0 0 
0 0 0 0 0 0 0 0 0 
0 0 0 0 0 0 0 0 0 
0 0 0 0 0 0 0 0 0 
0 0 0 0 0 0 0 0 0 
0 0 0 0 0 0 0 0 0 
0 0 0 0 0 0 0 0 0 
0 0 0 0 0 0 0 0 0 
0 0 0 0 0 0 0 0 0 
0 0 0 0 0 0 0 0 0 
0 0 0 0 0 0 0 0 0 
0 0 0 0 0 0 0 0 0 
0 0 0 0 0 0 0 0 0 
0 0 0 0 0 0 0 0 0 
0 0 0 0 0 0 0 0 0 
0 0 0 0 0 0 0 0 0 
0 0 0 0 0 0 0 0 0 
0 0 0 0 0 0 0 0 0 
0 0 0 0 0 0 0 0 0 
0 0 0 0 0 0 0 0 0 
0 0 0 0 0 0 0 0 0 
0 0 0 0 0 0 0 0 0 
0 0 0 0 0 0 0 0 0 
0 0 0 0 0 0 0 0 0 
0 0 0 0 0 0 0 0 0 
0 0 0 0 0 0 0 0 0 
0 0 0 0 0 0 0 0 0 
0 0 0 0 0 0 0 0 0 
0 0 0 0 0 0 0 0 0 
0 0 0 0 0 0 0 0 0 
0 0 0 0 0 0 0 0 0 
0 0 0 0 0 0 0 0 0 
0 0 0 0 0 0 0 0 0 
0 0 0 0 0 0 0 0 0 
0 0 0 0 0 0 0 0 0 
0 0 0 0 0 0 0 0 0 
0 0 0 0 0 0 0 0 0 
0 0 0 0 0 0 0 0 0 
0 0 0 0 0 0 0 0 0 
0 0 0 0 0 0 0 0 0 
0 0 0 0 0 0 0 0 0 
0 0 0 0 0 0 0 0 0 
0 0 0 0 0 0 0 0 0 
0 0 0 0 0 0 0 0 0 
0 0 0 0 0 0 0 0 0 
0 0 0 0 0 0 0 0 0 
0 0 0 0 0 0 0 0 0 
0 0 0 0 0 0 0 0 0 
0 0 0 0 0 0 0 0 0 
0 0 0 0 0 0 0 0 0 
0 0 0 0 0 0 0 0 0 
0 0 0 0 0 0 0 0 0 
0 0 0 0 0 0 0 0 0 
0 0 0 0 0 0 0 0 0 
0 0 0 0 0 0 0 0 0 
0 0 0 0 0 0 0 0 0 
0 0 0 0 0 0 0 0 0 
0 0 0 0 0 0 0 0 0 
0 0 0 0 0 0 0 0 0 
0 0 0 0 0 0 0 0 0 
0 0 0 0 0 0 0 0 0 
0 0 0 0 0 0 0 0 0 
0 0 0 0 0 0 0 0 0 
0 0 0 0 0 0 0 0 0 
0 0 0 0 0 0 0 0 0 
0 0 0 0 0 0 0 0 0 
0 0 0 0 0 0 0 0 0 
0 0 0 0 0 0 0 0 0 
0 0 0 0 0 0 0 0 0 
0 0 0 0 0 0 0 0 0 
0 0 0 0 0 0 0 0 0 
0 0 0 0 0 0 0 0 0 
0 0 0 0 0 0 0 0 0 
0 0 0 0 0 0 0 0 0 
0 0 0 0 0 0 0 0 0 
0 0 0 0 0 0 0 0 0 
0 0 0 0 0 0 0 0 0 
0 0 0 0 0 0 0 0 0 
0 0 0 0 0 0 0 0 0 
0 0 0 0 0 0 0 0 0 
0 0 0 0 0 0 0 0 0 
0 0 0 0 0 0 0 0 0 
0 0 0 0 0 0 0 0 0 
0 0 0 0 0 0 0 0 0 
0 0 0 0 0 0 0 0 0 
0 0 0 0 0 0 0 0 0 
0 0 0 0 0 0 0 0 0 
0 0 0 0 0 0 0 0 0 
0 0 0 0 0 0 0 0 0 
0 0 0 0 0 0 0 0 0 
0 0 0 0 0 0 0 0 0 
0 0 0 0 0 0 0 0 0 
0 0 0 0 0 0 0 0 0 
0 0 0 0 0 0 0 0 0 
0 0 0 0 0 0 0 0 0 
0 0 0 0 0 0 0 0 0 
0 0 0 0 0 0 0 0 0 
0 0 0 0 0 0 0 0 0 
0 0 0 0 0 0 0 0 0 
0 0 0 0 0 0 0 0 0 
0 0 0 0 0 0 0 0 0 
0 0 0 0 0 0 0 0 0 
0 0 0 0 0 0 0 0 0 
0 0 0 0 0 0 0 0 0 
0 0 0 0 0 0 0 0 0 
0 0 0 0 0 0 0 0 0 
0 0 0 0 0 0 0 0 0 
0 0 0 0 0 0 0 0 0 
0 0 0 0 0 0 0 0 0 
0 0 0 0 0 0 0 0 0 
0 0 0 0 0 0 0 0 0 
0 0 0 0 0 0 0 0 0 
0 0 0 0 0 0 0 0 0 
0 0 0 0 0 0 0 0 0 
0 0 0 0 0 0 0 0 0 
0 0 0 0 0 0 0 0 0 
0 0 0 0 0 0 0 0 0 
0 0 0 0 0 0 0 0 0 
0 0 0 0 0 0 0 0 0 
0 0 0 0 0 0 0 0 0 
0 0 0 0 0 0 0 0 0 
0 0 0 0 0 0 0 0 0 
0 0 0 0 0 0 0 0 0 
0 0 0 0 0 0 0 0 0 
0 0 0 0 0 0 0 0 0 
0 0 0 0 0 0 0 0 0 
0 0 0 0 0 0 0 0 0 
0 0 0 0 0 0 0 0 0 
0 0 0 0 0 0 0 0 0 
0 0 0 0 0 0 0 0 0 
0 0 0 0 0 0 0 0 0 
0 0 0 0 0 0 0 0 0 
0 0 0 0 0 0 0 0 0 
0 0 0 0 0 0 0 0 0 
0 0 0 0 0 0 0 0 0 
0 0 0 0 0 0 0 0 0 
0 0 0 0 0 0 0 0 0 
0 0 0 0 0 0 0 0 0 
0 0 0 0 0 0 0 0 0 
0 0 0 0 0 0 0 0 0 
0 0 0 0 0 0 0 0 0 
0 0 0 0 0 0 0 0 0 
0 0 0 0 0 0 0 0 0 
0 0 0 0 0 0 0 0 0 
0 0 0 0 0 0 0 0 0 
0 0 0 0 0 0 0 0 0 
0 0 0 0 0 0 0 0 0 
0 0 0 0 0 0 0 0 0 
0 0 0 0 0 0 0 0 0 
0 0 0 0 0 0 0 0 0 
0 0 0 0 0 0 0 0 0 
0 0 0 0 0 0 0 0 0 
0 0 0 0 0 0 0 0 0 
0 0 0 0 0 0 0 0 0 
0 0 0 0 0 0 0 0 0 
0 0 0 0 0 0 0 0 0 
0 0 0 0 0 0 0 0 0 
0 0 0 0 0 0 0 0 0 
0 0 0 0 0 0 0 0 0 
0 0 0 0 0 0 0 0 0 
0 0 0 0 0 0 0 0 0 
0 0 0 0 0 0 0 0 0 
0 0 0 0 0 0 0 0 0 
0 0 0 0 0 0 0 0 0 
0 0 0 0 0 0 0 0 0 
0 0 0 0 0 0 0 0 0 
0 0 0 0 0 0 0 0 0 
0 0 0 0 0 0 0 0 0 
0 0 0 0 0 0 0 0 0 
0 0 0 0 0 0 0 0 0 
0 0 0 0 0 0 0 0 0 
0 0 0 0 0 0 0 0 0 
0 0 0 0 0 0 0 0 0 
0 0 0 0 0 0 0 0 0 
0 0 0 0 0 0 0 0 0 
0 0 0 0 0 0 0 0 0 
0 0 0 0 0 0 0 0 0 
0 0 0 0 0 0 0 0 0 
0 0 0 0 0 0 0 0 0 
0 0 0 0 0 0 0 0 0 
0 0 0 0 0 0 0 0 0 
0 0 0 0 0 0 0 0 0 
0 0 0 0 0 0 0 0 0 
0 0 0 0 0 0 0 0 0 
0 0 0 0 0 0 0 0 0 
0 0 0 0 0 0 0 0 0 
0 0 0 0 0 0 0 0 0 
0 0 0 0 0 0 0 0 0 
0 0 0 0 0 0 0 0 0 
0 0 0 0 0 0 0 0 0 
0 0 0 0 0 0 0 0 0 
0 0 0 0 0 0 0 0 0 
0 0 0 0 0 0 0 0 0 
0 0 0 0 0 0 0 0 0 
0 0 0 0 0 0 0 0 0 
0 0 0 0 0 0 0 0 0 
0 0 0 0 0 0 0 0 0 
0 0 0 0 0 0 0 0 0 
0 0 0 0 0 0 0 0 0 
0 0 0 0 0 0 0 0 0 
0 0 0 0 0 0 0 0 0 
0 0 0 0 0 0 0 0 0 
0 0 0 0 0 0 0 0 0 
0 0 0 0 0 0 0 0 0 
0 0 0 0 0 0 0 0 0 
0 0 0 0 0 0 0 0 0 
0 0 0 0 0 0 0 0 0 
0 0 0 0 0 0 0 0 0 
0 0 0 0 0 0 0 0 0 
0 0 0 0 0 0 0 0 0 
0 0 0 0 0 0 0 0 0 
0 0 0 0 0 0 0 0 0 
0 0 0 0 0 0 0 0 0 
0 0 0 0 0 0 0 0 0 
0 0 0 0 0 0 0 0 0 
0 0 0 0 0 0 0 0 0 
0 0 0 0 0 0 0 0 0 
0 0 0 0 0 0 0 0 0 
0 0 0 0 0 0 0 0 0 
0 0 0 0 0 0 0 0 0 
0 0 0 0 0 0 0 0 0 
0 0 0 0 0 0 0 0 0 
0 0 0 0 0 0 0 0 0 
0 0 0 0 0 0 0 0 0 
0 0 0 0 0 0 0 0 0 
0 0 0 0 0 0 0 0 0 
0 0 0 0 0 0 0 0 0 
0 0 0 0 0 0 0 0 0 
0 0 0 0 0 0 0 0 0 
0 0 0 0 0 0 0 0 0 
0 0 0 0 0 0 0 0 0 
0 0 0 0 0 0 0 0 0 
0 0 0 0 0 0 0 0 0 
0 0 0 0 0 0 0 0 0 
0 0 0 0 0 0 0 0 0 
0 0 0 0 0 0 0 0 0 
0 0 0 0 0 0 0 0 0 
0 0 0 0 0 0 0 0 0 
0 0 0 0 0 0 0 0 0 
0 0 0 0 0 0 0 0 0 
0 0 0 0 0 0 0 0 0 
0 0 0 0 0 0 0 0 0 
0 0 0 0 0 0 0 0 0 
0 0 0 0 0 0 0 0 0 
0 0 0 0 0 0 0 0 0 
0 0 0 0 0 0 0 0 0 
0 0 0 0 0 0 0 0 0 
0 0 0 0 0 0 0 0 0 
0 0 0 0 0 0 0 0 0 
0 0 0 0 0 0 0 0 0 
0 0 0 0 0 0 0 0 0 
0 0 0 0 0 0 0 0 0 
0 0 0 0 0 0 0 0 0 
0 0 0 0 0 0 0 0 0 
0 0 0 0 0 0 0 0 0 
0 0 0 0 0 0 0 0 0 
0 0 0 0 0 0 0 0 0 
0 0 0 0 0 0 0 0 0 
0 0 0 0 0 0 0 0 0 
0 0 0 0 0 0 0 0 0 
0 0 0 0 0 0 0 0 0 
0 0 0 0 0 0 0 0 0 
0 0 0 0 0 0 0 0 0 
0 0 0 0 0 0 0 0 0 
0 0 0 0 0 0 0 0 0 
0 0 0 0 0 0 0 0 0 
0 0 0 0 0 0 0 0 0 
0 0 0 0 0 0 0 0 0 
0 0 0 0 0 0 0 0 0 
0 0 0 0 0 0 0 0 0 
0 0 0 0 0 0 0 0 0 
0 0 0 0 0 0 0 0 0 
0 0 0 0 0 0 0 0 0 
0 0 0 0 0 0 0 0 0 
0 0 0 0 0 0 0 0 0 
0 0 0 0 0 0 0 0 0 
0 0 0 0 0 0 0 0 0 
0 0 0 0 0 0 0 0 0 
0 0 0 0 0 0 0 0 0 
0 0 0 0 0 0 0 0 0 
0 0 0 0 0 0 0 0 0 
0 0 0 0 0 0 0 0 0 
0 0 0 0 0 0 0 0 0 
0 0 0 0 0 0 0 0 0 
0 0 0 0 0 0 0 0 0 
0 0 0 0 0 0 0 0 0 
0 0 0 0 0 0 0 0 0 
0 0 0 0 0 0 0 0 0 
0 0 0 0 0 0 0 0 0 
0 0 0 0 0 0 0 0 0 
0 0 0 0 0 0 0 0 0 
0 0 0 0 0 0 0 0 0 
0 0 0 0 0 0 0 0 0 
0 0 0 0 0 0 0 0 0 
0 0 0 0 0 0 0 0 0 
0 0 0 0 0 0 0 0 0 
0 0 0 0 0 0 0 0 0 
0 0 0 0 0 0 0 0 0 
0 0 0 0 0 0 0 0 0 
0 0 0 0 0 0 0 0 0 
0 0 0 0 0 0 0 0 0 
0 0 0 0 0 0 0 0 0 
0 0 0 0 0 0 0 0 0 
0 0 0 0 0 0 0 0 0 
0 0 0 0 0 0 0 0 0 
0 0 0 0 0 0 0 0 0 
0 0 0 0 0 0 0 0 0 
0 0 0 0 0 0 0 0 0 
0 0 0 0 0 0 0 0 0 
0 0 0 0 0 0 0 0 0 
0 0 0 0 0 0 0 0 0 
0 0 0 0 0 0 0 0 0 
0 0 0 0 0 0 0 0 0 
0 0 0 0 0 0 0 0 0 
0 0 0 0 0 0 0 0 0 
0 0 0 0 0 0 0 0 0 
0 0 0 0 0 0 0 0 0 
0 0 0 0 0 0 0 0 0 
0 0 0 0 0 0 0 0 0 
0 0 0 0 0 0 0 0 0 
0 0 0 0 0 0 0 0 0 
0 0 0 0 0 0 0 0 0 
0 0 0 0 0 0 0 0 0 
0 0 0 0 0 0 0 0 0 
0 0 0 0 0 0 0 0 0 
0 0 0 0 0 0 0 0 0 
0 0 0 0 0 0 0 0 0 
0 0 0 0 0 0 0 0 0 
0 0 0 0 0 0 0 0 0 
0 0 0 0 0 0 0 0 0 
0 0 0 0 0 0 0 0 0 
0 0 0 0 0 0 0 0 0 
0 0 0 0 0 0 0 0 0 
0 0 0 0 0 0 0 0 0 
0 0 0 0 0 0 0 0 0 
0 0 0 0 0 0 0 0 0 
0 0 0 0 0 0 0 0 0 
0 0 0 0 0 0 0 0 0 
0 0 0 0 0 0 0 0 0 
0 0 0 0 0 0 0 0 0 
0 0 0 0 0 0 0 0 0 
0 0 0 0 0 0 0 0 0 
0 0 0 0 0 0 0 0 0 
0 0 0 0 0 0 0 0 0 
0 0 0 0 0 0 0 0 0 
0 0 0 0 0 0 0 0 0 
0 0 0 0 0 0 0 0 0 
0 0 0 0 0 0 0 0 0 
0 0 0 0 0 0 0 0 0 
0 0 0 0 0 0 0 0 0 
0 0 0 0 0 0 0 0 0 
0 0 0 0 0 0 0 0 0 
0 0 0 0 0 0 0 0 0 
0 0 0 0 0 0 0 0 0 
0 0 0 0 0 0 0 0 0 
0 0 0 0 0 0 0 0 0 
0 0 0 0 0 0 0 0 0 
0 0 0 0 0 0 0 0 0 
0 0 0 0 0 0 0 0 0 
0 0 0 0 0 0 0 0 0 
0 0 0 0 0 0 0 0 0 
0 0 0 0 0 0 0 0 0 
0 0 0 0 0 0 0 0 0 
0 0 0 0 0 0 0 0 0 
0 0 0 0 0 0 0 0 0 
0 0 0 0 0 0 0 0 0 
0 0 0 0 0 0 0 0 0 
0 0 0 0 0 0 0 0 0 
0 0 0 0 0 0 0 0 0 
0 0 0 0 0 0 0 0 0 
0 0 0 0 0 0 0 0 0 
0 0 0 0 0 0 0 0 0 
0 0 0 0 0 0 0 0 0 
0 0 0 0 0 0 0 0 0 
0 0 0 0 0 0 0 0 0 
0 0 0 0 0 0 0 0 0 
0 0 0 0 0 0 0 0 0 
0 0 0 0 0 0 0 0 0 
0 0 0 0 0 0 0 0 0 
0 0 0 0 0 0 0 0 0 
0 0 0 0 0 0 0 0 0 
0 0 0 0 0 0 0 0 0 
0 0 0 0 0 0 0 0 0 
0 0 0 0 0 0 0 0 0 
0 0 0 0 0 0 0 0 0 
0 0 0 0 0 0 0 0 0 
0 0 0 0 0 0 0 0 0 
0 0 0 0 0 0 0 0 0 
0 0 0 0 0 0 0 0 0 
0 0 0 0 0 0 0 0 0 
0 0 0 0 0 0 0 0 0 
0 0 0 0 0 0 0 0 0 
0 0 0 0 0 0 0 0 0 
0 0 0 0 0 0 0 0 0 
0 0 0 0 0 0 0 0 0 
0 0 0 0 0 0 0 0 0 
0 0 0 0 0 0 0 0 0 
0 0 0 0 0 0 0 0 0 
0 0 0 0 0 0 0 0 0 
0 0 0 0 0 0 0 0 0 
0 0 0 0 0 0 0 0 0 
0 0 0 0 0 0 0 0 0 
0 0 0 0 0 0 0 0 0 
0 0 0 0 0 0 0 0 0 
0 0 0 0 0 0 0 0 0 
0 0 0 0 0 0 0 0 0 
0 0 0 0 0 0 0 0 0 
0 0 0 0 0 0 0 0 0 
0 0 0 0 0 0 0 0 0 
0 0 0 0 0 0 0 0 0 
0 0 0 0 0 0 0 0 0 
0 0 0 0 0 0 0 0 0 
0 0 0 0 0 0 0 0 0 
0 0 0 0 0 0 0 0 0 
0 0 0 0 0 0 0 0 0 
0 0 0 0 0 0 0 0 0 
0 0 0 0 0 0 0 0 0 
0 0 0 0 0 0 0 0 0 
0 0 0 0 0 0 0 0 0 
0 0 0 0 0 0 0 0 0 
0 0 0 0 0 0 0 0 0 
0 0 0 0 0 0 0 0 0 
0 0 0 0 0 0 0 0 0 
0 0 0 0 0 0 0 0 0 
0 0 0 0 0 0 0 0 0 
0 0 0 0 0 0 0 0 0 
0 0 0 0 0 0 0 0 0 
0 0 0 0 0 0 0 0 0 
0 0 0 0 0 0 0 0 0 
0 0 0 0 0 0 0 0 0 
0 0 0 0 0 0 0 0 0 
0 0 0 0 0 0 0 0 0 
0 0 0 0 0 0 0 0 0 
0 0 0 0 0 0 0 0 0 
0 0 0 0 0 0 0 0 0 
0 0 0 0 0 0 0 0 0 
0 0 0 0 0 0 0 0 0 
0 0 0 0 0 0 0 0 0 
0 0 0 0 0 0 0 0 0 
0 0 0 0 0 0 0 0 0 
0 0 0 0 0 0 0 0 0 
0 0 0 0 0 0 0 0 0 
0 0 0 0 0 0 0 0 0 
0 0 0 0 0 0 0 0 0 
0 0 0 0 0 0 0 0 0 
0 0 0 0 0 0 0 0 0 
0 0 0 0 0 0 0 0 0 
0 0 0 0 0 0 0 0 0 
0 0 0 0 0 0 0 0 0 
0 0 0 0 0 0 0 0 0 
0 0 0 0 0 0 0 0 0 
0 0 0 0 0 0 0 0 0 
0 0 0 0 0 0 0 0 0 
0 0 0 0 0 0 0 0 0 
0 0 0 0 0 0 0 0 0 
0 0 0 0 0 0 0 0 0 
0 0 0 0 0 0 0 0 0 
0 0 0 0 0 0 0 0 0 
0 0 0 0 0 0 0 0 0 
0 0 0 0 0 0 0 0 0 
0 0 0 0 0 0 0 0 0 
0 0 0 0 0 0 0 0 0 
0 0 0 0 0 0 0 0 0 
0 0 0 0 0 0 0 0 0 
0 0 0 0 0 0 0 0 0 
0 0 0 0 0 0 0 0 0 
0 0 0 0 0 0 0 0 0 
0 0 0 0 0 0 0 0 0 
0 0 0 0 0 0 0 0 0 
0 0 0 0 0 0 0 0 0 
0 0 0 0 0 0 0 0 0 
0 0 0 0 0 0 0 0 0 
0 0 0 0 0 0 0 0 0 
0 0 0 0 0 0 0 0 0 
0 0 0 0 0 0 0 0 0 
0 0 0 0 0 0 0 0 0 
0 0 0 0 0 0 0 0 0 
0 0 0 0 0 0 0 0 0 
0 0 0 0 0 0 0 0 0 
0 0 0 0 0 0 0 0 0 
0 0 0 0 0 0 0 0 0 
0 0 0 0 0 0 0 0 0 
0 0 0 0 0 0 0 0 0 
0 0 0 0 0 0 0 0 0 
0 0 0 0 0 0 0 0 0 
0 0 0 0 0 0 0 0 0 
0 0 0 0 0 0 0 0 0 
0 0 0 0 0 0 0 0 0 
0 0 0 0 0 0 0 0 0 
0 0 0 0 0 0 0 0 0 
0 0 0 0 0 0 0 0 0 
0 0 0 0 0 0 0 0 0 
0 0 0 0 0 0 0 0 0 
0 0 0 0 0 0 0 0 0 
0 0 0 0 0 0 0 0 0 
0 0 0 0 0 0 0 0 0 
0 0 0 0 0 0 0 0 0 
0 0 0 0 0 0 0 0 0 
0 0 0 0 0 0 0 0 0 
0 0 0 0 0 0 0 0 0 
0 0 0 0 0 0 0 0 0 
0 0 0 0 0 0 0 0 0 
0 0 0 0 0 0 0 0 0 
0 0 0 0 0 0 0 0 0 
0 0 0 0 0 0 0 0 0 
0 0 0 0 0 0 0 0 0 
0 0 0 0 0 0 0 0 0 
0 0 0 0 0 0 0 0 0 
0 0 0 0 0 0 0 0 0 
0 0 0 0 0 0 0 0 0 
0 0 0 0 0 0 0 0 0 
0 0 0 0 0 0 0 0 0 
0 0 0 0 0 0 0 0 0 
0 0 0 0 0 0 0 0 0 
0 0 0 0 0 0 0 0 0 
0 0 0 0 0 0 0 0 0 
0 0 0 0 0 0 0 0 0 
0 0 0 0 0 0 0 0 0 
0 0 0 0 0 0 0 0 0 
0 0 0 0 0 0 0 0 0 
0 0 0 0 0 0 0 0 0 
0 0 0 0 0 0 0 0 0 
0 0 0 0 0 0 0 0 0 
0 0 0 0 0 0 0 0 0 
0 0 0 0 0 0 0 0 0 
0 0 0 0 0 0 0 0 0 
0 0 0 0 0 0 0 0 0 
0 0 0 0 0 0 0 0 0 
0 0 0 0 0 0 0 0 0 
0 0 0 0 0 0 0 0 0 
0 0 0 0 0 0 0 0 0 
0 0 0 0 0 0 0 0 0 
0 0 0 0 0 0 0 0 0 
0 0 0 0 0 0 0 0 0 
0 0 0 0 0 0 0 0 0 
0 0 0 0 0 0 0 0 0 
0 0 0 0 0 0 0 0 0 
0 0 0 0 0 0 0 0 0 
0 0 0 0 0 0 0 0 0 
0 0 0 0 0 0 0 0 0 
0 0 0 0 0 0 0 0 0 
0 0 0 0 0 0 0 0 0 
0 0 0 0 0 0 0 0 0 
0 0 0 0 0 0 0 0 0 
0 0 0 0 0 0 0 0 0 
0 0 0 0 0 0 0 0 0 
0 0 0 0 0 0 0 0 0 
0 0 0 0 0 0 0 0 0 
0 0 0 0 0 0 0 0 0 
0 0 0 0 0 0 0 0 0 
0 0 0 0 0 0 0 0 0 
0 0 0 0 0 0 0 0 0 
0 0 0 0 0 0 0 0 0 
0 0 0 0 0 0 0 0 0 
0 0 0 0 0 0 0 0 0 
0 0 0 0 0 0 0 0 0 
0 0 0 0 0 0 0 0 0 
0 0 0 0 0 0 0 0 0 
0 0 0 0 0 0 0 0 0 
0 0 0 0 0 0 0 0 0 
0 0 0 0 0 0 0 0 0 
0 0 0 0 0 0 0 0 0 
0 0 0 0 0 0 0 0 0 
0 0 0 0 0 0 0 0 0 
0 0 0 0 0 0 0 0 0 
0 0 0 0 0 0 0 0 0 
0 0 0 0 0 0 0 0 0 
0 0 0 0 0 0 0 0 0 
0 0 0 0 0 0 0 0 0 
0 0 0 0 0 0 0 0 0 
0 0 0 0 0 0 0 0 0 
0 0 0 0 0 0 0 0 0 
0 0 0 0 0 0 0 0 0 
0 0 0 0 0 0 0 0 0 
0 0 0 0 0 0 0 0 0 
0 0 0 0 0 0 0 0 0 
0 0 0 0 0 0 0 0 0 
0 0 0 0 0 0 0 0 0 
0 0 0 0 0 0 0 0 0 
0 0 0 0 0 0 0 0 0 
0 0 0 0 0 0 0 0 0 
0 0 0 0 0 0 0 0 0 
0 0 0 0 0 0 0 0 0 
0 0 0 0 0 0 0 0 0 
0 0 0 0 0 0 0 0 0 
0 0 0 0 0 0 0 0 0 
0 0 0 0 0 0 0 0 0 
0 0 0 0 0 0 0 0 0 
0 0 0 0 0 0 0 0 0 
0 0 0 0 0 0 0 0 0 
0 0 0 0 0 0 0 0 0 
0 0 0 0 0 0 0 0 0 
0 0 0 0 0 0 0 0 0 
0 0 0 0 0 0 0 0 0 
0 0 0 0 0 0 0 0 0 
0 0 0 0 0 0 0 0 0 
0 0 0 0 0 0 0 0 0 
0 0 0 0 0 0 0 0 0 
0 0 0 0 0 0 0 0 0 
0 0 0 0 0 0 0 0 0 
0 0 0 0 0 0 0 0 0 
0 0 0 0 0 0 0 0 0 
0 0 0 0 0 0 0 0 0 
0 0 0 0 0 0 0 0 0 
0 0 0 0 0 0 0 0 0 
0 0 0 0 0 0 0 0 0 
0 0 0 0 0 0 0 0 0 
0 0 0 0 0 0 0 0 0 
0 0 0 0 0 0 0 0 0 
0 0 0 0 0 0 0 0 0 
0 0 0 0 0 0 0 0 0 
0 0 0 0 0 0 0 0 0 
0 0 0 0 0 0 0 0 0 
0 0 0 0 0 0 0 0 0 
0 0 0 0 0 0 0 0 0 
0 0 0 0 0 0 0 0 0 
0 0 0 0 0 0 0 0 0 
0 0 0 0 0 0 0 0 0 
0 0 0 0 0 0 0 0 0 
0 0 0 0 0 0 0 0 0 
0 0 0 0 0 0 0 0 0 
0 0 0 0 0 0 0 0 0 
0 0 0 0 0 0 0 0 0 
0 0 0 0 0 0 0 0 0 
0 0 0 0 0 0 0 0 0 
0 0 0 0 0 0 0 0 0 
0 0 0 0 0 0 0 0 0 
0 0 0 0 0 0 0 0 0 
0 0 0 0 0 0 0 0 0 
0 0 0 0 0 0 0 0 0 
0 0 0 0 0 0 0 0 0 
0 0 0 0 0 0 0 0 0 
0 0 0 0 0 0 0 0 0 
0 0 0 0 0 0 0 0 0 
0 0 0 0 0 0 0 0 0 
0 0 0 0 0 0 0 0 0 
0 0 0 0 0 0 0 0 0 
0 0 0 0 0 0 0 0 0 
0 0 0 0 0 0 0 0 0 
0 0 0 0 0 0 0 0 0 
0 0 0 0 0 0 0 0 0 
0 0 0 0 0 0 0 0 0 
0 0 0 0 0 0 0 0 0 
0 0 0 0 0 0 0 0 0 
0 0 0 0 0 0 0 0 0 
0 0 0 0 0 0 0 0 0 
0 0 0 0 0 0 0 0 0 
0 0 0 0 0 0 0 0 0 
0 0 0 0 0 0 0 0 0 
0 0 0 0 0 0 0 0 0 
0 0 0 0 0 0 0 0 0 
0 0 0 0 0 0 0 0 0 
0 0 0 0 0 0 0 0 0 
0 0 0 0 0 0 0 0 0 
0 0 0 0 0 0 0 0 0 
0 0 0 0 0 0 0 0 0 
0 0 0 0 0 0 0 0 0 
0 0 0 0 0 0 0 0 0 
0 0 0 0 0 0 0 0 0 
0 0 0 0 0 0 0 0 0 
0 0 0 0 0 0 0 0 0 
0 0 0 0 0 0 0 0 0 
0 0 0 0 0 0 0 0 0 
0 0 0 0 0 0 0 0 0 
0 0 0 0 0 0 0 0 0 
0 0 0 0 0 0 0 0 0 
0 0 0 0 0 0 0 0 0 
0 0 0 0 0 0 0 0 0 
0 0 0 0 0 0 0 0 0 
0 0 0 0 0 0 0 0 0 
0 0 0 0 0 0 0 0 0 
0 0 0 0 0 0 0 0 0 
0 0 0 0 0 0 0 0 0 
0 0 0 0 0 0 0 0 0 
0 0 0 0 0 0 0 0 0 
0 0 0 0 0 0 0 0 0 
0 0 0 0 0 0 0 0 0 
0 0 0 0 0 0 0 0 0 
0 0 0 0 0 0 0 0 0 
0 0 0 0 0 0 0 0 0 
0 0 0 0 0 0 0 0 0 
0 0 0 0 0 0 0 0 0 
0 0 0 0 0 0 0 0 0 
0 0 0 0 0 0 0 0 0 
0 0 0 0 0 0 0 0 0 
0 0 0 0 0 0 0 0 0 
0 0 0 0 0 0 0 0 0 
0 0 0 0 0 0 0 0 0 
0 0 0 0 0 0 0 0 0 
0 0 0 0 0 0 0 0 0 
0 0 0 0 0 0 0 0 0 
0 0 0 0 0 0 0 0 0 
0 0 0 0 0 0 0 0 0 
0 0 0 0 0 0 0 0 0 
0 0 0 0 0 0 0 0 0 
0 0 0 0 0 0 0 0 0 
0 0 0 0 0 0 0 0 0 
0 0 0 0 0 0 0 0 0 
0 0 0 0 0 0 0 0 0 
0 0 0 0 0 0 0 0 0 
0 0 0 0 0 0 0 0 0 
0 0 0 0 0 0 0 0 0 
0 0 0 0 0 0 0 0 0 
0 0 0 0 0 0 0 0 0 
0 0 0 0 0 0 0 0 0 
0 0 0 0 0 0 0 0 0 
0 0 0 0 0 0 0 0 0 
0 0 0 0 0 0 0 0 0 
0 0 0 0 0 0 0 0 0 
0 0 0 0 0 0 0 0 0 
0 0 0 0 0 0 0 0 0 
0 0 0 0 0 0 0 0 0 
0 0 0 0 0 0 0 0 0 
0 0 0 0 0 0 0 0 0 
0 0 0 0 0 0 0 0 0 
0 0 0 0 0 0 0 0 0 
0 0 0 0 0 0 0 0 0 
0 0 0 0 0 0 0 0 0 
0 0 0 0 0 0 0 0 0 
0 0 0 0 0 0 0 0 0 
0 0 0 0 0 0 0 0 0 
0 0 0 0 0 0 0 0 0 
0 0 0 0 0 0 0 0 0 
0 0 0 0 0 0 0 0 0 
0 0 0 0 0 0 0 0 0 
0 0 0 0 0 0 0 0 0 
0 0 0 0 0 0 0 0 0 
0 0 0 0 0 0 0 0 0 
0 0 0 0 0 0 0 0 0 
0 0 0 0 0 0 0 0 0 
0 0 0 0 0 0 0 0 0 
0 0 0 0 0 0 0 0 0 
0 0 0 0 0 0 0 0 0 
0 0 0 0 0 0 0 0 0 
0 0 0 0 0 0 0 0 0 
0 0 0 0 0 0 0 0 0 
0 0 0 0 0 0 0 0 0 
0 0 0 0 0 0 0 0 0 
0 0 0 0 0 0 0 0 0 
0 0 0 0 0 0 0 0 0 
0 0 0 0 0 0 0 0 0 
0 0 0 0 0 0 0 0 0 
0 0 0 0 0 0 0 0 0 
0 0 0 0 0 0 0 0 0 
0 0 0 0 0 0 0 0 0 
0 0 0 0 0 0 0 0 0 
0 0 0 0 0 0 0 0 0 
0 0 0 0 0 0 0 0 0 
0 0 0 0 0 0 0 0 0 
0 0 0 0 0 0 0 0 0 
0 0 0 0 0 0 0 0 0 
0 0 0 0 0 0 0 0 0 
0 0 0 0 0 0 0 0 0 
0 0 0 0 0 0 0 0 0 
0 0 0 0 0 0 0 0 0 
0 0 0 0 0 0 0 0 0 
0 0 0 0 0 0 0 0 0 
0 0 0 0 0 0 0 0 0 
0 0 0 0 0 0 0 0 0 
0 0 0 0 0 0 0 0 0 
0 0 0 0 0 0 0 0 0 
0 0 0 0 0 0 0 0 0 
0 0 0 0 0 0 0 0 0 
0 0 0 0 0 0 0 0 0 
0 0 0 0 0 0 0 0 0 
0 0 0 0 0 0 0 0 0 
0 0 0 0 0 0 0 0 0 
0 0 0 0 0 0 0 0 0 
0 0 0 0 0 0 0 0 0 
0 0 0 0 0 0 0 0 0 
0 0 0 0 0 0 0 0 0 
0 0 0 0 0 0 0 0 0 
0 0 0 0 0 0 0 0 0 
0 0 0 0 0 0 0 0 0 
0 0 0 0 0 0 0 0 0 
0 0 0 0 0 0 0 0 0 
0 0 0 0 0 0 0 0 0 
0 0 0 0 0 0 0 0 0 
0 0 0 0 0 0 0 0 0 
0 0 0 0 0 0 0 0 0 
0 0 0 0 0 0 0 0 0 
0 0 0 0 0 0 0 0 0 
0 0 0 0 0 0 0 0 0 
0 0 0 0 0 0 0 0 0 
0 0 0 0 0 0 0 0 0 
0 0 0 0 0 0 0 0 0 
0 0 0 0 0 0 0 0 0 
0 0 0 0 0 0 0 0 0 
0 0 0 0 0 0 0 0 0 
0 0 0 0 0 0 0 0 0 
0 0 0 0 0 0 0 0 0 
0 0 0 0 0 0 0 0 0 
0 0 0 0 0 0 0 0 0 
0 0 0 0 0 0 0 0 0 
0 0 0 0 0 0 0 0 0 
0 0 0 0 0 0 0 0 0 
0 0 0 0 0 0 0 0 0 
0 0 0 0 0 0 0 0 0 
0 0 0 0 0 0 0 0 0 
0 0 0 0 0 0 0 0 0 
0 0 0 0 0 0 0 0 0 
0 0 0 0 0 0 0 0 0 
0 0 0 0 0 0 0 0 0 
0 0 0 0 0 0 0 0 0 
0 0 0 0 0 0 0 0 0 
0 0 0 0 0 0 0 0 0 
0 0 0 0 0 0 0 0 0 
0 0 0 0 0 0 0 0 0 
0 0 0 0 0 0 0 0 0 
0 0 0 0 0 0 0 0 0 
0 0 0 0 0 0 0 0 0 
0 0 0 0 0 0 0 0 0 
0 0 0 0 0 0 0 0 0 
0 0 0 0 0 0 0 0 0 
0 0 0 0 0 0 0 0 0 
0 0 0 0 0 0 0 0 0 
0 0 0 0 0 0 0 0 0 
0 0 0 0 0 0 0 0 0 
0 0 0 0 0 0 0 0 0 
0 0 0 0 0 0 0 0 0 
0 0 0 0 0 0 0 0 0 
0 0 0 0 0 0 0 0 0 
0 0 0 0 0 0 0 0 0 
0 0 0 0 0 0 0 0 0 
0 0 0 0 0 0 0 0 0 
0 0 0 0 0 0 0 0 0 
0 0 0 0 0 0 0 0 0 
0 0 0 0 0 0 0 0 0 
0 0 0 0 0 0 0 0 0 
0 0 0 0 0 0 0 0 0 
0 0 0 0 0 0 0 0 0 
0 0 0 0 0 0 0 0 0 
0 0 0 0 0 0 0 0 0 
0 0 0 0 0 0 0 0 0 
0 0 0 0 0 0 0 0 0 
0 0 0 0 0 0 0 0 0 
0 0 0 0 0 0 0 0 0 
0 0 0 0 0 0 0 0 0 
0 0 0 0 0 0 0 0 0 
0 0 0 0 0 0 0 0 0 
0 0 0 0 0 0 0 0 0 
0 0 0 0 0 0 0 0 0 
0 0 0 0 0 0 0 0 0 
0 0 0 0 0 0 0 0 0 
0 0 0 0 0 0 0 0 0 
0 0 0 0 0 0 0 0 0 
0 0 0 0 0 0 0 0 0 
0 0 0 0 0 0 0 0 0 
0 0 0 0 0 0 0 0 0 
0 0 0 0 0 0 0 0 0 
0 0 0 0 0 0 0 0 0 
0 0 0 0 0 0 0 0 0 
0 0 0 0 0 0 0 0 0 
0 0 0 0 0 0 0 0 0 
0 0 0 0 0 0 0 0 0 
0 0 0 0 0 0 0 0 0 
0 0 0 0 0 0 0 0 0 
0 0 0 0 0 0 0 0 0 
0 0 0 0 0 0 0 0 0 
0 0 0 0 0 0 0 0 0 
0 0 0 0 0 0 0 0 0 
0 0 0 0 0 0 0 0 0 
0 0 0 0 0 0 0 0 0 
0 0 0 0 0 0 0 0 0 
0 0 0 0 0 0 0 0 0 
0 0 0 0 0 0 0 0 0 
0 0 0 0 0 0 0 0 0 
0 0 0 0 0 0 0 0 0 
0 0 0 0 0 0 0 0 0 
0 0 0 0 0 0 0 0 0 
0 0 0 0 0 0 0 0 0 
0 0 0 0 0 0 0 0 0 
0 0 0 0 0 0 0 0 0 
0 0 0 0 0 0 0 0 0 
0 0 0 0 0 0 0 0 0 
0 0 0 0 0 0 0 0 0 
0 0 0 0 0 0 0 0 0 
0 0 0 0 0 0 0 0 0 
0 0 0 0 0 0 0 0 0 
0 0 0 0 0 0 0 0 0 
0 0 0 0 0 0 0 0 0 
0 0 0 0 0 0 0 0 0 
0 0 0 0 0 0 0 0 0 
0 0 0 0 0 0 0 0 0 
0 0 0 0 0 0 0 0 0 
0 0 0 0 0 0 0 0 0 
0 0 0 0 0 0 0 0 0 
0 0 0 0 0 0 0 0 0 
0 0 0 0 0 0 0 0 0 
0 0 0 0 0 0 0 0 0 
0 0 0 0 0 0 0 0 0 
0 0 0 0 0 0 0 0 0 
0 0 0 0 0 0 0 0 0 
0 0 0 0 0 0 0 0 0 
0 0 0 0 0 0 0 0 0 
0 0 0 0 0 0 0 0 0 
0 0 0 0 0 0 0 0 0 
0 0 0 0 0 0 0 0 0 
0 0 0 0 0 0 0 0 0 
0 0 0 0 0 0 0 0 0 
0 0 0 0 0 0 0 0 0 
0 0 0 0 0 0 0 0 0 
0 0 0 0 0 0 0 0 0 
0 0 0 0 0 0 0 0 0 
0 0 0 0 0 0 0 0 0 
0 0 0 0 0 0 0 0 0 
0 0 0 0 0 0 0 0 0 
0 0 0 0 0 0 0 0 0 
0 0 0 0 0 0 0 0 0 
0 0 0 0 0 0 0 0 0 
0 0 0 0 0 0 0 0 0 
0 0 0 0 0 0 0 0 0 
0 0 0 0 0 0 0 0 0 
0 0 0 0 0 0 0 0 0 
0 0 0 0 0 0 0 0 0 
0 0 0 0 0 0 0 0 0 
0 0 0 0 0 0 0 0 0 
0 0 0 0 0 0 0 0 0 
0 0 0 0 0 0 0 0 0 
0 0 0 0 0 0 0 0 0 
0 0 0 0 0 0 0 0 0 
0 0 0 0 0 0 0 0 0 
0 0 0 0 0 0 0 0 0 
0 0 0 0 0 0 0 0 0 
0 0 0 0 0 0 0 0 0 
0 0 0 0 0 0 0 0 0 
0 0 0 0 0 0 0 0 0 
0 0 0 0 0 0 0 0 0 
0 0 0 0 0 0 0 0 0 
0 0 0 0 0 0 0 0 0 
0 0 0 0 0 0 0 0 0 
0 0 0 0 0 0 0 0 0 
0 0 0 0 0 0 0 0 0 
0 0 0 0 0 0 0 0 0 
0 0 0 0 0 0 0 0 0 
0 0 0 0 0 0 0 0 0 
0 0 0 0 0 0 0 0 0 
0 0 0 0 0 0 0 0 0 
0 0 0 0 0 0 0 0 0 
0 0 0 0 0 0 0 0 0 
0 0 0 0 0 0 0 0 0 
0 0 0 0 0 0 0 0 0 
0 0 0 0 0 0 0 0 0 
0 0 0 0 0 0 0 0 0 
0 0 0 0 0 0 0 0 0 
0 0 0 0 0 0 0 0 0 
0 0 0 0 0 0 0 0 0 
0 0 0 0 0 0 0 0 0 
0 0 0 0 0 0 0 0 0 
0 0 0 0 0 0 0 0 0 
0 0 0 0 0 0 0 0 0 
0 0 0 0 0 0 0 0 0 
0 0 0 0 0 0 0 0 0 
0 0 0 0 0 0 0 0 0 
0 0 0 0 0 0 0 0 0 
0 0 0 0 0 0 0 0 0 
0 0 0 0 0 0 0 0 0 
0 0 0 0 0 0 0 0 0 
0 0 0 0 0 0 0 0 0 
0 0 0 0 0 0 0 0 0 
0 0 0 0 0 0 0 0 0 
0 0 0 0 0 0 0 0 0 
0 0 0 0 0 0 0 0 0 
0 0 0 0 0 0 0 0 0 
0 0 0 0 0 0 0 0 0 
0 0 0 0 0 0 0 0 0 
0 0 0 0 0 0 0 0 0 
0 0 0 0 0 0 0 0 0 
0 0 0 0 0 0 0 0 0 
0 0 0 0 0 0 0 0 0 
0 0 0 0 0 0 0 0 0 
0 0 0 0 0 0 0 0 0 
0 0 0 0 0 0 0 0 0 
0 0 0 0 0 0 0 0 0 
0 0 0 0 0 0 0 0 0 
0 0 0 0 0 0 0 0 0 
0 0 0 0 0 0 0 0 0 
0 0 0 0 0 0 0 0 0 
0 0 0 0 0 0 0 0 0 
0 0 0 0 0 0 0 0 0 
0 0 0 0 0 0 0 0 0 
0 0 0 0 0 0 0 0 0 
0 0 0 0 0 0 0 0 0 
0 0 0 0 0 0 0 0 0 
0 0 0 0 0 0 0 0 0 
0 0 0 0 0 0 0 0 0 
0 0 0 0 0 0 0 0 0 
0 0 0 0 0 0 0 0 0 
0 0 0 0 0 0 0 0 0 
0 0 0 0 0 0 0 0 0 
0 0 0 0 0 0 0 0 0 
0 0 0 0 0 0 0 0 0 
0 0 0 0 0 0 0 0 0 
0 0 0 0 0 0 0 0 0 
0 0 0 0 0 0 0 0 0 
0 0 0 0 0 0 0 0 0 
0 0 0 0 0 0 0 0 0 
0 0 0 0 0 0 0 0 0 
0 0 0 0 0 0 0 0 0 
0 0 0 0 0 0 0 0 0 
0 0 0 0 0 0 0 0 0 
0 0 0 0 0 0 0 0 0 
0 0 0 0 0 0 0 0 0 
0 0 0 0 0 0 0 0 0 
0 0 0 0 0 0 0 0 0 
0 0 0 0 0 0 0 0 0 
0 0 0 0 0 0 0 0 0 
0 0 0 0 0 0 0 0 0 
0 0 0 0 0 0 0 0 0 
0 0 0 0 0 0 0 0 0 
0 0 0 0 0 0 0 0 0 
0 0 0 0 0 0 0 0 0 
0 0 0 0 0 0 0 0 0 
0 0 0 0 0 0 0 0 0 
0 0 0 0 0 0 0 0 0 
0 0 0 0 0 0 0 0 0 
0 0 0 0 0 0 0 0 0 
0 0 0 0 0 0 0 0 0 
0 0 0 0 0 0 0 0 0 
0 0 0 0 0 0 0 0 0 
0 0 0 0 0 0 0 0 0 
0 0 0 0 0 0 0 0 0 
0 0 0 0 0 0 0 0 0 
0 0 0 0 0 0 0 0 0 
0 0 0 0 0 0 0 0 0 
0 0 0 0 0 0 0 0 0 
0 0 0 0 0 0 0 0 0 
0 0 0 0 0 0 0 0 0 
0 0 0 0 0 0 0 0 0 
0 0 0 0 0 0 0 0 0 
0 0 0 0 0 0 0 0 0 
0 0 0 0 0 0 0 0 0 
0 0 0 0 0 0 0 0 0 
0 0 0 0 0 0 0 0 0 
0 0 0 0 0 0 0 0 0 
0 0 0 0 0 0 0 0 0 
0 0 0 0 0 0 0 0 0 
0 0 0 0 0 0 0 0 0 
0 0 0 0 0 0 0 0 0 
0 0 0 0 0 0 0 0 0 
0 0 0 0 0 0 0 0 0 
0 0 0 0 0 0 0 0 0 
0 0 0 0 0 0 0 0 0 
0 0 0 0 0 0 0 0 0 
0 0 0 0 0 0 0 0 0 
0 0 0 0 0 0 0 0 0 
0 0 0 0 0 0 0 0 0 
0 0 0 0 0 0 0 0 0 
0 0 0 0 0 0 0 0 0 
0 0 0 0 0 0 0 0 0 
0 0 0 0 0 0 0 0 0 
0 0 0 0 0 0 0 0 0 
0 0 0 0 0 0 0 0 0 
0 0 0 0 0 0 0 0 0 
0 0 0 0 0 0 0 0 0 
0 0 0 0 0 0 0 0 0 
0 0 0 0 0 0 0 0 0 
0 0 0 0 0 0 0 0 0 
0 0 0 0 0 0 0 0 0 
0 0 0 0 0 0 0 0 0 
0 0 0 0 0 0 0 0 0 
0 0 0 0 0 0 0 0 0 
0 0 0 0 0 0 0 0 0 
0 0 0 0 0 0 0 0 0 
0 0 0 0 0 0 0 0 0 
0 0 0 0 0 0 0 0 0 
0 0 0 0 0 0 0 0 0 
0 0 0 0 0 0 0 0 0 
0 0 0 0 0 0 0 0 0 
0 0 0 0 0 0 0 0 0 
0 0 0 0 0 0 0 0 0 
0 0 0 0 0 0 0 0 0 
0 0 0 0 0 0 0 0 0 
0 0 0 0 0 0 0 0 0 
0 0 0 0 0 0 0 0 0 
0 0 0 0 0 0 0 0 0 
0 0 0 0 0 0 0 0 0 
0 0 0 0 0 0 0 0 0 
0 0 0 0 0 0 0 0 0 
0 0 0 0 0 0 0 0 0 
0 0 0 0 0 0 0 0 0 
0 0 0 0 0 0 0 0 0 
0 0 0 0 0 0 0 0 0 
0 0 0 0 0 0 0 0 0 
0 0 0 0 0 0 0 0 0 
0 0 0 0 0 0 0 0 0 
0 0 0 0 0 0 0 0 0 
0 0 0 0 0 0 0 0 0 
0 0 0 0 0 0 0 0 0 
0 0 0 0 0 0 0 0 0 
0 0 0 0 0 0 0 0 0 
0 0 0 0 0 0 0 0 0 
0 0 0 0 0 0 0 0 0 
0 0 0 0 0 0 0 0 0 
0 0 0 0 0 0 0 0 0 
0 0 0 0 0 0 0 0 0 
0 0 0 0 0 0 0 0 0 
0 0 0 0 0 0 0 0 0 
0 0 0 0 0 0 0 0 0 
0 0 0 0 0 0 0 0 0 
0 0 0 0 0 0 0 0 0 
0 0 0 0 0 0 0 0 0 
0 0 0 0 0 0 0 0 0 
0 0 0 0 0 0 0 0 0 
0 0 0 0 0 0 0 0 0 
0 0 0 0 0 0 0 0 0 
0 0 0 0 0 0 0 0 0 
0 0 0 0 0 0 0 0 0 
0 0 0 0 0 0 0 0 0 
0 0 0 0 0 0 0 0 0 
0 0 0 0 0 0 0 0 0 
0 0 0 0 0 0 0 0 0 
0 0 0 0 0 0 0 0 0 
0 0 0 0 0 0 0 0 0 
0 0 0 0 0 0 0 0 0 
0 0 0 0 0 0 0 0 0 
0 0 0 0 0 0 0 0 0 
0 0 0 0 0 0 0 0 0 
0 0 0 0 0 0 0 0 0 
0 0 0 0 0 0 0 0 0 
0 0 0 0 0 0 0 0 0 
0 0 0 0 0 0 0 0 0 
0 0 0 0 0 0 0 0 0 
0 0 0 0 0 0 0 0 0 
0 0 0 0 0 0 0 0 0 
0 0 0 0 0 0 0 0 0 
0 0 0 0 0 0 0 0 0 
0 0 0 0 0 0 0 0 0 
0 0 0 0 0 0 0 0 0 
0 0 0 0 0 0 0 0 0 
0 0 0 0 0 0 0 0 0 
0 0 0 0 0 0 0 0 0 
0 0 0 0 0 0 0 0 0 
0 0 0 0 0 0 0 0 0 
0 0 0 0 0 0 0 0 0 
0 0 0 0 0 0 0 0 0 
0 0 0 0 0 0 0 0 0 
0 0 0 0 0 0 0 0 0 
0 0 0 0 0 0 0 0 0 
0 0 0 0 0 0 0 0 0 
0 0 0 0 0 0 0 0 0 
0 0 0 0 0 0 0 0 0 
0 0 0 0 0 0 0 0 0 
0 0 0 0 0 0 0 0 0 
0 0 0 0 0 0 0 0 0 
0 0 0 0 0 0 0 0 0 
0 0 0 0 0 0 0 0 0 
0 0 0 0 0 0 0 0 0 
0 0 0 0 0 0 0 0 0 
0 0 0 0 0 0 0 0 0 
0 0 0 0 0 0 0 0 0 
0 0 0 0 0 0 0 0 0 
0 0 0 0 0 0 0 0 0 
0 0 0 0 0 0 0 0 0 
0 0 0 0 0 0 0 0 0 
0 0 0 0 0 0 0 0 0 
0 0 0 0 0 0 0 0 0 
0 0 0 0 0 0 0 0 0 
0 0 0 0 0 0 0 0 0 
0 0 0 0 0 0 0 0 0 
0 0 0 0 0 0 0 0 0 
0 0 0 0 0 0 0 0 0 
0 0 0 0 0 0 0 0 0 
0 0 0 0 0 0 0 0 0 
0 0 0 0 0 0 0 0 0 
0 0 0 0 0 0 0 0 0 
0 0 0 0 0 0 0 0 0 
0 0 0 0 0 0 0 0 0 
0 0 0 0 0 0 0 0 0 
0 0 0 0 0 0 0 0 0 
0 0 0 0 0 0 0 0 0 
0 0 0 0 0 0 0 0 0 
0 0 0 0 0 0 0 0 0 
0 0 0 0 0 0 0 0 0 
0 0 0 0 0 0 0 0 0 
0 0 0 0 0 0 0 0 0 
0 0 0 0 0 0 0 0 0 
0 0 0 0 0 0 0 0 0 
0 0 0 0 0 0 0 0 0 
0 0 0 0 0 0 0 0 0 
0 0 0 0 0 0 0 0 0 
0 0 0 0 0 0 0 0 0 
0 0 0 0 0 0 0 0 0 
0 0 0 0 0 0 0 0 0 
0 0 0 0 0 0 0 0 0 
0 0 0 0 0 0 0 0 0 
0 0 0 0 0 0 0 0 0 
0 0 0 0 0 0 0 0 0 
0 0 0 0 0 0 0 0 0 
0 0 0 0 0 0 0 0 0 
0 0 0 0 0 0 0 0 0 
0 0 0 0 0 0 0 0 0 
0 0 0 0 0 0 0 0 0 
0 0 0 0 0 0 0 0 0 
0 0 0 0 0 0 0 0 0 
0 0 0 0 0 0 0 0 0 
0 0 0 0 0 0 0 0 0 
0 0 0 0 0 0 0 0 0 
0 0 0 0 0 0 0 0 0 
0 0 0 0 0 0 0 0 0 
0 0 0 0 0 0 0 0 0 
0 0 0 0 0 0 0 0 0 
0 0 0 0 0 0 0 0 0 
0 0 0 0 0 0 0 0 0 
0 0 0 0 0 0 0 0 0 
0 0 0 0 0 0 0 0 0 
0 0 0 0 0 0 0 0 0 
0 0 0 0 0 0 0 0 0 
0 0 0 0 0 0 0 0 0 
0 0 0 0 0 0 0 0 0 
0 0 0 0 0 0 0 0 0 
0 0 0 0 0 0 0 0 0 
0 0 0 0 0 0 0 0 0 
0 0 0 0 0 0 0 0 0 
0 0 0 0 0 0 0 0 0 
0 0 0 0 0 0 0 0 0 
0 0 0 0 0 0 0 0 0 
0 0 0 0 0 0 0 0 0 
0 0 0 0 0 0 0 0 0 
0 0 0 0 0 0 0 0 0 
0 0 0 0 0 0 0 0 0 
0 0 0 0 0 0 0 0 0 
0 0 0 0 0 0 0 0 0 
0 0 0 0 0 0 0 0 0 
0 0 0 0 0 0 0 0 0 
0 0 0 0 0 0 0 0 0 
0 0 0 0 0 0 0 0 0 
0 0 0 0 0 0 0 0 0 
0 0 0 0 0 0 0 0 0 
0 0 0 0 0 0 0 0 0 
0 0 0 0 0 0 0 0 0 
0 0 0 0 0 0 0 0 0 
0 0 0 0 0 0 0 0 0 
0 0 0 0 0 0 0 0 0 
0 0 0 0 0 0 0 0 0 
0 0 0 0 0 0 0 0 0 
0 0 0 0 0 0 0 0 0 
0 0 0 0 0 0 0 0 0 
0 0 0 0 0 0 0 0 0 
0 0 0 0 0 0 0 0 0 
0 0 0 0 0 0 0 0 0 
0 0 0 0 0 0 0 0 0 
0 0 0 0 0 0 0 0 0 
0 0 0 0 0 0 0 0 0 
0 0 0 0 0 0 0 0 0 
0 0 0 0 0 0 0 0 0 
0 0 0 0 0 0 0 0 0 
0 0 0 0 0 0 0 0 0 
0 0 0 0 0 0 0 0 0 
0 0 0 0 0 0 0 0 0 
0 0 0 0 0 0 0 0 0 
0 0 0 0 0 0 0 0 0 
0 0 0 0 0 0 0 0 0 
0 0 0 0 0 0 0 0 0 
0 0 0 0 0 0 0 0 0 
0 0 0 0 0 0 0 0 0 
0 0 0 0 0 0 0 0 0 
0 0 0 0 0 0 0 0 0 
0 0 0 0 0 0 0 0 0 
0 0 0 0 0 0 0 0 0 
0 0 0 0 0 0 0 0 0 
0 0 0 0 0 0 0 0 0 
0 0 0 0 0 0 0 0 0 
0 0 0 0 0 0 0 0 0 
0 0 0 0 0 0 0 0 0 
0 0 0 0 0 0 0 0 0 
0 0 0 0 0 0 0 0 0 
0 0 0 0 0 0 0 0 0 
0 0 0 0 0 0 0 0 0 
0 0 0 0 0 0 0 0 0 
0 0 0 0 0 0 0 0 0 
0 0 0 0 0 0 0 0 0 
0 0 0 0 0 0 0 0 0 
0 0 0 0 0 0 0 0 0 
0 0 0 0 0 0 0 0 0 
0 0 0 0 0 0 0 0 0 
0 0 0 0 0 0 0 0 0 
0 0 0 0 0 0 0 0 0 
0 0 0 0 0 0 0 0 0 
0 0 0 0 0 0 0 0 0 
0 0 0 0 0 0 0 0 0 
0 0 0 0 0 0 0 0 0 
0 0 0 0 0 0 0 0 0 
0 0 0 0 0 0 0 0 0 
0 0 0 0 0 0 0 0 0 
0 0 0 0 0 0 0 0 0 
0 0 0 0 0 0 0 0 0 
0 0 0 0 0 0 0 0 0 
0 0 0 0 0 0 0 0 0 
0 0 0 0 0 0 0 0 0 
0 0 0 0 0 0 0 0 0 
0 0 0 0 0 0 0 0 0 
0 0 0 0 0 0 0 0 0 
0 0 0 0 0 0 0 0 0 
0 0 0 0 0 0 0 0 0 
0 0 0 0 0 0 0 0 0 
0 0 0 0 0 0 0 0 0 
0 0 0 0 0 0 0 0 0 
0 0 0 0 0 0 0 0 0 
0 0 0 0 0 0 0 0 0 
0 0 0 0 0 0 0 0 0 
0 0 0 0 0 0 0 0 0 
0 0 0 0 0 0 0 0 0 
0 0 0 0 0 0 0 0 0 
0 0 0 0 0 0 0 0 0 
0 0 0 0 0 0 0 0 0 
0 0 0 0 0 0 0 0 0 
0 0 0 0 0 0 0 0 0 
0 0 0 0 0 0 0 0 0 
0 0 0 0 0 0 0 0 0 
0 0 0 0 0 0 0 0 0 
0 0 0 0 0 0 0 0 0 
0 0 0 0 0 0 0 0 0 
0 0 0 0 0 0 0 0 0 
0 0 0 0 0 0 0 0 0 
0 0 0 0 0 0 0 0 0 
0 0 0 0 0 0 0 0 0 
0 0 0 0 0 0 0 0 0 
0 0 0 0 0 0 0 0 0 
0 0 0 0 0 0 0 0 0 
0 0 0 0 0 0 0 0 0 
0 0 0 0 0 0 0 0 0 
0 0 0 0 0 0 0 0 0 
0 0 0 0 0 0 0 0 0 
0 0 0 0 0 0 0 0 0 
0 0 0 0 0 0 0 0 0 
0 0 0 0 0 0 0 0 0 
0 0 0 0 0 0 0 0 0 
0 0 0 0 0 0 0 0 0 
0 0 0 0 0 0 0 0 0 
0 0 0 0 0 0 0 0 0 
0 0 0 0 0 0 0 0 0 
0 0 0 0 0 0 0 0 0 
0 0 0 0 0 0 0 0 0 
0 0 0 0 0 0 0 0 0 
0 0 0 0 0 0 0 0 0 
0 0 0 0 0 0 0 0 0 
0 0 0 0 0 0 0 0 0 
0 0 0 0 0 0 0 0 0 
0 0 0 0 0 0 0 0 0 
0 0 0 0 0 0 0 0 0 
0 0 0 0 0 0 0 0 0 
0 0 0 0 0 0 0 0 0 
0 0 0 0 0 0 0 0 0 
0 0 0 0 0 0 0 0 0 
0 0 0 0 0 0 0 0 0 
0 0 0 0 0 0 0 0 0 
0 0 0 0 0 0 0 0 0 
0 0 0 0 0 0 0 0 0 
0 0 0 0 0 0 0 0 0 
0 0 0 0 0 0 0 0 0 
0 0 0 0 0 0 0 0 0 
0 0 0 0 0 0 0 0 0 
0 0 0 0 0 0 0 0 0 
0 0 0 0 0 0 0 0 0 
0 0 0 0 0 0 0 0 0 
0 0 0 0 0 0 0 0 0 
0 0 0 0 0 0 0 0 0 
0 0 0 0 0 0 0 0 0 
0 0 0 0 0 0 0 0 0 
0 0 0 0 0 0 0 0 0 
0 0 0 0 0 0 0 0 0 
0 0 0 0 0 0 0 0 0 
0 0 0 0 0 0 0 0 0 
0 0 0 0 0 0 0 0 0 
0 0 0 0 0 0 0 0 0 
0 0 0 0 0 0 0 0 0 
0 0 0 0 0 0 0 0 0 
0 0 0 0 0 0 0 0 0 
0 0 0 0 0 0 0 0 0 
0 0 0 0 0 0 0 0 0 
0 0 0 0 0 0 0 0 0 
0 0 0 0 0 0 0 0 0 
0 0 0 0 0 0 0 0 0 
0 0 0 0 0 0 0 0 0 
0 0 0 0 0 0 0 0 0 
0 0 0 0 0 0 0 0 0 
0 0 0 0 0 0 0 0 0 
0 0 0 0 0 0 0 0 0 
0 0 0 0 0 0 0 0 0 
0 0 0 0 0 0 0 0 0 
0 0 0 0 0 0 0 0 0 
0 0 0 0 0 0 0 0 0 
0 0 0 0 0 0 0 0 0 
0 0 0 0 0 0 0 0 0 
0 0 0 0 0 0 0 0 0 
0 0 0 0 0 0 0 0 0 
0 0 0 0 0 0 0 0 0 
0 0 0 0 0 0 0 0 0 
0 0 0 0 0 0 0 0 0 
0 0 0 0 0 0 0 0 0 
0 0 0 0 0 0 0 0 0 
0 0 0 0 0 0 0 0 0 
0 0 0 0 0 0 0 0 0 
0 0 0 0 0 0 0 0 0 
0 0 0 0 0 0 0 0 0 
0 0 0 0 0 0 0 0 0 
0 0 0 0 0 0 0 0 0 
0 0 0 0 0 0 0 0 0 
0 0 0 0 0 0 0 0 0 
0 0 0 0 0 0 0 0 0 
0 0 0 0 0 0 0 0 0 
0 0 0 0 0 0 0 0 0 
0 0 0 0 0 0 0 0 0 
0 0 0 0 0 0 0 0 0 
0 0 0 0 0 0 0 0 0 
0 0 0 0 0 0 0 0 0 
0 0 0 0 0 0 0 0 0 
0 0 0 0 0 0 0 0 0 
0 0 0 0 0 0 0 0 0 
0 0 0 0 0 0 0 0 0 
0 0 0 0 0 0 0 0 0 
0 0 0 0 0 0 0 0 0 
0 0 0 0 0 0 0 0 0 
0 0 0 0 0 0 0 0 0 
0 0 0 0 0 0 0 0 0 
0 0 0 0 0 0 0 0 0 
0 0 0 0 0 0 0 0 0 
0 0 0 0 0 0 0 0 0 
0 0 0 0 0 0 0 0 0 
0 0 0 0 0 0 0 0 0 
0 0 0 0 0 0 0 0 0 
0 0 0 0 0 0 0 0 0 
0 0 0 0 0 0 0 0 0 
0 0 0 0 0 0 0 0 0 
0 0 0 0 0 0 0 0 0 
0 0 0 0 0 0 0 0 0 
0 0 0 0 0 0 0 0 0 
0 0 0 0 0 0 0 0 0 
0 0 0 0 0 0 0 0 0 
0 0 0 0 0 0 0 0 0 
0 0 0 0 0 0 0 0 0 
0 0 0 0 0 0 0 0 0 
0 0 0 0 0 0 0 0 0 
0 0 0 0 0 0 0 0 0 
0 0 0 0 0 0 0 0 0 
0 0 0 0 0 0 0 0 0 
0 0 0 0 0 0 0 0 0 
0 0 0 0 0 0 0 0 0 
0 0 0 0 0 0 0 0 0 
0 0 0 0 0 0 0 0 0 
0 0 0 0 0 0 0 0 0 
0 0 0 0 0 0 0 0 0 
0 0 0 0 0 0 0 0 0 
0 0 0 0 0 0 0 0 0 
0 0 0 0 0 0 0 0 0 
0 0 0 0 0 0 0 0 0 
0 0 0 0 0 0 0 0 0 
0 0 0 0 0 0 0 0 0 
0 0 0 0 0 0 0 0 0 
0 0 0 0 0 0 0 0 0 
0 0 0 0 0 0 0 0 0 
0 0 0 0 0 0 0 0 0 
0 0 0 0 0 0 0 0 0 
0 0 0 0 0 0 0 0 0 
0 0 0 0 0 0 0 0 0 
0 0 0 0 0 0 0 0 0 
0 0 0 0 0 0 0 0 0 
0 0 0 0 0 0 0 0 0 
0 0 0 0 0 0 0 0 0 
0 0 0 0 0 0 0 0 0 
0 0 0 0 0 0 0 0 0 
0 0 0 0 0 0 0 0 0 
0 0 0 0 0 0 0 0 0 
0 0 0 0 0 0 0 0 0 
0 0 0 0 0 0 0 0 0 
0 0 0 0 0 0 0 0 0 
0 0 0 0 0 0 0 0 0 
0 0 0 0 0 0 0 0 0 
0 0 0 0 0 0 0 0 0 
0 0 0 0 0 0 0 0 0 
0 0 0 0 0 0 0 0 0 
0 0 0 0 0 0 0 0 0 
0 0 0 0 0 0 0 0 0 
0 0 0 0 0 0 0 0 0 
0 0 0 0 0 0 0 0 0 
0 0 0 0 0 0 0 0 0 
0 0 0 0 0 0 0 0 0 
0 0 0 0 0 0 0 0 0 
0 0 0 0 0 0 0 0 0 
0 0 0 0 0 0 0 0 0 
0 0 0 0 0 0 0 0 0 
0 0 0 0 0 0 0 0 0 
0 0 0 0 0 0 0 0 0 
0 0 0 0 0 0 0 0 0 
0 0 0 0 0 0 0 0 0 
0 0 0 0 0 0 0 0 0 
0 0 0 0 0 0 0 0 0 
0 0 0 0 0 0 0 0 0 
0 0 0 0 0 0 0 0 0 
0 0 0 0 0 0 0 0 0 
0 0 0 0 0 0 0 0 0 
0 0 0 0 0 0 0 0 0 
0 0 0 0 0 0 0 0 0 
0 0 0 0 0 0 0 0 0 
0 0 0 0 0 0 0 0 0 
0 0 0 0 0 0 0 0 0 
0 0 0 0 0 0 0 0 0 
0 0 0 0 0 0 0 0 0 
0 0 0 0 0 0 0 0 0 
0 0 0 0 0 0 0 0 0 
0 0 0 0 0 0 0 0 0 
0 0 0 0 0 0 0 0 0 
0 0 0 0 0 0 0 0 0 
0 0 0 0 0 0 0 0 0 
0 0 0 0 0 0 0 0 0 
0 0 0 0 0 0 0 0 0 
0 0 0 0 0 0 0 0 0 
0 0 0 0 0 0 0 0 0 
0 0 0 0 0 0 0 0 0 
0 0 0 0 0 0 0 0 0 
0 0 0 0 0 0 0 0 0 
0 0 0 0 0 0 0 0 0 
0 0 0 0 0 0 0 0 0 
0 0 0 0 0 0 0 0 0 
0 0 0 0 0 0 0 0 0 
0 0 0 0 0 0 0 0 0 
0 0 0 0 0 0 0 0 0 
0 0 0 0 0 0 0 0 0 
0 0 0 0 0 0 0 0 0 
0 0 0 0 0 0 0 0 0 
0 0 0 0 0 0 0 0 0 
0 0 0 0 0 0 0 0 0 
0 0 0 0 0 0 0 0 0 
0 0 0 0 0 0 0 0 0 
0 0 0 0 0 0 0 0 0 
0 0 0 0 0 0 0 0 0 
0 0 0 0 0 0 0 0 0 
0 0 0 0 0 0 0 0 0 
0 0 0 0 0 0 0 0 0 
0 0 0 0 0 0 0 0 0 
0 0 0 0 0 0 0 0 0 
0 0 0 0 0 0 0 0 0 
0 0 0 0 0 0 0 0 0 
0 0 0 0 0 0 0 0 0 
0 0 0 0 0 0 0 0 0 
0 0 0 0 0 0 0 0 0 
0 0 0 0 0 0 0 0 0 
0 0 0 0 0 0 0 0 0 
0 0 0 0 0 0 0 0 0 
0 0 0 0 0 0 0 0 0 
0 0 0 0 0 0 0 0 0 
0 0 0 0 0 0 0 0 0 
0 0 0 0 0 0 0 0 0 
0 0 0 0 0 0 0 0 0 
0 0 0 0 0 0 0 0 0 
0 0 0 0 0 0 0 0 0 
0 0 0 0 0 0 0 0 0 
0 0 0 0 0 0 0 0 0 
0 0 0 0 0 0 0 0 0 
0 0 0 0 0 0 0 0 0 
0 0 0 0 0 0 0 0 0 
0 0 0 0 0 0 0 0 0 
0 0 0 0 0 0 0 0 0 
0 0 0 0 0 0 0 0 0 
0 0 0 0 0 0 0 0 0 
0 0 0 0 0 0 0 0 0 
0 0 0 0 0 0 0 0 0 
0 0 0 0 0 0 0 0 0 
0 0 0 0 0 0 0 0 0 
0 0 0 0 0 0 0 0 0 
0 0 0 0 0 0 0 0 0 
0 0 0 0 0 0 0 0 0 
0 0 0 0 0 0 0 0 0 
0 0 0 0 0 0 0 0 0 
0 0 0 0 0 0 0 0 0 
0 0 0 0 0 0 0 0 0 
0 0 0 0 0 0 0 0 0 
0 0 0 0 0 0 0 0 0 
0 0 0 0 0 0 0 0 0 
0 0 0 0 0 0 0 0 0 
0 0 0 0 0 0 0 0 0 
0 0 0 0 0 0 0 0 0 
0 0 0 0 0 0 0 0 0 
0 0 0 0 0 0 0 0 0 
0 0 0 0 0 0 0 0 0 
0 0 0 0 0 0 0 0 0 
0 0 0 0 0 0 0 0 0 
0 0 0 0 0 0 0 0 0 
0 0 0 0 0 0 0 0 0 
0 0 0 0 0 0 0 0 0 
0 0 0 0 0 0 0 0 0 
0 0 0 0 0 0 0 0 0 
0 0 0 0 0 0 0 0 0 
0 0 0 0 0 0 0 0 0 
0 0 0 0 0 0 0 0 0 
0 0 0 0 0 0 0 0 0 
0 0 0 0 0 0 0 0 0 
0 0 0 0 0 0 0 0 0 
0 0 0 0 0 0 0 0 0 
0 0 0 0 0 0 0 0 0 
0 0 0 0 0 0 0 0 0 
0 0 0 0 0 0 0 0 0 
0 0 0 0 0 0 0 0 0 
0 0 0 0 0 0 0 0 0 
0 0 0 0 0 0 0 0 0 
0 0 0 0 0 0 0 0 0 
0 0 0 0 0 0 0 0 0 
0 0 0 0 0 0 0 0 0 
0 0 0 0 0 0 0 0 0 
0 0 0 0 0 0 0 0 0 
0 0 0 0 0 0 0 0 0 
0 0 0 0 0 0 0 0 0 
0 0 0 0 0 0 0 0 0 
0 0 0 0 0 0 0 0 0 
0 0 0 0 0 0 0 0 0 
0 0 0 0 0 0 0 0 0 
0 0 0 0 0 0 0 0 0 
0 0 0 0 0 0 0 0 0 
0 0 0 0 0 0 0 0 0 
0 0 0 0 0 0 0 0 0 
0 0 0 0 0 0 0 0 0 
0 0 0 0 0 0 0 0 0 
0 0 0 0 0 0 0 0 0 
0 0 0 0 0 0 0 0 0 
0 0 0 0 0 0 0 0 0 
0 0 0 0 0 0 0 0 0 
0 0 0 0 0 0 0 0 0 
0 0 0 0 0 0 0 0 0 
0 0 0 0 0 0 0 0 0 
0 0 0 0 0 0 0 0 0 
0 0 0 0 0 0 0 0 0 
0 0 0 0 0 0 0 0 0 
0 0 0 0 0 0 0 0 0 
0 0 0 0 0 0 0 0 0 
0 0 0 0 0 0 0 0 0 
0 0 0 0 0 0 0 0 0 
0 0 0 0 0 0 0 0 0 
0 0 0 0 0 0 0 0 0 
0 0 0 0 0 0 0 0 0 
0 0 0 0 0 0 0 0 0 
0 0 0 0 0 0 0 0 0 
0 0 0 0 0 0 0 0 0 
0 0 0 0 0 0 0 0 0 
0 0 0 0 0 0 0 0 0 
0 0 0 0 0 0 0 0 0 
0 0 0 0 0 0 0 0 0 
0 0 0 0 0 0 0 0 0 
0 0 0 0 0 0 0 0 0 
0 0 0 0 0 0 0 0 0 
0 0 0 0 0 0 0 0 0 
0 0 0 0 0 0 0 0 0 
0 0 0 0 0 0 0 0 0 
0 0 0 0 0 0 0 0 0 
0 0 0 0 0 0 0 0 0 
0 0 0 0 0 0 0 0 0 
0 0 0 0 0 0 0 0 0 
0 0 0 0 0 0 0 0 0 
0 0 0 0 0 0 0 0 0 
0 0 0 0 0 0 0 0 0 
0 0 0 0 0 0 0 0 0 
0 0 0 0 0 0 0 0 0 
0 0 0 0 0 0 0 0 0 
0 0 0 0 0 0 0 0 0 
0 0 0 0 0 0 0 0 0 
0 0 0 0 0 0 0 0 0 
0 0 0 0 0 0 0 0 0 
0 0 0 0 0 0 0 0 0 
0 0 0 0 0 0 0 0 0 
0 0 0 0 0 0 0 0 0 
0 0 0 0 0 0 0 0 0 
0 0 0 0 0 0 0 0 0 
0 0 0 0 0 0 0 0 0 
0 0 0 0 0 0 0 0 0 
0 0 0 0 0 0 0 0 0 
0 0 0 0 0 0 0 0 0 
0 0 0 0 0 0 0 0 0 
0 0 0 0 0 0 0 0 0 
0 0 0 0 0 0 0 0 0 
0 0 0 0 0 0 0 0 0 
0 0 0 0 0 0 0 0 0 
0 0 0 0 0 0 0 0 0 
0 0 0 0 0 0 0 0 0 
0 0 0 0 0 0 0 0 0 
0 0 0 0 0 0 0 0 0 
0 0 0 0 0 0 0 0 0 
0 0 0 0 0 0 0 0 0 
0 0 0 0 0 0 0 0 0 
0 0 0 0 0 0 0 0 0 
0 0 0 0 0 0 0 0 0 
0 0 0 0 0 0 0 0 0 
0 0 0 0 0 0 0 0 0 
0 0 0 0 0 0 0 0 0 
0 0 0 0 0 0 0 0 0 
0 0 0 0 0 0 0 0 0 
0 0 0 0 0 0 0 0 0 
0 0 0 0 0 0 0 0 0 
0 0 0 0 0 0 0 0 0 
0 0 0 0 0 0 0 0 0 
0 0 0 0 0 0 0 0 0 
0 0 0 0 0 0 0 0 0 
0 0 0 0 0 0 0 0 0 
0 0 0 0 0 0 0 0 0 
0 0 0 0 0 0 0 0 0 
0 0 0 0 0 0 0 0 0 
0 0 0 0 0 0 0 0 0 
0 0 0 0 0 0 0 0 0 
0 0 0 0 0 0 0 0 0 
0 0 0 0 0 0 0 0 0 
0 0 0 0 0 0 0 0 0 
0 0 0 0 0 0 0 0 0 
0 0 0 0 0 0 0 0 0 
0 0 0 0 0 0 0 0 0 
0 0 0 0 0 0 0 0 0 
0 0 0 0 0 0 0 0 0 
0 0 0 0 0 0 0 0 0 
0 0 0 0 0 0 0 0 0 
0 0 0 0 0 0 0 0 0 
0 0 0 0 0 0 0 0 0 
0 0 0 0 0 0 0 0 0 
0 0 0 0 0 0 0 0 0 
0 0 0 0 0 0 0 0 0 
0 0 0 0 0 0 0 0 0 
0 0 0 0 0 0 0 0 0 
0 0 0 0 0 0 0 0 0 
0 0 0 0 0 0 0 0 0 
0 0 0 0 0 0 0 0 0 
0 0 0 0 0 0 0 0 0 
0 0 0 0 0 0 0 0 0 
0 0 0 0 0 0 0 0 0 
0 0 0 0 0 0 0 0 0 
0 0 0 0 0 0 0 0 0 
0 0 0 0 0 0 0 0 0 
0 0 0 0 0 0 0 0 0 
0 0 0 0 0 0 0 0 0 
0 0 0 0 0 0 0 0 0 
0 0 0 0 0 0 0 0 0 
0 0 0 0 0 0 0 0 0 
0 0 0 0 0 0 0 0 0 
0 0 0 0 0 0 0 0 0 
0 0 0 0 0 0 0 0 0 
0 0 0 0 0 0 0 0 0 
0 0 0 0 0 0 0 0 0 
0 0 0 0 0 0 0 0 0 
0 0 0 0 0 0 0 0 0 
0 0 0 0 0 0 0 0 0 
0 0 0 0 0 0 0 0 0 
0 0 0 0 0 0 0 0 0 
0 0 0 0 0 0 0 0 0 
0 0 0 0 0 0 0 0 0 
0 0 0 0 0 0 0 0 0 
0 0 0 0 0 0 0 0 0 
0 0 0 0 0 0 0 0 0 
0 0 0 0 0 0 0 0 0 
0 0 0 0 0 0 0 0 0 
0 0 0 0 0 0 0 0 0 
0 0 0 0 0 0 0 0 0 
0 0 0 0 0 0 0 0 0 
0 0 0 0 0 0 0 0 0 
0 0 0 0 0 0 0 0 0 
0 0 0 0 0 0 0 0 0 
0 0 0 0 0 0 0 0 0 
0 0 0 0 0 0 0 0 0 
0 0 0 0 0 0 0 0 0 
0 0 0 0 0 0 0 0 0 
0 0 0 0 0 0 0 0 0 
0 0 0 0 0 0 0 0 0 
0 0 0 0 0 0 0 0 0 
0 0 0 0 0 0 0 0 0 
0 0 0 0 0 0 0 0 0 
0 0 0 0 0 0 0 0 0 
0 0 0 0 0 0 0 0 0 
0 0 0 0 0 0 0 0 0 
0 0 0 0 0 0 0 0 0 
0 0 0 0 0 0 0 0 0 
0 0 0 0 0 0 0 0 0 
0 0 0 0 0 0 0 0 0 
0 0 0 0 0 0 0 0 0 
0 0 0 0 0 0 0 0 0 
0 0 0 0 0 0 0 0 0 
0 0 0 0 0 0 0 0 0 
0 0 0 0 0 0 0 0 0 
0 0 0 0 0 0 0 0 0 
0 0 0 0 0 0 0 0 0 
0 0 0 0 0 0 0 0 0 
0 0 0 0 0 0 0 0 0 
0 0 0 0 0 0 0 0 0 
0 0 0 0 0 0 0 0 0 
0 0 0 0 0 0 0 0 0 
0 0 0 0 0 0 0 0 0 
0 0 0 0 0 0 0 0 0 
0 0 0 0 0 0 0 0 0 
0 0 0 0 0 0 0 0 0 
0 0 0 0 0 0 0 0 0 
0 0 0 0 0 0 0 0 0 
0 0 0 0 0 0 0 0 0 
0 0 0 0 0 0 0 0 0 
0 0 0 0 0 0 0 0 0 
0 0 0 0 0 0 0 0 0 
0 0 0 0 0 0 0 0 0 
0 0 0 0 0 0 0 0 0 
0 0 0 0 0 0 0 0 0 
0 0 0 0 0 0 0 0 0 
0 0 0 0 0 0 0 0 0 
0 0 0 0 0 0 0 0 0 
0 0 0 0 0 0 0 0 0 
0 0 0 0 0 0 0 0 0 
0 0 0 0 0 0 0 0 0 
0 0 0 0 0 0 0 0 0 
0 0 0 0 0 0 0 0 0 
0 0 0 0 0 0 0 0 0 
0 0 0 0 0 0 0 0 0 
0 0 0 0 0 0 0 0 0 
0 0 0 0 0 0 0 0 0 
0 0 0 0 0 0 0 0 0 
0 0 0 0 0 0 0 0 0 
0 0 0 0 0 0 0 0 0 
0 0 0 0 0 0 0 0 0 
0 0 0 0 0 0 0 0 0 
0 0 0 0 0 0 0 0 0 
0 0 0 0 0 0 0 0 0 
0 0 0 0 0 0 0 0 0 
0 0 0 0 0 0 0 0 0 
0 0 0 0 0 0 0 0 0 
0 0 0 0 0 0 0 0 0 
0 0 0 0 0 0 0 0 0 
0 0 0 0 0 0 0 0 0 
0 0 0 0 0 0 0 0 0 
0 0 0 0 0 0 0 0 0 
0 0 0 0 0 0 0 0 0 
0 0 0 0 0 0 0 0 0 
0 0 0 0 0 0 0 0 0 
0 0 0 0 0 0 0 0 0 
0 0 0 0 0 0 0 0 0 
0 0 0 0 0 0 0 0 0 
0 0 0 0 0 0 0 0 0 
0 0 0 0 0 0 0 0 0 
0 0 0 0 0 0 0 0 0 
0 0 0 0 0 0 0 0 0 
0 0 0 0 0 0 0 0 0 
0 0 0 0 0 0 0 0 0 
0 0 0 0 0 0 0 0 0 
0 0 0 0 0 0 0 0 0 
0 0 0 0 0 0 0 0 0 
0 0 0 0 0 0 0 0 0 
0 0 0 0 0 0 0 0 0 
0 0 0 0 0 0 0 0 0 
0 0 0 0 0 0 0 0 0 
0 0 0 0 0 0 0 0 0 
0 0 0 0 0 0 0 0 0 
0 0 0 0 0 0 0 0 0 
0 0 0 0 0 0 0 0 0 
0 0 0 0 0 0 0 0 0 
0 0 0 0 0 0 0 0 0 
0 0 0 0 0 0 0 0 0 
0 0 0 0 0 0 0 0 0 
0 0 0 0 0 0 0 0 0 
0 0 0 0 0 0 0 0 0 
0 0 0 0 0 0 0 0 0 
0 0 0 0 0 0 0 0 0 
0 0 0 0 0 0 0 0 0 
0 0 0 0 0 0 0 0 0 
0 0 0 0 0 0 0 0 0 
0 0 0 0 0 0 0 0 0 
0 0 0 0 0 0 0 0 0 
0 0 0 0 0 0 0 0 0 
0 0 0 0 0 0 0 0 0 
0 0 0 0 0 0 0 0 0 
0 0 0 0 0 0 0 0 0 
0 0 0 0 0 0 0 0 0 
0 0 0 0 0 0 0 0 0 
0 0 0 0 0 0 0 0 0 
0 0 0 0 0 0 0 0 0 
0 0 0 0 0 0 0 0 0 
0 0 0 0 0 0 0 0 0 
0 0 0 0 0 0 0 0 0 
0 0 0 0 0 0 0 0 0 
0 0 0 0 0 0 0 0 0 
0 0 0 0 0 0 0 0 0 
0 0 0 0 0 0 0 0 0 
0 0 0 0 0 0 0 0 0 
0 0 0 0 0 0 0 0 0 
0 0 0 0 0 0 0 0 0 
0 0 0 0 0 0 0 0 0 
0 0 0 0 0 0 0 0 0 
0 0 0 0 0 0 0 0 0 
0 0 0 0 0 0 0 0 0 
0 0 0 0 0 0 0 0 0 
0 0 0 0 0 0 0 0 0 
0 0 0 0 0 0 0 0 0 
0 0 0 0 0 0 0 0 0 
0 0 0 0 0 0 0 0 0 
0 0 0 0 0 0 0 0 0 
0 0 0 0 0 0 0 0 0 
0 0 0 0 0 0 0 0 0 
0 0 0 0 0 0 0 0 0 
0 0 0 0 0 0 0 0 0 
0 0 0 0 0 0 0 0 0 
0 0 0 0 0 0 0 0 0 
0 0 0 0 0 0 0 0 0 
0 0 0 0 0 0 0 0 0 
0 0 0 0 0 0 0 0 0 
0 0 0 0 0 0 0 0 0 
0 0 0 0 0 0 0 0 0 
0 0 0 0 0 0 0 0 0 
0 0 0 0 0 0 0 0 0 
0 0 0 0 0 0 0 0 0 
0 0 0 0 0 0 0 0 0 
0 0 0 0 0 0 0 0 0 
0 0 0 0 0 0 0 0 0 
0 0 0 0 0 0 0 0 0 
0 0 0 0 0 0 0 0 0 
0 0 0 0 0 0 0 0 0 
0 0 0 0 0 0 0 0 0 
0 0 0 0 0 0 0 0 0 
0 0 0 0 0 0 0 0 0 
0 0 0 0 0 0 0 0 0 
0 0 0 0 0 0 0 0 0 
0 0 0 0 0 0 0 0 0 
0 0 0 0 0 0 0 0 0 
0 0 0 0 0 0 0 0 0 
0 0 0 0 0 0 0 0 0 
0 0 0 0 0 0 0 0 0 
0 0 0 0 0 0 0 0 0 
0 0 0 0 0 0 0 0 0 
0 0 0 0 0 0 0 0 0 
0 0 0 0 0 0 0 0 0 
0 0 0 0 0 0 0 0 0 
0 0 0 0 0 0 0 0 0 
0 0 0 0 0 0 0 0 0 
0 0 0 0 0 0 0 0 0 
0 0 0 0 0 0 0 0 0 
0 0 0 0 0 0 0 0 0 
0 0 0 0 0 0 0 0 0 
0 0 0 0 0 0 0 0 0 
0 0 0 0 0 0 0 0 0 
0 0 0 0 0 0 0 0 0 
0 0 0 0 0 0 0 0 0 
0 0 0 0 0 0 0 0 0 
0 0 0 0 0 0 0 0 0 
0 0 0 0 0 0 0 0 0 
0 0 0 0 0 0 0 0 0 
0 0 0 0 0 0 0 0 0 
0 0 0 0 0 0 0 0 0 
0 0 0 0 0 0 0 0 0 
0 0 0 0 0 0 0 0 0 
0 0 0 0 0 0 0 0 0 
0 0 0 0 0 0 0 0 0 
0 0 0 0 0 0 0 0 0 
0 0 0 0 0 0 0 0 0 
0 0 0 0 0 0 0 0 0 
0 0 0 0 0 0 0 0 0 
0 0 0 0 0 0 0 0 0 
0 0 0 0 0 0 0 0 0 
0 0 0 0 0 0 0 0 0 
0 0 0 0 0 0 0 0 0 
0 0 0 0 0 0 0 0 0 
0 0 0 0 0 0 0 0 0 
0 0 0 0 0 0 0 0 0 
0 0 0 0 0 0 0 0 0 
0 0 0 0 0 0 0 0 0 
0 0 0 0 0 0 0 0 0 
0 0 0 0 0 0 0 0 0 
0 0 0 0 0 0 0 0 0 
0 0 0 0 0 0 0 0 0 
0 0 0 0 0 0 0 0 0 
0 0 0 0 0 0 0 0 0 
0 0 0 0 0 0 0 0 0 
0 0 0 0 0 0 0 0 0 
0 0 0 0 0 0 0 0 0 
0 0 0 0 0 0 0 0 0 
0 0 0 0 0 0 0 0 0 
0 0 0 0 0 0 0 0 0 
0 0 0 0 0 0 0 0 0 
0 0 0 0 0 0 0 0 0 
0 0 0 0 0 0 0 0 0 
0 0 0 0 0 0 0 0 0 
0 0 0 0 0 0 0 0 0 
0 0 0 0 0 0 0 0 0 
0 0 0 0 0 0 0 0 0 
0 0 0 0 0 0 0 0 0 
0 0 0 0 0 0 0 0 0 
0 0 0 0 0 0 0 0 0 
0 0 0 0 0 0 0 0 0 
0 0 0 0 0 0 0 0 0 
0 0 0 0 0 0 0 0 0 
0 0 0 0 0 0 0 0 0 
0 0 0 0 0 0 0 0 0 
0 0 0 0 0 0 0 0 0 
0 0 0 0 0 0 0 0 0 
0 0 0 0 0 0 0 0 0 
0 0 0 0 0 0 0 0 0 
0 0 0 0 0 0 0 0 0 
0 0 0 0 0 0 0 0 0 
0 0 0 0 0 0 0 0 0 
0 0 0 0 0 0 0 0 0 
0 0 0 0 0 0 0 0 0 
0 0 0 0 0 0 0 0 0 
0 0 0 0 0 0 0 0 0 
0 0 0 0 0 0 0 0 0 
0 0 0 0 0 0 0 0 0 
0 0 0 0 0 0 0 0 0 
0 0 0 0 0 0 0 0 0 
0 0 0 0 0 0 0 0 0 
0 0 0 0 0 0 0 0 0 
0 0 0 0 0 0 0 0 0 
0 0 0 0 0 0 0 0 0 
0 0 0 0 0 0 0 0 0 
0 0 0 0 0 0 0 0 0 
0 0 0 0 0 0 0 0 0 
0 0 0 0 0 0 0 0 0 
0 0 0 0 0 0 0 0 0 
0 0 0 0 0 0 0 0 0 
0 0 0 0 0 0 0 0 0 
0 0 0 0 0 0 0 0 0 
0 0 0 0 0 0 0 0 0 
0 0 0 0 0 0 0 0 0 
0 0 0 0 0 0 0 0 0 
0 0 0 0 0 0 0 0 0 
0 0 0 0 0 0 0 0 0 
0 0 0 0 0 0 0 0 0 
0 0 0 0 0 0 0 0 0 
0 0 0 0 0 0 0 0 0 
0 0 0 0 0 0 0 0 0 
0 0 0 0 0 0 0 0 0 
0 0 0 0 0 0 0 0 0 
0 0 0 0 0 0 0 0 0 
0 0 0 0 0 0 0 0 0 
0 0 0 0 0 0 0 0 0 
0 0 0 0 0 0 0 0 0 
0 0 0 0 0 0 0 0 0 
0 0 0 0 0 0 0 0 0 
0 0 0 0 0 0 0 0 0 
0 0 0 0 0 0 0 0 0 
0 0 0 0 0 0 0 0 0 
0 0 0 0 0 0 0 0 0 
0 0 0 0 0 0 0 0 0 
0 0 0 0 0 0 0 0 0 
0 0 0 0 0 0 0 0 0 
0 0 0 0 0 0 0 0 0 
0 0 0 0 0 0 0 0 0 
0 0 0 0 0 0 0 0 0 
0 0 0 0 0 0 0 0 0 
0 0 0 0 0 0 0 0 0 
0 0 0 0 0 0 0 0 0 
0 0 0 0 0 0 0 0 0 
0 0 0 0 0 0 0 0 0 
0 0 0 0 0 0 0 0 0 
0 0 0 0 0 0 0 0 0 
0 0 0 0 0 0 0 0 0 
0 0 0 0 0 0 0 0 0 
0 0 0 0 0 0 0 0 0 
0 0 0 0 0 0 0 0 0 
0 0 0 0 0 0 0 0 0 
0 0 0 0 0 0 0 0 0 
0 0 0 0 0 0 0 0 0 
0 0 0 0 0 0 0 0 0 
0 0 0 0 0 0 0 0 0 
0 0 0 0 0 0 0 0 0 
0 0 0 0 0 0 0 0 0 
0 0 0 0 0 0 0 0 0 
0 0 0 0 0 0 0 0 0 
0 0 0 0 0 0 0 0 0 
0 0 0 0 0 0 0 0 0 
0 0 0 0 0 0 0 0 0 
0 0 0 0 0 0 0 0 0 
0 0 0 0 0 0 0 0 0 
0 0 0 0 0 0 0 0 0 
0 0 0 0 0 0 0 0 0 
0 0 0 0 0 0 0 0 0 
0 0 0 0 0 0 0 0 0 
0 0 0 0 0 0 0 0 0 
0 0 0 0 0 0 0 0 0 
0 0 0 0 0 0 0 0 0 
0 0 0 0 0 0 0 0 0 
0 0 0 0 0 0 0 0 0 
0 0 0 0 0 0 0 0 0 
0 0 0 0 0 0 0 0 0 
0 0 0 0 0 0 0 0 0 
0 0 0 0 0 0 0 0 0 
0 0 0 0 0 0 0 0 0 
0 0 0 0 0 0 0 0 0 
0 0 0 0 0 0 0 0 0 
0 0 0 0 0 0 0 0 0 
0 0 0 0 0 0 0 0 0 
0 0 0 0 0 0 0 0 0 
0 0 0 0 0 0 0 0 0 
0 0 0 0 0 0 0 0 0 
0 0 0 0 0 0 0 0 0 
0 0 0 0 0 0 0 0 0 
0 0 0 0 0 0 0 0 0 
0 0 0 0 0 0 0 0 0 
0 0 0 0 0 0 0 0 0 
0 0 0 0 0 0 0 0 0 
0 0 0 0 0 0 0 0 0 
0 0 0 0 0 0 0 0 0 
0 0 0 0 0 0 0 0 0 
0 0 0 0 0 0 0 0 0 
0 0 0 0 0 0 0 0 0 
0 0 0 0 0 0 0 0 0 
0 0 0 0 0 0 0 0 0 
0 0 0 0 0 0 0 0 0 
0 0 0 0 0 0 0 0 0 
0 0 0 0 0 0 0 0 0 
0 0 0 0 0 0 0 0 0 
0 0 0 0 0 0 0 0 0 
0 0 0 0 0 0 0 0 0 
0 0 0 0 0 0 0 0 0 
0 0 0 0 0 0 0 0 0 
0 0 0 0 0 0 0 0 0 
0 0 0 0 0 0 0 0 0 
0 0 0 0 0 0 0 0 0 
0 0 0 0 0 0 0 0 0 
0 0 0 0 0 0 0 0 0 
0 0 0 0 0 0 0 0 0 
0 0 0 0 0 0 0 0 0 
0 0 0 0 0 0 0 0 0 
0 0 0 0 0 0 0 0 0 
0 0 0 0 0 0 0 0 0 
0 0 0 0 0 0 0 0 0 
0 0 0 0 0 0 0 0 0 
0 0 0 0 0 0 0 0 0 
0 0 0 0 0 0 0 0 0 
0 0 0 0 0 0 0 0 0 
0 0 0 0 0 0 0 0 0 
0 0 0 0 0 0 0 0 0 
0 0 0 0 0 0 0 0 0 
0 0 0 0 0 0 0 0 0 
0 0 0 0 0 0 0 0 0 
0 0 0 0 0 0 0 0 0 
0 0 0 0 0 0 0 0 0 
0 0 0 0 0 0 0 0 0 
0 0 0 0 0 0 0 0 0 
0 0 0 0 0 0 0 0 0 
0 0 0 0 0 0 0 0 0 
0 0 0 0 0 0 0 0 0 
0 0 0 0 0 0 0 0 0 
0 0 0 0 0 0 0 0 0 
0 0 0 0 0 0 0 0 0 
0 0 0 0 0 0 0 0 0 
0 0 0 0 0 0 0 0 0 
0 0 0 0 0 0 0 0 0 
0 0 0 0 0 0 0 0 0 
0 0 0 0 0 0 0 0 0 
0 0 0 0 0 0 0 0 0 
0 0 0 0 0 0 0 0 0 
0 0 0 0 0 0 0 0 0 
0 0 0 0 0 0 0 0 0 
0 0 0 0 0 0 0 0 0 
0 0 0 0 0 0 0 0 0 
0 0 0 0 0 0 0 0 0 
0 0 0 0 0 0 0 0 0 
0 0 0 0 0 0 0 0 0 
0 0 0 0 0 0 0 0 0 
0 0 0 0 0 0 0 0 0 
0 0 0 0 0 0 0 0 0 
0 0 0 0 0 0 0 0 0 
0 0 0 0 0 0 0 0 0 
0 0 0 0 0 0 0 0 0 
0 0 0 0 0 0 0 0 0 
0 0 0 0 0 0 0 0 0 
0 0 0 0 0 0 0 0 0 
0 0 0 0 0 0 0 0 0 
0 0 0 0 0 0 0 0 0 
0 0 0 0 0 0 0 0 0 
0 0 0 0 0 0 0 0 0 
0 0 0 0 0 0 0 0 0 
0 0 0 0 0 0 0 0 0 
0 0 0 0 0 0 0 0 0 
0 0 0 0 0 0 0 0 0 
0 0 0 0 0 0 0 0 0 
0 0 0 0 0 0 0 0 0 
0 0 0 0 0 0 0 0 0 
0 0 0 0 0 0 0 0 0 
0 0 0 0 0 0 0 0 0 
0 0 0 0 0 0 0 0 0 
0 0 0 0 0 0 0 0 0 
0 0 0 0 0 0 0 0 0 
0 0 0 0 0 0 0 0 0 
0 0 0 0 0 0 0 0 0 
0 0 0 0 0 0 0 0 0 
0 0 0 0 0 0 0 0 0 
0 0 0 0 0 0 0 0 0 
0 0 0 0 0 0 0 0 0 
0 0 0 0 0 0 0 0 0 
0 0 0 0 0 0 0 0 0 
0 0 0 0 0 0 0 0 0 
0 0 0 0 0 0 0 0 0 
0 0 0 0 0 0 0 0 0 
0 0 0 0 0 0 0 0 0 
0 0 0 0 0 0 0 0 0 
0 0 0 0 0 0 0 0 0 
0 0 0 0 0 0 0 0 0 
0 0 0 0 0 0 0 0 0 
0 0 0 0 0 0 0 0 0 
0 0 0 0 0 0 0 0 0 
0 0 0 0 0 0 0 0 0 
0 0 0 0 0 0 0 0 0 
0 0 0 0 0 0 0 0 0 
0 0 0 0 0 0 0 0 0 
0 0 0 0 0 0 0 0 0 
0 0 0 0 0 0 0 0 0 
0 0 0 0 0 0 0 0 0 
0 0 0 0 0 0 0 0 0 
0 0 0 0 0 0 0 0 0 
0 0 0 0 0 0 0 0 0 
0 0 0 0 0 0 0 0 0 
0 0 0 0 0 0 0 0 0 
0 0 0 0 0 0 0 0 0 
0 0 0 0 0 0 0 0 0 
0 0 0 0 0 0 0 0 0 
0 0 0 0 0 0 0 0 0 
0 0 0 0 0 0 0 0 0 
0 0 0 0 0 0 0 0 0 
0 0 0 0 0 0 0 0 0 
0 0 0 0 0 0 0 0 0 
0 0 0 0 0 0 0 0 0 
0 0 0 0 0 0 0 0 0 
0 0 0 0 0 0 0 0 0 
0 0 0 0 0 0 0 0 0 
0 0 0 0 0 0 0 0 0 
0 0 0 0 0 0 0 0 0 
0 0 0 0 0 0 0 0 0 
0 0 0 0 0 0 0 0 0 
0 0 0 0 0 0 0 0 0 
0 0 0 0 0 0 0 0 0 
0 0 0 0 0 0 0 0 0 
0 0 0 0 0 0 0 0 0 
0 0 0 0 0 0 0 0 0 
0 0 0 0 0 0 0 0 0 
0 0 0 0 0 0 0 0 0 
0 0 0 0 0 0 0 0 0 
0 0 0 0 0 0 0 0 0 
0 0 0 0 0 0 0 0 0 
0 0 0 0 0 0 0 0 0 
0 0 0 0 0 0 0 0 0 
0 0 0 0 0 0 0 0 0 
0 0 0 0 0 0 0 0 0 
0 0 0 0 0 0 0 0 0 
0 0 0 0 0 0 0 0 0 
0 0 0 0 0 0 0 0 0 
0 0 0 0 0 0 0 0 0 
0 0 0 0 0 0 0 0 0 
0 0 0 0 0 0 0 0 0 
0 0 0 0 0 0 0 0 0 
0 0 0 0 0 0 0 0 0 
0 0 0 0 0 0 0 0 0 
0 0 0 0 0 0 0 0 0 
0 0 0 0 0 0 0 0 0 
0 0 0 0 0 0 0 0 0 
0 0 0 0 0 0 0 0 0 
0 0 0 0 0 0 0 0 0 
0 0 0 0 0 0 0 0 0 
0 0 0 0 0 0 0 0 0 
0 0 0 0 0 0 0 0 0 
0 0 0 0 0 0 0 0 0 
0 0 0 0 0 0 0 0 0 
0 0 0 0 0 0 0 0 0 
0 0 0 0 0 0 0 0 0 
0 0 0 0 0 0 0 0 0 
0 0 0 0 0 0 0 0 0 
0 0 0 0 0 0 0 0 0 
0 0 0 0 0 0 0 0 0 
0 0 0 0 0 0 0 0 0 
0 0 0 0 0 0 0 0 0 
0 0 0 0 0 0 0 0 0 
0 0 0 0 0 0 0 0 0 
0 0 0 0 0 0 0 0 0 
0 0 0 0 0 0 0 0 0 
0 0 0 0 0 0 0 0 0 
0 0 0 0 0 0 0 0 0 
0 0 0 0 0 0 0 0 0 
0 0 0 0 0 0 0 0 0 
0 0 0 0 0 0 0 0 0 
0 0 0 0 0 0 0 0 0 
0 0 0 0 0 0 0 0 0 
0 0 0 0 0 0 0 0 0 
0 0 0 0 0 0 0 0 0 
0 0 0 0 0 0 0 0 0 
0 0 0 0 0 0 0 0 0 
0 0 0 0 0 0 0 0 0 
0 0 0 0 0 0 0 0 0 
0 0 0 0 0 0 0 0 0 
0 0 0 0 0 0 0 0 0 
0 0 0 0 0 0 0 0 0 
0 0 0 0 0 0 0 0 0 
0 0 0 0 0 0 0 0 0 
0 0 0 0 0 0 0 0 0 
0 0 0 0 0 0 0 0 0 
0 0 0 0 0 0 0 0 0 
0 0 0 0 0 0 0 0 0 
0 0 0 0 0 0 0 0 0 
0 0 0 0 0 0 0 0 0 
0 0 0 0 0 0 0 0 0 
0 0 0 0 0 0 0 0 0 
0 0 0 0 0 0 0 0 0 
0 0 0 0 0 0 0 0 0 
0 0 0 0 0 0 0 0 0 
0 0 0 0 0 0 0 0 0 
0 0 0 0 0 0 0 0 0 
0 0 0 0 0 0 0 0 0 
0 0 0 0 0 0 0 0 0 
0 0 0 0 0 0 0 0 0 
0 0 0 0 0 0 0 0 0 
0 0 0 0 0 0 0 0 0 
0 0 0 0 0 0 0 0 0 
0 0 0 0 0 0 0 0 0 
0 0 0 0 0 0 0 0 0 
0 0 0 0 0 0 0 0 0 
0 0 0 0 0 0 0 0 0 
0 0 0 0 0 0 0 0 0 
0 0 0 0 0 0 0 0 0 
0 0 0 0 0 0 0 0 0 
0 0 0 0 0 0 0 0 0 
0 0 0 0 0 0 0 0 0 
0 0 0 0 0 0 0 0 0 
0 0 0 0 0 0 0 0 0 
0 0 0 0 0 0 0 0 0 
0 0 0 0 0 0 0 0 0 
0 0 0 0 0 0 0 0 0 
0 0 0 0 0 0 0 0 0 
0 0 0 0 0 0 0 0 0 
0 0 0 0 0 0 0 0 0 
0 0 0 0 0 0 0 0 0 
0 0 0 0 0 0 0 0 0 
0 0 0 0 0 0 0 0 0 
0 0 0 0 0 0 0 0 0 
0 0 0 0 0 0 0 0 0 
0 0 0 0 0 0 0 0 0 
0 0 0 0 0 0 0 0 0 
0 0 0 0 0 0 0 0 0 
0 0 0 0 0 0 0 0 0 
0 0 0 0 0 0 0 0 0 
0 0 0 0 0 0 0 0 0 
0 0 0 0 0 0 0 0 0 
0 0 0 0 0 0 0 0 0 
0 0 0 0 0 0 0 0 0 
0 0 0 0 0 0 0 0 0 
0 0 0 0 0 0 0 0 0 
0 0 0 0 0 0 0 0 0 
0 0 0 0 0 0 0 0 0 
0 0 0 0 0 0 0 0 0 
0 0 0 0 0 0 0 0 0 
0 0 0 0 0 0 0 0 0 
0 0 0 0 0 0 0 0 0 
0 0 0 0 0 0 0 0 0 
0 0 0 0 0 0 0 0 0 
0 0 0 0 0 0 0 0 0 
0 0 0 0 0 0 0 0 0 
0 0 0 0 0 0 0 0 0 
0 0 0 0 0 0 0 0 0 
0 0 0 0 0 0 0 0 0 
0 0 0 0 0 0 0 0 0 
0 0 0 0 0 0 0 0 0 
0 0 0 0 0 0 0 0 0 
0 0 0 0 0 0 0 0 0 
0 0 0 0 0 0 0 0 0 
0 0 0 0 0 0 0 0 0 
0 0 0 0 0 0 0 0 0 
0 0 0 0 0 0 0 0 0 
0 0 0 0 0 0 0 0 0 
0 0 0 0 0 0 0 0 0 
0 0 0 0 0 0 0 0 0 
0 0 0 0 0 0 0 0 0 
0 0 0 0 0 0 0 0 0 
0 0 0 0 0 0 0 0 0 
0 0 0 0 0 0 0 0 0 
0 0 0 0 0 0 0 0 0 
0 0 0 0 0 0 0 0 0 
0 0 0 0 0 0 0 0 0 
0 0 0 0 0 0 0 0 0 
0 0 0 0 0 0 0 0 0 
0 0 0 0 0 0 0 0 0 
0 0 0 0 0 0 0 0 0 
0 0 0 0 0 0 0 0 0 
0 0 0 0 0 0 0 0 0 
0 0 0 0 0 0 0 0 0 
0 0 0 0 0 0 0 0 0 
0 0 0 0 0 0 0 0 0 
0 0 0 0 0 0 0 0 0 
0 0 0 0 0 0 0 0 0 
0 0 0 0 0 0 0 0 0 
0 0 0 0 0 0 0 0 0 
0 0 0 0 0 0 0 0 0 
0 0 0 0 0 0 0 0 0 
0 0 0 0 0 0 0 0 0 
0 0 0 0 0 0 0 0 0 
0 0 0 0 0 0 0 0 0 
0 0 0 0 0 0 0 0 0 
0 0 0 0 0 0 0 0 0 
0 0 0 0 0 0 0 0 0 
0 0 0 0 0 0 0 0 0 
0 0 0 0 0 0 0 0 0 
0 0 0 0 0 0 0 0 0 
0 0 0 0 0 0 0 0 0 
0 0 0 0 0 0 0 0 0 
0 0 0 0 0 0 0 0 0 
0 0 0 0 0 0 0 0 0 
0 0 0 0 0 0 0 0 0 
0 0 0 0 0 0 0 0 0 
0 0 0 0 0 0 0 0 0 
0 0 0 0 0 0 0 0 0 
0 0 0 0 0 0 0 0 0 
0 0 0 0 0 0 0 0 0 
0 0 0 0 0 0 0 0 0 
0 0 0 0 0 0 0 0 0 
0 0 0 0 0 0 0 0 0 
0 0 0 0 0 0 0 0 0 
0 0 0 0 0 0 0 0 0 
0 0 0 0 0 0 0 0 0 
0 0 0 0 0 0 0 0 0 
0 0 0 0 0 0 0 0 0 
0 0 0 0 0 0 0 0 0 
0 0 0 0 0 0 0 0 0 
0 0 0 0 0 0 0 0 0 
0 0 0 0 0 0 0 0 0 
0 0 0 0 0 0 0 0 0 
0 0 0 0 0 0 0 0 0 
0 0 0 0 0 0 0 0 0 
0 0 0 0 0 0 0 0 0 
0 0 0 0 0 0 0 0 0 
0 0 0 0 0 0 0 0 0 
0 0 0 0 0 0 0 0 0 
0 0 0 0 0 0 0 0 0 
0 0 0 0 0 0 0 0 0 
0 0 0 0 0 0 0 0 0 
0 0 0 0 0 0 0 0 0 
0 0 0 0 0 0 0 0 0 
0 0 0 0 0 0 0 0 0 
0 0 0 0 0 0 0 0 0 
0 0 0 0 0 0 0 0 0 
0 0 0 0 0 0 0 0 0 
0 0 0 0 0 0 0 0 0 
0 0 0 0 0 0 0 0 0 
0 0 0 0 0 0 0 0 0 
0 0 0 0 0 0 0 0 0 
0 0 0 0 0 0 0 0 0 
0 0 0 0 0 0 0 0 0 
0 0 0 0 0 0 0 0 0 
0 0 0 0 0 0 0 0 0 
0 0 0 0 0 0 0 0 0 
0 0 0 0 0 0 0 0 0 
0 0 0 0 0 0 0 0 0 
0 0 0 0 0 0 0 0 0 
0 0 0 0 0 0 0 0 0 
0 0 0 0 0 0 0 0 0 
0 0 0 0 0 0 0 0 0 
0 0 0 0 0 0 0 0 0 
0 0 0 0 0 0 0 0 0 
0 0 0 0 0 0 0 0 0 
0 0 0 0 0 0 0 0 0 
0 0 0 0 0 0 0 0 0 
0 0 0 0 0 0 0 0 0 
0 0 0 0 0 0 0 0 0 
0 0 0 0 0 0 0 0 0 
0 0 0 0 0 0 0 0 0 
0 0 0 0 0 0 0 0 0 
0 0 0 0 0 0 0 0 0 
0 0 0 0 0 0 0 0 0 
0 0 0 0 0 0 0 0 0 
0 0 0 0 0 0 0 0 0 
0 0 0 0 0 0 0 0 0 
0 0 0 0 0 0 0 0 0 
0 0 0 0 0 0 0 0 0 
0 0 0 0 0 0 0 0 0 
0 0 0 0 0 0 0 0 0 
0 0 0 0 0 0 0 0 0 
0 0 0 0 0 0 0 0 0 
0 0 0 0 0 0 0 0 0 
0 0 0 0 0 0 0 0 0 
0 0 0 0 0 0 0 0 0 
0 0 0 0 0 0 0 0 0 
0 0 0 0 0 0 0 0 0 
0 0 0 0 0 0 0 0 0 
0 0 0 0 0 0 0 0 0 
0 0 0 0 0 0 0 0 0 
0 0 0 0 0 0 0 0 0 
0 0 0 0 0 0 0 0 0 
0 0 0 0 0 0 0 0 0 
0 0 0 0 0 0 0 0 0 
0 0 0 0 0 0 0 0 0 
0 0 0 0 0 0 0 0 0 
0 0 0 0 0 0 0 0 0 
0 0 0 0 0 0 0 0 0 
0 0 0 0 0 0 0 0 0 
0 0 0 0 0 0 0 0 0 
0 0 0 0 0 0 0 0 0 
0 0 0 0 0 0 0 0 0 
0 0 0 0 0 0 0 0 0 
0 0 0 0 0 0 0 0 0 
0 0 0 0 0 0 0 0 0 
0 0 0 0 0 0 0 0 0 
0 0 0 0 0 0 0 0 0 
0 0 0 0 0 0 0 0 0 
0 0 0 0 0 0 0 0 0 
0 0 0 0 0 0 0 0 0 
0 0 0 0 0 0 0 0 0 
0 0 0 0 0 0 0 0 0 
0 0 0 0 0 0 0 0 0 
0 0 0 0 0 0 0 0 0 
0 0 0 0 0 0 0 0 0 
0 0 0 0 0 0 0 0 0 
0 0 0 0 0 0 0 0 0 
0 0 0 0 0 0 0 0 0 
0 0 0 0 0 0 0 0 0 
0 0 0 0 0 0 0 0 0 
0 0 0 0 0 0 0 0 0 
0 0 0 0 0 0 0 0 0 
0 0 0 0 0 0 0 0 0 
0 0 0 0 0 0 0 0 0 
0 0 0 0 0 0 0 0 0 
0 0 0 0 0 0 0 0 0 
0 0 0 0 0 0 0 0 0 
0 0 0 0 0 0 0 0 0 
0 0 0 0 0 0 0 0 0 
0 0 0 0 0 0 0 0 0 
0 0 0 0 0 0 0 0 0 
0 0 0 0 0 0 0 0 0 
0 0 0 0 0 0 0 0 0 
0 0 0 0 0 0 0 0 0 
0 0 0 0 0 0 0 0 0 
0 0 0 0 0 0 0 0 0 
0 0 0 0 0 0 0 0 0 
0 0 0 0 0 0 0 0 0 
0 0 0 0 0 0 0 0 0 
0 0 0 0 0 0 0 0 0 
0 0 0 0 0 0 0 0 0 
0 0 0 0 0 0 0 0 0 
0 0 0 0 0 0 0 0 0 
0 0 0 0 0 0 0 0 0 
0 0 0 0 0 0 0 0 0 
0 0 0 0 0 0 0 0 0 
0 0 0 0 0 0 0 0 0 
0 0 0 0 0 0 0 0 0 
0 0 0 0 0 0 0 0 0 
0 0 0 0 0 0 0 0 0 
0 0 0 0 0 0 0 0 0 
0 0 0 0 0 0 0 0 0 
0 0 0 0 0 0 0 0 0 
0 0 0 0 0 0 0 0 0 
0 0 0 0 0 0 0 0 0 
0 0 0 0 0 0 0 0 0 
0 0 0 0 0 0 0 0 0 
0 0 0 0 0 0 0 0 0 
0 0 0 0 0 0 0 0 0 
0 0 0 0 0 0 0 0 0 
0 0 0 0 0 0 0 0 0 
0 0 0 0 0 0 0 0 0 
0 0 0 0 0 0 0 0 0 
0 0 0 0 0 0 0 0 0 
0 0 0 0 0 0 0 0 0 
0 0 0 0 0 0 0 0 0 
0 0 0 0 0 0 0 0 0 
0 0 0 0 0 0 0 0 0 
0 0 0 0 0 0 0 0 0 
0 0 0 0 0 0 0 0 0 
0 0 0 0 0 0 0 0 0 
0 0 0 0 0 0 0 0 0 
0 0 0 0 0 0 0 0 0 
0 0 0 0 0 0 0 0 0 
0 0 0 0 0 0 0 0 0 
0 0 0 0 0 0 0 0 0 
0 0 0 0 0 0 0 0 0 
0 0 0 0 0 0 0 0 0 
0 0 0 0 0 0 0 0 0 
0 0 0 0 0 0 0 0 0 
0 0 0 0 0 0 0 0 0 
0 0 0 0 0 0 0 0 0 
0 0 0 0 0 0 0 0 0 
0 0 0 0 0 0 0 0 0 
0 0 0 0 0 0 0 0 0 
0 0 0 0 0 0 0 0 0 
0 0 0 0 0 0 0 0 0 
0 0 0 0 0 0 0 0 0 
0 0 0 0 0 0 0 0 0 
0 0 0 0 0 0 0 0 0 
0 0 0 0 0 0 0 0 0 
0 0 0 0 0 0 0 0 0 
0 0 0 0 0 0 0 0 0 
0 0 0 0 0 0 0 0 0 
0 0 0 0 0 0 0 0 0 
0 0 0 0 0 0 0 0 0 
0 0 0 0 0 0 0 0 0 
0 0 0 0 0 0 0 0 0 
0 0 0 0 0 0 0 0 0 
0 0 0 0 0 0 0 0 0 
0 0 0 0 0 0 0 0 0 
0 0 0 0 0 0 0 0 0 
0 0 0 0 0 0 0 0 0 
0 0 0 0 0 0 0 0 0 
0 0 0 0 0 0 0 0 0 
0 0 0 0 0 0 0 0 0 
0 0 0 0 0 0 0 0 0 
0 0 0 0 0 0 0 0 0 
0 0 0 0 0 0 0 0 0 
0 0 0 0 0 0 0 0 0 
0 0 0 0 0 0 0 0 0 
0 0 0 0 0 0 0 0 0 
0 0 0 0 0 0 0 0 0 
0 0 0 0 0 0 0 0 0 
0 0 0 0 0 0 0 0 0 
0 0 0 0 0 0 0 0 0 
0 0 0 0 0 0 0 0 0 
0 0 0 0 0 0 0 0 0 
0 0 0 0 0 0 0 0 0 
0 0 0 0 0 0 0 0 0 
0 0 0 0 0 0 0 0 0 
0 0 0 0 0 0 0 0 0 
0 0 0 0 0 0 0 0 0 
0 0 0 0 0 0 0 0 0 
0 0 0 0 0 0 0 0 0 
0 0 0 0 0 0 0 0 0 
0 0 0 0 0 0 0 0 0 
0 0 0 0 0 0 0 0 0 
0 0 0 0 0 0 0 0 0 
0 0 0 0 0 0 0 0 0 
0 0 0 0 0 0 0 0 0 
0 0 0 0 0 0 0 0 0 
0 0 0 0 0 0 0 0 0 
0 0 0 0 0 0 0 0 0 
0 0 0 0 0 0 0 0 0 
0 0 0 0 0 0 0 0 0 
0 0 0 0 0 0 0 0 0 
0 0 0 0 0 0 0 0 0 
0 0 0 0 0 0 0 0 0 
0 0 0 0 0 0 0 0 0 
0 0 0 0 0 0 0 0 0 
0 0 0 0 0 0 0 0 0 
0 0 0 0 0 0 0 0 0 
0 0 0 0 0 0 0 0 0 
0 0 0 0 0 0 0 0 0 
0 0 0 0 0 0 0 0 0 
0 0 0 0 0 0 0 0 0 
0 0 0 0 0 0 0 0 0 
0 0 0 0 0 0 0 0 0 
0 0 0 0 0 0 0 0 0 
0 0 0 0 0 0 0 0 0 
0 0 0 0 0 0 0 0 0 
0 0 0 0 0 0 0 0 0 
0 0 0 0 0 0 0 0 0 
0 0 0 0 0 0 0 0 0 
0 0 0 0 0 0 0 0 0 
0 0 0 0 0 0 0 0 0 
0 0 0 0 0 0 0 0 0 
0 0 0 0 0 0 0 0 0 
0 0 0 0 0 0 0 0 0 
0 0 0 0 0 0 0 0 0 
0 0 0 0 0 0 0 0 0 
0 0 0 0 0 0 0 0 0 
0 0 0 0 0 0 0 0 0 
0 0 0 0 0 0 0 0 0 
0 0 0 0 0 0 0 0 0 
0 0 0 0 0 0 0 0 0 
0 0 0 0 0 0 0 0 0 
0 0 0 0 0 0 0 0 0 
0 0 0 0 0 0 0 0 0 
0 0 0 0 0 0 0 0 0 
0 0 0 0 0 0 0 0 0 
0 0 0 0 0 0 0 0 0 
0 0 0 0 0 0 0 0 0 
0 0 0 0 0 0 0 0 0 
0 0 0 0 0 0 0 0 0 
0 0 0 0 0 0 0 0 0 
0 0 0 0 0 0 0 0 0 
0 0 0 0 0 0 0 0 0 
0 0 0 0 0 0 0 0 0 
0 0 0 0 0 0 0 0 0 
0 0 0 0 0 0 0 0 0 
0 0 0 0 0 0 0 0 0 
0 0 0 0 0 0 0 0 0 
0 0 0 0 0 0 0 0 0 
0 0 0 0 0 0 0 0 0 
0 0 0 0 0 0 0 0 0 
0 0 0 0 0 0 0 0 0 
0 0 0 0 0 0 0 0 0 
0 0 0 0 0 0 0 0 0 
0 0 0 0 0 0 0 0 0 
0 0 0 0 0 0 0 0 0 
0 0 0 0 0 0 0 0 0 
0 0 0 0 0 0 0 0 0 
0 0 0 0 0 0 0 0 0 
0 0 0 0 0 0 0 0 0 
0 0 0 0 0 0 0 0 0 
0 0 0 0 0 0 0 0 0 
0 0 0 0 0 0 0 0 0 
0 0 0 0 0 0 0 0 0 
0 0 0 0 0 0 0 0 0 
0 0 0 0 0 0 0 0 0 
0 0 0 0 0 0 0 0 0 
0 0 0 0 0 0 0 0 0 
0 0 0 0 0 0 0 0 0 
0 0 0 0 0 0 0 0 0 
0 0 0 0 0 0 0 0 0 
0 0 0 0 0 0 0 0 0 
0 0 0 0 0 0 0 0 0 
0 0 0 0 0 0 0 0 0 
0 0 0 0 0 0 0 0 0 
0 0 0 0 0 0 0 0 0 
0 0 0 0 0 0 0 0 0 
0 0 0 0 0 0 0 0 0 
0 0 0 0 0 0 0 0 0 
0 0 0 0 0 0 0 0 0 
0 0 0 0 0 0 0 0 0 
0 0 0 0 0 0 0 0 0 
0 0 0 0 0 0 0 0 0 
0 0 0 0 0 0 0 0 0 
0 0 0 0 0 0 0 0 0 
0 0 0 0 0 0 0 0 0 
0 0 0 0 0 0 0 0 0 
0 0 0 0 0 0 0 0 0 
0 0 0 0 0 0 0 0 0 
0 0 0 0 0 0 0 0 0 
0 0 0 0 0 0 0 0 0 
0 0 0 0 0 0 0 0 0 
0 0 0 0 0 0 0 0 0 
0 0 0 0 0 0 0 0 0 
0 0 0 0 0 0 0 0 0 
0 0 0 0 0 0 0 0 0 
0 0 0 0 0 0 0 0 0 
0 0 0 0 0 0 0 0 0 
0 0 0 0 0 0 0 0 0 
0 0 0 0 0 0 0 0 0 
0 0 0 0 0 0 0 0 0 
0 0 0 0 0 0 0 0 0 
0 0 0 0 0 0 0 0 0 
0 0 0 0 0 0 0 0 0 
0 0 0 0 0 0 0 0 0 
0 0 0 0 0 0 0 0 0 
0 0 0 0 0 0 0 0 0 
0 0 0 0 0 0 0 0 0 
0 0 0 0 0 0 0 0 0 
0 0 0 0 0 0 0 0 0 
0 0 0 0 0 0 0 0 0 
0 0 0 0 0 0 0 0 0 
0 0 0 0 0 0 0 0 0 
0 0 0 0 0 0 0 0 0 
0 0 0 0 0 0 0 0 0 
0 0 0 0 0 0 0 0 0 
0 0 0 0 0 0 0 0 0 
0 0 0 0 0 0 0 0 0 
0 0 0 0 0 0 0 0 0 
0 0 0 0 0 0 0 0 0 
0 0 0 0 0 0 0 0 0 
0 0 0 0 0 0 0 0 0 
0 0 0 0 0 0 0 0 0 
0 0 0 0 0 0 0 0 0 
0 0 0 0 0 0 0 0 0 
0 0 0 0 0 0 0 0 0 
0 0 0 0 0 0 0 0 0 
0 0 0 0 0 0 0 0 0 
0 0 0 0 0 0 0 0 0 
0 0 0 0 0 0 0 0 0 
0 0 0 0 0 0 0 0 0 
0 0 0 0 0 0 0 0 0 
0 0 0 0 0 0 0 0 0 
0 0 0 0 0 0 0 0 0 
0 0 0 0 0 0 0 0 0 
0 0 0 0 0 0 0 0 0 
0 0 0 0 0 0 0 0 0 
0 0 0 0 0 0 0 0 0 
0 0 0 0 0 0 0 0 0 
0 0 0 0 0 0 0 0 0 
0 0 0 0 0 0 0 0 0 
0 0 0 0 0 0 0 0 0 
0 0 0 0 0 0 0 0 0 
0 0 0 0 0 0 0 0 0 
0 0 0 0 0 0 0 0 0 
0 0 0 0 0 0 0 0 0 
0 0 0 0 0 0 0 0 0 
0 0 0 0 0 0 0 0 0 
0 0 0 0 0 0 0 0 0 
0 0 0 0 0 0 0 0 0 
0 0 0 0 0 0 0 0 0 
0 0 0 0 0 0 0 0 0 
0 0 0 0 0 0 0 0 0 
0 0 0 0 0 0 0 0 0 
0 0 0 0 0 0 0 0 0 
0 0 0 0 0 0 0 0 0 
0 0 0 0 0 0 0 0 0 
0 0 0 0 0 0 0 0 0 
0 0 0 0 0 0 0 0 0 
0 0 0 0 0 0 0 0 0 
0 0 0 0 0 0 0 0 0 
0 0 0 0 0 0 0 0 0 
0 0 0 0 0 0 0 0 0 
0 0 0 0 0 0 0 0 0 
0 0 0 0 0 0 0 0 0 
0 0 0 0 0 0 0 0 0 
0 0 0 0 0 0 0 0 0 
0 0 0 0 0 0 0 0 0 
0 0 0 0 0 0 0 0 0 
0 0 0 0 0 0 0 0 0 
0 0 0 0 0 0 0 0 0 
0 0 0 0 0 0 0 0 0 
0 0 0 0 0 0 0 0 0 
0 0 0 0 0 0 0 0 0 
0 0 0 0 0 0 0 0 0 
0 0 0 0 0 0 0 0 0 
0 0 0 0 0 0 0 0 0 
0 0 0 0 0 0 0 0 0 
0 0 0 0 0 0 0 0 0 
0 0 0 0 0 0 0 0 0 
0 0 0 0 0 0 0 0 0 
0 0 0 0 0 0 0 0 0 
0 0 0 0 0 0 0 0 0 
0 0 0 0 0 0 0 0 0 
0 0 0 0 0 0 0 0 0 
0 0 0 0 0 0 0 0 0 
0 0 0 0 0 0 0 0 0 
0 0 0 0 0 0 0 0 0 
0 0 0 0 0 0 0 0 0 
0 0 0 0 0 0 0 0 0 
0 0 0 0 0 0 0 0 0 
0 0 0 0 0 0 0 0 0 
0 0 0 0 0 0 0 0 0 
0 0 0 0 0 0 0 0 0 
0 0 0 0 0 0 0 0 0 
0 0 0 0 0 0 0 0 0 
0 0 0 0 0 0 0 0 0 
0 0 0 0 0 0 0 0 0 
0 0 0 0 0 0 0 0 0 
0 0 0 0 0 0 0 0 0 
0 0 0 0 0 0 0 0 0 
0 0 0 0 0 0 0 0 0 
0 0 0 0 0 0 0 0 0 
0 0 0 0 0 0 0 0 0 
0 0 0 0 0 0 0 0 0 
0 0 0 0 0 0 0 0 0 
0 0 0 0 0 0 0 0 0 
0 0 0 0 0 0 0 0 0 
0 0 0 0 0 0 0 0 0 
0 0 0 0 0 0 0 0 0 
0 0 0 0 0 0 0 0 0 
0 0 0 0 0 0 0 0 0 
0 0 0 0 0 0 0 0 0 
0 0 0 0 0 0 0 0 0 
0 0 0 0 0 0 0 0 0 
0 0 0 0 0 0 0 0 0 
0 0 0 0 0 0 0 0 0 
0 0 0 0 0 0 0 0 0 
0 0 0 0 0 0 0 0 0 
0 0 0 0 0 0 0 0 0 
0 0 0 0 0 0 0 0 0 
0 0 0 0 0 0 0 0 0 
0 0 0 0 0 0 0 0 0 
0 0 0 0 0 0 0 0 0 
0 0 0 0 0 0 0 0 0 
0 0 0 0 0 0 0 0 0 
0 0 0 0 0 0 0 0 0 
0 0 0 0 0 0 0 0 0 
0 0 0 0 0 0 0 0 0 
0 0 0 0 0 0 0 0 0 
0 0 0 0 0 0 0 0 0 
0 0 0 0 0 0 0 0 0 
0 0 0 0 0 0 0 0 0 
0 0 0 0 0 0 0 0 0 
0 0 0 0 0 0 0 0 0 
0 0 0 0 0 0 0 0 0 
0 0 0 0 0 0 0 0 0 
0 0 0 0 0 0 0 0 0 
0 0 0 0 0 0 0 0 0 
0 0 0 0 0 0 0 0 0 
0 0 0 0 0 0 0 0 0 
0 0 0 0 0 0 0 0 0 
0 0 0 0 0 0 0 0 0 
0 0 0 0 0 0 0 0 0 
0 0 0 0 0 0 0 0 0 
0 0 0 0 0 0 0 0 0 
0 0 0 0 0 0 0 0 0 
0 0 0 0 0 0 0 0 0 
0 0 0 0 0 0 0 0 0 
0 0 0 0 0 0 0 0 0 
0 0 0 0 0 0 0 0 0 
0 0 0 0 0 0 0 0 0 
0 0 0 0 0 0 0 0 0 
0 0 0 0 0 0 0 0 0 
0 0 0 0 0 0 0 0 0 
0 0 0 0 0 0 0 0 0 
0 0 0 0 0 0 0 0 0 
0 0 0 0 0 0 0 0 0 
0 0 0 0 0 0 0 0 0 
0 0 0 0 0 0 0 0 0 
0 0 0 0 0 0 0 0 0 
0 0 0 0 0 0 0 0 0 
0 0 0 0 0 0 0 0 0 
0 0 0 0 0 0 0 0 0 
0 0 0 0 0 0 0 0 0 
0 0 0 0 0 0 0 0 0 
0 0 0 0 0 0 0 0 0 
0 0 0 0 0 0 0 0 0 
0 0 0 0 0 0 0 0 0 
0 0 0 0 0 0 0 0 0 
0 0 0 0 0 0 0 0 0 
0 0 0 0 0 0 0 0 0 
0 0 0 0 0 0 0 0 0 
0 0 0 0 0 0 0 0 0 
0 0 0 0 0 0 0 0 0 
0 0 0 0 0 0 0 0 0 
0 0 0 0 0 0 0 0 0 
0 0 0 0 0 0 0 0 0 
0 0 0 0 0 0 0 0 0 
0 0 0 0 0 0 0 0 0 
0 0 0 0 0 0 0 0 0 
0 0 0 0 0 0 0 0 0 
0 0 0 0 0 0 0 0 0 
0 0 0 0 0 0 0 0 0 
0 0 0 0 0 0 0 0 0 
0 0 0 0 0 0 0 0 0 
0 0 0 0 0 0 0 0 0 
0 0 0 0 0 0 0 0 0 
0 0 0 0 0 0 0 0 0 
0 0 0 0 0 0 0 0 0 
0 0 0 0 0 0 0 0 0 
0 0 0 0 0 0 0 0 0 
0 0 0 0 0 0 0 0 0 
0 0 0 0 0 0 0 0 0 
0 0 0 0 0 0 0 0 0 
0 0 0 0 0 0 0 0 0 
0 0 0 0 0 0 0 0 0 
0 0 0 0 0 0 0 0 0 
0 0 0 0 0 0 0 0 0 
0 0 0 0 0 0 0 0 0 
0 0 0 0 0 0 0 0 0 
0 0 0 0 0 0 0 0 0 
0 0 0 0 0 0 0 0 0 
0 0 0 0 0 0 0 0 0 
0 0 0 0 0 0 0 0 0 
0 0 0 0 0 0 0 0 0 
0 0 0 0 0 0 0 0 0 
0 0 0 0 0 0 0 0 0 
0 0 0 0 0 0 0 0 0 
0 0 0 0 0 0 0 0 0 
0 0 0 0 0 0 0 0 0 
0 0 0 0 0 0 0 0 0 
0 0 0 0 0 0 0 0 0 
0 0 0 0 0 0 0 0 0 
0 0 0 0 0 0 0 0 0 
0 0 0 0 0 0 0 0 0 
0 0 0 0 0 0 0 0 0 
0 0 0 0 0 0 0 0 0 
0 0 0 0 0 0 0 0 0 
0 0 0 0 0 0 0 0 0 
0 0 0 0 0 0 0 0 0 
0 0 0 0 0 0 0 0 0 
0 0 0 0 0 0 0 0 0 
0 0 0 0 0 0 0 0 0 
0 0 0 0 0 0 0 0 0 
0 0 0 0 0 0 0 0 0 
0 0 0 0 0 0 0 0 0 
0 0 0 0 0 0 0 0 0 
0 0 0 0 0 0 0 0 0 
0 0 0 0 0 0 0 0 0 
0 0 0 0 0 0 0 0 0 
0 0 0 0 0 0 0 0 0 
0 0 0 0 0 0 0 0 0 
0 0 0 0 0 0 0 0 0 
0 0 0 0 0 0 0 0 0 
0 0 0 0 0 0 0 0 0 
0 0 0 0 0 0 0 0 0 
0 0 0 0 0 0 0 0 0 
0 0 0 0 0 0 0 0 0 
0 0 0 0 0 0 0 0 0 
0 0 0 0 0 0 0 0 0 
0 0 0 0 0 0 0 0 0 
0 0 0 0 0 0 0 0 0 
0 0 0 0 0 0 0 0 0 
0 0 0 0 0 0 0 0 0 
0 0 0 0 0 0 0 0 0 
0 0 0 0 0 0 0 0 0 
0 0 0 0 0 0 0 0 0 
0 0 0 0 0 0 0 0 0 
0 0 0 0 0 0 0 0 0 
0 0 0 0 0 0 0 0 0 
0 0 0 0 0 0 0 0 0 
0 0 0 0 0 0 0 0 0 
0 0 0 0 0 0 0 0 0 
0 0 0 0 0 0 0 0 0 
0 0 0 0 0 0 0 0 0 
0 0 0 0 0 0 0 0 0 
0 0 0 0 0 0 0 0 0 
0 0 0 0 0 0 0 0 0 
0 0 0 0 0 0 0 0 0 
0 0 0 0 0 0 0 0 0 
0 0 0 0 0 0 0 0 0 
0 0 0 0 0 0 0 0 0 
0 0 0 0 0 0 0 0 0 
0 0 0 0 0 0 0 0 0 
0 0 0 0 0 0 0 0 0 
0 0 0 0 0 0 0 0 0 
0 0 0 0 0 0 0 0 0 
0 0 0 0 0 0 0 0 0 
0 0 0 0 0 0 0 0 0 
0 0 0 0 0 0 0 0 0 
0 0 0 0 0 0 0 0 0 
0 0 0 0 0 0 0 0 0 
0 0 0 0 0 0 0 0 0 
0 0 0 0 0 0 0 0 0 
0 0 0 0 0 0 0 0 0 
0 0 0 0 0 0 0 0 0 
0 0 0 0 0 0 0 0 0 
0 0 0 0 0 0 0 0 0 
0 0 0 0 0 0 0 0 0 
0 0 0 0 0 0 0 0 0 
0 0 0 0 0 0 0 0 0 
0 0 0 0 0 0 0 0 0 
0 0 0 0 0 0 0 0 0 
0 0 0 0 0 0 0 0 0 
0 0 0 0 0 0 0 0 0 
0 0 0 0 0 0 0 0 0 
0 0 0 0 0 0 0 0 0 
0 0 0 0 0 0 0 0 0 
0 0 0 0 0 0 0 0 0 
0 0 0 0 0 0 0 0 0 
0 0 0 0 0 0 0 0 0 
0 0 0 0 0 0 0 0 0 
0 0 0 0 0 0 0 0 0 
0 0 0 0 0 0 0 0 0 
0 0 0 0 0 0 0 0 0 
0 0 0 0 0 0 0 0 0 
0 0 0 0 0 0 0 0 0 
0 0 0 0 0 0 0 0 0 
0 0 0 0 0 0 0 0 0 
0 0 0 0 0 0 0 0 0 
0 0 0 0 0 0 0 0 0 
0 0 0 0 0 0 0 0 0 
0 0 0 0 0 0 0 0 0 
0 0 0 0 0 0 0 0 0 
0 0 0 0 0 0 0 0 0 
0 0 0 0 0 0 0 0 0 
0 0 0 0 0 0 0 0 0 
0 0 0 0 0 0 0 0 0 
0 0 0 0 0 0 0 0 0 
0 0 0 0 0 0 0 0 0 
0 0 0 0 0 0 0 0 0 
0 0 0 0 0 0 0 0 0 
0 0 0 0 0 0 0 0 0 
0 0 0 0 0 0 0 0 0 
0 0 0 0 0 0 0 0 0 
0 0 0 0 0 0 0 0 0 
0 0 0 0 0 0 0 0 0 
0 0 0 0 0 0 0 0 0 
0 0 0 0 0 0 0 0 0 
0 0 0 0 0 0 0 0 0 
0 0 0 0 0 0 0 0 0 
0 0 0 0 0 0 0 0 0 
0 0 0 0 0 0 0 0 0 
0 0 0 0 0 0 0 0 0 
0 0 0 0 0 0 0 0 0 
0 0 0 0 0 0 0 0 0 
0 0 0 0 0 0 0 0 0 
0 0 0 0 0 0 0 0 0 
0 0 0 0 0 0 0 0 0 
0 0 0 0 0 0 0 0 0 
0 0 0 0 0 0 0 0 0 
0 0 0 0 0 0 0 0 0 
0 0 0 0 0 0 0 0 0 
0 0 0 0 0 0 0 0 0 
0 0 0 0 0 0 0 0 0 
0 0 0 0 0 0 0 0 0 
0 0 0 0 0 0 0 0 0 
0 0 0 0 0 0 0 0 0 
0 0 0 0 0 0 0 0 0 
0 0 0 0 0 0 0 0 0 
0 0 0 0 0 0 0 0 0 
0 0 0 0 0 0 0 0 0 
0 0 0 0 0 0 0 0 0 
0 0 0 0 0 0 0 0 0 
0 0 0 0 0 0 0 0 0 
0 0 0 0 0 0 0 0 0 
0 0 0 0 0 0 0 0 0 
0 0 0 0 0 0 0 0 0 
0 0 0 0 0 0 0 0 0 
0 0 0 0 0 0 0 0 0 
0 0 0 0 0 0 0 0 0 
0 0 0 0 0 0 0 0 0 
0 0 0 0 0 0 0 0 0 
0 0 0 0 0 0 0 0 0 
0 0 0 0 0 0 0 0 0 
0 0 0 0 0 0 0 0 0 
0 0 0 0 0 0 0 0 0 
0 0 0 0 0 0 0 0 0 
0 0 0 0 0 0 0 0 0 
0 0 0 0 0 0 0 0 0 
0 0 0 0 0 0 0 0 0 
0 0 0 0 0 0 0 0 0 
0 0 0 0 0 0 0 0 0 
0 0 0 0 0 0 0 0 0 
0 0 0 0 0 0 0 0 0 
0 0 0 0 0 0 0 0 0 
0 0 0 0 0 0 0 0 0 
0 0 0 0 0 0 0 0 0 
0 0 0 0 0 0 0 0 0 
0 0 0 0 0 0 0 0 0 
0 0 0 0 0 0 0 0 0 
0 0 0 0 0 0 0 0 0 
0 0 0 0 0 0 0 0 0 
0 0 0 0 0 0 0 0 0 
0 0 0 0 0 0 0 0 0 
0 0 0 0 0 0 0 0 0 
0 0 0 0 0 0 0 0 0 
0 0 0 0 0 0 0 0 0 
0 0 0 0 0 0 0 0 0 
0 0 0 0 0 0 0 0 0 
0 0 0 0 0 0 0 0 0 
0 0 0 0 0 0 0 0 0 
0 0 0 0 0 0 0 0 0 
0 0 0 0 0 0 0 0 0 
0 0 0 0 0 0 0 0 0 
0 0 0 0 0 0 0 0 0 
0 0 0 0 0 0 0 0 0 
0 0 0 0 0 0 0 0 0 
0 0 0 0 0 0 0 0 0 
0 0 0 0 0 0 0 0 0 
0 0 0 0 0 0 0 0 0 
0 0 0 0 0 0 0 0 0 
0 0 0 0 0 0 0 0 0 
0 0 0 0 0 0 0 0 0 
0 0 0 0 0 0 0 0 0 
0 0 0 0 0 0 0 0 0 
0 0 0 0 0 0 0 0 0 
0 0 0 0 0 0 0 0 0 
0 0 0 0 0 0 0 0 0 
0 0 0 0 0 0 0 0 0 
0 0 0 0 0 0 0 0 0 
0 0 0 0 0 0 0 0 0 
0 0 0 0 0 0 0 0 0 
0 0 0 0 0 0 0 0 0 
0 0 0 0 0 0 0 0 0 
0 0 0 0 0 0 0 0 0 
0 0 0 0 0 0 0 0 0 
0 0 0 0 0 0 0 0 0 
0 0 0 0 0 0 0 0 0 
0 0 0 0 0 0 0 0 0 
0 0 0 0 0 0 0 0 0 
0 0 0 0 0 0 0 0 0 
0 0 0 0 0 0 0 0 0 
0 0 0 0 0 0 0 0 0 
0 0 0 0 0 0 0 0 0 
0 0 0 0 0 0 0 0 0 
0 0 0 0 0 0 0 0 0 
0 0 0 0 0 0 0 0 0 
0 0 0 0 0 0 0 0 0 
0 0 0 0 0 0 0 0 0 
0 0 0 0 0 0 0 0 0 
0 0 0 0 0 0 0 0 0 
0 0 0 0 0 0 0 0 0 
0 0 0 0 0 0 0 0 0 
0 0 0 0 0 0 0 0 0 
0 0 0 0 0 0 0 0 0 
0 0 0 0 0 0 0 0 0 
0 0 0 0 0 0 0 0 0 
0 0 0 0 0 0 0 0 0 
0 0 0 0 0 0 0 0 0 
0 0 0 0 0 0 0 0 0 
0 0 0 0 0 0 0 0 0 
0 0 0 0 0 0 0 0 0 
0 0 0 0 0 0 0 0 0 
0 0 0 0 0 0 0 0 0 
0 0 0 0 0 0 0 0 0 
0 0 0 0 0 0 0 0 0 
0 0 0 0 0 0 0 0 0 
0 0 0 0 0 0 0 0 0 
0 0 0 0 0 0 0 0 0 
0 0 0 0 0 0 0 0 0 
0 0 0 0 0 0 0 0 0 
0 0 0 0 0 0 0 0 0 
0 0 0 0 0 0 0 0 0 
0 0 0 0 0 0 0 0 0 
0 0 0 0 0 0 0 0 0 
0 0 0 0 0 0 0 0 0 
0 0 0 0 0 0 0 0 0 
0 0 0 0 0 0 0 0 0 
0 0 0 0 0 0 0 0 0 
0 0 0 0 0 0 0 0 0 
0 0 0 0 0 0 0 0 0 
0 0 0 0 0 0 0 0 0 
0 0 0 0 0 0 0 0 0 
0 0 0 0 0 0 0 0 0 
0 0 0 0 0 0 0 0 0 
0 0 0 0 0 0 0 0 0 
0 0 0 0 0 0 0 0 0 
0 0 0 0 0 0 0 0 0 
0 0 0 0 0 0 0 0 0 
0 0 0 0 0 0 0 0 0 
0 0 0 0 0 0 0 0 0 
0 0 0 0 0 0 0 0 0 
0 0 0 0 0 0 0 0 0 
0 0 0 0 0 0 0 0 0 
0 0 0 0 0 0 0 0 0 
0 0 0 0 0 0 0 0 0 
0 0 0 0 0 0 0 0 0 
0 0 0 0 0 0 0 0 0 
0 0 0 0 0 0 0 0 0 
0 0 0 0 0 0 0 0 0 
0 0 0 0 0 0 0 0 0 
0 0 0 0 0 0 0 0 0 
0 0 0 0 0 0 0 0 0 
0 0 0 0 0 0 0 0 0 
0 0 0 0 0 0 0 0 0 
0 0 0 0 0 0 0 0 0 
0 0 0 0 0 0 0 0 0 
0 0 0 0 0 0 0 0 0 
0 0 0 0 0 0 0 0 0 
0 0 0 0 0 0 0 0 0 
0 0 0 0 0 0 0 0 0 
0 0 0 0 0 0 0 0 0 
0 0 0 0 0 0 0 0 0 
0 0 0 0 0 0 0 0 0 
0 0 0 0 0 0 0 0 0 
0 0 0 0 0 0 0 0 0 
0 0 0 0 0 0 0 0 0 
0 0 0 0 0 0 0 0 0 
0 0 0 0 0 0 0 0 0 
0 0 0 0 0 0 0 0 0 
0 0 0 0 0 0 0 0 0 
0 0 0 0 0 0 0 0 0 
0 0 0 0 0 0 0 0 0 
0 0 0 0 0 0 0 0 0 
0 0 0 0 0 0 0 0 0 
0 0 0 0 0 0 0 0 0 
0 0 0 0 0 0 0 0 0 
0 0 0 0 0 0 0 0 0 
0 0 0 0 0 0 0 0 0 
0 0 0 0 0 0 0 0 0 
0 0 0 0 0 0 0 0 0 
0 0 0 0 0 0 0 0 0 
0 0 0 0 0 0 0 0 0 
0 0 0 0 0 0 0 0 0 
0 0 0 0 0 0 0 0 0 
0 0 0 0 0 0 0 0 0 
0 0 0 0 0 0 0 0 0 
0 0 0 0 0 0 0 0 0 
0 0 0 0 0 0 0 0 0 
0 0 0 0 0 0 0 0 0 
0 0 0 0 0 0 0 0 0 
0 0 0 0 0 0 0 0 0 
0 0 0 0 0 0 0 0 0 
0 0 0 0 0 0 0 0 0 
0 0 0 0 0 0 0 0 0 
0 0 0 0 0 0 0 0 0 
0 0 0 0 0 0 0 0 0 
0 0 0 0 0 0 0 0 0 
0 0 0 0 0 0 0 0 0 
0 0 0 0 0 0 0 0 0 
0 0 0 0 0 0 0 0 0 
0 0 0 0 0 0 0 0 0 
0 0 0 0 0 0 0 0 0 
0 0 0 0 0 0 0 0 0 
0 0 0 0 0 0 0 0 0 
0 0 0 0 0 0 0 0 0 
0 0 0 0 0 0 0 0 0 
0 0 0 0 0 0 0 0 0 
0 0 0 0 0 0 0 0 0 
0 0 0 0 0 0 0 0 0 
0 0 0 0 0 0 0 0 0 
0 0 0 0 0 0 0 0 0 
0 0 0 0 0 0 0 0 0 
0 0 0 0 0 0 0 0 0 
0 0 0 0 0 0 0 0 0 
0 0 0 0 0 0 0 0 0 
0 0 0 0 0 0 0 0 0 
0 0 0 0 0 0 0 0 0 
0 0 0 0 0 0 0 0 0 
0 0 0 0 0 0 0 0 0 
0 0 0 0 0 0 0 0 0 
0 0 0 0 0 0 0 0 0 
0 0 0 0 0 0 0 0 0 
0 0 0 0 0 0 0 0 0 
0 0 0 0 0 0 0 0 0 
0 0 0 0 0 0 0 0 0 
0 0 0 0 0 0 0 0 0 
0 0 0 0 0 0 0 0 0 
0 0 0 0 0 0 0 0 0 
0 0 0 0 0 0 0 0 0 
0 0 0 0 0 0 0 0 0 
0 0 0 0 0 0 0 0 0 
0 0 0 0 0 0 0 0 0 
0 0 0 0 0 0 0 0 0 
0 0 0 0 0 0 0 0 0 
0 0 0 0 0 0 0 0 0 
0 0 0 0 0 0 0 0 0 
0 0 0 0 0 0 0 0 0 
0 0 0 0 0 0 0 0 0 
0 0 0 0 0 0 0 0 0 
0 0 0 0 0 0 0 0 0 
0 0 0 0 0 0 0 0 0 
0 0 0 0 0 0 0 0 0 
0 0 0 0 0 0 0 0 0 
0 0 0 0 0 0 0 0 0 
0 0 0 0 0 0 0 0 0 
0 0 0 0 0 0 0 0 0 
0 0 0 0 0 0 0 0 0 
0 0 0 0 0 0 0 0 0 
0 0 0 0 0 0 0 0 0 
0 0 0 0 0 0 0 0 0 
0 0 0 0 0 0 0 0 0 
0 0 0 0 0 0 0 0 0 
0 0 0 0 0 0 0 0 0 
0 0 0 0 0 0 0 0 0 
0 0 0 0 0 0 0 0 0 
0 0 0 0 0 0 0 0 0 
0 0 0 0 0 0 0 0 0 
0 0 0 0 0 0 0 0 0 
0 0 0 0 0 0 0 0 0 
0 0 0 0 0 0 0 0 0 
0 0 0 0 0 0 0 0 0 
0 0 0 0 0 0 0 0 0 
0 0 0 0 0 0 0 0 0 
0 0 0 0 0 0 0 0 0 
0 0 0 0 0 0 0 0 0 
0 0 0 0 0 0 0 0 0 
0 0 0 0 0 0 0 0 0 
0 0 0 0 0 0 0 0 0 
0 0 0 0 0 0 0 0 0 
0 0 0 0 0 0 0 0 0 
0 0 0 0 0 0 0 0 0 
0 0 0 0 0 0 0 0 0 
0 0 0 0 0 0 0 0 0 
0 0 0 0 0 0 0 0 0 
0 0 0 0 0 0 0 0 0 
0 0 0 0 0 0 0 0 0 
0 0 0 0 0 0 0 0 0 
0 0 0 0 0 0 0 0 0 
0 0 0 0 0 0 0 0 0 
0 0 0 0 0 0 0 0 0 
0 0 0 0 0 0 0 0 0 
0 0 0 0 0 0 0 0 0 
0 0 0 0 0 0 0 0 0 
0 0 0 0 0 0 0 0 0 
0 0 0 0 0 0 0 0 0 
0 0 0 0 0 0 0 0 0 
0 0 0 0 0 0 0 0 0 
0 0 0 0 0 0 0 0 0 
0 0 0 0 0 0 0 0 0 
0 0 0 0 0 0 0 0 0 
0 0 0 0 0 0 0 0 0 
0 0 0 0 0 0 0 0 0 
0 0 0 0 0 0 0 0 0 
0 0 0 0 0 0 0 0 0 
0 0 0 0 0 0 0 0 0 
0 0 0 0 0 0 0 0 0 
0 0 0 0 0 0 0 0 0 
0 0 0 0 0 0 0 0 0 
0 0 0 0 0 0 0 0 0 
0 0 0 0 0 0 0 0 0 
0 0 0 0 0 0 0 0 0 
0 0 0 0 0 0 0 0 0 
0 0 0 0 0 0 0 0 0 
0 0 0 0 0 0 0 0 0 
0 0 0 0 0 0 0 0 0 
0 0 0 0 0 0 0 0 0 
0 0 0 0 0 0 0 0 0 
0 0 0 0 0 0 0 0 0 
0 0 0 0 0 0 0 0 0 
0 0 0 0 0 0 0 0 0 
0 0 0 0 0 0 0 0 0 
0 0 0 0 0 0 0 0 0 
0 0 0 0 0 0 0 0 0 
0 0 0 0 0 0 0 0 0 
0 0 0 0 0 0 0 0 0 
0 0 0 0 0 0 0 0 0 
0 0 0 0 0 0 0 0 0 
0 0 0 0 0 0 0 0 0 
0 0 0 0 0 0 0 0 0 
0 0 0 0 0 0 0 0 0 
0 0 0 0 0 0 0 0 0 
0 0 0 0 0 0 0 0 0 
0 0 0 0 0 0 0 0 0 
0 0 0 0 0 0 0 0 0 
0 0 0 0 0 0 0 0 0 
0 0 0 0 0 0 0 0 0 
0 0 0 0 0 0 0 0 0 
0 0 0 0 0 0 0 0 0 
0 0 0 0 0 0 0 0 0 
0 0 0 0 0 0 0 0 0 
0 0 0 0 0 0 0 0 0 
0 0 0 0 0 0 0 0 0 
0 0 0 0 0 0 0 0 0 
0 0 0 0 0 0 0 0 0 
0 0 0 0 0 0 0 0 0 
0 0 0 0 0 0 0 0 0 
0 0 0 0 0 0 0 0 0 
0 0 0 0 0 0 0 0 0 
0 0 0 0 0 0 0 0 0 
0 0 0 0 0 0 0 0 0 
0 0 0 0 0 0 0 0 0 
0 0 0 0 0 0 0 0 0 
0 0 0 0 0 0 0 0 0 
0 0 0 0 0 0 0 0 0 
0 0 0 0 0 0 0 0 0 
0 0 0 0 0 0 0 0 0 
0 0 0 0 0 0 0 0 0 
0 0 0 0 0 0 0 0 0 
0 0 0 0 0 0 0 0 0 
0 0 0 0 0 0 0 0 0 
0 0 0 0 0 0 0 0 0 
0 0 0 0 0 0 0 0 0 
0 0 0 0 0 0 0 0 0 
0 0 0 0 0 0 0 0 0 
0 0 0 0 0 0 0 0 0 
0 0 0 0 0 0 0 0 0 
0 0 0 0 0 0 0 0 0 
0 0 0 0 0 0 0 0 0 
0 0 0 0 0 0 0 0 0 
0 0 0 0 0 0 0 0 0 
0 0 0 0 0 0 0 0 0 
0 0 0 0 0 0 0 0 0 
0 0 0 0 0 0 0 0 0 
0 0 0 0 0 0 0 0 0 
0 0 0 0 0 0 0 0 0 
0 0 0 0 0 0 0 0 0 
0 0 0 0 0 0 0 0 0 
0 0 0 0 0 0 0 0 0 
0 0 0 0 0 0 0 0 0 
0 0 0 0 0 0 0 0 0 
0 0 0 0 0 0 0 0 0 
0 0 0 0 0 0 0 0 0 
0 0 0 0 0 0 0 0 0 
0 0 0 0 0 0 0 0 0 
0 0 0 0 0 0 0 0 0 
0 0 0 0 0 0 0 0 0 
0 0 0 0 0 0 0 0 0 
0 0 0 0 0 0 0 0 0 
0 0 0 0 0 0 0 0 0 
0 0 0 0 0 0 0 0 0 
0 0 0 0 0 0 0 0 0 
0 0 0 0 0 0 0 0 0 
0 0 0 0 0 0 0 0 0 
0 0 0 0 0 0 0 0 0 
0 0 0 0 0 0 0 0 0 
0 0 0 0 0 0 0 0 0 
0 0 0 0 0 0 0 0 0 
0 0 0 0 0 0 0 0 0 
0 0 0 0 0 0 0 0 0 
0 0 0 0 0 0 0 0 0 
0 0 0 0 0 0 0 0 0 
0 0 0 0 0 0 0 0 0 
0 0 0 0 0 0 0 0 0 
0 0 0 0 0 0 0 0 0 
0 0 0 0 0 0 0 0 0 
0 0 0 0 0 0 0 0 0 
0 0 0 0 0 0 0 0 0 
0 0 0 0 0 0 0 0 0 
0 0 0 0 0 0 0 0 0 
0 0 0 0 0 0 0 0 0 
0 0 0 0 0 0 0 0 0 
0 0 0 0 0 0 0 0 0 
0 0 0 0 0 0 0 0 0 
0 0 0 0 0 0 0 0 0 
0 0 0 0 0 0 0 0 0 
0 0 0 0 0 0 0 0 0 
0 0 0 0 0 0 0 0 0 
0 0 0 0 0 0 0 0 0 
0 0 0 0 0 0 0 0 0 
0 0 0 0 0 0 0 0 0 
0 0 0 0 0 0 0 0 0 
0 0 0 0 0 0 0 0 0 
0 0 0 0 0 0 0 0 0 
0 0 0 0 0 0 0 0 0 
0 0 0 0 0 0 0 0 0 
0 0 0 0 0 0 0 0 0 
0 0 0 0 0 0 0 0 0 
0 0 0 0 0 0 0 0 0 
0 0 0 0 0 0 0 0 0 
0 0 0 0 0 0 0 0 0 
0 0 0 0 0 0 0 0 0 
0 0 0 0 0 0 0 0 0 
0 0 0 0 0 0 0 0 0 
0 0 0 0 0 0 0 0 0 
0 0 0 0 0 0 0 0 0 
0 0 0 0 0 0 0 0 0 
0 0 0 0 0 0 0 0 0 
0 0 0 0 0 0 0 0 0 
0 0 0 0 0 0 0 0 0 
0 0 0 0 0 0 0 0 0 
0 0 0 0 0 0 0 0 0 
0 0 0 0 0 0 0 0 0 
0 0 0 0 0 0 0 0 0 
0 0 0 0 0 0 0 0 0 
0 0 0 0 0 0 0 0 0 
0 0 0 0 0 0 0 0 0 
0 0 0 0 0 0 0 0 0 
0 0 0 0 0 0 0 0 0 
0 0 0 0 0 0 0 0 0 
0 0 0 0 0 0 0 0 0 
0 0 0 0 0 0 0 0 0 
0 0 0 0 0 0 0 0 0 
0 0 0 0 0 0 0 0 0 
0 0 0 0 0 0 0 0 0 
0 0 0 0 0 0 0 0 0 
0 0 0 0 0 0 0 0 0 
0 0 0 0 0 0 0 0 0 
0 0 0 0 0 0 0 0 0 
0 0 0 0 0 0 0 0 0 
0 0 0 0 0 0 0 0 0 
0 0 0 0 0 0 0 0 0 
0 0 0 0 0 0 0 0 0 
0 0 0 0 0 0 0 0 0 
0 0 0 0 0 0 0 0 0 
0 0 0 0 0 0 0 0 0 
0 0 0 0 0 0 0 0 0 
0 0 0 0 0 0 0 0 0 
0 0 0 0 0 0 0 0 0 
0 0 0 0 0 0 0 0 0 
0 0 0 0 0 0 0 0 0 
0 0 0 0 0 0 0 0 0 
0 0 0 0 0 0 0 0 0 
0 0 0 0 0 0 0 0 0 
0 0 0 0 0 0 0 0 0 
0 0 0 0 0 0 0 0 0 
0 0 0 0 0 0 0 0 0 
0 0 0 0 0 0 0 0 0 
0 0 0 0 0 0 0 0 0 
0 0 0 0 0 0 0 0 0 
0 0 0 0 0 0 0 0 0 
0 0 0 0 0 0 0 0 0 
0 0 0 0 0 0 0 0 0 
0 0 0 0 0 0 0 0 0 
0 0 0 0 0 0 0 0 0 
0 0 0 0 0 0 0 0 0 
0 0 0 0 0 0 0 0 0 
0 0 0 0 0 0 0 0 0 
0 0 0 0 0 0 0 0 0 
0 0 0 0 0 0 0 0 0 
0 0 0 0 0 0 0 0 0 
0 0 0 0 0 0 0 0 0 
0 0 0 0 0 0 0 0 0 
0 0 0 0 0 0 0 0 0 
0 0 0 0 0 0 0 0 0 
0 0 0 0 0 0 0 0 0 
0 0 0 0 0 0 0 0 0 
0 0 0 0 0 0 0 0 0 
0 0 0 0 0 0 0 0 0 
0 0 0 0 0 0 0 0 0 
0 0 0 0 0 0 0 0 0 
0 0 0 0 0 0 0 0 0 
0 0 0 0 0 0 0 0 0 
0 0 0 0 0 0 0 0 0 
0 0 0 0 0 0 0 0 0 
0 0 0 0 0 0 0 0 0 
0 0 0 0 0 0 0 0 0 
0 0 0 0 0 0 0 0 0 
0 0 0 0 0 0 0 0 0 
0 0 0 0 0 0 0 0 0 
0 0 0 0 0 0 0 0 0 
0 0 0 0 0 0 0 0 0 
0 0 0 0 0 0 0 0 0 
0 0 0 0 0 0 0 0 0 
0 0 0 0 0 0 0 0 0 
0 0 0 0 0 0 0 0 0 
0 0 0 0 0 0 0 0 0 
0 0 0 0 0 0 0 0 0 
0 0 0 0 0 0 0 0 0 
0 0 0 0 0 0 0 0 0 
0 0 0 0 0 0 0 0 0 
0 0 0 0 0 0 0 0 0 
0 0 0 0 0 0 0 0 0 
0 0 0 0 0 0 0 0 0 
0 0 0 0 0 0 0 0 0 
0 0 0 0 0 0 0 0 0 
0 0 0 0 0 0 0 0 0 
0 0 0 0 0 0 0 0 0 
0 0 0 0 0 0 0 0 0 
0 0 0 0 0 0 0 0 0 
0 0 0 0 0 0 0 0 0 
0 0 0 0 0 0 0 0 0 
0 0 0 0 0 0 0 0 0 
0 0 0 0 0 0 0 0 0 
0 0 0 0 0 0 0 0 0 
0 0 0 0 0 0 0 0 0 
0 0 0 0 0 0 0 0 0 
0 0 0 0 0 0 0 0 0 
0 0 0 0 0 0 0 0 0 
0 0 0 0 0 0 0 0 0 
0 0 0 0 0 0 0 0 0 
0 0 0 0 0 0 0 0 0 
0 0 0 0 0 0 0 0 0 
0 0 0 0 0 0 0 0 0 
0 0 0 0 0 0 0 0 0 
0 0 0 0 0 0 0 0 0 
0 0 0 0 0 0 0 0 0 
0 0 0 0 0 0 0 0 0 
0 0 0 0 0 0 0 0 0 
0 0 0 0 0 0 0 0 0 
0 0 0 0 0 0 0 0 0 
0 0 0 0 0 0 0 0 0 
0 0 0 0 0 0 0 0 0 
0 0 0 0 0 0 0 0 0 
0 0 0 0 0 0 0 0 0 
0 0 0 0 0 0 0 0 0 
0 0 0 0 0 0 0 0 0 
0 0 0 0 0 0 0 0 0 
0 0 0 0 0 0 0 0 0 
0 0 0 0 0 0 0 0 0 
0 0 0 0 0 0 0 0 0 
0 0 0 0 0 0 0 0 0 
0 0 0 0 0 0 0 0 0 
0 0 0 0 0 0 0 0 0 
0 0 0 0 0 0 0 0 0 
0 0 0 0 0 0 0 0 0 
0 0 0 0 0 0 0 0 0 
0 0 0 0 0 0 0 0 0 
0 0 0 0 0 0 0 0 0 
0 0 0 0 0 0 0 0 0 
0 0 0 0 0 0 0 0 0 
0 0 0 0 0 0 0 0 0 
0 0 0 0 0 0 0 0 0 
0 0 0 0 0 0 0 0 0 
0 0 0 0 0 0 0 0 0 
0 0 0 0 0 0 0 0 0 
0 0 0 0 0 0 0 0 0 
0 0 0 0 0 0 0 0 0 
0 0 0 0 0 0 0 0 0 
0 0 0 0 0 0 0 0 0 
0 0 0 0 0 0 0 0 0 
0 0 0 0 0 0 0 0 0 
0 0 0 0 0 0 0 0 0 
0 0 0 0 0 0 0 0 0 
0 0 0 0 0 0 0 0 0 
0 0 0 0 0 0 0 0 0 
0 0 0 0 0 0 0 0 0 
0 0 0 0 0 0 0 0 0 
0 0 0 0 0 0 0 0 0 
0 0 0 0 0 0 0 0 0 
0 0 0 0 0 0 0 0 0 
0 0 0 0 0 0 0 0 0 
0 0 0 0 0 0 0 0 0 
0 0 0 0 0 0 0 0 0 
0 0 0 0 0 0 0 0 0 
0 0 0 0 0 0 0 0 0 
0 0 0 0 0 0 0 0 0 
0 0 0 0 0 0 0 0 0 
0 0 0 0 0 0 0 0 0 
0 0 0 0 0 0 0 0 0 
0 0 0 0 0 0 0 0 0 
0 0 0 0 0 0 0 0 0 
0 0 0 0 0 0 0 0 0 
0 0 0 0 0 0 0 0 0 
0 0 0 0 0 0 0 0 0 
0 0 0 0 0 0 0 0 0 
0 0 0 0 0 0 0 0 0 
0 0 0 0 0 0 0 0 0 
0 0 0 0 0 0 0 0 0 
0 0 0 0 0 0 0 0 0 
0 0 0 0 0 0 0 0 0 
0 0 0 0 0 0 0 0 0 
0 0 0 0 0 0 0 0 0 
0 0 0 0 0 0 0 0 0 
0 0 0 0 0 0 0 0 0 
0 0 0 0 0 0 0 0 0 
0 0 0 0 0 0 0 0 0 
0 0 0 0 0 0 0 0 0 
0 0 0 0 0 0 0 0 0 
0 0 0 0 0 0 0 0 0 
0 0 0 0 0 0 0 0 0 
0 0 0 0 0 0 0 0 0 
0 0 0 0 0 0 0 0 0 
0 0 0 0 0 0 0 0 0 
0 0 0 0 0 0 0 0 0 
0 0 0 0 0 0 0 0 0 
0 0 0 0 0 0 0 0 0 
0 0 0 0 0 0 0 0 0 
0 0 0 0 0 0 0 0 0 
0 0 0 0 0 0 0 0 0 
0 0 0 0 0 0 0 0 0 
0 0 0 0 0 0 0 0 0 
0 0 0 0 0 0 0 0 0 
0 0 0 0 0 0 0 0 0 
0 0 0 0 0 0 0 0 0 
0 0 0 0 0 0 0 0 0 
0 0 0 0 0 0 0 0 0 
0 0 0 0 0 0 0 0 0 
0 0 0 0 0 0 0 0 0 
0 0 0 0 0 0 0 0 0 
0 0 0 0 0 0 0 0 0 
0 0 0 0 0 0 0 0 0 
0 0 0 0 0 0 0 0 0 
0 0 0 0 0 0 0 0 0 
0 0 0 0 0 0 0 0 0 
0 0 0 0 0 0 0 0 0 
0 0 0 0 0 0 0 0 0 
0 0 0 0 0 0 0 0 0 
0 0 0 0 0 0 0 0 0 
0 0 0 0 0 0 0 0 0 
0 0 0 0 0 0 0 0 0 
0 0 0 0 0 0 0 0 0 
0 0 0 0 0 0 0 0 0 
0 0 0 0 0 0 0 0 0 
0 0 0 0 0 0 0 0 0 
0 0 0 0 0 0 0 0 0 
0 0 0 0 0 0 0 0 0 
0 0 0 0 0 0 0 0 0 
0 0 0 0 0 0 0 0 0 
0 0 0 0 0 0 0 0 0 
0 0 0 0 0 0 0 0 0 
0 0 0 0 0 0 0 0 0 
0 0 0 0 0 0 0 0 0 
0 0 0 0 0 0 0 0 0 
0 0 0 0 0 0 0 0 0 
0 0 0 0 0 0 0 0 0 
0 0 0 0 0 0 0 0 0 
0 0 0 0 0 0 0 0 0 
0 0 0 0 0 0 0 0 0 
0 0 0 0 0 0 0 0 0 
0 0 0 0 0 0 0 0 0 
0 0 0 0 0 0 0 0 0 
0 0 0 0 0 0 0 0 0 
0 0 0 0 0 0 0 0 0 
0 0 0 0 0 0 0 0 0 
0 0 0 0 0 0 0 0 0 
0 0 0 0 0 0 0 0 0 
0 0 0 0 0 0 0 0 0 
0 0 0 0 0 0 0 0 0 
0 0 0 0 0 0 0 0 0 
0 0 0 0 0 0 0 0 0 
0 0 0 0 0 0 0 0 0 
0 0 0 0 0 0 0 0 0 
0 0 0 0 0 0 0 0 0 
0 0 0 0 0 0 0 0 0 
0 0 0 0 0 0 0 0 0 
0 0 0 0 0 0 0 0 0 
0 0 0 0 0 0 0 0 0 
0 0 0 0 0 0 0 0 0 
0 0 0 0 0 0 0 0 0 
0 0 0 0 0 0 0 0 0 
0 0 0 0 0 0 0 0 0 
0 0 0 0 0 0 0 0 0 
0 0 0 0 0 0 0 0 0 
0 0 0 0 0 0 0 0 0 
0 0 0 0 0 0 0 0 0 
0 0 0 0 0 0 0 0 0 
0 0 0 0 0 0 0 0 0 
0 0 0 0 0 0 0 0 0 
0 0 0 0 0 0 0 0 0 
0 0 0 0 0 0 0 0 0 
0 0 0 0 0 0 0 0 0 
0 0 0 0 0 0 0 0 0 
0 0 0 0 0 0 0 0 0 
0 0 0 0 0 0 0 0 0 
0 0 0 0 0 0 0 0 0 
0 0 0 0 0 0 0 0 0 
0 0 0 0 0 0 0 0 0 
0 0 0 0 0 0 0 0 0 
0 0 0 0 0 0 0 0 0 
0 0 0 0 0 0 0 0 0 
0 0 0 0 0 0 0 0 0 
0 0 0 0 0 0 0 0 0 
0 0 0 0 0 0 0 0 0 
0 0 0 0 0 0 0 0 0 
0 0 0 0 0 0 0 0 0 
0 0 0 0 0 0 0 0 0 
0 0 0 0 0 0 0 0 0 
0 0 0 0 0 0 0 0 0 
0 0 0 0 0 0 0 0 0 
0 0 0 0 0 0 0 0 0 
0 0 0 0 0 0 0 0 0 
0 0 0 0 0 0 0 0 0 
0 0 0 0 0 0 0 0 0 
0 0 0 0 0 0 0 0 0 
0 0 0 0 0 0 0 0 0 
0 0 0 0 0 0 0 0 0 
0 0 0 0 0 0 0 0 0 
0 0 0 0 0 0 0 0 0 
0 0 0 0 0 0 0 0 0 
0 0 0 0 0 0 0 0 0 
0 0 0 0 0 0 0 0 0 
0 0 0 0 0 0 0 0 0 
0 0 0 0 0 0 0 0 0 
0 0 0 0 0 0 0 0 0 
0 0 0 0 0 0 0 0 0 
0 0 0 0 0 0 0 0 0 
0 0 0 0 0 0 0 0 0 
0 0 0 0 0 0 0 0 0 
0 0 0 0 0 0 0 0 0 
0 0 0 0 0 0 0 0 0 
0 0 0 0 0 0 0 0 0 
0 0 0 0 0 0 0 0 0 
0 0 0 0 0 0 0 0 0 
0 0 0 0 0 0 0 0 0 
0 0 0 0 0 0 0 0 0 
0 0 0 0 0 0 0 0 0 
0 0 0 0 0 0 0 0 0 
0 0 0 0 0 0 0 0 0 
0 0 0 0 0 0 0 0 0 
0 0 0 0 0 0 0 0 0 
0 0 0 0 0 0 0 0 0 
0 0 0 0 0 0 0 0 0 
0 0 0 0 0 0 0 0 0 
0 0 0 0 0 0 0 0 0 
0 0 0 0 0 0 0 0 0 
0 0 0 0 0 0 0 0 0 
0 0 0 0 0 0 0 0 0 
0 0 0 0 0 0 0 0 0 
0 0 0 0 0 0 0 0 0 
0 0 0 0 0 0 0 0 0 
0 0 0 0 0 0 0 0 0 
0 0 0 0 0 0 0 0 0 
0 0 0 0 0 0 0 0 0 
0 0 0 0 0 0 0 0 0 
0 0 0 0 0 0 0 0 0 
0 0 0 0 0 0 0 0 0 
0 0 0 0 0 0 0 0 0 
0 0 0 0 0 0 0 0 0 
0 0 0 0 0 0 0 0 0 
0 0 0 0 0 0 0 0 0 
0 0 0 0 0 0 0 0 0 
0 0 0 0 0 0 0 0 0 
0 0 0 0 0 0 0 0 0 
0 0 0 0 0 0 0 0 0 
0 0 0 0 0 0 0 0 0 
0 0 0 0 0 0 0 0 0 
0 0 0 0 0 0 0 0 0 
0 0 0 0 0 0 0 0 0 
0 0 0 0 0 0 0 0 0 
0 0 0 0 0 0 0 0 0 
0 0 0 0 0 0 0 0 0 
0 0 0 0 0 0 0 0 0 
0 0 0 0 0 0 0 0 0 
0 0 0 0 0 0 0 0 0 
0 0 0 0 0 0 0 0 0 
0 0 0 0 0 0 0 0 0 
0 0 0 0 0 0 0 0 0 
0 0 0 0 0 0 0 0 0 
0 0 0 0 0 0 0 0 0 
0 0 0 0 0 0 0 0 0 
0 0 0 0 0 0 0 0 0 
0 0 0 0 0 0 0 0 0 
0 0 0 0 0 0 0 0 0 
0 0 0 0 0 0 0 0 0 
0 0 0 0 0 0 0 0 0 
0 0 0 0 0 0 0 0 0 
0 0 0 0 0 0 0 0 0 
0 0 0 0 0 0 0 0 0 
0 0 0 0 0 0 0 0 0 
0 0 0 0 0 0 0 0 0 
0 0 0 0 0 0 0 0 0 
0 0 0 0 0 0 0 0 0 
0 0 0 0 0 0 0 0 0 
0 0 0 0 0 0 0 0 0 
0 0 0 0 0 0 0 0 0 
0 0 0 0 0 0 0 0 0 
0 0 0 0 0 0 0 0 0 
0 0 0 0 0 0 0 0 0 
0 0 0 0 0 0 0 0 0 
0 0 0 0 0 0 0 0 0 
0 0 0 0 0 0 0 0 0 
0 0 0 0 0 0 0 0 0 
0 0 0 0 0 0 0 0 0 
0 0 0 0 0 0 0 0 0 
0 0 0 0 0 0 0 0 0 
0 0 0 0 0 0 0 0 0 
0 0 0 0 0 0 0 0 0 
0 0 0 0 0 0 0 0 0 
0 0 0 0 0 0 0 0 0 
0 0 0 0 0 0 0 0 0 
0 0 0 0 0 0 0 0 0 
0 0 0 0 0 0 0 0 0 
0 0 0 0 0 0 0 0 0 
0 0 0 0 0 0 0 0 0 
0 0 0 0 0 0 0 0 0 
0 0 0 0 0 0 0 0 0 
0 0 0 0 0 0 0 0 0 
0 0 0 0 0 0 0 0 0 
0 0 0 0 0 0 0 0 0 
0 0 0 0 0 0 0 0 0 
0 0 0 0 0 0 0 0 0 
0 0 0 0 0 0 0 0 0 
0 0 0 0 0 0 0 0 0 
0 0 0 0 0 0 0 0 0 
0 0 0 0 0 0 0 0 0 
0 0 0 0 0 0 0 0 0 
0 0 0 0 0 0 0 0 0 
0 0 0 0 0 0 0 0 0 
0 0 0 0 0 0 0 0 0 
0 0 0 0 0 0 0 0 0 
0 0 0 0 0 0 0 0 0 
0 0 0 0 0 0 0 0 0 
0 0 0 0 0 0 0 0 0 
0 0 0 0 0 0 0 0 0 
0 0 0 0 0 0 0 0 0 
0 0 0 0 0 0 0 0 0 
0 0 0 0 0 0 0 0 0 
0 0 0 0 0 0 0 0 0 
0 0 0 0 0 0 0 0 0 
0 0 0 0 0 0 0 0 0 
0 0 0 0 0 0 0 0 0 
0 0 0 0 0 0 0 0 0 
0 0 0 0 0 0 0 0 0 
0 0 0 0 0 0 0 0 0 
0 0 0 0 0 0 0 0 0 
0 0 0 0 0 0 0 0 0 
0 0 0 0 0 0 0 0 0 
0 0 0 0 0 0 0 0 0 
0 0 0 0 0 0 0 0 0 
0 0 0 0 0 0 0 0 0 
0 0 0 0 0 0 0 0 0 
0 0 0 0 0 0 0 0 0 
0 0 0 0 0 0 0 0 0 
0 0 0 0 0 0 0 0 0 
0 0 0 0 0 0 0 0 0 
0 0 0 0 0 0 0 0 0 
0 0 0 0 0 0 0 0 0 
0 0 0 0 0 0 0 0 0 
0 0 0 0 0 0 0 0 0 
0 0 0 0 0 0 0 0 0 
0 0 0 0 0 0 0 0 0 
0 0 0 0 0 0 0 0 0 
0 0 0 0 0 0 0 0 0 
0 0 0 0 0 0 0 0 0 
0 0 0 0 0 0 0 0 0 
0 0 0 0 0 0 0 0 0 
0 0 0 0 0 0 0 0 0 
0 0 0 0 0 0 0 0 0 
0 0 0 0 0 0 0 0 0 
0 0 0 0 0 0 0 0 0 
0 0 0 0 0 0 0 0 0 
0 0 0 0 0 0 0 0 0 
0 0 0 0 0 0 0 0 0 
0 0 0 0 0 0 0 0 0 
0 0 0 0 0 0 0 0 0 
0 0 0 0 0 0 0 0 0 
0 0 0 0 0 0 0 0 0 
0 0 0 0 0 0 0 0 0 
0 0 0 0 0 0 0 0 0 
0 0 0 0 0 0 0 0 0 
0 0 0 0 0 0 0 0 0 
0 0 0 0 0 0 0 0 0 
0 0 0 0 0 0 0 0 0 
0 0 0 0 0 0 0 0 0 
0 0 0 0 0 0 0 0 0 
0 0 0 0 0 0 0 0 0 
0 0 0 0 0 0 0 0 0 
0 0 0 0 0 0 0 0 0 
0 0 0 0 0 0 0 0 0 
0 0 0 0 0 0 0 0 0 
0 0 0 0 0 0 0 0 0 
0 0 0 0 0 0 0 0 0 
0 0 0 0 0 0 0 0 0 
0 0 0 0 0 0 0 0 0 
0 0 0 0 0 0 0 0 0 
0 0 0 0 0 0 0 0 0 
0 0 0 0 0 0 0 0 0 
0 0 0 0 0 0 0 0 0 
0 0 0 0 0 0 0 0 0 
0 0 0 0 0 0 0 0 0 
0 0 0 0 0 0 0 0 0 
0 0 0 0 0 0 0 0 0 
0 0 0 0 0 0 0 0 0 
0 0 0 0 0 0 0 0 0 
0 0 0 0 0 0 0 0 0 
0 0 0 0 0 0 0 0 0 
0 0 0 0 0 0 0 0 0 
0 0 0 0 0 0 0 0 0 
0 0 0 0 0 0 0 0 0 
0 0 0 0 0 0 0 0 0 
0 0 0 0 0 0 0 0 0 
0 0 0 0 0 0 0 0 0 
0 0 0 0 0 0 0 0 0 
0 0 0 0 0 0 0 0 0 
0 0 0 0 0 0 0 0 0 
0 0 0 0 0 0 0 0 0 
0 0 0 0 0 0 0 0 0 
0 0 0 0 0 0 0 0 0 
0 0 0 0 0 0 0 0 0 
0 0 0 0 0 0 0 0 0 
0 0 0 0 0 0 0 0 0 
0 0 0 0 0 0 0 0 0 
0 0 0 0 0 0 0 0 0 
0 0 0 0 0 0 0 0 0 
0 0 0 0 0 0 0 0 0 
0 0 0 0 0 0 0 0 0 
0 0 0 0 0 0 0 0 0 
0 0 0 0 0 0 0 0 0 
0 0 0 0 0 0 0 0 0 
0 0 0 0 0 0 0 0 0 
0 0 0 0 0 0 0 0 0 
0 0 0 0 0 0 0 0 0 
0 0 0 0 0 0 0 0 0 
0 0 0 0 0 0 0 0 0 
0 0 0 0 0 0 0 0 0 
0 0 0 0 0 0 0 0 0 
0 0 0 0 0 0 0 0 0 
0 0 0 0 0 0 0 0 0 
0 0 0 0 0 0 0 0 0 
0 0 0 0 0 0 0 0 0 
0 0 0 0 0 0 0 0 0 
0 0 0 0 0 0 0 0 0 
0 0 0 0 0 0 0 0 0 
0 0 0 0 0 0 0 0 0 
0 0 0 0 0 0 0 0 0 
0 0 0 0 0 0 0 0 0 
0 0 0 0 0 0 0 0 0 
0 0 0 0 0 0 0 0 0 
0 0 0 0 0 0 0 0 0 
0 0 0 0 0 0 0 0 0 
0 0 0 0 0 0 0 0 0 
0 0 0 0 0 0 0 0 0 
0 0 0 0 0 0 0 0 0 
0 0 0 0 0 0 0 0 0 
0 0 0 0 0 0 0 0 0 
0 0 0 0 0 0 0 0 0 
0 0 0 0 0 0 0 0 0 
0 0 0 0 0 0 0 0 0 
0 0 0 0 0 0 0 0 0 
0 0 0 0 0 0 0 0 0 
0 0 0 0 0 0 0 0 0 
0 0 0 0 0 0 0 0 0 
0 0 0 0 0 0 0 0 0 
0 0 0 0 0 0 0 0 0 
0 0 0 0 0 0 0 0 0 
0 0 0 0 0 0 0 0 0 
0 0 0 0 0 0 0 0 0 
0 0 0 0 0 0 0 0 0 
0 0 0 0 0 0 0 0 0 
0 0 0 0 0 0 0 0 0 
0 0 0 0 0 0 0 0 0 
0 0 0 0 0 0 0 0 0 
0 0 0 0 0 0 0 0 0 
0 0 0 0 0 0 0 0 0 
0 0 0 0 0 0 0 0 0 
0 0 0 0 0 0 0 0 0 
0 0 0 0 0 0 0 0 0 
0 0 0 0 0 0 0 0 0 
0 0 0 0 0 0 0 0 0 
0 0 0 0 0 0 0 0 0 
0 0 0 0 0 0 0 0 0 
0 0 0 0 0 0 0 0 0 
0 0 0 0 0 0 0 0 0 
0 0 0 0 0 0 0 0 0 
0 0 0 0 0 0 0 0 0 
0 0 0 0 0 0 0 0 0 
0 0 0 0 0 0 0 0 0 
0 0 0 0 0 0 0 0 0 
0 0 0 0 0 0 0 0 0 
0 0 0 0 0 0 0 0 0 
0 0 0 0 0 0 0 0 0 
0 0 0 0 0 0 0 0 0 
0 0 0 0 0 0 0 0 0 
0 0 0 0 0 0 0 0 0 
0 0 0 0 0 0 0 0 0 
0 0 0 0 0 0 0 0 0 
0 0 0 0 0 0 0 0 0 
0 0 0 0 0 0 0 0 0 
0 0 0 0 0 0 0 0 0 
0 0 0 0 0 0 0 0 0 
0 0 0 0 0 0 0 0 0 
0 0 0 0 0 0 0 0 0 
0 0 0 0 0 0 0 0 0 
0 0 0 0 0 0 0 0 0 
0 0 0 0 0 0 0 0 0 
0 0 0 0 0 0 0 0 0 
0 0 0 0 0 0 0 0 0 
0 0 0 0 0 0 0 0 0 
0 0 0 0 0 0 0 0 0 
0 0 0 0 0 0 0 0 0 
0 0 0 0 0 0 0 0 0 
0 0 0 0 0 0 0 0 0 
0 0 0 0 0 0 0 0 0 
0 0 0 0 0 0 0 0 0 
0 0 0 0 0 0 0 0 0 
0 0 0 0 0 0 0 0 0 
0 0 0 0 0 0 0 0 0 
0 0 0 0 0 0 0 0 0 
0 0 0 0 0 0 0 0 0 
0 0 0 0 0 0 0 0 0 
0 0 0 0 0 0 0 0 0 
0 0 0 0 0 0 0 0 0 
0 0 0 0 0 0 0 0 0 
0 0 0 0 0 0 0 0 0 
0 0 0 0 0 0 0 0 0 
0 0 0 0 0 0 0 0 0 
0 0 0 0 0 0 0 0 0 
0 0 0 0 0 0 0 0 0 
0 0 0 0 0 0 0 0 0 
0 0 0 0 0 0 0 0 0 
0 0 0 0 0 0 0 0 0 
0 0 0 0 0 0 0 0 0 
0 0 0 0 0 0 0 0 0 
0 0 0 0 0 0 0 0 0 
0 0 0 0 0 0 0 0 0 
0 0 0 0 0 0 0 0 0 
0 0 0 0 0 0 0 0 0 
0 0 0 0 0 0 0 0 0 
0 0 0 0 0 0 0 0 0 
0 0 0 0 0 0 0 0 0 
0 0 0 0 0 0 0 0 0 
0 0 0 0 0 0 0 0 0 
0 0 0 0 0 0 0 0 0 
0 0 0 0 0 0 0 0 0 
0 0 0 0 0 0 0 0 0 
0 0 0 0 0 0 0 0 0 
0 0 0 0 0 0 0 0 0 
0 0 0 0 0 0 0 0 0 
0 0 0 0 0 0 0 0 0 
0 0 0 0 0 0 0 0 0 
0 0 0 0 0 0 0 0 0 
0 0 0 0 0 0 0 0 0 
0 0 0 0 0 0 0 0 0 
0 0 0 0 0 0 0 0 0 
0 0 0 0 0 0 0 0 0 
0 0 0 0 0 0 0 0 0 
0 0 0 0 0 0 0 0 0 
0 0 0 0 0 0 0 0 0 
0 0 0 0 0 0 0 0 0 
0 0 0 0 0 0 0 0 0 
0 0 0 0 0 0 0 0 0 
0 0 0 0 0 0 0 0 0 
0 0 0 0 0 0 0 0 0 
0 0 0 0 0 0 0 0 0 
0 0 0 0 0 0 0 0 0 
0 0 0 0 0 0 0 0 0 
0 0 0 0 0 0 0 0 0 
0 0 0 0 0 0 0 0 0 
0 0 0 0 0 0 0 0 0 
0 0 0 0 0 0 0 0 0 
0 0 0 0 0 0 0 0 0 
0 0 0 0 0 0 0 0 0 
0 0 0 0 0 0 0 0 0 
0 0 0 0 0 0 0 0 0 
0 0 0 0 0 0 0 0 0 
0 0 0 0 0 0 0 0 0 
0 0 0 0 0 0 0 0 0 
0 0 0 0 0 0 0 0 0 
0 0 0 0 0 0 0 0 0 
0 0 0 0 0 0 0 0 0 
0 0 0 0 0 0 0 0 0 
0 0 0 0 0 0 0 0 0 
0 0 0 0 0 0 0 0 0 
0 0 0 0 0 0 0 0 0 
0 0 0 0 0 0 0 0 0 
0 0 0 0 0 0 0 0 0 
0 0 0 0 0 0 0 0 0 
0 0 0 0 0 0 0 0 0 
0 0 0 0 0 0 0 0 0 
0 0 0 0 0 0 0 0 0 
0 0 0 0 0 0 0 0 0 
0 0 0 0 0 0 0 0 0 
0 0 0 0 0 0 0 0 0 
0 0 0 0 0 0 0 0 0 
0 0 0 0 0 0 0 0 0 
0 0 0 0 0 0 0 0 0 
0 0 0 0 0 0 0 0 0 
0 0 0 0 0 0 0 0 0 
0 0 0 0 0 0 0 0 0 
0 0 0 0 0 0 0 0 0 
0 0 0 0 0 0 0 0 0 
0 0 0 0 0 0 0 0 0 
0 0 0 0 0 0 0 0 0 
0 0 0 0 0 0 0 0 0 
0 0 0 0 0 0 0 0 0 
0 0 0 0 0 0 0 0 0 
0 0 0 0 0 0 0 0 0 
0 0 0 0 0 0 0 0 0 
0 0 0 0 0 0 0 0 0 
0 0 0 0 0 0 0 0 0 
0 0 0 0 0 0 0 0 0 
0 0 0 0 0 0 0 0 0 
0 0 0 0 0 0 0 0 0 
0 0 0 0 0 0 0 0 0 
0 0 0 0 0 0 0 0 0 
0 0 0 0 0 0 0 0 0 
0 0 0 0 0 0 0 0 0 
0 0 0 0 0 0 0 0 0 
0 0 0 0 0 0 0 0 0 
0 0 0 0 0 0 0 0 0 
0 0 0 0 0 0 0 0 0 
0 0 0 0 0 0 0 0 0 
0 0 0 0 0 0 0 0 0 
0 0 0 0 0 0 0 0 0 
0 0 0 0 0 0 0 0 0 
0 0 0 0 0 0 0 0 0 
0 0 0 0 0 0 0 0 0 
0 0 0 0 0 0 0 0 0 
0 0 0 0 0 0 0 0 0 
0 0 0 0 0 0 0 0 0 
0 0 0 0 0 0 0 0 0 
0 0 0 0 0 0 0 0 0 
0 0 0 0 0 0 0 0 0 
0 0 0 0 0 0 0 0 0 
0 0 0 0 0 0 0 0 0 
0 0 0 0 0 0 0 0 0 
0 0 0 0 0 0 0 0 0 
0 0 0 0 0 0 0 0 0 
0 0 0 0 0 0 0 0 0 
0 0 0 0 0 0 0 0 0 
0 0 0 0 0 0 0 0 0 
0 0 0 0 0 0 0 0 0 
0 0 0 0 0 0 0 0 0 
0 0 0 0 0 0 0 0 0 
0 0 0 0 0 0 0 0 0 
0 0 0 0 0 0 0 0 0 
0 0 0 0 0 0 0 0 0 
0 0 0 0 0 0 0 0 0 
0 0 0 0 0 0 0 0 0 
0 0 0 0 0 0 0 0 0 
0 0 0 0 0 0 0 0 0 
0 0 0 0 0 0 0 0 0 
0 0 0 0 0 0 0 0 0 
0 0 0 0 0 0 0 0 0 
0 0 0 0 0 0 0 0 0 
0 0 0 0 0 0 0 0 0 
0 0 0 0 0 0 0 0 0 
0 0 0 0 0 0 0 0 0 
0 0 0 0 0 0 0 0 0 
0 0 0 0 0 0 0 0 0 
0 0 0 0 0 0 0 0 0 
0 0 0 0 0 0 0 0 0 
0 0 0 0 0 0 0 0 0 
0 0 0 0 0 0 0 0 0 
0 0 0 0 0 0 0 0 0 
0 0 0 0 0 0 0 0 0 
0 0 0 0 0 0 0 0 0 
0 0 0 0 0 0 0 0 0 
0 0 0 0 0 0 0 0 0 
0 0 0 0 0 0 0 0 0 
0 0 0 0 0 0 0 0 0 
0 0 0 0 0 0 0 0 0 
0 0 0 0 0 0 0 0 0 
0 0 0 0 0 0 0 0 0 
0 0 0 0 0 0 0 0 0 
0 0 0 0 0 0 0 0 0 
0 0 0 0 0 0 0 0 0 
0 0 0 0 0 0 0 0 0 
0 0 0 0 0 0 0 0 0 
0 0 0 0 0 0 0 0 0 
0 0 0 0 0 0 0 0 0 
0 0 0 0 0 0 0 0 0 
0 0 0 0 0 0 0 0 0 
0 0 0 0 0 0 0 0 0 
0 0 0 0 0 0 0 0 0 
0 0 0 0 0 0 0 0 0 
0 0 0 0 0 0 0 0 0 
0 0 0 0 0 0 0 0 0 
0 0 0 0 0 0 0 0 0 
0 0 0 0 0 0 0 0 0 
0 0 0 0 0 0 0 0 0 
0 0 0 0 0 0 0 0 0 
0 0 0 0 0 0 0 0 0 
0 0 0 0 0 0 0 0 0 
0 0 0 0 0 0 0 0 0 
0 0 0 0 0 0 0 0 0 
0 0 0 0 0 0 0 0 0 
0 0 0 0 0 0 0 0 0 
0 0 0 0 0 0 0 0 0 
0 0 0 0 0 0 0 0 0 
0 0 0 0 0 0 0 0 0 
0 0 0 0 0 0 0 0 0 
0 0 0 0 0 0 0 0 0 
0 0 0 0 0 0 0 0 0 
0 0 0 0 0 0 0 0 0 
0 0 0 0 0 0 0 0 0 
0 0 0 0 0 0 0 0 0 
0 0 0 0 0 0 0 0 0 
0 0 0 0 0 0 0 0 0 
0 0 0 0 0 0 0 0 0 
0 0 0 0 0 0 0 0 0 
0 0 0 0 0 0 0 0 0 
0 0 0 0 0 0 0 0 0 
0 0 0 0 0 0 0 0 0 
0 0 0 0 0 0 0 0 0 
0 0 0 0 0 0 0 0 0 
0 0 0 0 0 0 0 0 0 
0 0 0 0 0 0 0 0 0 
0 0 0 0 0 0 0 0 0 
0 0 0 0 0 0 0 0 0 
0 0 0 0 0 0 0 0 0 
0 0 0 0 0 0 0 0 0 
0 0 0 0 0 0 0 0 0 
0 0 0 0 0 0 0 0 0 
0 0 0 0 0 0 0 0 0 
0 0 0 0 0 0 0 0 0 
0 0 0 0 0 0 0 0 0 
0 0 0 0 0 0 0 0 0 
0 0 0 0 0 0 0 0 0 
0 0 0 0 0 0 0 0 0 
0 0 0 0 0 0 0 0 0 
0 0 0 0 0 0 0 0 0 
0 0 0 0 0 0 0 0 0 
0 0 0 0 0 0 0 0 0 
0 0 0 0 0 0 0 0 0 
0 0 0 0 0 0 0 0 0 
0 0 0 0 0 0 0 0 0 
0 0 0 0 0 0 0 0 0 
0 0 0 0 0 0 0 0 0 
0 0 0 0 0 0 0 0 0 
0 0 0 0 0 0 0 0 0 
0 0 0 0 0 0 0 0 0 
0 0 0 0 0 0 0 0 0 
0 0 0 0 0 0 0 0 0 
0 0 0 0 0 0 0 0 0 
0 0 0 0 0 0 0 0 0 
0 0 0 0 0 0 0 0 0 
0 0 0 0 0 0 0 0 0 
0 0 0 0 0 0 0 0 0 
0 0 0 0 0 0 0 0 0 
0 0 0 0 0 0 0 0 0 
0 0 0 0 0 0 0 0 0 
0 0 0 0 0 0 0 0 0 
0 0 0 0 0 0 0 0 0 
0 0 0 0 0 0 0 0 0 
0 0 0 0 0 0 0 0 0 
0 0 0 0 0 0 0 0 0 
0 0 0 0 0 0 0 0 0 
0 0 0 0 0 0 0 0 0 
0 0 0 0 0 0 0 0 0 
0 0 0 0 0 0 0 0 0 
0 0 0 0 0 0 0 0 0 
0 0 0 0 0 0 0 0 0 
0 0 0 0 0 0 0 0 0 
0 0 0 0 0 0 0 0 0 
0 0 0 0 0 0 0 0 0 
0 0 0 0 0 0 0 0 0 
0 0 0 0 0 0 0 0 0 
0 0 0 0 0 0 0 0 0 
0 0 0 0 0 0 0 0 0 
0 0 0 0 0 0 0 0 0 
0 0 0 0 0 0 0 0 0 
0 0 0 0 0 0 0 0 0 
0 0 0 0 0 0 0 0 0 
0 0 0 0 0 0 0 0 0 
0 0 0 0 0 0 0 0 0 
0 0 0 0 0 0 0 0 0 
0 0 0 0 0 0 0 0 0 
0 0 0 0 0 0 0 0 0 
0 0 0 0 0 0 0 0 0 
0 0 0 0 0 0 0 0 0 
0 0 0 0 0 0 0 0 0 
0 0 0 0 0 0 0 0 0 
0 0 0 0 0 0 0 0 0 
0 0 0 0 0 0 0 0 0 
0 0 0 0 0 0 0 0 0 
0 0 0 0 0 0 0 0 0 
0 0 0 0 0 0 0 0 0 
0 0 0 0 0 0 0 0 0 
0 0 0 0 0 0 0 0 0 
0 0 0 0 0 0 0 0 0 
0 0 0 0 0 0 0 0 0 
0 0 0 0 0 0 0 0 0 
0 0 0 0 0 0 0 0 0 
0 0 0 0 0 0 0 0 0 
0 0 0 0 0 0 0 0 0 
0 0 0 0 0 0 0 0 0 
0 0 0 0 0 0 0 0 0 
0 0 0 0 0 0 0 0 0 
0 0 0 0 0 0 0 0 0 
0 0 0 0 0 0 0 0 0 
0 0 0 0 0 0 0 0 0 
0 0 0 0 0 0 0 0 0 
0 0 0 0 0 0 0 0 0 
0 0 0 0 0 0 0 0 0 
0 0 0 0 0 0 0 0 0 
0 0 0 0 0 0 0 0 0 
0 0 0 0 0 0 0 0 0 
0 0 0 0 0 0 0 0 0 
0 0 0 0 0 0 0 0 0 
0 0 0 0 0 0 0 0 0 
0 0 0 0 0 0 0 0 0 
0 0 0 0 0 0 0 0 0 
0 0 0 0 0 0 0 0 0 
0 0 0 0 0 0 0 0 0 
0 0 0 0 0 0 0 0 0 
0 0 0 0 0 0 0 0 0 
0 0 0 0 0 0 0 0 0 
0 0 0 0 0 0 0 0 0 
0 0 0 0 0 0 0 0 0 
0 0 0 0 0 0 0 0 0 
0 0 0 0 0 0 0 0 0 
0 0 0 0 0 0 0 0 0 
0 0 0 0 0 0 0 0 0 
0 0 0 0 0 0 0 0 0 
0 0 0 0 0 0 0 0 0 
0 0 0 0 0 0 0 0 0 
0 0 0 0 0 0 0 0 0 
0 0 0 0 0 0 0 0 0 
0 0 0 0 0 0 0 0 0 
0 0 0 0 0 0 0 0 0 
0 0 0 0 0 0 0 0 0 
0 0 0 0 0 0 0 0 0 
0 0 0 0 0 0 0 0 0 
0 0 0 0 0 0 0 0 0 
0 0 0 0 0 0 0 0 0 
0 0 0 0 0 0 0 0 0 
0 0 0 0 0 0 0 0 0 
0 0 0 0 0 0 0 0 0 
0 0 0 0 0 0 0 0 0 
0 0 0 0 0 0 0 0 0 
0 0 0 0 0 0 0 0 0 
0 0 0 0 0 0 0 0 0 
0 0 0 0 0 0 0 0 0 
0 0 0 0 0 0 0 0 0 
0 0 0 0 0 0 0 0 0 
0 0 0 0 0 0 0 0 0 
0 0 0 0 0 0 0 0 0 
0 0 0 0 0 0 0 0 0 
0 0 0 0 0 0 0 0 0 
0 0 0 0 0 0 0 0 0 
0 0 0 0 0 0 0 0 0 
0 0 0 0 0 0 0 0 0 
0 0 0 0 0 0 0 0 0 
0 0 0 0 0 0 0 0 0 
0 0 0 0 0 0 0 0 0 
0 0 0 0 0 0 0 0 0 
0 0 0 0 0 0 0 0 0 
0 0 0 0 0 0 0 0 0 
0 0 0 0 0 0 0 0 0 
0 0 0 0 0 0 0 0 0 
0 0 0 0 0 0 0 0 0 
0 0 0 0 0 0 0 0 0 
0 0 0 0 0 0 0 0 0 
0 0 0 0 0 0 0 0 0 
0 0 0 0 0 0 0 0 0 
0 0 0 0 0 0 0 0 0 
0 0 0 0 0 0 0 0 0 
0 0 0 0 0 0 0 0 0 
0 0 0 0 0 0 0 0 0 
0 0 0 0 0 0 0 0 0 
0 0 0 0 0 0 0 0 0 
0 0 0 0 0 0 0 0 0 
0 0 0 0 0 0 0 0 0 
0 0 0 0 0 0 0 0 0 
0 0 0 0 0 0 0 0 0 
0 0 0 0 0 0 0 0 0 
0 0 0 0 0 0 0 0 0 
0 0 0 0 0 0 0 0 0 
0 0 0 0 0 0 0 0 0 
0 0 0 0 0 0 0 0 0 
0 0 0 0 0 0 0 0 0 
0 0 0 0 0 0 0 0 0 
0 0 0 0 0 0 0 0 0 
0 0 0 0 0 0 0 0 0 
0 0 0 0 0 0 0 0 0 
0 0 0 0 0 0 0 0 0 
0 0 0 0 0 0 0 0 0 
0 0 0 0 0 0 0 0 0 
0 0 0 0 0 0 0 0 0 
0 0 0 0 0 0 0 0 0 
0 0 0 0 0 0 0 0 0 
0 0 0 0 0 0 0 0 0 
0 0 0 0 0 0 0 0 0 
0 0 0 0 0 0 0 0 0 
0 0 0 0 0 0 0 0 0 
0 0 0 0 0 0 0 0 0 
0 0 0 0 0 0 0 0 0 
0 0 0 0 0 0 0 0 0 
0 0 0 0 0 0 0 0 0 
0 0 0 0 0 0 0 0 0 
0 0 0 0 0 0 0 0 0 
0 0 0 0 0 0 0 0 0 
0 0 0 0 0 0 0 0 0 
0 0 0 0 0 0 0 0 0 
0 0 0 0 0 0 0 0 0 
0 0 0 0 0 0 0 0 0 
0 0 0 0 0 0 0 0 0 
0 0 0 0 0 0 0 0 0 
0 0 0 0 0 0 0 0 0 
0 0 0 0 0 0 0 0 0 
0 0 0 0 0 0 0 0 0 
0 0 0 0 0 0 0 0 0 
0 0 0 0 0 0 0 0 0 
0 0 0 0 0 0 0 0 0 
0 0 0 0 0 0 0 0 0 
0 0 0 0 0 0 0 0 0 
0 0 0 0 0 0 0 0 0 
0 0 0 0 0 0 0 0 0 
0 0 0 0 0 0 0 0 0 
0 0 0 0 0 0 0 0 0 
0 0 0 0 0 0 0 0 0 
0 0 0 0 0 0 0 0 0 
0 0 0 0 0 0 0 0 0 
0 0 0 0 0 0 0 0 0 
0 0 0 0 0 0 0 0 0 
0 0 0 0 0 0 0 0 0 
0 0 0 0 0 0 0 0 0 
0 0 0 0 0 0 0 0 0 
0 0 0 0 0 0 0 0 0 
0 0 0 0 0 0 0 0 0 
0 0 0 0 0 0 0 0 0 
0 0 0 0 0 0 0 0 0 
0 0 0 0 0 0 0 0 0 
0 0 0 0 0 0 0 0 0 
0 0 0 0 0 0 0 0 0 
0 0 0 0 0 0 0 0 0 
0 0 0 0 0 0 0 0 0 
0 0 0 0 0 0 0 0 0 
0 0 0 0 0 0 0 0 0 
0 0 0 0 0 0 0 0 0 
0 0 0 0 0 0 0 0 0 
0 0 0 0 0 0 0 0 0 
0 0 0 0 0 0 0 0 0 
0 0 0 0 0 0 0 0 0 
0 0 0 0 0 0 0 0 0 
0 0 0 0 0 0 0 0 0 
0 0 0 0 0 0 0 0 0 
0 0 0 0 0 0 0 0 0 
0 0 0 0 0 0 0 0 0 
0 0 0 0 0 0 0 0 0 
0 0 0 0 0 0 0 0 0 
0 0 0 0 0 0 0 0 0 
0 0 0 0 0 0 0 0 0 
0 0 0 0 0 0 0 0 0 
0 0 0 0 0 0 0 0 0 
0 0 0 0 0 0 0 0 0 
0 0 0 0 0 0 0 0 0 
0 0 0 0 0 0 0 0 0 
0 0 0 0 0 0 0 0 0 
0 0 0 0 0 0 0 0 0 
0 0 0 0 0 0 0 0 0 
0 0 0 0 0 0 0 0 0 
0 0 0 0 0 0 0 0 0 
0 0 0 0 0 0 0 0 0 
0 0 0 0 0 0 0 0 0 
0 0 0 0 0 0 0 0 0 
0 0 0 0 0 0 0 0 0 
0 0 0 0 0 0 0 0 0 
0 0 0 0 0 0 0 0 0 
0 0 0 0 0 0 0 0 0 
0 0 0 0 0 0 0 0 0 
0 0 0 0 0 0 0 0 0 
0 0 0 0 0 0 0 0 0 
0 0 0 0 0 0 0 0 0 
0 0 0 0 0 0 0 0 0 
0 0 0 0 0 0 0 0 0 
0 0 0 0 0 0 0 0 0 
0 0 0 0 0 0 0 0 0 
0 0 0 0 0 0 0 0 0 
0 0 0 0 0 0 0 0 0 
0 0 0 0 0 0 0 0 0 
0 0 0 0 0 0 0 0 0 
0 0 0 0 0 0 0 0 0 
0 0 0 0 0 0 0 0 0 
0 0 0 0 0 0 0 0 0 
0 0 0 0 0 0 0 0 0 
0 0 0 0 0 0 0 0 0 
0 0 0 0 0 0 0 0 0 
0 0 0 0 0 0 0 0 0 
0 0 0 0 0 0 0 0 0 
0 0 0 0 0 0 0 0 0 
0 0 0 0 0 0 0 0 0 
0 0 0 0 0 0 0 0 0 
0 0 0 0 0 0 0 0 0 
0 0 0 0 0 0 0 0 0 
0 0 0 0 0 0 0 0 0 
0 0 0 0 0 0 0 0 0 
0 0 0 0 0 0 0 0 0 
0 0 0 0 0 0 0 0 0 
0 0 0 0 0 0 0 0 0 
0 0 0 0 0 0 0 0 0 
0 0 0 0 0 0 0 0 0 
0 0 0 0 0 0 0 0 0 
0 0 0 0 0 0 0 0 0 
0 0 0 0 0 0 0 0 0 
0 0 0 0 0 0 0 0 0 
0 0 0 0 0 0 0 0 0 
0 0 0 0 0 0 0 0 0 
0 0 0 0 0 0 0 0 0 
0 0 0 0 0 0 0 0 0 
0 0 0 0 0 0 0 0 0 
0 0 0 0 0 0 0 0 0 
0 0 0 0 0 0 0 0 0 
0 0 0 0 0 0 0 0 0 
0 0 0 0 0 0 0 0 0 
0 0 0 0 0 0 0 0 0 
0 0 0 0 0 0 0 0 0 
0 0 0 0 0 0 0 0 0 
0 0 0 0 0 0 0 0 0 
0 0 0 0 0 0 0 0 0 
0 0 0 0 0 0 0 0 0 
0 0 0 0 0 0 0 0 0 
0 0 0 0 0 0 0 0 0 
0 0 0 0 0 0 0 0 0 
0 0 0 0 0 0 0 0 0 
0 0 0 0 0 0 0 0 0 
0 0 0 0 0 0 0 0 0 
0 0 0 0 0 0 0 0 0 
0 0 0 0 0 0 0 0 0 
0 0 0 0 0 0 0 0 0 
0 0 0 0 0 0 0 0 0 
0 0 0 0 0 0 0 0 0 
0 0 0 0 0 0 0 0 0 
0 0 0 0 0 0 0 0 0 
0 0 0 0 0 0 0 0 0 
0 0 0 0 0 0 0 0 0 
0 0 0 0 0 0 0 0 0 
0 0 0 0 0 0 0 0 0 
0 0 0 0 0 0 0 0 0 
0 0 0 0 0 0 0 0 0 
0 0 0 0 0 0 0 0 0 
0 0 0 0 0 0 0 0 0 
0 0 0 0 0 0 0 0 0 
0 0 0 0 0 0 0 0 0 
0 0 0 0 0 0 0 0 0 
0 0 0 0 0 0 0 0 0 
0 0 0 0 0 0 0 0 0 
0 0 0 0 0 0 0 0 0 
0 0 0 0 0 0 0 0 0 
0 0 0 0 0 0 0 0 0 
0 0 0 0 0 0 0 0 0 
0 0 0 0 0 0 0 0 0 
0 0 0 0 0 0 0 0 0 
0 0 0 0 0 0 0 0 0 
0 0 0 0 0 0 0 0 0 
0 0 0 0 0 0 0 0 0 
0 0 0 0 0 0 0 0 0 
0 0 0 0 0 0 0 0 0 
0 0 0 0 0 0 0 0 0 
0 0 0 0 0 0 0 0 0 
0 0 0 0 0 0 0 0 0 
0 0 0 0 0 0 0 0 0 
0 0 0 0 0 0 0 0 0 
0 0 0 0 0 0 0 0 0 
0 0 0 0 0 0 0 0 0 
0 0 0 0 0 0 0 0 0 
0 0 0 0 0 0 0 0 0 
0 0 0 0 0 0 0 0 0 
0 0 0 0 0 0 0 0 0 
0 0 0 0 0 0 0 0 0 
0 0 0 0 0 0 0 0 0 
0 0 0 0 0 0 0 0 0 
0 0 0 0 0 0 0 0 0 
0 0 0 0 0 0 0 0 0 
0 0 0 0 0 0 0 0 0 
0 0 0 0 0 0 0 0 0 
0 0 0 0 0 0 0 0 0 
0 0 0 0 0 0 0 0 0 
0 0 0 0 0 0 0 0 0 
0 0 0 0 0 0 0 0 0 
0 0 0 0 0 0 0 0 0 
0 0 0 0 0 0 0 0 0 
0 0 0 0 0 0 0 0 0 
0 0 0 0 0 0 0 0 0 
0 0 0 0 0 0 0 0 0 
0 0 0 0 0 0 0 0 0 
0 0 0 0 0 0 0 0 0 
0 0 0 0 0 0 0 0 0 
0 0 0 0 0 0 0 0 0 
0 0 0 0 0 0 0 0 0 
0 0 0 0 0 0 0 0 0 
0 0 0 0 0 0 0 0 0 
0 0 0 0 0 0 0 0 0 
0 0 0 0 0 0 0 0 0 
0 0 0 0 0 0 0 0 0 
0 0 0 0 0 0 0 0 0 
0 0 0 0 0 0 0 0 0 
0 0 0 0 0 0 0 0 0 
0 0 0 0 0 0 0 0 0 
0 0 0 0 0 0 0 0 0 
0 0 0 0 0 0 0 0 0 
0 0 0 0 0 0 0 0 0 
0 0 0 0 0 0 0 0 0 
0 0 0 0 0 0 0 0 0 
0 0 0 0 0 0 0 0 0 
0 0 0 0 0 0 0 0 0 
0 0 0 0 0 0 0 0 0 
0 0 0 0 0 0 0 0 0 
0 0 0 0 0 0 0 0 0 
0 0 0 0 0 0 0 0 0 
0 0 0 0 0 0 0 0 0 
0 0 0 0 0 0 0 0 0 
0 0 0 0 0 0 0 0 0 
0 0 0 0 0 0 0 0 0 
0 0 0 0 0 0 0 0 0 
0 0 0 0 0 0 0 0 0 
0 0 0 0 0 0 0 0 0 
0 0 0 0 0 0 0 0 0 
0 0 0 0 0 0 0 0 0 
0 0 0 0 0 0 0 0 0 
0 0 0 0 0 0 0 0 0 
0 0 0 0 0 0 0 0 0 
0 0 0 0 0 0 0 0 0 
0 0 0 0 0 0 0 0 0 
0 0 0 0 0 0 0 0 0 
0 0 0 0 0 0 0 0 0 
0 0 0 0 0 0 0 0 0 
0 0 0 0 0 0 0 0 0 
0 0 0 0 0 0 0 0 0 
0 0 0 0 0 0 0 0 0 
0 0 0 0 0 0 0 0 0 
0 0 0 0 0 0 0 0 0 
0 0 0 0 0 0 0 0 0 
0 0 0 0 0 0 0 0 0 
0 0 0 0 0 0 0 0 0 
0 0 0 0 0 0 0 0 0 
0 0 0 0 0 0 0 0 0 
0 0 0 0 0 0 0 0 0 
0 0 0 0 0 0 0 0 0 
0 0 0 0 0 0 0 0 0 
0 0 0 0 0 0 0 0 0 
0 0 0 0 0 0 0 0 0 
0 0 0 0 0 0 0 0 0 
0 0 0 0 0 0 0 0 0 
0 0 0 0 0 0 0 0 0 
0 0 0 0 0 0 0 0 0 
0 0 0 0 0 0 0 0 0 
0 0 0 0 0 0 0 0 0 
0 0 0 0 0 0 0 0 0 
0 0 0 0 0 0 0 0 0 
0 0 0 0 0 0 0 0 0 
0 0 0 0 0 0 0 0 0 
0 0 0 0 0 0 0 0 0 
0 0 0 0 0 0 0 0 0 
0 0 0 0 0 0 0 0 0 
0 0 0 0 0 0 0 0 0 
0 0 0 0 0 0 0 0 0 
0 0 0 0 0 0 0 0 0 
0 0 0 0 0 0 0 0 0 
0 0 0 0 0 0 0 0 0 
0 0 0 0 0 0 0 0 0 
0 0 0 0 0 0 0 0 0 
0 0 0 0 0 0 0 0 0 
0 0 0 0 0 0 0 0 0 
0 0 0 0 0 0 0 0 0 
0 0 0 0 0 0 0 0 0 
0 0 0 0 0 0 0 0 0 
0 0 0 0 0 0 0 0 0 
0 0 0 0 0 0 0 0 0 
0 0 0 0 0 0 0 0 0 
0 0 0 0 0 0 0 0 0 
0 0 0 0 0 0 0 0 0 
0 0 0 0 0 0 0 0 0 
0 0 0 0 0 0 0 0 0 
0 0 0 0 0 0 0 0 0 
0 0 0 0 0 0 0 0 0 
0 0 0 0 0 0 0 0 0 
0 0 0 0 0 0 0 0 0 
0 0 0 0 0 0 0 0 0 
0 0 0 0 0 0 0 0 0 
0 0 0 0 0 0 0 0 0 
0 0 0 0 0 0 0 0 0 
0 0 0 0 0 0 0 0 0 
0 0 0 0 0 0 0 0 0 
0 0 0 0 0 0 0 0 0 
0 0 0 0 0 0 0 0 0 
0 0 0 0 0 0 0 0 0 
0 0 0 0 0 0 0 0 0 
0 0 0 0 0 0 0 0 0 
0 0 0 0 0 0 0 0 0 
0 0 0 0 0 0 0 0 0 
0 0 0 0 0 0 0 0 0 
0 0 0 0 0 0 0 0 0 
0 0 0 0 0 0 0 0 0 
0 0 0 0 0 0 0 0 0 
0 0 0 0 0 0 0 0 0 
0 0 0 0 0 0 0 0 0 
0 0 0 0 0 0 0 0 0 
0 0 0 0 0 0 0 0 0 
0 0 0 0 0 0 0 0 0 
0 0 0 0 0 0 0 0 0 
0 0 0 0 0 0 0 0 0 
0 0 0 0 0 0 0 0 0 
0 0 0 0 0 0 0 0 0 
0 0 0 0 0 0 0 0 0 
0 0 0 0 0 0 0 0 0 
0 0 0 0 0 0 0 0 0 
0 0 0 0 0 0 0 0 0 
0 0 0 0 0 0 0 0 0 
0 0 0 0 0 0 0 0 0 
0 0 0 0 0 0 0 0 0 
0 0 0 0 0 0 0 0 0 
0 0 0 0 0 0 0 0 0 
0 0 0 0 0 0 0 0 0 
0 0 0 0 0 0 0 0 0 
0 0 0 0 0 0 0 0 0 
0 0 0 0 0 0 0 0 0 
0 0 0 0 0 0 0 0 0 
0 0 0 0 0 0 0 0 0 
0 0 0 0 0 0 0 0 0 
0 0 0 0 0 0 0 0 0 
0 0 0 0 0 0 0 0 0 
0 0 0 0 0 0 0 0 0 
0 0 0 0 0 0 0 0 0 
0 0 0 0 0 0 0 0 0 
0 0 0 0 0 0 0 0 0 
0 0 0 0 0 0 0 0 0 
0 0 0 0 0 0 0 0 0 
0 0 0 0 0 0 0 0 0 
0 0 0 0 0 0 0 0 0 
0 0 0 0 0 0 0 0 0 
0 0 0 0 0 0 0 0 0 
0 0 0 0 0 0 0 0 0 
0 0 0 0 0 0 0 0 0 
0 0 0 0 0 0 0 0 0 
0 0 0 0 0 0 0 0 0 
0 0 0 0 0 0 0 0 0 
0 0 0 0 0 0 0 0 0 
0 0 0 0 0 0 0 0 0 
0 0 0 0 0 0 0 0 0 
0 0 0 0 0 0 0 0 0 
0 0 0 0 0 0 0 0 0 
0 0 0 0 0 0 0 0 0 
0 0 0 0 0 0 0 0 0 
0 0 0 0 0 0 0 0 0 
0 0 0 0 0 0 0 0 0 
0 0 0 0 0 0 0 0 0 
0 0 0 0 0 0 0 0 0 
0 0 0 0 0 0 0 0 0 
0 0 0 0 0 0 0 0 0 
0 0 0 0 0 0 0 0 0 
0 0 0 0 0 0 0 0 0 
0 0 0 0 0 0 0 0 0 
0 0 0 0 0 0 0 0 0 
0 0 0 0 0 0 0 0 0 
0 0 0 0 0 0 0 0 0 
0 0 0 0 0 0 0 0 0 
0 0 0 0 0 0 0 0 0 
0 0 0 0 0 0 0 0 0 
0 0 0 0 0 0 0 0 0 
0 0 0 0 0 0 0 0 0 
0 0 0 0 0 0 0 0 0 
0 0 0 0 0 0 0 0 0 
0 0 0 0 0 0 0 0 0 
0 0 0 0 0 0 0 0 0 
0 0 0 0 0 0 0 0 0 
0 0 0 0 0 0 0 0 0 
0 0 0 0 0 0 0 0 0 
0 0 0 0 0 0 0 0 0 
0 0 0 0 0 0 0 0 0 
0 0 0 0 0 0 0 0 0 
0 0 0 0 0 0 0 0 0 
0 0 0 0 0 0 0 0 0 
0 0 0 0 0 0 0 0 0 
0 0 0 0 0 0 0 0 0 
0 0 0 0 0 0 0 0 0 
0 0 0 0 0 0 0 0 0 
0 0 0 0 0 0 0 0 0 
0 0 0 0 0 0 0 0 0 
0 0 0 0 0 0 0 0 0 
0 0 0 0 0 0 0 0 0 
0 0 0 0 0 0 0 0 0 
0 0 0 0 0 0 0 0 0 
0 0 0 0 0 0 0 0 0 
0 0 0 0 0 0 0 0 0 
0 0 0 0 0 0 0 0 0 
0 0 0 0 0 0 0 0 0 
0 0 0 0 0 0 0 0 0 
0 0 0 0 0 0 0 0 0 
0 0 0 0 0 0 0 0 0 
0 0 0 0 0 0 0 0 0 
0 0 0 0 0 0 0 0 0 
0 0 0 0 0 0 0 0 0 
0 0 0 0 0 0 0 0 0 
0 0 0 0 0 0 0 0 0 
0 0 0 0 0 0 0 0 0 
0 0 0 0 0 0 0 0 0 
0 0 0 0 0 0 0 0 0 
0 0 0 0 0 0 0 0 0 
0 0 0 0 0 0 0 0 0 
0 0 0 0 0 0 0 0 0 
0 0 0 0 0 0 0 0 0 
0 0 0 0 0 0 0 0 0 
0 0 0 0 0 0 0 0 0 
0 0 0 0 0 0 0 0 0 
0 0 0 0 0 0 0 0 0 
0 0 0 0 0 0 0 0 0 
0 0 0 0 0 0 0 0 0 
0 0 0 0 0 0 0 0 0 
0 0 0 0 0 0 0 0 0 
0 0 0 0 0 0 0 0 0 
0 0 0 0 0 0 0 0 0 
0 0 0 0 0 0 0 0 0 
0 0 0 0 0 0 0 0 0 
0 0 0 0 0 0 0 0 0 
0 0 0 0 0 0 0 0 0 
0 0 0 0 0 0 0 0 0 
0 0 0 0 0 0 0 0 0 
0 0 0 0 0 0 0 0 0 
0 0 0 0 0 0 0 0 0 
0 0 0 0 0 0 0 0 0 
0 0 0 0 0 0 0 0 0 
0 0 0 0 0 0 0 0 0 
0 0 0 0 0 0 0 0 0 
0 0 0 0 0 0 0 0 0 
0 0 0 0 0 0 0 0 0 
0 0 0 0 0 0 0 0 0 
0 0 0 0 0 0 0 0 0 
0 0 0 0 0 0 0 0 0 
0 0 0 0 0 0 0 0 0 
0 0 0 0 0 0 0 0 0 
0 0 0 0 0 0 0 0 0 
0 0 0 0 0 0 0 0 0 
0 0 0 0 0 0 0 0 0 
0 0 0 0 0 0 0 0 0 
0 0 0 0 0 0 0 0 0 
0 0 0 0 0 0 0 0 0 
0 0 0 0 0 0 0 0 0 
0 0 0 0 0 0 0 0 0 
0 0 0 0 0 0 0 0 0 
0 0 0 0 0 0 0 0 0 
0 0 0 0 0 0 0 0 0 
0 0 0 0 0 0 0 0 0 
0 0 0 0 0 0 0 0 0 
0 0 0 0 0 0 0 0 0 
0 0 0 0 0 0 0 0 0 
0 0 0 0 0 0 0 0 0 
0 0 0 0 0 0 0 0 0 
0 0 0 0 0 0 0 0 0 
0 0 0 0 0 0 0 0 0 
0 0 0 0 0 0 0 0 0 
0 0 0 0 0 0 0 0 0 
0 0 0 0 0 0 0 0 0 
0 0 0 0 0 0 0 0 0 
0 0 0 0 0 0 0 0 0 
0 0 0 0 0 0 0 0 0 
0 0 0 0 0 0 0 0 0 
0 0 0 0 0 0 0 0 0 
0 0 0 0 0 0 0 0 0 
0 0 0 0 0 0 0 0 0 
0 0 0 0 0 0 0 0 0 
0 0 0 0 0 0 0 0 0 
0 0 0 0 0 0 0 0 0 
0 0 0 0 0 0 0 0 0 
0 0 0 0 0 0 0 0 0 
0 0 0 0 0 0 0 0 0 
0 0 0 0 0 0 0 0 0 
0 0 0 0 0 0 0 0 0 
0 0 0 0 0 0 0 0 0 
0 0 0 0 0 0 0 0 0 
0 0 0 0 0 0 0 0 0 
0 0 0 0 0 0 0 0 0 
0 0 0 0 0 0 0 0 0 
0 0 0 0 0 0 0 0 0 
0 0 0 0 0 0 0 0 0 
0 0 0 0 0 0 0 0 0 
0 0 0 0 0 0 0 0 0 
0 0 0 0 0 0 0 0 0 
0 0 0 0 0 0 0 0 0 
0 0 0 0 0 0 0 0 0 
0 0 0 0 0 0 0 0 0 
0 0 0 0 0 0 0 0 0 
0 0 0 0 0 0 0 0 0 
0 0 0 0 0 0 0 0 0 
0 0 0 0 0 0 0 0 0 
0 0 0 0 0 0 0 0 0 
0 0 0 0 0 0 0 0 0 
0 0 0 0 0 0 0 0 0 
0 0 0 0 0 0 0 0 0 
0 0 0 0 0 0 0 0 0 
0 0 0 0 0 0 0 0 0 
0 0 0 0 0 0 0 0 0 
0 0 0 0 0 0 0 0 0 
0 0 0 0 0 0 0 0 0 
0 0 0 0 0 0 0 0 0 
0 0 0 0 0 0 0 0 0 
0 0 0 0 0 0 0 0 0 
0 0 0 0 0 0 0 0 0 
0 0 0 0 0 0 0 0 0 
0 0 0 0 0 0 0 0 0 
0 0 0 0 0 0 0 0 0 
0 0 0 0 0 0 0 0 0 
0 0 0 0 0 0 0 0 0 
0 0 0 0 0 0 0 0 0 
0 0 0 0 0 0 0 0 0 
0 0 0 0 0 0 0 0 0 
0 0 0 0 0 0 0 0 0 
0 0 0 0 0 0 0 0 0 
0 0 0 0 0 0 0 0 0 
0 0 0 0 0 0 0 0 0 
0 0 0 0 0 0 0 0 0 
0 0 0 0 0 0 0 0 0 
0 0 0 0 0 0 0 0 0 
0 0 0 0 0 0 0 0 0 
0 0 0 0 0 0 0 0 0 
0 0 0 0 0 0 0 0 0 
0 0 0 0 0 0 0 0 0 
0 0 0 0 0 0 0 0 0 
0 0 0 0 0 0 0 0 0 
0 0 0 0 0 0 0 0 0 
0 0 0 0 0 0 0 0 0 
0 0 0 0 0 0 0 0 0 
0 0 0 0 0 0 0 0 0 
0 0 0 0 0 0 0 0 0 
0 0 0 0 0 0 0 0 0 
0 0 0 0 0 0 0 0 0 
0 0 0 0 0 0 0 0 0 
0 0 0 0 0 0 0 0 0 
0 0 0 0 0 0 0 0 0 
0 0 0 0 0 0 0 0 0 
0 0 0 0 0 0 0 0 0 
0 0 0 0 0 0 0 0 0 
0 0 0 0 0 0 0 0 0 
0 0 0 0 0 0 0 0 0 
0 0 0 0 0 0 0 0 0 
0 0 0 0 0 0 0 0 0 
0 0 0 0 0 0 0 0 0 
0 0 0 0 0 0 0 0 0 
0 0 0 0 0 0 0 0 0 
0 0 0 0 0 0 0 0 0 
0 0 0 0 0 0 0 0 0 
0 0 0 0 0 0 0 0 0 
0 0 0 0 0 0 0 0 0 
0 0 0 0 0 0 0 0 0 
0 0 0 0 0 0 0 0 0 
0 0 0 0 0 0 0 0 0 
0 0 0 0 0 0 0 0 0 
0 0 0 0 0 0 0 0 0 
0 0 0 0 0 0 0 0 0 
0 0 0 0 0 0 0 0 0 
0 0 0 0 0 0 0 0 0 
0 0 0 0 0 0 0 0 0 
0 0 0 0 0 0 0 0 0 
0 0 0 0 0 0 0 0 0 
0 0 0 0 0 0 0 0 0 
0 0 0 0 0 0 0 0 0 
0 0 0 0 0 0 0 0 0 
0 0 0 0 0 0 0 0 0 
0 0 0 0 0 0 0 0 0 
0 0 0 0 0 0 0 0 0 
0 0 0 0 0 0 0 0 0 
0 0 0 0 0 0 0 0 0 
0 0 0 0 0 0 0 0 0 
0 0 0 0 0 0 0 0 0 
0 0 0 0 0 0 0 0 0 
0 0 0 0 0 0 0 0 0 
0 0 0 0 0 0 0 0 0 
0 0 0 0 0 0 0 0 0 
0 0 0 0 0 0 0 0 0 
0 0 0 0 0 0 0 0 0 
0 0 0 0 0 0 0 0 0 
0 0 0 0 0 0 0 0 0 
0 0 0 0 0 0 0 0 0 
0 0 0 0 0 0 0 0 0 
0 0 0 0 0 0 0 0 0 
0 0 0 0 0 0 0 0 0 
0 0 0 0 0 0 0 0 0 
0 0 0 0 0 0 0 0 0 
0 0 0 0 0 0 0 0 0 
0 0 0 0 0 0 0 0 0 
0 0 0 0 0 0 0 0 0 
0 0 0 0 0 0 0 0 0 
0 0 0 0 0 0 0 0 0 
0 0 0 0 0 0 0 0 0 
0 0 0 0 0 0 0 0 0 
0 0 0 0 0 0 0 0 0 
0 0 0 0 0 0 0 0 0 
0 0 0 0 0 0 0 0 0 
0 0 0 0 0 0 0 0 0 
0 0 0 0 0 0 0 0 0 
0 0 0 0 0 0 0 0 0 
0 0 0 0 0 0 0 0 0 
0 0 0 0 0 0 0 0 0 
0 0 0 0 0 0 0 0 0 
0 0 0 0 0 0 0 0 0 
0 0 0 0 0 0 0 0 0 
0 0 0 0 0 0 0 0 0 
0 0 0 0 0 0 0 0 0 
0 0 0 0 0 0 0 0 0 
0 0 0 0 0 0 0 0 0 
0 0 0 0 0 0 0 0 0 
0 0 0 0 0 0 0 0 0 
0 0 0 0 0 0 0 0 0 
0 0 0 0 0 0 0 0 0 
0 0 0 0 0 0 0 0 0 
0 0 0 0 0 0 0 0 0 
0 0 0 0 0 0 0 0 0 
0 0 0 0 0 0 0 0 0 
0 0 0 0 0 0 0 0 0 
0 0 0 0 0 0 0 0 0 
0 0 0 0 0 0 0 0 0 
0 0 0 0 0 0 0 0 0 
0 0 0 0 0 0 0 0 0 
0 0 0 0 0 0 0 0 0 
0 0 0 0 0 0 0 0 0 
0 0 0 0 0 0 0 0 0 
0 0 0 0 0 0 0 0 0 
0 0 0 0 0 0 0 0 0 
0 0 0 0 0 0 0 0 0 
0 0 0 0 0 0 0 0 0 
0 0 0 0 0 0 0 0 0 
0 0 0 0 0 0 0 0 0 
0 0 0 0 0 0 0 0 0 
0 0 0 0 0 0 0 0 0 
0 0 0 0 0 0 0 0 0 
0 0 0 0 0 0 0 0 0 
0 0 0 0 0 0 0 0 0 
0 0 0 0 0 0 0 0 0 
0 0 0 0 0 0 0 0 0 
0 0 0 0 0 0 0 0 0 
0 0 0 0 0 0 0 0 0 
0 0 0 0 0 0 0 0 0 
0 0 0 0 0 0 0 0 0 
0 0 0 0 0 0 0 0 0 
0 0 0 0 0 0 0 0 0 
0 0 0 0 0 0 0 0 0 
0 0 0 0 0 0 0 0 0 
0 0 0 0 0 0 0 0 0 
0 0 0 0 0 0 0 0 0 
0 0 0 0 0 0 0 0 0 
0 0 0 0 0 0 0 0 0 
0 0 0 0 0 0 0 0 0 
0 0 0 0 0 0 0 0 0 
0 0 0 0 0 0 0 0 0 
0 0 0 0 0 0 0 0 0 
0 0 0 0 0 0 0 0 0 
0 0 0 0 0 0 0 0 0 
0 0 0 0 0 0 0 0 0 
0 0 0 0 0 0 0 0 0 
0 0 0 0 0 0 0 0 0 
0 0 0 0 0 0 0 0 0 
0 0 0 0 0 0 0 0 0 
0 0 0 0 0 0 0 0 0 
0 0 0 0 0 0 0 0 0 
0 0 0 0 0 0 0 0 0 
0 0 0 0 0 0 0 0 0 
0 0 0 0 0 0 0 0 0 
0 0 0 0 0 0 0 0 0 
0 0 0 0 0 0 0 0 0 
0 0 0 0 0 0 0 0 0 
0 0 0 0 0 0 0 0 0 
0 0 0 0 0 0 0 0 0 
0 0 0 0 0 0 0 0 0 
0 0 0 0 0 0 0 0 0 
0 0 0 0 0 0 0 0 0 
0 0 0 0 0 0 0 0 0 
0 0 0 0 0 0 0 0 0 
0 0 0 0 0 0 0 0 0 
0 0 0 0 0 0 0 0 0 
0 0 0 0 0 0 0 0 0 
0 0 0 0 0 0 0 0 0 
0 0 0 0 0 0 0 0 0 
0 0 0 0 0 0 0 0 0 
0 0 0 0 0 0 0 0 0 
0 0 0 0 0 0 0 0 0 
0 0 0 0 0 0 0 0 0 
0 0 0 0 0 0 0 0 0 
0 0 0 0 0 0 0 0 0 
0 0 0 0 0 0 0 0 0 
0 0 0 0 0 0 0 0 0 
0 0 0 0 0 0 0 0 0 
0 0 0 0 0 0 0 0 0 
0 0 0 0 0 0 0 0 0 
0 0 0 0 0 0 0 0 0 
0 0 0 0 0 0 0 0 0 
0 0 0 0 0 0 0 0 0 
0 0 0 0 0 0 0 0 0 
0 0 0 0 0 0 0 0 0 
0 0 0 0 0 0 0 0 0 
0 0 0 0 0 0 0 0 0 
0 0 0 0 0 0 0 0 0 
0 0 0 0 0 0 0 0 0 
0 0 0 0 0 0 0 0 0 
0 0 0 0 0 0 0 0 0 
0 0 0 0 0 0 0 0 0 
0 0 0 0 0 0 0 0 0 
0 0 0 0 0 0 0 0 0 
0 0 0 0 0 0 0 0 0 
0 0 0 0 0 0 0 0 0 
0 0 0 0 0 0 0 0 0 
0 0 0 0 0 0 0 0 0 
0 0 0 0 0 0 0 0 0 
0 0 0 0 0 0 0 0 0 
0 0 0 0 0 0 0 0 0 
0 0 0 0 0 0 0 0 0 
0 0 0 0 0 0 0 0 0 
0 0 0 0 0 0 0 0 0 
0 0 0 0 0 0 0 0 0 
0 0 0 0 0 0 0 0 0 
0 0 0 0 0 0 0 0 0 
0 0 0 0 0 0 0 0 0 
0 0 0 0 0 0 0 0 0 
0 0 0 0 0 0 0 0 0 
0 0 0 0 0 0 0 0 0 
0 0 0 0 0 0 0 0 0 
0 0 0 0 0 0 0 0 0 
0 0 0 0 0 0 0 0 0 
0 0 0 0 0 0 0 0 0 
0 0 0 0 0 0 0 0 0 
0 0 0 0 0 0 0 0 0 
0 0 0 0 0 0 0 0 0 
0 0 0 0 0 0 0 0 0 
0 0 0 0 0 0 0 0 0 
0 0 0 0 0 0 0 0 0 
0 0 0 0 0 0 0 0 0 
0 0 0 0 0 0 0 0 0 
0 0 0 0 0 0 0 0 0 
0 0 0 0 0 0 0 0 0 
0 0 0 0 0 0 0 0 0 
0 0 0 0 0 0 0 0 0 
0 0 0 0 0 0 0 0 0 
0 0 0 0 0 0 0 0 0 
0 0 0 0 0 0 0 0 0 
0 0 0 0 0 0 0 0 0 
0 0 0 0 0 0 0 0 0 
0 0 0 0 0 0 0 0 0 
0 0 0 0 0 0 0 0 0 
0 0 0 0 0 0 0 0 0 
0 0 0 0 0 0 0 0 0 
0 0 0 0 0 0 0 0 0 
0 0 0 0 0 0 0 0 0 
0 0 0 0 0 0 0 0 0 
0 0 0 0 0 0 0 0 0 
0 0 0 0 0 0 0 0 0 
0 0 0 0 0 0 0 0 0 
0 0 0 0 0 0 0 0 0 
0 0 0 0 0 0 0 0 0 
0 0 0 0 0 0 0 0 0 
0 0 0 0 0 0 0 0 0 
0 0 0 0 0 0 0 0 0 
0 0 0 0 0 0 0 0 0 
0 0 0 0 0 0 0 0 0 
0 0 0 0 0 0 0 0 0 
0 0 0 0 0 0 0 0 0 
0 0 0 0 0 0 0 0 0 
0 0 0 0 0 0 0 0 0 
0 0 0 0 0 0 0 0 0 
0 0 0 0 0 0 0 0 0 
0 0 0 0 0 0 0 0 0 
0 0 0 0 0 0 0 0 0 
0 0 0 0 0 0 0 0 0 
0 0 0 0 0 0 0 0 0 
0 0 0 0 0 0 0 0 0 
0 0 0 0 0 0 0 0 0 
0 0 0 0 0 0 0 0 0 
0 0 0 0 0 0 0 0 0 
0 0 0 0 0 0 0 0 0 
0 0 0 0 0 0 0 0 0 
0 0 0 0 0 0 0 0 0 
0 0 0 0 0 0 0 0 0 
0 0 0 0 0 0 0 0 0 
0 0 0 0 0 0 0 0 0 
0 0 0 0 0 0 0 0 0 
0 0 0 0 0 0 0 0 0 
0 0 0 0 0 0 0 0 0 
0 0 0 0 0 0 0 0 0 
0 0 0 0 0 0 0 0 0 
0 0 0 0 0 0 0 0 0 
0 0 0 0 0 0 0 0 0 
0 0 0 0 0 0 0 0 0 
0 0 0 0 0 0 0 0 0 
0 0 0 0 0 0 0 0 0 
0 0 0 0 0 0 0 0 0 
0 0 0 0 0 0 0 0 0 
0 0 0 0 0 0 0 0 0 
0 0 0 0 0 0 0 0 0 
0 0 0 0 0 0 0 0 0 
0 0 0 0 0 0 0 0 0 
0 0 0 0 0 0 0 0 0 
0 0 0 0 0 0 0 0 0 
0 0 0 0 0 0 0 0 0 
0 0 0 0 0 0 0 0 0 
0 0 0 0 0 0 0 0 0 
0 0 0 0 0 0 0 0 0 
0 0 0 0 0 0 0 0 0 
0 0 0 0 0 0 0 0 0 
0 0 0 0 0 0 0 0 0 
0 0 0 0 0 0 0 0 0 
0 0 0 0 0 0 0 0 0 
0 0 0 0 0 0 0 0 0 
0 0 0 0 0 0 0 0 0 
0 0 0 0 0 0 0 0 0 
0 0 0 0 0 0 0 0 0 
0 0 0 0 0 0 0 0 0 
0 0 0 0 0 0 0 0 0 
0 0 0 0 0 0 0 0 0 
0 0 0 0 0 0 0 0 0 
0 0 0 0 0 0 0 0 0 
0 0 0 0 0 0 0 0 0 
0 0 0 0 0 0 0 0 0 
0 0 0 0 0 0 0 0 0 
0 0 0 0 0 0 0 0 0 
0 0 0 0 0 0 0 0 0 
0 0 0 0 0 0 0 0 0 
0 0 0 0 0 0 0 0 0 
0 0 0 0 0 0 0 0 0 
0 0 0 0 0 0 0 0 0 
0 0 0 0 0 0 0 0 0 
0 0 0 0 0 0 0 0 0 
0 0 0 0 0 0 0 0 0 
0 0 0 0 0 0 0 0 0 
0 0 0 0 0 0 0 0 0 
0 0 0 0 0 0 0 0 0 
0 0 0 0 0 0 0 0 0 
0 0 0 0 0 0 0 0 0 
0 0 0 0 0 0 0 0 0 
0 0 0 0 0 0 0 0 0 
0 0 0 0 0 0 0 0 0 
0 0 0 0 0 0 0 0 0 
0 0 0 0 0 0 0 0 0 
0 0 0 0 0 0 0 0 0 
0 0 0 0 0 0 0 0 0 
0 0 0 0 0 0 0 0 0 
0 0 0 0 0 0 0 0 0 
0 0 0 0 0 0 0 0 0 
0 0 0 0 0 0 0 0 0 
0 0 0 0 0 0 0 0 0 
0 0 0 0 0 0 0 0 0 
0 0 0 0 0 0 0 0 0 
0 0 0 0 0 0 0 0 0 
0 0 0 0 0 0 0 0 0 
0 0 0 0 0 0 0 0 0 
0 0 0 0 0 0 0 0 0 
0 0 0 0 0 0 0 0 0 
0 0 0 0 0 0 0 0 0 
0 0 0 0 0 0 0 0 0 
0 0 0 0 0 0 0 0 0 
0 0 0 0 0 0 0 0 0 
0 0 0 0 0 0 0 0 0 
0 0 0 0 0 0 0 0 0 
0 0 0 0 0 0 0 0 0 
0 0 0 0 0 0 0 0 0 
0 0 0 0 0 0 0 0 0 
0 0 0 0 0 0 0 0 0 
0 0 0 0 0 0 0 0 0 
0 0 0 0 0 0 0 0 0 
0 0 0 0 0 0 0 0 0 
0 0 0 0 0 0 0 0 0 
0 0 0 0 0 0 0 0 0 
0 0 0 0 0 0 0 0 0 
0 0 0 0 0 0 0 0 0 
0 0 0 0 0 0 0 0 0 
0 0 0 0 0 0 0 0 0 
0 0 0 0 0 0 0 0 0 
0 0 0 0 0 0 0 0 0 
0 0 0 0 0 0 0 0 0 
0 0 0 0 0 0 0 0 0 
0 0 0 0 0 0 0 0 0 
0 0 0 0 0 0 0 0 0 
0 0 0 0 0 0 0 0 0 
0 0 0 0 0 0 0 0 0 
0 0 0 0 0 0 0 0 0 
0 0 0 0 0 0 0 0 0 
0 0 0 0 0 0 0 0 0 
0 0 0 0 0 0 0 0 0 
0 0 0 0 0 0 0 0 0 
0 0 0 0 0 0 0 0 0 
0 0 0 0 0 0 0 0 0 
0 0 0 0 0 0 0 0 0 
0 0 0 0 0 0 0 0 0 
0 0 0 0 0 0 0 0 0 
0 0 0 0 0 0 0 0 0 
0 0 0 0 0 0 0 0 0 
0 0 0 0 0 0 0 0 0 
0 0 0 0 0 0 0 0 0 
0 0 0 0 0 0 0 0 0 
0 0 0 0 0 0 0 0 0 
0 0 0 0 0 0 0 0 0 
0 0 0 0 0 0 0 0 0 
0 0 0 0 0 0 0 0 0 
0 0 0 0 0 0 0 0 0 
0 0 0 0 0 0 0 0 0 
0 0 0 0 0 0 0 0 0 
0 0 0 0 0 0 0 0 0 
0 0 0 0 0 0 0 0 0 
0 0 0 0 0 0 0 0 0 
0 0 0 0 0 0 0 0 0 
0 0 0 0 0 0 0 0 0 
0 0 0 0 0 0 0 0 0 
0 0 0 0 0 0 0 0 0 
0 0 0 0 0 0 0 0 0 
0 0 0 0 0 0 0 0 0 
0 0 0 0 0 0 0 0 0 
0 0 0 0 0 0 0 0 0 
0 0 0 0 0 0 0 0 0 
0 0 0 0 0 0 0 0 0 
0 0 0 0 0 0 0 0 0 
0 0 0 0 0 0 0 0 0 
0 0 0 0 0 0 0 0 0 
0 0 0 0 0 0 0 0 0 
0 0 0 0 0 0 0 0 0 
0 0 0 0 0 0 0 0 0 
0 0 0 0 0 0 0 0 0 
0 0 0 0 0 0 0 0 0 
0 0 0 0 0 0 0 0 0 
0 0 0 0 0 0 0 0 0 
0 0 0 0 0 0 0 0 0 
0 0 0 0 0 0 0 0 0 
0 0 0 0 0 0 0 0 0 
0 0 0 0 0 0 0 0 0 
0 0 0 0 0 0 0 0 0 
0 0 0 0 0 0 0 0 0 
0 0 0 0 0 0 0 0 0 
0 0 0 0 0 0 0 0 0 
0 0 0 0 0 0 0 0 0 
0 0 0 0 0 0 0 0 0 
0 0 0 0 0 0 0 0 0 
0 0 0 0 0 0 0 0 0 
0 0 0 0 0 0 0 0 0 
0 0 0 0 0 0 0 0 0 
0 0 0 0 0 0 0 0 0 
0 0 0 0 0 0 0 0 0 
0 0 0 0 0 0 0 0 0 
0 0 0 0 0 0 0 0 0 
0 0 0 0 0 0 0 0 0 
0 0 0 0 0 0 0 0 0 
0 0 0 0 0 0 0 0 0 
0 0 0 0 0 0 0 0 0 
0 0 0 0 0 0 0 0 0 
0 0 0 0 0 0 0 0 0 
0 0 0 0 0 0 0 0 0 
0 0 0 0 0 0 0 0 0 
0 0 0 0 0 0 0 0 0 
0 0 0 0 0 0 0 0 0 
0 0 0 0 0 0 0 0 0 
0 0 0 0 0 0 0 0 0 
0 0 0 0 0 0 0 0 0 
0 0 0 0 0 0 0 0 0 
0 0 0 0 0 0 0 0 0 
0 0 0 0 0 0 0 0 0 
0 0 0 0 0 0 0 0 0 
0 0 0 0 0 0 0 0 0 
0 0 0 0 0 0 0 0 0 
0 0 0 0 0 0 0 0 0 
0 0 0 0 0 0 0 0 0 
0 0 0 0 0 0 0 0 0 
0 0 0 0 0 0 0 0 0 
0 0 0 0 0 0 0 0 0 
0 0 0 0 0 0 0 0 0 
0 0 0 0 0 0 0 0 0 
0 0 0 0 0 0 0 0 0 
0 0 0 0 0 0 0 0 0 
0 0 0 0 0 0 0 0 0 
0 0 0 0 0 0 0 0 0 
0 0 0 0 0 0 0 0 0 
0 0 0 0 0 0 0 0 0 
0 0 0 0 0 0 0 0 0 
0 0 0 0 0 0 0 0 0 
0 0 0 0 0 0 0 0 0 
0 0 0 0 0 0 0 0 0 
0 0 0 0 0 0 0 0 0 
0 0 0 0 0 0 0 0 0 
0 0 0 0 0 0 0 0 0 
0 0 0 0 0 0 0 0 0 
0 0 0 0 0 0 0 0 0 
0 0 0 0 0 0 0 0 0 
0 0 0 0 0 0 0 0 0 
0 0 0 0 0 0 0 0 0 
0 0 0 0 0 0 0 0 0 
0 0 0 0 0 0 0 0 0 
0 0 0 0 0 0 0 0 0 
0 0 0 0 0 0 0 0 0 
0 0 0 0 0 0 0 0 0 
0 0 0 0 0 0 0 0 0 
0 0 0 0 0 0 0 0 0 
0 0 0 0 0 0 0 0 0 
0 0 0 0 0 0 0 0 0 
0 0 0 0 0 0 0 0 0 
0 0 0 0 0 0 0 0 0 
0 0 0 0 0 0 0 0 0 
0 0 0 0 0 0 0 0 0 
0 0 0 0 0 0 0 0 0 
0 0 0 0 0 0 0 0 0 
0 0 0 0 0 0 0 0 0 
0 0 0 0 0 0 0 0 0 
0 0 0 0 0 0 0 0 0 
0 0 0 0 0 0 0 0 0 
0 0 0 0 0 0 0 0 0 
0 0 0 0 0 0 0 0 0 
0 0 0 0 0 0 0 0 0 
0 0 0 0 0 0 0 0 0 
0 0 0 0 0 0 0 0 0 
0 0 0 0 0 0 0 0 0 
0 0 0 0 0 0 0 0 0 
0 0 0 0 0 0 0 0 0 
0 0 0 0 0 0 0 0 0 
0 0 0 0 0 0 0 0 0 
0 0 0 0 0 0 0 0 0 
0 0 0 0 0 0 0 0 0 
0 0 0 0 0 0 0 0 0 
0 0 0 0 0 0 0 0 0 
0 0 0 0 0 0 0 0 0 
0 0 0 0 0 0 0 0 0 
0 0 0 0 0 0 0 0 0 
0 0 0 0 0 0 0 0 0 
0 0 0 0 0 0 0 0 0 
0 0 0 0 0 0 0 0 0 
0 0 0 0 0 0 0 0 0 
0 0 0 0 0 0 0 0 0 
0 0 0 0 0 0 0 0 0 
0 0 0 0 0 0 0 0 0 
0 0 0 0 0 0 0 0 0 
0 0 0 0 0 0 0 0 0 
0 0 0 0 0 0 0 0 0 
0 0 0 0 0 0 0 0 0 
0 0 0 0 0 0 0 0 0 
0 0 0 0 0 0 0 0 0 
0 0 0 0 0 0 0 0 0 
0 0 0 0 0 0 0 0 0 
0 0 0 0 0 0 0 0 0 
0 0 0 0 0 0 0 0 0 
0 0 0 0 0 0 0 0 0 
0 0 0 0 0 0 0 0 0 
0 0 0 0 0 0 0 0 0 
0 0 0 0 0 0 0 0 0 
0 0 0 0 0 0 0 0 0 
0 0 0 0 0 0 0 0 0 
0 0 0 0 0 0 0 0 0 
0 0 0 0 0 0 0 0 0 
0 0 0 0 0 0 0 0 0 
0 0 0 0 0 0 0 0 0 
0 0 0 0 0 0 0 0 0 
0 0 0 0 0 0 0 0 0 
0 0 0 0 0 0 0 0 0 
0 0 0 0 0 0 0 0 0 
0 0 0 0 0 0 0 0 0 
0 0 0 0 0 0 0 0 0 
0 0 0 0 0 0 0 0 0 
0 0 0 0 0 0 0 0 0 
0 0 0 0 0 0 0 0 0 
0 0 0 0 0 0 0 0 0 
0 0 0 0 0 0 0 0 0 
0 0 0 0 0 0 0 0 0 
0 0 0 0 0 0 0 0 0 
0 0 0 0 0 0 0 0 0 
0 0 0 0 0 0 0 0 0 
0 0 0 0 0 0 0 0 0 
0 0 0 0 0 0 0 0 0 
0 0 0 0 0 0 0 0 0 
0 0 0 0 0 0 0 0 0 
0 0 0 0 0 0 0 0 0 
0 0 0 0 0 0 0 0 0 
0 0 0 0 0 0 0 0 0 
0 0 0 0 0 0 0 0 0 
0 0 0 0 0 0 0 0 0 
0 0 0 0 0 0 0 0 0 
0 0 0 0 0 0 0 0 0 
0 0 0 0 0 0 0 0 0 
0 0 0 0 0 0 0 0 0 
0 0 0 0 0 0 0 0 0 
0 0 0 0 0 0 0 0 0 
0 0 0 0 0 0 0 0 0 
0 0 0 0 0 0 0 0 0 
0 0 0 0 0 0 0 0 0 
0 0 0 0 0 0 0 0 0 
0 0 0 0 0 0 0 0 0 
0 0 0 0 0 0 0 0 0 
0 0 0 0 0 0 0 0 0 
0 0 0 0 0 0 0 0 0 
0 0 0 0 0 0 0 0 0 
0 0 0 0 0 0 0 0 0 
0 0 0 0 0 0 0 0 0 
0 0 0 0 0 0 0 0 0 
0 0 0 0 0 0 0 0 0 
0 0 0 0 0 0 0 0 0 
0 0 0 0 0 0 0 0 0 
0 0 0 0 0 0 0 0 0 
0 0 0 0 0 0 0 0 0 
0 0 0 0 0 0 0 0 0 
0 0 0 0 0 0 0 0 0 
0 0 0 0 0 0 0 0 0 
0 0 0 0 0 0 0 0 0 
0 0 0 0 0 0 0 0 0 
0 0 0 0 0 0 0 0 0 
0 0 0 0 0 0 0 0 0 
0 0 0 0 0 0 0 0 0 
0 0 0 0 0 0 0 0 0 
0 0 0 0 0 0 0 0 0 
0 0 0 0 0 0 0 0 0 
0 0 0 0 0 0 0 0 0 
0 0 0 0 0 0 0 0 0 
0 0 0 0 0 0 0 0 0 
0 0 0 0 0 0 0 0 0 
0 0 0 0 0 0 0 0 0 
0 0 0 0 0 0 0 0 0 
0 0 0 0 0 0 0 0 0 
0 0 0 0 0 0 0 0 0 
0 0 0 0 0 0 0 0 0 
0 0 0 0 0 0 0 0 0 
0 0 0 0 0 0 0 0 0 
0 0 0 0 0 0 0 0 0 
0 0 0 0 0 0 0 0 0 
0 0 0 0 0 0 0 0 0 
0 0 0 0 0 0 0 0 0 
0 0 0 0 0 0 0 0 0 
0 0 0 0 0 0 0 0 0 
0 0 0 0 0 0 0 0 0 
0 0 0 0 0 0 0 0 0 
0 0 0 0 0 0 0 0 0 
0 0 0 0 0 0 0 0 0 
0 0 0 0 0 0 0 0 0 
0 0 0 0 0 0 0 0 0 
0 0 0 0 0 0 0 0 0 
0 0 0 0 0 0 0 0 0 
0 0 0 0 0 0 0 0 0 
0 0 0 0 0 0 0 0 0 
0 0 0 0 0 0 0 0 0 
0 0 0 0 0 0 0 0 0 
0 0 0 0 0 0 0 0 0 
0 0 0 0 0 0 0 0 0 
0 0 0 0 0 0 0 0 0 
0 0 0 0 0 0 0 0 0 
0 0 0 0 0 0 0 0 0 
0 0 0 0 0 0 0 0 0 
0 0 0 0 0 0 0 0 0 
0 0 0 0 0 0 0 0 0 
0 0 0 0 0 0 0 0 0 
0 0 0 0 0 0 0 0 0 
0 0 0 0 0 0 0 0 0 
0 0 0 0 0 0 0 0 0 
0 0 0 0 0 0 0 0 0 
0 0 0 0 0 0 0 0 0 
0 0 0 0 0 0 0 0 0 
0 0 0 0 0 0 0 0 0 
0 0 0 0 0 0 0 0 0 
0 0 0 0 0 0 0 0 0 
0 0 0 0 0 0 0 0 0 
0 0 0 0 0 0 0 0 0 
0 0 0 0 0 0 0 0 0 
0 0 0 0 0 0 0 0 0 
0 0 0 0 0 0 0 0 0 
0 0 0 0 0 0 0 0 0 
0 0 0 0 0 0 0 0 0 
0 0 0 0 0 0 0 0 0 
0 0 0 0 0 0 0 0 0 
0 0 0 0 0 0 0 0 0 
0 0 0 0 0 0 0 0 0 
0 0 0 0 0 0 0 0 0 
0 0 0 0 0 0 0 0 0 
0 0 0 0 0 0 0 0 0 
0 0 0 0 0 0 0 0 0 
0 0 0 0 0 0 0 0 0 
0 0 0 0 0 0 0 0 0 
0 0 0 0 0 0 0 0 0 
0 0 0 0 0 0 0 0 0 
0 0 0 0 0 0 0 0 0 
0 0 0 0 0 0 0 0 0 
0 0 0 0 0 0 0 0 0 
0 0 0 0 0 0 0 0 0 
0 0 0 0 0 0 0 0 0 
0 0 0 0 0 0 0 0 0 
0 0 0 0 0 0 0 0 0 
0 0 0 0 0 0 0 0 0 
0 0 0 0 0 0 0 0 0 
0 0 0 0 0 0 0 0 0 
0 0 0 0 0 0 0 0 0 
0 0 0 0 0 0 0 0 0 
0 0 0 0 0 0 0 0 0 
0 0 0 0 0 0 0 0 0 
0 0 0 0 0 0 0 0 0 
0 0 0 0 0 0 0 0 0 
0 0 0 0 0 0 0 0 0 
0 0 0 0 0 0 0 0 0 
0 0 0 0 0 0 0 0 0 
0 0 0 0 0 0 0 0 0 
0 0 0 0 0 0 0 0 0 
0 0 0 0 0 0 0 0 0 
0 0 0 0 0 0 0 0 0 
0 0 0 0 0 0 0 0 0 
0 0 0 0 0 0 0 0 0 
0 0 0 0 0 0 0 0 0 
0 0 0 0 0 0 0 0 0 
0 0 0 0 0 0 0 0 0 
0 0 0 0 0 0 0 0 0 
0 0 0 0 0 0 0 0 0 
0 0 0 0 0 0 0 0 0 
0 0 0 0 0 0 0 0 0 
0 0 0 0 0 0 0 0 0 
0 0 0 0 0 0 0 0 0 
0 0 0 0 0 0 0 0 0 
0 0 0 0 0 0 0 0 0 
0 0 0 0 0 0 0 0 0 
0 0 0 0 0 0 0 0 0 
0 0 0 0 0 0 0 0 0 
0 0 0 0 0 0 0 0 0 
0 0 0 0 0 0 0 0 0 
0 0 0 0 0 0 0 0 0 
0 0 0 0 0 0 0 0 0 
0 0 0 0 0 0 0 0 0 
0 0 0 0 0 0 0 0 0 
0 0 0 0 0 0 0 0 0 
0 0 0 0 0 0 0 0 0 
0 0 0 0 0 0 0 0 0 
0 0 0 0 0 0 0 0 0 
0 0 0 0 0 0 0 0 0 
0 0 0 0 0 0 0 0 0 
0 0 0 0 0 0 0 0 0 
0 0 0 0 0 0 0 0 0 
0 0 0 0 0 0 0 0 0 
0 0 0 0 0 0 0 0 0 
0 0 0 0 0 0 0 0 0 
0 0 0 0 0 0 0 0 0 
0 0 0 0 0 0 0 0 0 
0 0 0 0 0 0 0 0 0 
0 0 0 0 0 0 0 0 0 
0 0 0 0 0 0 0 0 0 
0 0 0 0 0 0 0 0 0 
0 0 0 0 0 0 0 0 0 
0 0 0 0 0 0 0 0 0 
0 0 0 0 0 0 0 0 0 
0 0 0 0 0 0 0 0 0 
0 0 0 0 0 0 0 0 0 
0 0 0 0 0 0 0 0 0 
0 0 0 0 0 0 0 0 0 
0 0 0 0 0 0 0 0 0 
0 0 0 0 0 0 0 0 0 
0 0 0 0 0 0 0 0 0 
0 0 0 0 0 0 0 0 0 
0 0 0 0 0 0 0 0 0 
0 0 0 0 0 0 0 0 0 
0 0 0 0 0 0 0 0 0 
0 0 0 0 0 0 0 0 0 
0 0 0 0 0 0 0 0 0 
0 0 0 0 0 0 0 0 0 
0 0 0 0 0 0 0 0 0 
0 0 0 0 0 0 0 0 0 
0 0 0 0 0 0 0 0 0 
0 0 0 0 0 0 0 0 0 
0 0 0 0 0 0 0 0 0 
0 0 0 0 0 0 0 0 0 
0 0 0 0 0 0 0 0 0 
0 0 0 0 0 0 0 0 0 
0 0 0 0 0 0 0 0 0 
0 0 0 0 0 0 0 0 0 
0 0 0 0 0 0 0 0 0 
0 0 0 0 0 0 0 0 0 
0 0 0 0 0 0 0 0 0 
0 0 0 0 0 0 0 0 0 
0 0 0 0 0 0 0 0 0 
0 0 0 0 0 0 0 0 0 
0 0 0 0 0 0 0 0 0 
0 0 0 0 0 0 0 0 0 
0 0 0 0 0 0 0 0 0 
0 0 0 0 0 0 0 0 0 
0 0 0 0 0 0 0 0 0 
0 0 0 0 0 0 0 0 0 
0 0 0 0 0 0 0 0 0 
0 0 0 0 0 0 0 0 0 
0 0 0 0 0 0 0 0 0 
0 0 0 0 0 0 0 0 0 
0 0 0 0 0 0 0 0 0 
0 0 0 0 0 0 0 0 0 
0 0 0 0 0 0 0 0 0 
0 0 0 0 0 0 0 0 0 
0 0 0 0 0 0 0 0 0 
0 0 0 0 0 0 0 0 0 
0 0 0 0 0 0 0 0 0 
0 0 0 0 0 0 0 0 0 
0 0 0 0 0 0 0 0 0 
0 0 0 0 0 0 0 0 0 
0 0 0 0 0 0 0 0 0 
0 0 0 0 0 0 0 0 0 
0 0 0 0 0 0 0 0 0 
0 0 0 0 0 0 0 0 0 
0 0 0 0 0 0 0 0 0 
0 0 0 0 0 0 0 0 0 
0 0 0 0 0 0 0 0 0 
0 0 0 0 0 0 0 0 0 
0 0 0 0 0 0 0 0 0 
0 0 0 0 0 0 0 0 0 
0 0 0 0 0 0 0 0 0 
0 0 0 0 0 0 0 0 0 
0 0 0 0 0 0 0 0 0 
0 0 0 0 0 0 0 0 0 
0 0 0 0 0 0 0 0 0 
0 0 0 0 0 0 0 0 0 
0 0 0 0 0 0 0 0 0 
0 0 0 0 0 0 0 0 0 
0 0 0 0 0 0 0 0 0 
0 0 0 0 0 0 0 0 0 
0 0 0 0 0 0 0 0 0 
0 0 0 0 0 0 0 0 0 
0 0 0 0 0 0 0 0 0 
0 0 0 0 0 0 0 0 0 
0 0 0 0 0 0 0 0 0 
0 0 0 0 0 0 0 0 0 
0 0 0 0 0 0 0 0 0 
0 0 0 0 0 0 0 0 0 
0 0 0 0 0 0 0 0 0 
0 0 0 0 0 0 0 0 0 
0 0 0 0 0 0 0 0 0 
0 0 0 0 0 0 0 0 0 
0 0 0 0 0 0 0 0 0 
0 0 0 0 0 0 0 0 0 
0 0 0 0 0 0 0 0 0 
0 0 0 0 0 0 0 0 0 
0 0 0 0 0 0 0 0 0 
0 0 0 0 0 0 0 0 0 
0 0 0 0 0 0 0 0 0 
0 0 0 0 0 0 0 0 0 
0 0 0 0 0 0 0 0 0 
0 0 0 0 0 0 0 0 0 
0 0 0 0 0 0 0 0 0 
0 0 0 0 0 0 0 0 0 
0 0 0 0 0 0 0 0 0 
0 0 0 0 0 0 0 0 0 
0 0 0 0 0 0 0 0 0 
0 0 0 0 0 0 0 0 0 
0 0 0 0 0 0 0 0 0 
0 0 0 0 0 0 0 0 0 
0 0 0 0 0 0 0 0 0 
0 0 0 0 0 0 0 0 0 
0 0 0 0 0 0 0 0 0 
0 0 0 0 0 0 0 0 0 
0 0 0 0 0 0 0 0 0 
0 0 0 0 0 0 0 0 0 
0 0 0 0 0 0 0 0 0 
0 0 0 0 0 0 0 0 0 
0 0 0 0 0 0 0 0 0 
0 0 0 0 0 0 0 0 0 
0 0 0 0 0 0 0 0 0 
0 0 0 0 0 0 0 0 0 
0 0 0 0 0 0 0 0 0 
0 0 0 0 0 0 0 0 0 
0 0 0 0 0 0 0 0 0 
0 0 0 0 0 0 0 0 0 
0 0 0 0 0 0 0 0 0 
0 0 0 0 0 0 0 0 0 
0 0 0 0 0 0 0 0 0 
0 0 0 0 0 0 0 0 0 
0 0 0 0 0 0 0 0 0 
0 0 0 0 0 0 0 0 0 
0 0 0 0 0 0 0 0 0 
0 0 0 0 0 0 0 0 0 
0 0 0 0 0 0 0 0 0 
0 0 0 0 0 0 0 0 0 
0 0 0 0 0 0 0 0 0 
0 0 0 0 0 0 0 0 0 
0 0 0 0 0 0 0 0 0 
0 0 0 0 0 0 0 0 0 
0 0 0 0 0 0 0 0 0 
0 0 0 0 0 0 0 0 0 
0 0 0 0 0 0 0 0 0 
0 0 0 0 0 0 0 0 0 
0 0 0 0 0 0 0 0 0 
0 0 0 0 0 0 0 0 0 
0 0 0 0 0 0 0 0 0 
0 0 0 0 0 0 0 0 0 
0 0 0 0 0 0 0 0 0 
0 0 0 0 0 0 0 0 0 
0 0 0 0 0 0 0 0 0 
0 0 0 0 0 0 0 0 0 
0 0 0 0 0 0 0 0 0 
0 0 0 0 0 0 0 0 0 
0 0 0 0 0 0 0 0 0 
0 0 0 0 0 0 0 0 0 
0 0 0 0 0 0 0 0 0 
0 0 0 0 0 0 0 0 0 
0 0 0 0 0 0 0 0 0 
0 0 0 0 0 0 0 0 0 
0 0 0 0 0 0 0 0 0 
0 0 0 0 0 0 0 0 0 
0 0 0 0 0 0 0 0 0 
0 0 0 0 0 0 0 0 0 
0 0 0 0 0 0 0 0 0 
0 0 0 0 0 0 0 0 0 
0 0 0 0 0 0 0 0 0 
0 0 0 0 0 0 0 0 0 
0 0 0 0 0 0 0 0 0 
0 0 0 0 0 0 0 0 0 
0 0 0 0 0 0 0 0 0 
0 0 0 0 0 0 0 0 0 
0 0 0 0 0 0 0 0 0 
0 0 0 0 0 0 0 0 0 
0 0 0 0 0 0 0 0 0 
0 0 0 0 0 0 0 0 0 
0 0 0 0 0 0 0 0 0 
0 0 0 0 0 0 0 0 0 
0 0 0 0 0 0 0 0 0 
0 0 0 0 0 0 0 0 0 
0 0 0 0 0 0 0 0 0 
0 0 0 0 0 0 0 0 0 
0 0 0 0 0 0 0 0 0 
0 0 0 0 0 0 0 0 0 
0 0 0 0 0 0 0 0 0 
0 0 0 0 0 0 0 0 0 
0 0 0 0 0 0 0 0 0 
0 0 0 0 0 0 0 0 0 
0 0 0 0 0 0 0 0 0 
0 0 0 0 0 0 0 0 0 
0 0 0 0 0 0 0 0 0 
0 0 0 0 0 0 0 0 0 
0 0 0 0 0 0 0 0 0 
0 0 0 0 0 0 0 0 0 
0 0 0 0 0 0 0 0 0 
0 0 0 0 0 0 0 0 0 
0 0 0 0 0 0 0 0 0 
0 0 0 0 0 0 0 0 0 
0 0 0 0 0 0 0 0 0 
0 0 0 0 0 0 0 0 0 
0 0 0 0 0 0 0 0 0 
0 0 0 0 0 0 0 0 0 
0 0 0 0 0 0 0 0 0 
0 0 0 0 0 0 0 0 0 
0 0 0 0 0 0 0 0 0 
0 0 0 0 0 0 0 0 0 
0 0 0 0 0 0 0 0 0 
0 0 0 0 0 0 0 0 0 
0 0 0 0 0 0 0 0 0 
0 0 0 0 0 0 0 0 0 
0 0 0 0 0 0 0 0 0 
0 0 0 0 0 0 0 0 0 
0 0 0 0 0 0 0 0 0 
0 0 0 0 0 0 0 0 0 
0 0 0 0 0 0 0 0 0 
0 0 0 0 0 0 0 0 0 
0 0 0 0 0 0 0 0 0 
0 0 0 0 0 0 0 0 0 
0 0 0 0 0 0 0 0 0 
0 0 0 0 0 0 0 0 0 
0 0 0 0 0 0 0 0 0 
0 0 0 0 0 0 0 0 0 
0 0 0 0 0 0 0 0 0 
0 0 0 0 0 0 0 0 0 
0 0 0 0 0 0 0 0 0 
0 0 0 0 0 0 0 0 0 
0 0 0 0 0 0 0 0 0 
0 0 0 0 0 0 0 0 0 
0 0 0 0 0 0 0 0 0 
0 0 0 0 0 0 0 0 0 
0 0 0 0 0 0 0 0 0 
0 0 0 0 0 0 0 0 0 
0 0 0 0 0 0 0 0 0 
0 0 0 0 0 0 0 0 0 
0 0 0 0 0 0 0 0 0 
0 0 0 0 0 0 0 0 0 
0 0 0 0 0 0 0 0 0 
0 0 0 0 0 0 0 0 0 
0 0 0 0 0 0 0 0 0 
0 0 0 0 0 0 0 0 0 
0 0 0 0 0 0 0 0 0 
0 0 0 0 0 0 0 0 0 
0 0 0 0 0 0 0 0 0 
0 0 0 0 0 0 0 0 0 
0 0 0 0 0 0 0 0 0 
0 0 0 0 0 0 0 0 0 
0 0 0 0 0 0 0 0 0 
0 0 0 0 0 0 0 0 0 
0 0 0 0 0 0 0 0 0 
0 0 0 0 0 0 0 0 0 
0 0 0 0 0 0 0 0 0 
0 0 0 0 0 0 0 0 0 
0 0 0 0 0 0 0 0 0 
0 0 0 0 0 0 0 0 0 
0 0 0 0 0 0 0 0 0 
0 0 0 0 0 0 0 0 0 
0 0 0 0 0 0 0 0 0 
0 0 0 0 0 0 0 0 0 
0 0 0 0 0 0 0 0 0 
0 0 0 0 0 0 0 0 0 
0 0 0 0 0 0 0 0 0 
0 0 0 0 0 0 0 0 0 
0 0 0 0 0 0 0 0 0 
0 0 0 0 0 0 0 0 0 
0 0 0 0 0 0 0 0 0 
0 0 0 0 0 0 0 0 0 
0 0 0 0 0 0 0 0 0 
0 0 0 0 0 0 0 0 0 
0 0 0 0 0 0 0 0 0 
0 0 0 0 0 0 0 0 0 
0 0 0 0 0 0 0 0 0 
0 0 0 0 0 0 0 0 0 
0 0 0 0 0 0 0 0 0 
0 0 0 0 0 0 0 0 0 
0 0 0 0 0 0 0 0 0 
0 0 0 0 0 0 0 0 0 
0 0 0 0 0 0 0 0 0 
0 0 0 0 0 0 0 0 0 
0 0 0 0 0 0 0 0 0 
0 0 0 0 0 0 0 0 0 
0 0 0 0 0 0 0 0 0 
0 0 0 0 0 0 0 0 0 
0 0 0 0 0 0 0 0 0 
0 0 0 0 0 0 0 0 0 
0 0 0 0 0 0 0 0 0 
0 0 0 0 0 0 0 0 0 
0 0 0 0 0 0 0 0 0 
0 0 0 0 0 0 0 0 0 
0 0 0 0 0 0 0 0 0 
0 0 0 0 0 0 0 0 0 
0 0 0 0 0 0 0 0 0 
0 0 0 0 0 0 0 0 0 
0 0 0 0 0 0 0 0 0 
0 0 0 0 0 0 0 0 0 
0 0 0 0 0 0 0 0 0 
0 0 0 0 0 0 0 0 0 
0 0 0 0 0 0 0 0 0 
0 0 0 0 0 0 0 0 0 
0 0 0 0 0 0 0 0 0 
0 0 0 0 0 0 0 0 0 
0 0 0 0 0 0 0 0 0 
0 0 0 0 0 0 0 0 0 
0 0 0 0 0 0 0 0 0 
0 0 0 0 0 0 0 0 0 
0 0 0 0 0 0 0 0 0 
0 0 0 0 0 0 0 0 0 
0 0 0 0 0 0 0 0 0 
0 0 0 0 0 0 0 0 0 
0 0 0 0 0 0 0 0 0 
0 0 0 0 0 0 0 0 0 
0 0 0 0 0 0 0 0 0 
0 0 0 0 0 0 0 0 0 
0 0 0 0 0 0 0 0 0 
0 0 0 0 0 0 0 0 0 
0 0 0 0 0 0 0 0 0 
0 0 0 0 0 0 0 0 0 
0 0 0 0 0 0 0 0 0 
0 0 0 0 0 0 0 0 0 
0 0 0 0 0 0 0 0 0 
0 0 0 0 0 0 0 0 0 
0 0 0 0 0 0 0 0 0 
0 0 0 0 0 0 0 0 0 
0 0 0 0 0 0 0 0 0 
0 0 0 0 0 0 0 0 0 
0 0 0 0 0 0 0 0 0 
0 0 0 0 0 0 0 0 0 
0 0 0 0 0 0 0 0 0 
0 0 0 0 0 0 0 0 0 
0 0 0 0 0 0 0 0 0 
0 0 0 0 0 0 0 0 0 
0 0 0 0 0 0 0 0 0 
0 0 0 0 0 0 0 0 0 
0 0 0 0 0 0 0 0 0 
0 0 0 0 0 0 0 0 0 
0 0 0 0 0 0 0 0 0 
0 0 0 0 0 0 0 0 0 
0 0 0 0 0 0 0 0 0 
0 0 0 0 0 0 0 0 0 
0 0 0 0 0 0 0 0 0 
0 0 0 0 0 0 0 0 0 
0 0 0 0 0 0 0 0 0 
0 0 0 0 0 0 0 0 0 
0 0 0 0 0 0 0 0 0 
0 0 0 0 0 0 0 0 0 
0 0 0 0 0 0 0 0 0 
0 0 0 0 0 0 0 0 0 
0 0 0 0 0 0 0 0 0 
0 0 0 0 0 0 0 0 0 
0 0 0 0 0 0 0 0 0 
0 0 0 0 0 0 0 0 0 
0 0 0 0 0 0 0 0 0 
0 0 0 0 0 0 0 0 0 
0 0 0 0 0 0 0 0 0 
0 0 0 0 0 0 0 0 0 
0 0 0 0 0 0 0 0 0 
0 0 0 0 0 0 0 0 0 
0 0 0 0 0 0 0 0 0 
0 0 0 0 0 0 0 0 0 
0 0 0 0 0 0 0 0 0 
0 0 0 0 0 0 0 0 0 
0 0 0 0 0 0 0 0 0 
0 0 0 0 0 0 0 0 0 
0 0 0 0 0 0 0 0 0 
0 0 0 0 0 0 0 0 0 
0 0 0 0 0 0 0 0 0 
0 0 0 0 0 0 0 0 0 
0 0 0 0 0 0 0 0 0 
0 0 0 0 0 0 0 0 0 
0 0 0 0 0 0 0 0 0 
0 0 0 0 0 0 0 0 0 
0 0 0 0 0 0 0 0 0 
0 0 0 0 0 0 0 0 0 
0 0 0 0 0 0 0 0 0 
0 0 0 0 0 0 0 0 0 
0 0 0 0 0 0 0 0 0 
0 0 0 0 0 0 0 0 0 
0 0 0 0 0 0 0 0 0 
0 0 0 0 0 0 0 0 0 
0 0 0 0 0 0 0 0 0 
0 0 0 0 0 0 0 0 0 
0 0 0 0 0 0 0 0 0 
0 0 0 0 0 0 0 0 0 
0 0 0 0 0 0 0 0 0 
0 0 0 0 0 0 0 0 0 
0 0 0 0 0 0 0 0 0 
0 0 0 0 0 0 0 0 0 
0 0 0 0 0 0 0 0 0 
0 0 0 0 0 0 0 0 0 
0 0 0 0 0 0 0 0 0 
0 0 0 0 0 0 0 0 0 
0 0 0 0 0 0 0 0 0 
0 0 0 0 0 0 0 0 0 
0 0 0 0 0 0 0 0 0 
0 0 0 0 0 0 0 0 0 
0 0 0 0 0 0 0 0 0 
0 0 0 0 0 0 0 0 0 
0 0 0 0 0 0 0 0 0 
0 0 0 0 0 0 0 0 0 
0 0 0 0 0 0 0 0 0 
0 0 0 0 0 0 0 0 0 
0 0 0 0 0 0 0 0 0 
0 0 0 0 0 0 0 0 0 
0 0 0 0 0 0 0 0 0 
0 0 0 0 0 0 0 0 0 
0 0 0 0 0 0 0 0 0 
0 0 0 0 0 0 0 0 0 
0 0 0 0 0 0 0 0 0 
0 0 0 0 0 0 0 0 0 
0 0 0 0 0 0 0 0 0 
0 0 0 0 0 0 0 0 0 
0 0 0 0 0 0 0 0 0 
0 0 0 0 0 0 0 0 0 
0 0 0 0 0 0 0 0 0 
0 0 0 0 0 0 0 0 0 
0 0 0 0 0 0 0 0 0 
0 0 0 0 0 0 0 0 0 
0 0 0 0 0 0 0 0 0 
0 0 0 0 0 0 0 0 0 
0 0 0 0 0 0 0 0 0 
0 0 0 0 0 0 0 0 0 
0 0 0 0 0 0 0 0 0 
0 0 0 0 0 0 0 0 0 
0 0 0 0 0 0 0 0 0 
0 0 0 0 0 0 0 0 0 
0 0 0 0 0 0 0 0 0 
0 0 0 0 0 0 0 0 0 
0 0 0 0 0 0 0 0 0 
0 0 0 0 0 0 0 0 0 
0 0 0 0 0 0 0 0 0 
0 0 0 0 0 0 0 0 0 
0 0 0 0 0 0 0 0 0 
0 0 0 0 0 0 0 0 0 
0 0 0 0 0 0 0 0 0 
0 0 0 0 0 0 0 0 0 
0 0 0 0 0 0 0 0 0 
0 0 0 0 0 0 0 0 0 
0 0 0 0 0 0 0 0 0 
0 0 0 0 0 0 0 0 0 
0 0 0 0 0 0 0 0 0 
0 0 0 0 0 0 0 0 0 
0 0 0 0 0 0 0 0 0 
0 0 0 0 0 0 0 0 0 
0 0 0 0 0 0 0 0 0 
0 0 0 0 0 0 0 0 0 
0 0 0 0 0 0 0 0 0 
0 0 0 0 0 0 0 0 0 
0 0 0 0 0 0 0 0 0 
0 0 0 0 0 0 0 0 0 
0 0 0 0 0 0 0 0 0 
0 0 0 0 0 0 0 0 0 
0 0 0 0 0 0 0 0 0 
0 0 0 0 0 0 0 0 0 
0 0 0 0 0 0 0 0 0 
0 0 0 0 0 0 0 0 0 
0 0 0 0 0 0 0 0 0 
0 0 0 0 0 0 0 0 0 
0 0 0 0 0 0 0 0 0 
0 0 0 0 0 0 0 0 0 
0 0 0 0 0 0 0 0 0 
0 0 0 0 0 0 0 0 0 
0 0 0 0 0 0 0 0 0 
0 0 0 0 0 0 0 0 0 
0 0 0 0 0 0 0 0 0 
0 0 0 0 0 0 0 0 0 
0 0 0 0 0 0 0 0 0 
0 0 0 0 0 0 0 0 0 
0 0 0 0 0 0 0 0 0 
0 0 0 0 0 0 0 0 0 
0 0 0 0 0 0 0 0 0 
0 0 0 0 0 0 0 0 0 
0 0 0 0 0 0 0 0 0 
0 0 0 0 0 0 0 0 0 
0 0 0 0 0 0 0 0 0 
0 0 0 0 0 0 0 0 0 
0 0 0 0 0 0 0 0 0 
0 0 0 0 0 0 0 0 0 
0 0 0 0 0 0 0 0 0 
0 0 0 0 0 0 0 0 0 
0 0 0 0 0 0 0 0 0 
0 0 0 0 0 0 0 0 0 
0 0 0 0 0 0 0 0 0 
0 0 0 0 0 0 0 0 0 
0 0 0 0 0 0 0 0 0 
0 0 0 0 0 0 0 0 0 
0 0 0 0 0 0 0 0 0 
0 0 0 0 0 0 0 0 0 
0 0 0 0 0 0 0 0 0 
0 0 0 0 0 0 0 0 0 
0 0 0 0 0 0 0 0 0 
0 0 0 0 0 0 0 0 0 
0 0 0 0 0 0 0 0 0 
0 0 0 0 0 0 0 0 0 
0 0 0 0 0 0 0 0 0 
0 0 0 0 0 0 0 0 0 
0 0 0 0 0 0 0 0 0 
0 0 0 0 0 0 0 0 0 
0 0 0 0 0 0 0 0 0 
0 0 0 0 0 0 0 0 0 
0 0 0 0 0 0 0 0 0 
0 0 0 0 0 0 0 0 0 
0 0 0 0 0 0 0 0 0 
0 0 0 0 0 0 0 0 0 
0 0 0 0 0 0 0 0 0 
0 0 0 0 0 0 0 0 0 
0 0 0 0 0 0 0 0 0 
0 0 0 0 0 0 0 0 0 
0 0 0 0 0 0 0 0 0 
0 0 0 0 0 0 0 0 0 
0 0 0 0 0 0 0 0 0 
0 0 0 0 0 0 0 0 0 
0 0 0 0 0 0 0 0 0 
0 0 0 0 0 0 0 0 0 
0 0 0 0 0 0 0 0 0 
0 0 0 0 0 0 0 0 0 
0 0 0 0 0 0 0 0 0 
0 0 0 0 0 0 0 0 0 
0 0 0 0 0 0 0 0 0 
0 0 0 0 0 0 0 0 0 
0 0 0 0 0 0 0 0 0 
0 0 0 0 0 0 0 0 0 
0 0 0 0 0 0 0 0 0 
0 0 0 0 0 0 0 0 0 
0 0 0 0 0 0 0 0 0 
0 0 0 0 0 0 0 0 0 
0 0 0 0 0 0 0 0 0 
0 0 0 0 0 0 0 0 0 
0 0 0 0 0 0 0 0 0 
0 0 0 0 0 0 0 0 0 
0 0 0 0 0 0 0 0 0 
0 0 0 0 0 0 0 0 0 
0 0 0 0 0 0 0 0 0 
0 0 0 0 0 0 0 0 0 
0 0 0 0 0 0 0 0 0 
0 0 0 0 0 0 0 0 0 
0 0 0 0 0 0 0 0 0 
0 0 0 0 0 0 0 0 0 
0 0 0 0 0 0 0 0 0 
0 0 0 0 0 0 0 0 0 
0 0 0 0 0 0 0 0 0 
0 0 0 0 0 0 0 0 0 
0 0 0 0 0 0 0 0 0 
0 0 0 0 0 0 0 0 0 
0 0 0 0 0 0 0 0 0 
0 0 0 0 0 0 0 0 0 
0 0 0 0 0 0 0 0 0 
0 0 0 0 0 0 0 0 0 
0 0 0 0 0 0 0 0 0 
0 0 0 0 0 0 0 0 0 
0 0 0 0 0 0 0 0 0 
0 0 0 0 0 0 0 0 0 
0 0 0 0 0 0 0 0 0 
0 0 0 0 0 0 0 0 0 
0 0 0 0 0 0 0 0 0 
0 0 0 0 0 0 0 0 0 
0 0 0 0 0 0 0 0 0 
0 0 0 0 0 0 0 0 0 
0 0 0 0 0 0 0 0 0 
0 0 0 0 0 0 0 0 0 
0 0 0 0 0 0 0 0 0 
0 0 0 0 0 0 0 0 0 
0 0 0 0 0 0 0 0 0 
0 0 0 0 0 0 0 0 0 
0 0 0 0 0 0 0 0 0 
0 0 0 0 0 0 0 0 0 
0 0 0 0 0 0 0 0 0 
0 0 0 0 0 0 0 0 0 
0 0 0 0 0 0 0 0 0 
0 0 0 0 0 0 0 0 0 
0 0 0 0 0 0 0 0 0 
0 0 0 0 0 0 0 0 0 
0 0 0 0 0 0 0 0 0 
0 0 0 0 0 0 0 0 0 
0 0 0 0 0 0 0 0 0 
0 0 0 0 0 0 0 0 0 
0 0 0 0 0 0 0 0 0 
0 0 0 0 0 0 0 0 0 
0 0 0 0 0 0 0 0 0 
0 0 0 0 0 0 0 0 0 
0 0 0 0 0 0 0 0 0 
0 0 0 0 0 0 0 0 0 
0 0 0 0 0 0 0 0 0 
0 0 0 0 0 0 0 0 0 
0 0 0 0 0 0 0 0 0 
0 0 0 0 0 0 0 0 0 
0 0 0 0 0 0 0 0 0 
0 0 0 0 0 0 0 0 0 
0 0 0 0 0 0 0 0 0 
0 0 0 0 0 0 0 0 0 
0 0 0 0 0 0 0 0 0 
0 0 0 0 0 0 0 0 0 
0 0 0 0 0 0 0 0 0 
0 0 0 0 0 0 0 0 0 
0 0 0 0 0 0 0 0 0 
0 0 0 0 0 0 0 0 0 
0 0 0 0 0 0 0 0 0 
0 0 0 0 0 0 0 0 0 
0 0 0 0 0 0 0 0 0 
0 0 0 0 0 0 0 0 0 
0 0 0 0 0 0 0 0 0 
0 0 0 0 0 0 0 0 0 
0 0 0 0 0 0 0 0 0 
0 0 0 0 0 0 0 0 0 
0 0 0 0 0 0 0 0 0 
0 0 0 0 0 0 0 0 0 
0 0 0 0 0 0 0 0 0 
0 0 0 0 0 0 0 0 0 
0 0 0 0 0 0 0 0 0 
0 0 0 0 0 0 0 0 0 
0 0 0 0 0 0 0 0 0 
0 0 0 0 0 0 0 0 0 
0 0 0 0 0 0 0 0 0 
0 0 0 0 0 0 0 0 0 
0 0 0 0 0 0 0 0 0 
0 0 0 0 0 0 0 0 0 
0 0 0 0 0 0 0 0 0 
0 0 0 0 0 0 0 0 0 
0 0 0 0 0 0 0 0 0 
0 0 0 0 0 0 0 0 0 
0 0 0 0 0 0 0 0 0 
0 0 0 0 0 0 0 0 0 
0 0 0 0 0 0 0 0 0 
0 0 0 0 0 0 0 0 0 
0 0 0 0 0 0 0 0 0 
0 0 0 0 0 0 0 0 0 
0 0 0 0 0 0 0 0 0 
0 0 0 0 0 0 0 0 0 
0 0 0 0 0 0 0 0 0 
0 0 0 0 0 0 0 0 0 
0 0 0 0 0 0 0 0 0 
0 0 0 0 0 0 0 0 0 
0 0 0 0 0 0 0 0 0 
0 0 0 0 0 0 0 0 0 
0 0 0 0 0 0 0 0 0 
0 0 0 0 0 0 0 0 0 
0 0 0 0 0 0 0 0 0 
0 0 0 0 0 0 0 0 0 
0 0 0 0 0 0 0 0 0 
0 0 0 0 0 0 0 0 0 
0 0 0 0 0 0 0 0 0 
0 0 0 0 0 0 0 0 0 
0 0 0 0 0 0 0 0 0 
0 0 0 0 0 0 0 0 0 
0 0 0 0 0 0 0 0 0 
0 0 0 0 0 0 0 0 0 
0 0 0 0 0 0 0 0 0 
0 0 0 0 0 0 0 0 0 
0 0 0 0 0 0 0 0 0 
0 0 0 0 0 0 0 0 0 
0 0 0 0 0 0 0 0 0 
0 0 0 0 0 0 0 0 0 
0 0 0 0 0 0 0 0 0 
0 0 0 0 0 0 0 0 0 
0 0 0 0 0 0 0 0 0 
0 0 0 0 0 0 0 0 0 
0 0 0 0 0 0 0 0 0 
0 0 0 0 0 0 0 0 0 
0 0 0 0 0 0 0 0 0 
0 0 0 0 0 0 0 0 0 
0 0 0 0 0 0 0 0 0 
0 0 0 0 0 0 0 0 0 
0 0 0 0 0 0 0 0 0 
0 0 0 0 0 0 0 0 0 
0 0 0 0 0 0 0 0 0 
0 0 0 0 0 0 0 0 0 
0 0 0 0 0 0 0 0 0 
0 0 0 0 0 0 0 0 0 
0 0 0 0 0 0 0 0 0 
0 0 0 0 0 0 0 0 0 
0 0 0 0 0 0 0 0 0 
0 0 0 0 0 0 0 0 0 
0 0 0 0 0 0 0 0 0 
0 0 0 0 0 0 0 0 0 
0 0 0 0 0 0 0 0 0 
0 0 0 0 0 0 0 0 0 
0 0 0 0 0 0 0 0 0 
0 0 0 0 0 0 0 0 0 
0 0 0 0 0 0 0 0 0 
0 0 0 0 0 0 0 0 0 
0 0 0 0 0 0 0 0 0 
0 0 0 0 0 0 0 0 0 
0 0 0 0 0 0 0 0 0 
0 0 0 0 0 0 0 0 0 
0 0 0 0 0 0 0 0 0 
0 0 0 0 0 0 0 0 0 
0 0 0 0 0 0 0 0 0 
0 0 0 0 0 0 0 0 0 
0 0 0 0 0 0 0 0 0 
0 0 0 0 0 0 0 0 0 
0 0 0 0 0 0 0 0 0 
0 0 0 0 0 0 0 0 0 
0 0 0 0 0 0 0 0 0 
0 0 0 0 0 0 0 0 0 
0 0 0 0 0 0 0 0 0 
0 0 0 0 0 0 0 0 0 
0 0 0 0 0 0 0 0 0 
0 0 0 0 0 0 0 0 0 
0 0 0 0 0 0 0 0 0 
0 0 0 0 0 0 0 0 0 
0 0 0 0 0 0 0 0 0 
0 0 0 0 0 0 0 0 0 
0 0 0 0 0 0 0 0 0 
0 0 0 0 0 0 0 0 0 
0 0 0 0 0 0 0 0 0 
0 0 0 0 0 0 0 0 0 
0 0 0 0 0 0 0 0 0 
0 0 0 0 0 0 0 0 0 
0 0 0 0 0 0 0 0 0 
0 0 0 0 0 0 0 0 0 
0 0 0 0 0 0 0 0 0 
0 0 0 0 0 0 0 0 0 
0 0 0 0 0 0 0 0 0 
0 0 0 0 0 0 0 0 0 
0 0 0 0 0 0 0 0 0 
0 0 0 0 0 0 0 0 0 
0 0 0 0 0 0 0 0 0 
0 0 0 0 0 0 0 0 0 
0 0 0 0 0 0 0 0 0 
0 0 0 0 0 0 0 0 0 
0 0 0 0 0 0 0 0 0 
0 0 0 0 0 0 0 0 0 
0 0 0 0 0 0 0 0 0 
0 0 0 0 0 0 0 0 0 
0 0 0 0 0 0 0 0 0 
0 0 0 0 0 0 0 0 0 
0 0 0 0 0 0 0 0 0 
0 0 0 0 0 0 0 0 0 
0 0 0 0 0 0 0 0 0 
0 0 0 0 0 0 0 0 0 
0 0 0 0 0 0 0 0 0 
0 0 0 0 0 0 0 0 0 
0 0 0 0 0 0 0 0 0 
0 0 0 0 0 0 0 0 0 
0 0 0 0 0 0 0 0 0 
0 0 0 0 0 0 0 0 0 
0 0 0 0 0 0 0 0 0 
0 0 0 0 0 0 0 0 0 
0 0 0 0 0 0 0 0 0 
0 0 0 0 0 0 0 0 0 
0 0 0 0 0 0 0 0 0 
0 0 0 0 0 0 0 0 0 
0 0 0 0 0 0 0 0 0 
0 0 0 0 0 0 0 0 0 
0 0 0 0 0 0 0 0 0 
0 0 0 0 0 0 0 0 0 
0 0 0 0 0 0 0 0 0 
0 0 0 0 0 0 0 0 0 
0 0 0 0 0 0 0 0 0 
0 0 0 0 0 0 0 0 0 
0 0 0 0 0 0 0 0 0 
0 0 0 0 0 0 0 0 0 
0 0 0 0 0 0 0 0 0 
0 0 0 0 0 0 0 0 0 
0 0 0 0 0 0 0 0 0 
0 0 0 0 0 0 0 0 0 
0 0 0 0 0 0 0 0 0 
0 0 0 0 0 0 0 0 0 
0 0 0 0 0 0 0 0 0 
0 0 0 0 0 0 0 0 0 
0 0 0 0 0 0 0 0 0 
0 0 0 0 0 0 0 0 0 
0 0 0 0 0 0 0 0 0 
0 0 0 0 0 0 0 0 0 
0 0 0 0 0 0 0 0 0 
0 0 0 0 0 0 0 0 0 
0 0 0 0 0 0 0 0 0 
0 0 0 0 0 0 0 0 0 
0 0 0 0 0 0 0 0 0 
0 0 0 0 0 0 0 0 0 
0 0 0 0 0 0 0 0 0 
0 0 0 0 0 0 0 0 0 
0 0 0 0 0 0 0 0 0 
0 0 0 0 0 0 0 0 0 
0 0 0 0 0 0 0 0 0 
0 0 0 0 0 0 0 0 0 
0 0 0 0 0 0 0 0 0 
0 0 0 0 0 0 0 0 0 
0 0 0 0 0 0 0 0 0 
0 0 0 0 0 0 0 0 0 
0 0 0 0 0 0 0 0 0 
0 0 0 0 0 0 0 0 0 
0 0 0 0 0 0 0 0 0 
0 0 0 0 0 0 0 0 0 
0 0 0 0 0 0 0 0 0 
0 0 0 0 0 0 0 0 0 
0 0 0 0 0 0 0 0 0 
0 0 0 0 0 0 0 0 0 
0 0 0 0 0 0 0 0 0 
0 0 0 0 0 0 0 0 0 
0 0 0 0 0 0 0 0 0 
0 0 0 0 0 0 0 0 0 
0 0 0 0 0 0 0 0 0 
0 0 0 0 0 0 0 0 0 
0 0 0 0 0 0 0 0 0 
0 0 0 0 0 0 0 0 0 
0 0 0 0 0 0 0 0 0 
0 0 0 0 0 0 0 0 0 
0 0 0 0 0 0 0 0 0 
0 0 0 0 0 0 0 0 0 
0 0 0 0 0 0 0 0 0 
0 0 0 0 0 0 0 0 0 
0 0 0 0 0 0 0 0 0 
0 0 0 0 0 0 0 0 0 
0 0 0 0 0 0 0 0 0 
0 0 0 0 0 0 0 0 0 
0 0 0 0 0 0 0 0 0 
0 0 0 0 0 0 0 0 0 
0 0 0 0 0 0 0 0 0 
0 0 0 0 0 0 0 0 0 
0 0 0 0 0 0 0 0 0 
0 0 0 0 0 0 0 0 0 
0 0 0 0 0 0 0 0 0 
0 0 0 0 0 0 0 0 0 
0 0 0 0 0 0 0 0 0 
0 0 0 0 0 0 0 0 0 
0 0 0 0 0 0 0 0 0 
0 0 0 0 0 0 0 0 0 
0 0 0 0 0 0 0 0 0 
0 0 0 0 0 0 0 0 0 
0 0 0 0 0 0 0 0 0 
0 0 0 0 0 0 0 0 0 
0 0 0 0 0 0 0 0 0 
0 0 0 0 0 0 0 0 0 
0 0 0 0 0 0 0 0 0 
0 0 0 0 0 0 0 0 0 
0 0 0 0 0 0 0 0 0 
0 0 0 0 0 0 0 0 0 
0 0 0 0 0 0 0 0 0 
0 0 0 0 0 0 0 0 0 
0 0 0 0 0 0 0 0 0 
0 0 0 0 0 0 0 0 0 
0 0 0 0 0 0 0 0 0 
0 0 0 0 0 0 0 0 0 
0 0 0 0 0 0 0 0 0 
0 0 0 0 0 0 0 0 0 
0 0 0 0 0 0 0 0 0 
0 0 0 0 0 0 0 0 0 
0 0 0 0 0 0 0 0 0 
0 0 0 0 0 0 0 0 0 
0 0 0 0 0 0 0 0 0 
0 0 0 0 0 0 0 0 0 
0 0 0 0 0 0 0 0 0 
0 0 0 0 0 0 0 0 0 
0 0 0 0 0 0 0 0 0 
0 0 0 0 0 0 0 0 0 
0 0 0 0 0 0 0 0 0 
0 0 0 0 0 0 0 0 0 
0 0 0 0 0 0 0 0 0 
0 0 0 0 0 0 0 0 0 
0 0 0 0 0 0 0 0 0 
0 0 0 0 0 0 0 0 0 
0 0 0 0 0 0 0 0 0 
0 0 0 0 0 0 0 0 0 
0 0 0 0 0 0 0 0 0 
0 0 0 0 0 0 0 0 0 
0 0 0 0 0 0 0 0 0 
0 0 0 0 0 0 0 0 0 
0 0 0 0 0 0 0 0 0 
0 0 0 0 0 0 0 0 0 
0 0 0 0 0 0 0 0 0 
0 0 0 0 0 0 0 0 0 
0 0 0 0 0 0 0 0 0 
0 0 0 0 0 0 0 0 0 
0 0 0 0 0 0 0 0 0 
0 0 0 0 0 0 0 0 0 
0 0 0 0 0 0 0 0 0 
0 0 0 0 0 0 0 0 0 
0 0 0 0 0 0 0 0 0 
0 0 0 0 0 0 0 0 0 
0 0 0 0 0 0 0 0 0 
0 0 0 0 0 0 0 0 0 
0 0 0 0 0 0 0 0 0 
0 0 0 0 0 0 0 0 0 
0 0 0 0 0 0 0 0 0 
0 0 0 0 0 0 0 0 0 
0 0 0 0 0 0 0 0 0 
0 0 0 0 0 0 0 0 0 
0 0 0 0 0 0 0 0 0 
0 0 0 0 0 0 0 0 0 
0 0 0 0 0 0 0 0 0 
0 0 0 0 0 0 0 0 0 
0 0 0 0 0 0 0 0 0 
0 0 0 0 0 0 0 0 0 
0 0 0 0 0 0 0 0 0 
0 0 0 0 0 0 0 0 0 
0 0 0 0 0 0 0 0 0 
0 0 0 0 0 0 0 0 0 
0 0 0 0 0 0 0 0 0 
0 0 0 0 0 0 0 0 0 
0 0 0 0 0 0 0 0 0 
0 0 0 0 0 0 0 0 0 
0 0 0 0 0 0 0 0 0 
0 0 0 0 0 0 0 0 0 
0 0 0 0 0 0 0 0 0 
0 0 0 0 0 0 0 0 0 
0 0 0 0 0 0 0 0 0 
0 0 0 0 0 0 0 0 0 
0 0 0 0 0 0 0 0 0 
0 0 0 0 0 0 0 0 0 
0 0 0 0 0 0 0 0 0 
0 0 0 0 0 0 0 0 0 
0 0 0 0 0 0 0 0 0 
0 0 0 0 0 0 0 0 0 
0 0 0 0 0 0 0 0 0 
0 0 0 0 0 0 0 0 0 
0 0 0 0 0 0 0 0 0 
0 0 0 0 0 0 0 0 0 
0 0 0 0 0 0 0 0 0 
0 0 0 0 0 0 0 0 0 
0 0 0 0 0 0 0 0 0 
0 0 0 0 0 0 0 0 0 
0 0 0 0 0 0 0 0 0 
0 0 0 0 0 0 0 0 0 
0 0 0 0 0 0 0 0 0 
0 0 0 0 0 0 0 0 0 
0 0 0 0 0 0 0 0 0 
0 0 0 0 0 0 0 0 0 
0 0 0 0 0 0 0 0 0 
0 0 0 0 0 0 0 0 0 
0 0 0 0 0 0 0 0 0 
0 0 0 0 0 0 0 0 0 
0 0 0 0 0 0 0 0 0 
0 0 0 0 0 0 0 0 0 
0 0 0 0 0 0 0 0 0 
0 0 0 0 0 0 0 0 0 
0 0 0 0 0 0 0 0 0 
0 0 0 0 0 0 0 0 0 
0 0 0 0 0 0 0 0 0 
0 0 0 0 0 0 0 0 0 
0 0 0 0 0 0 0 0 0 
0 0 0 0 0 0 0 0 0 
0 0 0 0 0 0 0 0 0 
0 0 0 0 0 0 0 0 0 
0 0 0 0 0 0 0 0 0 
0 0 0 0 0 0 0 0 0 
0 0 0 0 0 0 0 0 0 
0 0 0 0 0 0 0 0 0 
0 0 0 0 0 0 0 0 0 
0 0 0 0 0 0 0 0 0 
0 0 0 0 0 0 0 0 0 
0 0 0 0 0 0 0 0 0 
0 0 0 0 0 0 0 0 0 
0 0 0 0 0 0 0 0 0 
0 0 0 0 0 0 0 0 0 
0 0 0 0 0 0 0 0 0 
0 0 0 0 0 0 0 0 0 
0 0 0 0 0 0 0 0 0 
0 0 0 0 0 0 0 0 0 
0 0 0 0 0 0 0 0 0 
0 0 0 0 0 0 0 0 0 
0 0 0 0 0 0 0 0 0 
0 0 0 0 0 0 0 0 0 
0 0 0 0 0 0 0 0 0 
0 0 0 0 0 0 0 0 0 
0 0 0 0 0 0 0 0 0 
0 0 0 0 0 0 0 0 0 
0 0 0 0 0 0 0 0 0 
0 0 0 0 0 0 0 0 0 
0 0 0 0 0 0 0 0 0 
0 0 0 0 0 0 0 0 0 
0 0 0 0 0 0 0 0 0 
0 0 0 0 0 0 0 0 0 
0 0 0 0 0 0 0 0 0 
0 0 0 0 0 0 0 0 0 
0 0 0 0 0 0 0 0 0 
0 0 0 0 0 0 0 0 0 
0 0 0 0 0 0 0 0 0 
0 0 0 0 0 0 0 0 0 
0 0 0 0 0 0 0 0 0 
0 0 0 0 0 0 0 0 0 
0 0 0 0 0 0 0 0 0 
0 0 0 0 0 0 0 0 0 
0 0 0 0 0 0 0 0 0 
0 0 0 0 0 0 0 0 0 
0 0 0 0 0 0 0 0 0 
0 0 0 0 0 0 0 0 0 
0 0 0 0 0 0 0 0 0 
0 0 0 0 0 0 0 0 0 
0 0 0 0 0 0 0 0 0 
0 0 0 0 0 0 0 0 0 
0 0 0 0 0 0 0 0 0 
0 0 0 0 0 0 0 0 0 
0 0 0 0 0 0 0 0 0 
0 0 0 0 0 0 0 0 0 
0 0 0 0 0 0 0 0 0 
0 0 0 0 0 0 0 0 0 
0 0 0 0 0 0 0 0 0 
0 0 0 0 0 0 0 0 0 
0 0 0 0 0 0 0 0 0 
0 0 0 0 0 0 0 0 0 
0 0 0 0 0 0 0 0 0 
0 0 0 0 0 0 0 0 0 
0 0 0 0 0 0 0 0 0 
0 0 0 0 0 0 0 0 0 
0 0 0 0 0 0 0 0 0 
0 0 0 0 0 0 0 0 0 
0 0 0 0 0 0 0 0 0 
0 0 0 0 0 0 0 0 0 
0 0 0 0 0 0 0 0 0 
0 0 0 0 0 0 0 0 0 
0 0 0 0 0 0 0 0 0 
0 0 0 0 0 0 0 0 0 
0 0 0 0 0 0 0 0 0 
0 0 0 0 0 0 0 0 0 
0 0 0 0 0 0 0 0 0 
0 0 0 0 0 0 0 0 0 
0 0 0 0 0 0 0 0 0 
0 0 0 0 0 0 0 0 0 
0 0 0 0 0 0 0 0 0 
0 0 0 0 0 0 0 0 0 
0 0 0 0 0 0 0 0 0 
0 0 0 0 0 0 0 0 0 
0 0 0 0 0 0 0 0 0 
0 0 0 0 0 0 0 0 0 
0 0 0 0 0 0 0 0 0 
0 0 0 0 0 0 0 0 0 
0 0 0 0 0 0 0 0 0 
0 0 0 0 0 0 0 0 0 
0 0 0 0 0 0 0 0 0 
0 0 0 0 0 0 0 0 0 
0 0 0 0 0 0 0 0 0 
0 0 0 0 0 0 0 0 0 
0 0 0 0 0 0 0 0 0 
0 0 0 0 0 0 0 0 0 
0 0 0 0 0 0 0 0 0 
0 0 0 0 0 0 0 0 0 
0 0 0 0 0 0 0 0 0 
0 0 0 0 0 0 0 0 0 
0 0 0 0 0 0 0 0 0 
0 0 0 0 0 0 0 0 0 
0 0 0 0 0 0 0 0 0 
0 0 0 0 0 0 0 0 0 
0 0 0 0 0 0 0 0 0 
0 0 0 0 0 0 0 0 0 
0 0 0 0 0 0 0 0 0 
0 0 0 0 0 0 0 0 0 
0 0 0 0 0 0 0 0 0 
0 0 0 0 0 0 0 0 0 
0 0 0 0 0 0 0 0 0 
0 0 0 0 0 0 0 0 0 
0 0 0 0 0 0 0 0 0 
0 0 0 0 0 0 0 0 0 
0 0 0 0 0 0 0 0 0 
0 0 0 0 0 0 0 0 0 
0 0 0 0 0 0 0 0 0 
0 0 0 0 0 0 0 0 0 
0 0 0 0 0 0 0 0 0 
0 0 0 0 0 0 0 0 0 
0 0 0 0 0 0 0 0 0 
0 0 0 0 0 0 0 0 0 
0 0 0 0 0 0 0 0 0 
0 0 0 0 0 0 0 0 0 
0 0 0 0 0 0 0 0 0 
0 0 0 0 0 0 0 0 0 
0 0 0 0 0 0 0 0 0 
0 0 0 0 0 0 0 0 0 
0 0 0 0 0 0 0 0 0 
0 0 0 0 0 0 0 0 0 
0 0 0 0 0 0 0 0 0 
0 0 0 0 0 0 0 0 0 
0 0 0 0 0 0 0 0 0 
0 0 0 0 0 0 0 0 0 
0 0 0 0 0 0 0 0 0 
0 0 0 0 0 0 0 0 0 
0 0 0 0 0 0 0 0 0 
0 0 0 0 0 0 0 0 0 
0 0 0 0 0 0 0 0 0 
0 0 0 0 0 0 0 0 0 
0 0 0 0 0 0 0 0 0 
0 0 0 0 0 0 0 0 0 
0 0 0 0 0 0 0 0 0 
0 0 0 0 0 0 0 0 0 
0 0 0 0 0 0 0 0 0 
0 0 0 0 0 0 0 0 0 
0 0 0 0 0 0 0 0 0 
0 0 0 0 0 0 0 0 0 
0 0 0 0 0 0 0 0 0 
0 0 0 0 0 0 0 0 0 
0 0 0 0 0 0 0 0 0 
0 0 0 0 0 0 0 0 0 
0 0 0 0 0 0 0 0 0 
0 0 0 0 0 0 0 0 0 
0 0 0 0 0 0 0 0 0 
0 0 0 0 0 0 0 0 0 
0 0 0 0 0 0 0 0 0 
0 0 0 0 0 0 0 0 0 
0 0 0 0 0 0 0 0 0 
0 0 0 0 0 0 0 0 0 
0 0 0 0 0 0 0 0 0 
0 0 0 0 0 0 0 0 0 
0 0 0 0 0 0 0 0 0 
0 0 0 0 0 0 0 0 0 
0 0 0 0 0 0 0 0 0 
0 0 0 0 0 0 0 0 0 
0 0 0 0 0 0 0 0 0 
0 0 0 0 0 0 0 0 0 
0 0 0 0 0 0 0 0 0 
0 0 0 0 0 0 0 0 0 
0 0 0 0 0 0 0 0 0 
0 0 0 0 0 0 0 0 0 
0 0 0 0 0 0 0 0 0 
0 0 0 0 0 0 0 0 0 
0 0 0 0 0 0 0 0 0 
0 0 0 0 0 0 0 0 0 
0 0 0 0 0 0 0 0 0 
0 0 0 0 0 0 0 0 0 
0 0 0 0 0 0 0 0 0 
0 0 0 0 0 0 0 0 0 
0 0 0 0 0 0 0 0 0 
0 0 0 0 0 0 0 0 0 
0 0 0 0 0 0 0 0 0 
0 0 0 0 0 0 0 0 0 
0 0 0 0 0 0 0 0 0 
0 0 0 0 0 0 0 0 0 
0 0 0 0 0 0 0 0 0 
0 0 0 0 0 0 0 0 0 
0 0 0 0 0 0 0 0 0 
0 0 0 0 0 0 0 0 0 
0 0 0 0 0 0 0 0 0 
0 0 0 0 0 0 0 0 0 
0 0 0 0 0 0 0 0 0 
0 0 0 0 0 0 0 0 0 
0 0 0 0 0 0 0 0 0 
0 0 0 0 0 0 0 0 0 
0 0 0 0 0 0 0 0 0 
0 0 0 0 0 0 0 0 0 
0 0 0 0 0 0 0 0 0 
0 0 0 0 0 0 0 0 0 
0 0 0 0 0 0 0 0 0 
0 0 0 0 0 0 0 0 0 
0 0 0 0 0 0 0 0 0 
0 0 0 0 0 0 0 0 0 
0 0 0 0 0 0 0 0 0 
0 0 0 0 0 0 0 0 0 
0 0 0 0 0 0 0 0 0 
0 0 0 0 0 0 0 0 0 
0 0 0 0 0 0 0 0 0 
0 0 0 0 0 0 0 0 0 
0 0 0 0 0 0 0 0 0 
0 0 0 0 0 0 0 0 0 
0 0 0 0 0 0 0 0 0 
0 0 0 0 0 0 0 0 0 
0 0 0 0 0 0 0 0 0 
0 0 0 0 0 0 0 0 0 
0 0 0 0 0 0 0 0 0 
0 0 0 0 0 0 0 0 0 
0 0 0 0 0 0 0 0 0 
0 0 0 0 0 0 0 0 0 
0 0 0 0 0 0 0 0 0 
0 0 0 0 0 0 0 0 0 
0 0 0 0 0 0 0 0 0 
0 0 0 0 0 0 0 0 0 
0 0 0 0 0 0 0 0 0 
0 0 0 0 0 0 0 0 0 
0 0 0 0 0 0 0 0 0 
0 0 0 0 0 0 0 0 0 
0 0 0 0 0 0 0 0 0 
0 0 0 0 0 0 0 0 0 
0 0 0 0 0 0 0 0 0 
0 0 0 0 0 0 0 0 0 
0 0 0 0 0 0 0 0 0 
0 0 0 0 0 0 0 0 0 
0 0 0 0 0 0 0 0 0 
0 0 0 0 0 0 0 0 0 
0 0 0 0 0 0 0 0 0 
0 0 0 0 0 0 0 0 0 
0 0 0 0 0 0 0 0 0 
0 0 0 0 0 0 0 0 0 
0 0 0 0 0 0 0 0 0 
0 0 0 0 0 0 0 0 0 
0 0 0 0 0 0 0 0 0 
0 0 0 0 0 0 0 0 0 
0 0 0 0 0 0 0 0 0 
0 0 0 0 0 0 0 0 0 
0 0 0 0 0 0 0 0 0 
0 0 0 0 0 0 0 0 0 
0 0 0 0 0 0 0 0 0 
0 0 0 0 0 0 0 0 0 
0 0 0 0 0 0 0 0 0 
0 0 0 0 0 0 0 0 0 
0 0 0 0 0 0 0 0 0 
0 0 0 0 0 0 0 0 0 
0 0 0 0 0 0 0 0 0 
0 0 0 0 0 0 0 0 0 
0 0 0 0 0 0 0 0 0 
0 0 0 0 0 0 0 0 0 
0 0 0 0 0 0 0 0 0 
0 0 0 0 0 0 0 0 0 
0 0 0 0 0 0 0 0 0 
0 0 0 0 0 0 0 0 0 
0 0 0 0 0 0 0 0 0 
0 0 0 0 0 0 0 0 0 
0 0 0 0 0 0 0 0 0 
0 0 0 0 0 0 0 0 0 
0 0 0 0 0 0 0 0 0 
0 0 0 0 0 0 0 0 0 
0 0 0 0 0 0 0 0 0 
0 0 0 0 0 0 0 0 0 
0 0 0 0 0 0 0 0 0 
0 0 0 0 0 0 0 0 0 
0 0 0 0 0 0 0 0 0 
0 0 0 0 0 0 0 0 0 
0 0 0 0 0 0 0 0 0 
0 0 0 0 0 0 0 0 0 
0 0 0 0 0 0 0 0 0 
0 0 0 0 0 0 0 0 0 
0 0 0 0 0 0 0 0 0 
0 0 0 0 0 0 0 0 0 
0 0 0 0 0 0 0 0 0 
0 0 0 0 0 0 0 0 0 
0 0 0 0 0 0 0 0 0 
0 0 0 0 0 0 0 0 0 
0 0 0 0 0 0 0 0 0 
0 0 0 0 0 0 0 0 0 
0 0 0 0 0 0 0 0 0 
0 0 0 0 0 0 0 0 0 
0 0 0 0 0 0 0 0 0 
0 0 0 0 0 0 0 0 0 
0 0 0 0 0 0 0 0 0 
0 0 0 0 0 0 0 0 0 
0 0 0 0 0 0 0 0 0 
0 0 0 0 0 0 0 0 0 
0 0 0 0 0 0 0 0 0 
0 0 0 0 0 0 0 0 0 
0 0 0 0 0 0 0 0 0 
0 0 0 0 0 0 0 0 0 
0 0 0 0 0 0 0 0 0 
0 0 0 0 0 0 0 0 0 
0 0 0 0 0 0 0 0 0 
0 0 0 0 0 0 0 0 0 
0 0 0 0 0 0 0 0 0 
0 0 0 0 0 0 0 0 0 
0 0 0 0 0 0 0 0 0 
0 0 0 0 0 0 0 0 0 
0 0 0 0 0 0 0 0 0 
0 0 0 0 0 0 0 0 0 
0 0 0 0 0 0 0 0 0 
0 0 0 0 0 0 0 0 0 
0 0 0 0 0 0 0 0 0 
0 0 0 0 0 0 0 0 0 
0 0 0 0 0 0 0 0 0 
0 0 0 0 0 0 0 0 0 
0 0 0 0 0 0 0 0 0 
0 0 0 0 0 0 0 0 0 
0 0 0 0 0 0 0 0 0 
0 0 0 0 0 0 0 0 0 
0 0 0 0 0 0 0 0 0 
0 0 0 0 0 0 0 0 0 
0 0 0 0 0 0 0 0 0 
0 0 0 0 0 0 0 0 0 
0 0 0 0 0 0 0 0 0 
0 0 0 0 0 0 0 0 0 
0 0 0 0 0 0 0 0 0 
0 0 0 0 0 0 0 0 0 
0 0 0 0 0 0 0 0 0 
0 0 0 0 0 0 0 0 0 
0 0 0 0 0 0 0 0 0 
0 0 0 0 0 0 0 0 0 
0 0 0 0 0 0 0 0 0 
0 0 0 0 0 0 0 0 0 
0 0 0 0 0 0 0 0 0 
0 0 0 0 0 0 0 0 0 
0 0 0 0 0 0 0 0 0 
0 0 0 0 0 0 0 0 0 
0 0 0 0 0 0 0 0 0 
0 0 0 0 0 0 0 0 0 
0 0 0 0 0 0 0 0 0 
0 0 0 0 0 0 0 0 0 
0 0 0 0 0 0 0 0 0 
0 0 0 0 0 0 0 0 0 
0 0 0 0 0 0 0 0 0 
0 0 0 0 0 0 0 0 0 
0 0 0 0 0 0 0 0 0 
0 0 0 0 0 0 0 0 0 
0 0 0 0 0 0 0 0 0 
0 0 0 0 0 0 0 0 0 
0 0 0 0 0 0 0 0 0 
0 0 0 0 0 0 0 0 0 
0 0 0 0 0 0 0 0 0 
0 0 0 0 0 0 0 0 0 
0 0 0 0 0 0 0 0 0 
0 0 0 0 0 0 0 0 0 
0 0 0 0 0 0 0 0 0 
0 0 0 0 0 0 0 0 0 
0 0 0 0 0 0 0 0 0 
0 0 0 0 0 0 0 0 0 
0 0 0 0 0 0 0 0 0 
0 0 0 0 0 0 0 0 0 
0 0 0 0 0 0 0 0 0 
0 0 0 0 0 0 0 0 0 
0 0 0 0 0 0 0 0 0 
0 0 0 0 0 0 0 0 0 
0 0 0 0 0 0 0 0 0 
0 0 0 0 0 0 0 0 0 
0 0 0 0 0 0 0 0 0 
0 0 0 0 0 0 0 0 0 
0 0 0 0 0 0 0 0 0 
0 0 0 0 0 0 0 0 0 
0 0 0 0 0 0 0 0 0 
0 0 0 0 0 0 0 0 0 
0 0 0 0 0 0 0 0 0 
0 0 0 0 0 0 0 0 0 
0 0 0 0 0 0 0 0 0 
0 0 0 0 0 0 0 0 0 
0 0 0 0 0 0 0 0 0 
0 0 0 0 0 0 0 0 0 
0 0 0 0 0 0 0 0 0 
0 0 0 0 0 0 0 0 0 
0 0 0 0 0 0 0 0 0 
0 0 0 0 0 0 0 0 0 
0 0 0 0 0 0 0 0 0 
0 0 0 0 0 0 0 0 0 
0 0 0 0 0 0 0 0 0 
0 0 0 0 0 0 0 0 0 
0 0 0 0 0 0 0 0 0 
0 0 0 0 0 0 0 0 0 
0 0 0 0 0 0 0 0 0 
0 0 0 0 0 0 0 0 0 
0 0 0 0 0 0 0 0 0 
0 0 0 0 0 0 0 0 0 
0 0 0 0 0 0 0 0 0 
0 0 0 0 0 0 0 0 0 
0 0 0 0 0 0 0 0 0 
0 0 0 0 0 0 0 0 0 
0 0 0 0 0 0 0 0 0 
0 0 0 0 0 0 0 0 0 
0 0 0 0 0 0 0 0 0 
0 0 0 0 0 0 0 0 0 
0 0 0 0 0 0 0 0 0 
0 0 0 0 0 0 0 0 0 
0 0 0 0 0 0 0 0 0 
0 0 0 0 0 0 0 0 0 
0 0 0 0 0 0 0 0 0 
0 0 0 0 0 0 0 0 0 
0 0 0 0 0 0 0 0 0 
0 0 0 0 0 0 0 0 0 
0 0 0 0 0 0 0 0 0 
0 0 0 0 0 0 0 0 0 
0 0 0 0 0 0 0 0 0 
0 0 0 0 0 0 0 0 0 
0 0 0 0 0 0 0 0 0 
0 0 0 0 0 0 0 0 0 
0 0 0 0 0 0 0 0 0 
0 0 0 0 0 0 0 0 0 
0 0 0 0 0 0 0 0 0 
0 0 0 0 0 0 0 0 0 
0 0 0 0 0 0 0 0 0 
0 0 0 0 0 0 0 0 0 
0 0 0 0 0 0 0 0 0 
0 0 0 0 0 0 0 0 0 
0 0 0 0 0 0 0 0 0 
0 0 0 0 0 0 0 0 0 
0 0 0 0 0 0 0 0 0 
0 0 0 0 0 0 0 0 0 
0 0 0 0 0 0 0 0 0 
0 0 0 0 0 0 0 0 0 
0 0 0 0 0 0 0 0 0 
0 0 0 0 0 0 0 0 0 
0 0 0 0 0 0 0 0 0 
0 0 0 0 0 0 0 0 0 
0 0 0 0 0 0 0 0 0 
0 0 0 0 0 0 0 0 0 
0 0 0 0 0 0 0 0 0 
0 0 0 0 0 0 0 0 0 
0 0 0 0 0 0 0 0 0 
0 0 0 0 0 0 0 0 0 
0 0 0 0 0 0 0 0 0 
0 0 0 0 0 0 0 0 0 
0 0 0 0 0 0 0 0 0 
0 0 0 0 0 0 0 0 0 
0 0 0 0 0 0 0 0 0 
0 0 0 0 0 0 0 0 0 
0 0 0 0 0 0 0 0 0 
0 0 0 0 0 0 0 0 0 
0 0 0 0 0 0 0 0 0 
0 0 0 0 0 0 0 0 0 
0 0 0 0 0 0 0 0 0 
0 0 0 0 0 0 0 0 0 
0 0 0 0 0 0 0 0 0 
0 0 0 0 0 0 0 0 0 
0 0 0 0 0 0 0 0 0 
0 0 0 0 0 0 0 0 0 
0 0 0 0 0 0 0 0 0 
0 0 0 0 0 0 0 0 0 
0 0 0 0 0 0 0 0 0 
0 0 0 0 0 0 0 0 0 
0 0 0 0 0 0 0 0 0 
0 0 0 0 0 0 0 0 0 
0 0 0 0 0 0 0 0 0 
0 0 0 0 0 0 0 0 0 
0 0 0 0 0 0 0 0 0 
0 0 0 0 0 0 0 0 0 
0 0 0 0 0 0 0 0 0 
0 0 0 0 0 0 0 0 0 
0 0 0 0 0 0 0 0 0 
0 0 0 0 0 0 0 0 0 
0 0 0 0 0 0 0 0 0 
0 0 0 0 0 0 0 0 0 
0 0 0 0 0 0 0 0 0 
0 0 0 0 0 0 0 0 0 
0 0 0 0 0 0 0 0 0 
0 0 0 0 0 0 0 0 0 
0 0 0 0 0 0 0 0 0 
0 0 0 0 0 0 0 0 0 
0 0 0 0 0 0 0 0 0 
0 0 0 0 0 0 0 0 0 
0 0 0 0 0 0 0 0 0 
0 0 0 0 0 0 0 0 0 
0 0 0 0 0 0 0 0 0 
0 0 0 0 0 0 0 0 0 
0 0 0 0 0 0 0 0 0 
0 0 0 0 0 0 0 0 0 
0 0 0 0 0 0 0 0 0 
0 0 0 0 0 0 0 0 0 
0 0 0 0 0 0 0 0 0 
0 0 0 0 0 0 0 0 0 
0 0 0 0 0 0 0 0 0 
0 0 0 0 0 0 0 0 0 
0 0 0 0 0 0 0 0 0 
0 0 0 0 0 0 0 0 0 
0 0 0 0 0 0 0 0 0 
0 0 0 0 0 0 0 0 0 
0 0 0 0 0 0 0 0 0 
0 0 0 0 0 0 0 0 0 
0 0 0 0 0 0 0 0 0 
0 0 0 0 0 0 0 0 0 
0 0 0 0 0 0 0 0 0 
0 0 0 0 0 0 0 0 0 
0 0 0 0 0 0 0 0 0 
0 0 0 0 0 0 0 0 0 
0 0 0 0 0 0 0 0 0 
0 0 0 0 0 0 0 0 0 
0 0 0 0 0 0 0 0 0 
0 0 0 0 0 0 0 0 0 
0 0 0 0 0 0 0 0 0 
0 0 0 0 0 0 0 0 0 
0 0 0 0 0 0 0 0 0 
0 0 0 0 0 0 0 0 0 
0 0 0 0 0 0 0 0 0 
0 0 0 0 0 0 0 0 0 
0 0 0 0 0 0 0 0 0 
0 0 0 0 0 0 0 0 0 
0 0 0 0 0 0 0 0 0 
0 0 0 0 0 0 0 0 0 
0 0 0 0 0 0 0 0 0 
0 0 0 0 0 0 0 0 0 
0 0 0 0 0 0 0 0 0 
0 0 0 0 0 0 0 0 0 
0 0 0 0 0 0 0 0 0 
0 0 0 0 0 0 0 0 0 
0 0 0 0 0 0 0 0 0 
0 0 0 0 0 0 0 0 0 
0 0 0 0 0 0 0 0 0 
0 0 0 0 0 0 0 0 0 
0 0 0 0 0 0 0 0 0 
0 0 0 0 0 0 0 0 0 
0 0 0 0 0 0 0 0 0 
0 0 0 0 0 0 0 0 0 
0 0 0 0 0 0 0 0 0 
0 0 0 0 0 0 0 0 0 
0 0 0 0 0 0 0 0 0 
0 0 0 0 0 0 0 0 0 
0 0 0 0 0 0 0 0 0 
0 0 0 0 0 0 0 0 0 
0 0 0 0 0 0 0 0 0 
0 0 0 0 0 0 0 0 0 
0 0 0 0 0 0 0 0 0 
0 0 0 0 0 0 0 0 0 
0 0 0 0 0 0 0 0 0 
0 0 0 0 0 0 0 0 0 
0 0 0 0 0 0 0 0 0 
0 0 0 0 0 0 0 0 0 
0 0 0 0 0 0 0 0 0 
0 0 0 0 0 0 0 0 0 
0 0 0 0 0 0 0 0 0 
0 0 0 0 0 0 0 0 0 
0 0 0 0 0 0 0 0 0 
0 0 0 0 0 0 0 0 0 
0 0 0 0 0 0 0 0 0 
0 0 0 0 0 0 0 0 0 
0 0 0 0 0 0 0 0 0 
0 0 0 0 0 0 0 0 0 
0 0 0 0 0 0 0 0 0 
0 0 0 0 0 0 0 0 0 
0 0 0 0 0 0 0 0 0 
0 0 0 0 0 0 0 0 0 
0 0 0 0 0 0 0 0 0 
0 0 0 0 0 0 0 0 0 
0 0 0 0 0 0 0 0 0 
0 0 0 0 0 0 0 0 0 
0 0 0 0 0 0 0 0 0 
0 0 0 0 0 0 0 0 0 
0 0 0 0 0 0 0 0 0 
0 0 0 0 0 0 0 0 0 
0 0 0 0 0 0 0 0 0 
0 0 0 0 0 0 0 0 0 
0 0 0 0 0 0 0 0 0 
0 0 0 0 0 0 0 0 0 
0 0 0 0 0 0 0 0 0 
0 0 0 0 0 0 0 0 0 
0 0 0 0 0 0 0 0 0 
0 0 0 0 0 0 0 0 0 
0 0 0 0 0 0 0 0 0 
0 0 0 0 0 0 0 0 0 
0 0 0 0 0 0 0 0 0 
0 0 0 0 0 0 0 0 0 
0 0 0 0 0 0 0 0 0 
0 0 0 0 0 0 0 0 0 
0 0 0 0 0 0 0 0 0 
0 0 0 0 0 0 0 0 0 
0 0 0 0 0 0 0 0 0 
0 0 0 0 0 0 0 0 0 
0 0 0 0 0 0 0 0 0 
0 0 0 0 0 0 0 0 0 
0 0 0 0 0 0 0 0 0 
0 0 0 0 0 0 0 0 0 
0 0 0 0 0 0 0 0 0 
0 0 0 0 0 0 0 0 0 
0 0 0 0 0 0 0 0 0 
0 0 0 0 0 0 0 0 0 
0 0 0 0 0 0 0 0 0 
0 0 0 0 0 0 0 0 0 
0 0 0 0 0 0 0 0 0 
0 0 0 0 0 0 0 0 0 
0 0 0 0 0 0 0 0 0 
0 0 0 0 0 0 0 0 0 
0 0 0 0 0 0 0 0 0 
0 0 0 0 0 0 0 0 0 
0 0 0 0 0 0 0 0 0 
0 0 0 0 0 0 0 0 0 
0 0 0 0 0 0 0 0 0 
0 0 0 0 0 0 0 0 0 
0 0 0 0 0 0 0 0 0 
0 0 0 0 0 0 0 0 0 
0 0 0 0 0 0 0 0 0 
0 0 0 0 0 0 0 0 0 
0 0 0 0 0 0 0 0 0 
0 0 0 0 0 0 0 0 0 
0 0 0 0 0 0 0 0 0 
0 0 0 0 0 0 0 0 0 
0 0 0 0 0 0 0 0 0 
0 0 0 0 0 0 0 0 0 
0 0 0 0 0 0 0 0 0 
0 0 0 0 0 0 0 0 0 
0 0 0 0 0 0 0 0 0 
0 0 0 0 0 0 0 0 0 
-1.57626753e-07 0 0 0 0 0 0 0 0 
0 0 0 0 0 0 0 0 0 
0 0 0 0 0 0 0 0 0 
0 0 0 0 0 0 0 0 0 
0 0 0 0 0 0 0 0 0 
0 0 0 0 0 0 0 0 0 
0 0 0 0 0 0 0 0 0 
0 0 0 0 0 0 0 0 0 
0 0 0 0 0 0 0 0 0 
0 0 0 0 0 0 0 0 0 
0 0 0 0 0 0 0 0 0 
0 0 0 0 0 0 0 0 0 
0 0 0 0 0 0 0 0 0 
0 0 0 0 0 0 0 0 0 
0 0 0 0 0 0 0 0 0 
0 0 0 0 0 0 0 0 0 
0 0 0 0 0 0 0 0 0 
0 0 0 0 0 0 0 0 0 
0 0 0 0 0 0 0 0 0 
0 0 0 0 0 0 0 0 0 
0 0 0 0 0 0 0 0 0 
0 0 0 0 0 0 0 0 0 
0 0 0 0 0 0 0 0 0 
0 0 0 0 0 0 0 0 0 
0 0 0 0 0 0 0 0 0 
0 0 0 0 0 0 0 0 0 
0 0 0 0 0 0 0 0 0 
0 0 0 0 0 0 0 0 0 
0 0 0 0 0 0 0 0 0 
0 0 0 0 0 0 0 0 0 
0 0 0 0 0 0 0 0 0 
0 0 0 0 0 0 0 0 0 
0 0 0 0 1.46666895e-07 0 0 0 0 
0 0 0 0 0 0 0 0 0 
0 0 0 0 0 0 0 0 0 
0 0 0 0 0 0 0 0 0 
0 0 0 0 0 0 0 0 0 
0 0 0 0 0 0 0 0 0 
0 0 0 0 0 0 0 0 0 
0 0 0 0 0 0 0 0 0 
0 0 0 0 0 0 0 0 0 
0 0 0 0 0 0 0 0 0 
0 0 0 0 0 0 0 0 0 
-1.633732845e-07 0 0 0 0 0 0 0 0 
0 0 0 0 0 0 0 0 0 
0 0 0 0 0 0 0 0 0 
0 0 0 0 0 0 0 0 0 
0 0 0 0 0 0 0 0 0 
0 0 0 0 0 0 0 0 0 
0 0 0 0 0 0 0 0 0 
0 0 0 0 0 0 0 0 0 
0 0 0 0 0 0 0 0 0 
0 0 0 0 0 0 0 0 0 
0 0 0 0 0 0 0 0 0 
0 0 0 0 0 0 0 0 0 
0 0 0 0 0 0 0 0 0 
0 0 0 0 0 0 0 0 0 
0 0 0 0 0 0 0 0 0 
0 0 0 0 0 0 0 0 0 
0 0 0 0 0 0 0 0 0 
0 0 0 0 0 0 0 0 0 
0 0 0 0 0 0 0 0 0 
0 0 0 0 0 0 0 0 0 
0 0 0 0 0 0 0 0 0 
0 0 0 0 0 0 0 0 0 
0 0 0 0 0 0 0 0 0 
0 0 0 0 0 0 0 0 0 
0 0 0 0 0 0 0 0 0 
0 0 0 0 0 0 0 0 0 
0 0 0 0 0 0 0 0 0 
0 0 0 0 0 0 0 0 0 
0 0 0 0 0 0 0 0 0 
0 0 0 0 0 0 0 0 0 
0 0 0 0 0 0 0 0 0 
0 0 0 0 0 0 0 0 0 
0 0 0 0 0 0 0 0 0 
0 0 0 0 0 0 0 0 0 
0 0 0 0 0 0 0 0 0 
0 0 0 0 0 0 0 0 0 
0 0 0 0 0 0 0 0 0 
0 0 0 0 0 0 0 0 0 
0 0 0 0 0 0 0 0 0 
0 0 0 0 0 0 0 0 0 
0 0 0 0 0 0 0 0 0 
0 0 0 0 0 0 0 0 0 
0 0 0 0 0 0 0 0 0 
0 0 0 0 0 0 0 0 0 
0 0 0 0 0 0 0 0 0 
0 0 0 0 0 0 0 0 0 
0 0 0 0 0 0 0 0 0 
0 0 0 0 0 0 0 0 0 
0 0 0 0 0 0 0 0 0 
0 0 0 0 0 0 0 0 0 
0 0 0 0 0 0 0 0 0 
0 0 0 0 0 0 0 0 0 
0 0 0 0 0 0 0 0 0 
0 0 0 0 0 0 0 0 0 
0 0 0 0 0 0 0 0 0 
0 0 0 0 0 0 0 0 0 
0 0 0 0 0 0 0 0 0 
0 0 0 0 0 0 0 0 0 
0 0 0 0 0 0 0 0 0 
0 0 0 0 0 0 0 0 0 
0 0 0 0 0 0 0 0 0 
0 0 0 0 0 0 0 0 0 
0 0 0 0 0 0 0 0 0 
0 0 0 0 0 0 0 0 0 
0 0 0 0 0 0 0 0 0 
0 0 0 0 0 0 0 0 0 
0 0 0 0 0 0 0 0 0 
0 0 0 0 0 0 0 0 0 
0 0 0 0 0 0 0 0 0 
0 0 0 0 0 0 0 0 0 
0 0 0 0 0 0 0 0 0 
0 0 0 0 0 0 0 0 0 
0 0 0 0 0 0 0 0 0 
0 0 0 0 0 0 0 0 0 
0 0 0 0 0 0 0 0 0 
0 0 0 0 0 0 0 0 0 
0 0 0 0 0 0 0 0 0 
0 0 0 0 0 0 0 0 0 
0 0 0 0 0 0 0 0 0 
0 0 0 0 0 0 0 0 0 
0 0 0 0 0 0 0 0 0 
0 0 0 0 0 0 0 0 0 
0 0 0 0 0 0 0 0 0 
0 0 0 0 0 0 0 0 0 
0 0 0 0 0 0 0 0 0 
0 0 0 0 0 0 0 0 0 
0 0 0 0 0 0 0 0 0 
0 0 0 0 0 0 0 0 0 
0 0 0 0 0 0 0 0 0 
0 0 0 0 0 0 0 0 0 
0 0 0 0 0 0 0 0 0 
0 0 0 0 0 0 0 0 0 
0 0 0 0 0 0 0 0 0 
0 0 0 0 0 0 0 0 0 
0 0 0 0 0 0 0 0 0 
0 0 0 0 0 0 0 0 0 
0 0 0 0 0 0 0 0 0 
0 0 0 0 0 0 0 0 0 
0 0 0 0 0 0 0 0 0 
0 0 0 0 0 0 0 0 0 
0 0 0 0 0 0 0 0 0 
0 0 0 0 0 0 0 0 0 
0 0 0 0 0 0 0 0 0 
0 0 0 0 0 0 0 0 0 
0 0 0 0 0 0 0 0 0 
0 0 0 0 0 0 0 0 0 
0 0 0 0 0 0 0 0 0 
0 0 0 0 0 0 0 0 0 
0 0 0 0 0 0 0 0 0 
0 0 0 0 0 0 0 0 0 
1.773966491e-07 0 0 0 0 0 0 0 0 
0 0 0 0 0 0 0 0 0 
0 0 0 0 0 0 0 0 0 
0 0 0 0 0 0 0 0 0 
0 0 0 0 0 0 0 0 0 
0 0 0 0 0 0 0 0 0 
0 0 0 0 0 0 0 0 0 
0 0 0 0 0 0 0 0 0 
0 0 0 0 0 0 0 0 0 
0 0 0 0 0 0 0 0 0 
0 0 0 0 0 0 0 0 0 
0 0 0 0 0 0 0 0 0 
0 0 0 0 0 0 0 0 0 
0 0 0 0 0 0 0 0 0 
0 0 0 0 0 0 0 0 0 
0 0 0 0 0 0 0 0 0 
0 0 0 0 0 0 0 0 0 
0 0 0 0 0 0 0 0 0 
0 0 0 0 0 0 0 0 0 
0 0 0 0 0 0 0 0 0 
0 0 0 0 0 0 0 0 0 
0 0 0 0 0 0 0 0 0 
0 0 0 0 0 0 0 0 0 
0 0 0 0 0 0 0 0 0 
0 0 0 0 0 0 0 0 0 
0 0 0 0 0 0 0 0 0 
0 0 0 0 0 0 0 0 0 
0 0 0 0 0 0 0 0 0 
0 0 0 0 0 0 0 0 0 
0 0 0 0 0 0 0 0 0 
0 0 0 0 0 0 0 0 0 
0 0 0 0 0 0 0 0 0 
0 0 0 0 0 0 0 0 0 
0 0 0 0 0 0 0 0 0 
0 0 0 0 0 0 0 0 0 
0 0 0 0 0 0 0 0 0 
0 0 0 0 0 0 0 0 0 
0 0 0 0 0 0 0 0 0 
0 0 0 0 0 0 0 0 0 
0 0 0 0 0 0 0 0 0 
0 0 0 0 0 0 0 0 0 
0 0 0 0 0 0 0 0 0 
0 0 0 0 0 0 0 0 0 
0 0 0 0 0 0 0 0 0 
0 0 0 0 0 0 0 0 0 
0 0 0 0 0 0 0 0 0 
0 0 0 0 0 0 0 0 0 
0 0 0 0 0 0 0 0 0 
0 0 0 0 0 0 0 0 0 
0 0 0 0 0 0 0 0 0 
0 0 0 0 0 0 0 0 0 
0 0 0 0 0 0 0 0 0 
0 0 0 0 0 0 0 0 0 
0 0 0 0 0 0 0 0 0 
0 0 0 0 0 0 0 0 0 
0 0 0 0 0 0 0 0 0 
0 0 0 0 0 0 0 0 0 
0 0 0 0 0 0 0 0 0 
0 0 0 0 0 0 0 0 0 
0 0 0 0 0 0 0 0 0 
0 0 0 0 0 0 0 0 0 
0 0 0 0 0 0 0 0 0 
0 0 0 0 0 0 0 0 0 
0 0 0 0 0 0 0 0 0 
0 0 0 0 0 0 0 0 0 
0 0 0 0 0 0 0 0 0 
0 0 0 0 0 0 0 0 0 
0 0 0 0 0 0 0 0 0 
0 0 0 0 0 0 0 0 0 
0 0 0 0 0 0 0 0 0 
0 0 0 0 0 0 0 0 0 
0 0 0 0 0 0 0 0 0 
0 0 0 0 0 0 0 0 0 
0 0 0 0 0 0 0 0 0 
0 0 0 0 0 0 0 0 0 
0 0 0 0 0 0 0 0 0 
0 0 0 0 0 0 0 0 0 
0 0 0 0 0 0 0 0 0 
0 0 0 0 0 0 0 0 0 
0 0 0 0 0 0 0 0 0 
0 0 0 0 0 0 0 0 0 
0 0 0 0 0 0 0 0 0 
0 0 0 0 0 0 0 0 0 
0 0 0 0 0 0 0 0 0 
0 0 0 0 0 0 0 0 0 
0 0 0 0 0 0 0 0 0 
0 0 0 0 0 0 0 0 0 
0 0 0 0 0 0 0 0 0 
0 0 0 0 0 0 0 0 0 
0 0 0 0 0 0 0 0 0 
0 0 0 0 0 0 0 0 0 
0 0 0 0 0 0 0 0 0 
0 0 0 0 0 0 0 0 0 
0 0 0 0 0 0 0 0 0 
0 0 0 0 0 0 0 0 0 
0 0 0 0 0 0 0 0 0 
0 0 0 0 0 0 0 0 0 
0 0 0 0 0 0 0 0 0 
0 0 0 0 0 0 0 0 0 
0 0 0 0 0 0 0 0 0 
0 0 0 0 0 0 0 0 0 
0 0 0 0 0 0 0 0 0 
0 0 0 0 0 0 0 0 0 
0 0 0 0 0 0 0 0 0 
0 0 0 0 0 0 0 0 0 
0 0 0 0 0 0 0 0 0 
0 0 0 0 0 0 0 0 0 
0 0 0 0 0 0 0 0 0 
0 0 0 0 0 0 0 0 0 
0 0 0 0 0 0 0 0 0 
-1.513451934e-07 0 0 0 0 0 0 0 -1.383438441e-07 
0 0 0 0 0 0 0 0 0 
0 0 0 0 0 0 0 0 0 
0 0 0 0 0 0 0 0 0 
0 0 0 0 0 0 0 0 0 
0 0 0 0 0 0 0 0 0 
0 0 0 0 0 0 0 0 0 
0 0 0 0 0 0 0 0 0 
0 0 0 0 0 0 0 0 0 
0 0 0 0 0 0 0 0 0 
0 0 0 0 0 0 0 0 0 
0 0 0 0 0 0 0 0 0 
0 0 0 0 0 0 0 0 0 
0 0 0 0 0 0 0 0 0 
0 0 0 0 0 0 0 0 0 
0 0 0 0 0 0 0 0 0 
0 0 0 0 0 0 0 0 0 
0 0 -1.536132564e-07 0 2.289692076e-07 -1.285453637e-07 -1.536132564e-07 -1.285453637e-07 0 
0 0 0 0 0 0 0 0 0 
0 0 0 0 -1.910985159e-07 0 0 0 -1.203079473e-07 
0 0 0 0 0 0 0 0 0 
0 0 0 0 1.448780966e-07 0 0 0 0 
0 0 0 0 0 0 0 0 0 
0 0 0 0 0 0 0 0 0 
0 0 0 0 0 0 0 0 0 
0 0 0 0 0 0 0 0 0 
0 0 0 0 -1.248895994e-07 0 0 0 0 
0 0 0 0 0 0 0 0 0 
0 0 0 0 0 0 0 0 0 
0 0 0 0 0 0 0 0 0 
0 0 0 0 0 0 0 0 0 
0 0 0 0 0 0 0 0 0 
0 0 0 0 0 0 0 0 0 
0 0 0 0 0 0 0 0 0 
0 0 0 0 0 0 0 0 0 
0 0 0 0 0 0 0 0 0 
0 0 0 0 0 0 0 0 0 
0 0 0 0 0 0 0 0 0 
0 0 0 0 0 0 0 0 0 
0 0 0 0 0 0 0 0 0 
0 0 0 0 0 0 0 0 0 
0 0 0 0 0 0 0 0 0 
0 0 0 0 0 0 0 0 0 
0 0 0 0 0 0 0 0 0 
0 0 0 0 0 0 0 0 0 
0 0 0 0 0 0 0 0 0 
0 0 0 0 0 0 0 0 0 
0 0 0 0 0 0 0 0 0 
0 0 0 0 0 0 0 0 0 
0 0 0 0 0 0 0 0 0 
0 0 0 0 0 0 0 0 0 
0 0 0 0 0 0 0 0 0 
0 0 0 0 0 0 0 0 0 
0 0 0 0 0 0 0 0 0 
0 0 0 0 0 0 0 0 0 
0 0 0 0 0 0 0 0 0 
0 0 0 0 0 0 0 0 0 
0 0 0 0 0 0 0 0 0 
0 0 0 0 0 0 0 0 0 
0 0 0 0 0 0 0 0 0 
0 0 0 0 0 0 0 0 0 
0 0 0 0 0 0 0 0 0 
0 0 0 0 0 0 0 0 0 
0 0 0 0 0 0 0 0 0 
0 0 0 0 0 0 0 0 0 
0 0 0 0 0 0 0 0 0 
0 0 0 0 0 0 0 0 0 
0 0 0 0 0 0 0 0 0 
0 0 0 0 0 0 0 0 0 
0 0 0 0 0 0 0 0 0 
0 0 0 0 0 0 0 0 0 
0 0 0 0 0 0 0 0 0 
0 0 0 0 0 0 0 0 0 
0 0 0 0 0 0 0 0 0 
0 0 0 0 0 0 0 0 0 
0 0 0 0 0 0 0 0 0 
0 0 0 0 0 0 0 0 0 
0 0 0 0 0 0 0 0 0 
-1.427285679e-07 0 0 0 0 0 0 0 0 
0 0 0 0 0 0 0 0 0 
1.249287801e-07 0 0 0 0 0 0 0 0 
0 0 0 0 0 0 0 0 0 
0 0 0 0 0 0 0 0 0 
0 0 0 0 0 0 0 0 0 
0 0 0 0 0 0 0 0 0 
0 0 0 0 0 0 0 0 0 
0 0 0 0 0 0 0 0 0 
0 0 0 0 0 0 0 0 0 
0 0 0 0 0 0 0 0 0 
0 0 0 0 0 0 0 0 0 
0 0 0 0 0 0 0 0 0 
0 0 0 0 0 0 0 0 0 
0 0 0 0 0 0 0 0 0 
0 0 0 0 0 0 0 0 0 
0 0 0 0 0 0 0 0 0 
0 0 0 0 0 0 0 0 0 
0 0 0 0 0 0 0 0 0 
0 0 0 0 0 0 0 0 0 
0 0 0 0 0 0 0 0 0 
0 0 0 0 0 0 0 0 0 
0 0 0 0 0 0 0 0 0 
0 0 0 0 0 0 0 0 0 
0 0 0 0 0 0 0 0 0 
0 0 0 0 0 0 0 0 0 
0 0 0 0 0 0 0 0 0 
0 0 0 0 0 0 0 0 0 
0 0 0 0 0 0 0 0 0 
0 0 0 0 0 0 0 0 0 
1.409406847e-07 0 0 0 1.417240158e-07 0 0 0 0 
0 0 0 0 0 0 0 0 0 
0 0 0 0 0 0 0 0 0 
0 0 0 0 0 0 0 0 0 
0 0 0 0 0 0 0 0 0 
0 0 0 0 0 0 0 0 0 
0 0 0 0 0 0 0 0 0 
0 0 0 0 0 0 0 0 0 
0 0 0 0 0 0 0 0 0 
0 0 0 0 0 0 0 0 0 
0 0 0 0 0 0 0 0 0 
0 0 0 0 0 0 0 0 0 
0 0 0 0 0 0 0 0 0 
0 0 0 0 0 0 0 0 0 
0 0 0 0 0 0 0 0 0 
0 0 0 0 0 0 0 0 0 
0 0 0 0 0 0 0 0 0 
0 0 0 0 0 0 0 0 0 
0 0 0 0 0 0 0 0 0 
0 0 0 0 0 0 0 0 0 
0 0 0 0 0 0 0 0 0 
0 0 0 0 0 0 0 0 0 
0 0 0 0 0 0 0 0 0 
0 0 0 0 0 0 0 0 0 
0 0 0 0 0 0 0 0 0 
0 0 0 0 0 0 0 0 0 
0 0 0 0 0 0 0 0 0 
0 0 0 0 0 0 0 0 0 
0 0 0 0 0 0 0 0 0 
0 0 0 0 0 0 0 0 0 
0 0 0 0 0 0 0 0 0 
0 0 0 0 0 0 0 0 0 
0 0 0 0 0 0 0 0 0 
0 0 0 0 0 0 0 0 0 
0 0 0 0 0 0 0 0 0 
0 0 0 0 0 0 0 0 0 
0 0 0 0 0 0 0 0 0 
0 0 0 0 0 0 0 0 0 
0 0 0 0 0 0 0 0 0 
0 0 0 0 0 0 0 0 0 
0 0 0 0 0 0 0 0 0 
0 0 0 0 0 0 0 0 0 
0 0 0 0 0 0 0 0 0 
0 0 0 0 0 0 0 0 0 
0 0 0 0 0 0 0 0 0 
0 0 0 0 0 0 0 0 0 
0 0 0 0 0 0 0 0 0 
0 0 0 0 0 0 0 0 0 
0 0 0 0 0 0 0 0 0 
0 0 0 0 0 0 0 0 0 
0 0 0 0 0 0 0 0 0 
0 0 0 0 0 0 0 0 0 
0 0 0 0 0 0 0 0 0 
0 0 0 0 0 0 0 0 0 
0 0 0 0 0 0 0 0 0 
0 0 0 0 0 0 0 0 0 
0 0 0 0 0 0 0 0 0 
0 0 0 0 0 0 0 0 0 
0 0 0 0 0 0 0 0 0 
0 0 0 0 0 0 0 0 0 
0 0 0 0 0 0 0 0 0 
0 0 0 0 0 0 0 0 0 
0 0 0 0 0 0 0 0 0 
0 0 0 0 0 0 0 0 0 
0 0 0 0 0 0 0 0 0 
0 0 0 0 0 0 0 0 0 
0 0 0 0 0 0 0 0 0 
0 0 0 0 0 0 0 0 0 
0 0 0 0 0 0 0 0 0 
0 0 0 0 0 0 0 0 0 
0 0 0 0 0 0 0 0 0 
0 0 0 0 0 0 0 0 0 
0 0 0 0 0 0 0 0 0 
0 0 0 0 0 0 0 0 0 
0 0 0 0 0 0 0 0 0 
0 0 0 0 0 0 0 0 0 
0 0 0 0 0 0 0 0 0 
0 0 0 0 0 0 0 0 0 
0 0 0 0 0 0 0 0 0 
0 0 0 0 0 0 0 0 0 
0 0 0 0 0 0 0 0 0 
0 0 0 0 0 0 0 0 0 
0 0 0 0 0 0 0 0 -1.32515423e-07 
0 0 0 0 0 0 0 0 0 
0 0 0 0 0 0 0 0 0 
0 0 0 0 0 0 0 0 0 
0 0 0 0 0 0 0 0 0 
0 0 0 0 0 0 0 0 0 
0 0 0 0 0 0 0 0 0 
0 0 0 0 0 0 0 0 0 
0 0 0 0 0 0 0 0 0 
0 0 0 0 0 0 0 0 0 
0 0 0 0 0 0 0 0 0 
0 0 0 0 0 0 0 0 0 
0 0 0 0 0 0 0 0 0 
0 0 0 0 0 0 0 0 0 
0 0 0 0 0 0 0 0 0 
0 0 0 0 0 0 0 0 0 
0 0 0 0 0 0 0 0 0 
0 0 0 0 0 0 0 0 0 
0 0 0 0 0 0 0 0 0 
0 0 0 0 0 0 0 0 0 
0 0 0 0 0 0 0 0 0 
0 0 0 0 0 0 0 0 0 
0 0 0 0 0 0 0 0 0 
0 0 0 0 0 0 0 0 0 
0 0 0 0 0 0 0 0 0 
0 0 0 0 0 0 0 0 0 
0 0 0 0 0 0 0 0 0 
0 0 0 0 0 0 0 0 -2.30752701e-07 
-2.162988817e-07 0 0 0 -1.343351909e-07 0 0 0 -2.048833494e-07 
0 0 0 0 -1.269394368e-07 0 0 0 -1.788685087e-07 
2.994413489e-07 1.611673636e-07 0 1.611673636e-07 3.097368818e-07 0 0 0 0 
0 0 0 0 0 0 0 0 -2.178180252e-07 
-1.612168986e-07 0 0 0 -1.306373139e-07 0 0 0 -1.91875929e-07 
0 0 0 0 0 0 0 0 -2.048106049e-07 
1.775948118e-07 0 0 0 1.445324638e-07 0 0 0 -1.250863381e-07 
0 0 0 0 0 0 0 0 0 
0 0 0 0 0 0 0 0 0 
0 0 0 0 0 0 0 0 0 
0 0 0 0 0 0 0 0 0 
0 0 0 0 0 0 0 0 0 
0 0 0 0 0 0 0 0 -1.238043477e-07 
0 0 0 0 0 0 0 0 0 
0 0 0 0 0 0 0 0 0 
0 0 0 0 0 0 0 0 0 
0 0 0 0 0 0 0 0 0 
0 0 0 0 0 0 0 0 0 
0 0 0 0 0 0 0 0 0 
0 0 0 0 0 0 0 0 0 
0 0 0 0 0 0 0 0 0 
0 0 0 0 0 0 0 0 0 
0 0 0 0 0 0 0 0 0 
0 0 0 0 0 0 0 0 0 
0 0 0 0 0 0 0 0 0 
0 0 0 0 0 0 0 0 0 
0 0 0 0 0 0 0 0 0 
0 0 0 0 0 0 0 0 0 
0 0 0 0 0 0 0 0 0 
0 0 0 0 0 0 0 0 0 
0 0 0 0 0 0 0 0 0 
0 0 0 0 0 0 0 0 0 
0 0 0 0 0 0 0 0 0 
0 0 0 0 0 0 0 0 0 
0 0 0 0 0 0 0 0 0 
0 0 0 0 0 0 0 0 0 
0 0 0 0 0 0 0 0 0 
0 0 0 0 0 0 0 0 0 
0 0 0 0 0 0 0 0 0 
0 0 0 0 0 0 0 0 -1.642372088e-07 
1.484336368e-07 0 0 0 2.024155172e-07 0 0 0 0 
0 0 0 0 0 0 0 0 0 
0 0 0 0 0 0 0 0 -2.16492087e-07 
0 0 0 0 0 0 0 0 0 
0 0 0 0 0 0 0 0 0 
0 0 0 0 0 0 0 0 0 
0 0 0 0 0 0 0 0 -1.903646479e-07 
0 0 0 0 0 0 0 0 0 
0 0 0 0 0 0 0 0 -1.448860064e-07 
1.331295817e-07 0 0 0 1.926017496e-07 0 0 0 0 
0 0 0 0 -1.63841865e-07 0 0 0 0 
0 0 0 0 0 0 0 0 0 
0 0 0 0 0 0 0 0 0 
0 0 0 0 0 0 0 0 0 
0 0 0 0 0 0 0 0 0 
0 0 0 0 0 0 0 0 0 
0 0 0 0 0 0 0 0 0 
0 0 0 0 0 0 0 0 0 
0 0 0 0 0 0 0 0 0 
0 0 0 0 0 0 0 0 0 
0 0 0 0 0 0 0 0 0 
0 0 0 0 0 0 0 0 0 
0 0 0 0 0 0 0 0 0 
0 0 0 0 0 0 0 0 0 
0 0 0 0 0 0 0 0 0 
0 0 0 0 0 0 0 0 0 
0 0 0 0 0 0 0 0 0 
0 0 0 0 0 0 0 0 0 
0 0 0 0 0 0 0 0 0 
0 0 0 0 0 0 0 0 0 
0 0 0 0 0 0 0 0 0 
0 0 0 0 0 0 0 0 0 
0 0 0 0 0 0 0 0 0 
0 0 0 0 0 0 0 0 0 
0 0 0 0 0 0 0 0 0 
0 0 0 0 0 0 0 0 0 
0 0 0 0 0 0 0 0 0 
0 0 0 0 0 0 0 0 0 
0 0 0 0 0 0 0 0 0 
0 0 0 0 0 0 0 0 0 
0 0 0 0 0 0 0 0 0 
0 0 0 0 2.116007325e-07 0 0 0 0 
0 0 0 0 0 0 0 0 0 
0 0 0 0 0 0 0 0 0 
0 0 0 0 0 0 0 0 0 
0 0 0 0 0 0 0 0 0 
0 0 0 0 0 0 0 0 0 
0 0 0 0 0 0 0 0 0 
0 0 0 0 0 0 0 0 0 
0 0 0 0 0 0 0 0 0 
0 0 0 0 0 0 0 0 0 
0 0 0 0 0 0 0 0 0 
0 0 0 0 0 0 0 0 0 
0 0 0 0 0 0 0 0 0 
0 0 0 0 0 0 0 0 0 
0 0 0 0 0 0 0 0 0 
0 0 0 0 0 0 0 0 0 
0 0 0 0 0 0 0 0 0 
0 0 0 0 0 0 0 0 0 
0 0 0 0 0 0 0 0 0 
0 0 0 0 0 0 0 0 0 
0 0 0 0 0 0 0 0 0 
0 0 0 0 0 0 0 0 0 
0 0 0 0 0 0 0 0 0 
0 0 0 0 0 0 0 0 0 
0 0 0 0 0 0 0 0 0 
0 0 0 0 0 0 0 0 0 
0 0 0 0 0 0 0 0 0 
0 0 0 0 0 0 0 0 0 
0 0 0 0 -1.303564857e-07 0 0 0 0 
0 0 0 0 2.065553276e-07 0 0 0 0 
0 0 0 0 0 0 0 0 -1.307822502e-07 
0 0 0 0 0 0 0 0 0 
0 0 0 0 0 0 0 0 0 
0 0 0 0 0 0 0 0 0 
0 0 0 0 0 0 0 0 0 
0 0 0 0 0 0 0 0 0 
0 0 0 0 0 0 0 0 0 
0 0 0 0 0 0 0 0 0 
0 0 0 0 0 0 0 0 0 
0 0 0 0 0 0 0 0 0 
0 0 0 0 0 0 0 0 0 
0 0 0 0 0 0 0 0 0 
0 0 0 0 0 0 0 0 0 
0 0 0 0 0 0 0 0 0 
0 0 0 0 0 0 0 0 0 
0 0 0 0 0 0 0 0 0 
0 0 0 0 0 0 0 0 0 
0 0 0 0 0 0 0 0 0 
0 0 0 0 0 0 0 0 0 
0 0 0 0 0 0 0 0 0 
0 0 0 0 0 0 0 0 0 
0 0 0 0 0 0 0 0 0 
0 0 0 0 0 0 0 0 0 
0 0 0 0 0 0 0 0 0 
0 0 0 0 0 0 0 0 0 
0 0 0 0 0 0 0 0 0 
0 0 0 0 0 0 0 0 0 
0 0 0 0 0 0 0 0 0 
0 0 0 0 0 0 0 0 1.26301527e-07 
0 0 0 0 0 0 0 0 0 
0 0 0 0 0 0 0 0 0 
0 0 0 0 0 0 0 0 0 
0 0 0 0 0 0 0 0 0 
0 0 0 0 0 0 0 0 0 
0 0 0 0 0 0 0 0 0 
0 0 0 0 0 0 0 0 0 
0 0 0 0 0 0 0 0 0 
0 0 0 0 0 0 0 0 0 
0 0 0 0 0 0 0 0 0 
0 0 0 0 0 0 0 0 0 
0 0 0 0 0 0 0 0 0 
0 0 0 0 0 0 0 0 0 
0 0 0 0 0 0 0 0 0 
0 0 0 0 0 0 0 0 0 
0 0 0 0 0 0 0 0 0 
0 0 0 0 0 0 0 0 0 
0 0 0 0 0 0 0 0 0 
0 0 0 0 0 0 0 0 0 
0 0 0 0 0 0 0 0 0 
0 0 0 0 0 0 0 0 0 
1.410917765e-07 0 0 0 1.267047062e-07 0 0 0 0 
0 0 0 0 0 0 0 0 0 
0 0 0 0 0 0 0 0 0 
0 0 0 0 0 0 0 0 0 
0 0 0 0 0 0 0 0 0 
0 0 0 0 0 0 0 0 0 
0 0 0 0 0 0 0 0 0 
0 0 0 0 0 0 0 0 0 
0 0 0 0 0 0 0 0 0 
0 0 0 0 0 0 0 0 0 
0 0 0 0 0 0 0 0 0 
0 0 0 0 0 0 0 0 0 
0 0 0 0 0 0 0 0 0 
0 0 0 0 0 0 0 0 0 
0 0 0 0 0 0 0 0 0 
0 0 0 0 0 0 0 0 0 
0 0 0 0 0 0 0 0 0 
0 0 0 0 0 0 0 0 0 
0 0 0 0 0 0 0 0 0 
0 0 0 0 0 0 0 0 0 
0 0 0 0 0 0 0 0 0 
0 0 0 0 0 0 0 0 0 
0 0 0 0 0 0 0 0 0 
0 0 0 0 0 0 0 0 0 
0 0 0 0 0 0 0 0 0 
0 0 0 0 0 0 0 0 0 
0 0 0 0 0 0 0 0 0 
0 0 0 0 0 0 0 0 0 
0 0 0 0 0 0 0 0 0 
0 0 0 0 0 0 0 0 0 
0 0 0 0 -1.205678594e-07 0 0 0 -1.250649681e-07 
0 0 0 0 1.732633951e-07 0 0 0 0 
0 0 0 0 0 0 0 0 0 
0 0 0 0 0 0 0 0 0 
0 0 0 0 0 0 0 0 0 
0 0 0 0 0 0 0 0 0 
0 0 0 0 0 0 0 0 0 
0 0 0 0 0 0 0 0 0 
0 0 0 0 0 0 0 0 0 
0 0 0 0 0 0 0 0 0 
0 0 0 0 0 0 0 0 0 
0 0 0 0 0 0 0 0 0 
0 0 0 0 0 0 0 0 0 
0 0 0 0 0 0 0 0 0 
0 0 0 0 0 0 0 0 0 
0 0 0 0 0 0 0 0 0 
0 0 0 0 0 0 0 0 0 
0 0 0 0 0 0 0 0 0 
0 0 0 0 0 0 0 0 0 
0 0 0 0 0 0 0 0 0 
0 0 0 0 0 0 0 0 -2.289057296e-07 
0 0 0 0 0 0 0 0 -2.266994253e-07 
0 0 0 0 0 0 0 0 0 
0 0 0 0 0 0 0 0 0 
0 0 0 0 0 0 0 0 0 
0 0 0 0 0 0 0 0 0 
0 0 0 0 0 0 0 0 0 
0 0 0 0 0 0 0 0 -2.278025774e-07 
0 0 0 0 0 0 0 0 0 
0 0 0 0 0 0 0 0 0 
0 0 0 0 0 0 0 0 0 
0 0 0 0 0 0 0 0 0 
0 0 0 0 0 0 0 0 0 
0 0 0 0 0 0 0 0 0 
0 0 0 0 0 0 0 0 0 
0 0 0 0 0 0 0 0 0 
0 0 0 0 0 0 0 0 0 
0 0 0 0 0 0 0 0 0 
0 0 0 0 0 0 0 0 0 
0 0 0 0 0 0 0 0 0 
0 0 0 0 0 0 0 0 0 
0 0 0 0 0 0 0 0 0 
0 0 0 0 0 0 0 0 0 
0 0 0 0 0 0 0 0 0 
0 0 0 0 0 0 0 0 0 
0 0 0 0 0 0 0 0 0 
0 0 0 0 0 0 0 0 0 
0 0 0 0 0 0 0 0 0 
0 0 0 0 0 0 0 0 -1.271459108e-07 
0 0 0 0 0 0 0 0 0 
0 0 0 0 0 0 0 0 0 
0 0 0 0 0 0 0 0 -1.381362085e-07 
0 0 0 0 0 0 0 0 0 
0 0 0 0 0 0 0 0 0 
0 0 0 0 0 0 0 0 0 
0 0 0 0 0 0 0 0 -1.326410596e-07 
0 0 0 0 0 0 0 0 0 
0 0 0 0 0 0 0 0 0 
0 0 0 0 0 0 0 0 0 
0 0 0 0 0 0 0 0 0 
0 0 0 0 0 0 0 0 0 
0 0 0 0 0 0 0 0 0 
0 0 0 0 0 0 0 0 0 
0 0 0 0 0 0 0 0 0 
0 0 0 0 0 0 0 0 0 
0 0 0 0 0 0 0 0 0 
0 0 0 0 0 0 0 0 0 
0 0 0 0 0 0 0 0 0 
0 0 0 0 0 0 0 0 0 
0 0 0 0 0 0 0 0 0 
0 0 0 0 0 0 0 0 0 
0 0 0 0 0 0 0 0 0 
0 0 0 0 0 0 0 0 0 
0 0 0 0 0 0 0 0 0 
0 0 0 0 0 0 0 0 0 
0 0 0 0 0 0 0 0 0 
0 0 0 0 0 0 0 0 0 
0 0 0 0 0 0 0 0 0 
0 0 0 0 0 0 0 0 0 
0 0 0 0 0 0 0 0 0 
0 0 0 0 0 0 0 0 0 
0 0 0 0 0 0 0 0 0 
0 0 0 0 0 0 0 0 0 
0 0 0 0 0 0 0 0 0 
0 0 0 0 0 0 0 0 0 
0 0 0 0 0 0 0 0 0 
0 0 0 0 0 0 0 0 0 
0 0 0 0 0 0 0 0 0 
0 0 0 0 0 0 0 0 0 
0 0 0 0 0 0 0 0 0 
0 0 0 0 0 0 0 0 0 
0 0 0 0 0 0 0 0 0 
0 0 0 0 0 0 0 0 0 
0 0 0 0 0 0 0 0 0 
0 0 0 0 0 0 0 0 0 
0 0 0 0 0 0 0 0 0 
0 0 0 0 0 0 0 0 0 
0 0 0 0 0 0 0 0 0 
0 0 0 0 0 0 0 0 0 
0 0 0 0 0 0 0 0 0 
0 0 0 0 1.380169423e-07 0 0 0 0 
0 0 0 0 0 0 0 0 0 
0 0 0 0 0 0 0 0 0 
0 0 0 0 0 0 0 0 0 
0 0 0 0 0 0 0 0 0 
0 0 0 0 0 0 0 0 0 
0 0 0 0 0 0 0 0 0 
0 0 0 0 0 0 0 0 0 
0 0 0 0 0 0 0 0 0 
0 0 0 0 0 0 0 0 0 
0 0 0 0 0 0 0 0 0 
0 0 0 0 0 0 0 0 0 
0 0 0 0 0 0 0 0 0 
0 0 0 0 0 0 0 0 0 
0 0 0 0 0 0 0 0 0 
0 0 0 0 0 0 0 0 0 
0 0 0 0 0 0 0 0 0 
0 0 0 0 0 0 0 0 0 
0 0 0 0 0 0 0 0 0 
0 0 0 0 0 0 0 0 0 
0 0 0 0 0 0 0 0 0 
0 0 0 0 0 0 0 0 0 
0 0 0 0 0 0 0 0 0 
0 0 0 0 0 0 0 0 0 
0 0 0 0 0 0 0 0 0 
0 0 0 0 0 0 0 0 0 
0 0 0 0 0 0 0 0 0 
0 0 0 0 0 0 0 0 0 
0 0 0 0 0 0 0 0 0 
0 0 0 0 0 0 0 0 0 
0 0 0 0 0 0 0 0 0 
0 0 0 0 0 0 0 0 0 
0 0 0 0 0 0 0 0 0 
0 0 0 0 0 0 0 0 0 
0 0 0 0 0 0 0 0 0 
0 0 0 0 0 0 0 0 0 
0 0 0 0 0 0 0 0 0 
0 0 0 0 0 0 0 0 0 
0 0 0 0 0 0 0 0 0 
0 0 0 0 0 0 0 0 0 
-1.198331268e-07 0 0 0 0 0 0 0 0 
0 0 0 0 0 0 0 0 0 
0 0 0 0 0 0 0 0 0 
0 0 0 0 0 0 0 0 0 
0 0 0 0 0 0 0 0 0 
0 0 0 0 0 0 0 0 0 
0 0 0 0 0 0 0 0 0 
0 0 0 0 0 0 0 0 0 
0 0 0 0 0 0 0 0 0 
0 0 0 0 0 0 0 0 0 
0 0 0 0 0 0 0 0 0 
0 0 0 0 0 0 0 0 0 
0 0 0 0 0 0 0 0 0 
0 0 0 0 0 0 0 0 0 
0 0 0 0 0 0 0 0 0 
0 0 0 0 0 0 0 0 0 
0 0 0 0 0 0 0 0 0 
0 0 0 0 0 0 0 0 0 
0 0 0 0 0 0 0 0 0 
0 0 0 0 0 0 0 0 0 
0 0 0 0 0 0 0 0 0 
0 0 0 0 0 0 0 0 0 
0 0 0 0 0 0 0 0 0 
0 0 0 0 0 0 0 0 0 
0 0 0 0 0 0 0 0 0 
0 0 0 0 0 0 0 0 0 
0 0 0 0 0 0 0 0 0 
0 0 0 0 0 0 0 0 0 
0 0 0 0 0 0 0 0 0 
0 0 0 0 0 0 0 0 0 
0 0 0 0 0 0 0 0 0 
0 0 0 0 0 0 0 0 0 
0 0 0 0 0 0 0 0 0 
0 0 0 0 0 0 0 0 0 
0 0 0 0 0 0 0 0 0 
0 0 0 0 0 0 0 0 0 
0 0 0 0 0 0 0 0 0 
0 0 0 0 0 0 0 0 0 
0 0 0 0 0 0 0 0 0 
0 0 0 0 0 0 0 0 0 
0 0 0 0 0 0 0 0 0 
0 0 0 0 0 0 0 0 0 
0 0 0 0 0 0 0 0 0 
0 0 0 0 0 0 0 0 0 
0 0 0 0 0 0 0 0 0 
0 0 0 0 0 0 0 0 0 
0 0 0 0 0 0 0 0 0 
0 0 0 0 0 0 0 0 0 
0 0 0 0 0 0 0 0 0 
0 0 0 0 0 0 0 0 0 
0 0 0 0 0 0 0 0 0 
0 0 0 0 0 0 0 0 0 
0 0 0 0 0 0 0 0 0 
0 0 0 0 0 0 0 0 0 
0 0 0 0 0 0 0 0 0 
0 0 0 0 0 0 0 0 0 
0 0 0 0 0 0 0 0 0 
0 0 0 0 0 0 0 0 0 
0 0 0 0 0 0 0 0 0 
0 0 0 0 0 0 0 0 0 
0 0 0 0 0 0 0 0 0 
0 0 0 0 0 0 0 0 -1.27942527e-07 
0 0 0 0 0 0 0 0 0 
0 0 0 0 0 0 0 0 0 
0 0 0 0 0 0 0 0 0 
0 0 0 0 0 0 0 0 0 
0 0 0 0 0 0 0 0 0 
0 0 0 0 0 0 0 0 0 
0 0 0 0 0 0 0 0 0 
0 0 0 0 0 0 0 0 0 
0 0 0 0 0 0 0 0 0 
0 0 0 0 0 0 0 0 0 
0 0 0 0 0 0 0 0 0 
0 0 0 0 0 0 0 0 0 
0 0 0 0 0 0 0 0 0 
0 0 0 0 0 0 0 0 0 
0 0 0 0 0 0 0 0 0 
0 0 0 0 0 0 0 0 0 
0 0 0 0 0 0 0 0 0 
0 0 0 0 0 0 0 0 0 
0 0 0 0 0 0 0 0 0 
0 0 0 0 0 0 0 0 0 
0 0 0 0 0 0 0 0 0 
0 0 0 0 0 0 0 0 0 
0 0 0 0 0 0 0 0 0 
0 0 0 0 0 0 0 0 0 
0 0 0 0 0 0 0 0 0 
0 0 0 0 0 0 0 0 0 
0 0 0 0 0 0 0 0 -1.724054374e-07 
0 0 0 0 0 0 0 0 0 
0 0 0 0 0 0 0 0 0 
0 0 0 0 0 0 0 0 -1.485341655e-07 
0 0 0 0 0 0 0 0 0 
0 0 0 0 0 0 0 0 0 
0 0 0 0 0 0 0 0 0 
0 0 0 0 0 0 0 0 -1.604698014e-07 
0 0 0 0 0 0 0 0 0 
0 0 0 0 0 0 0 0 0 
0 0 0 0 1.770728801e-07 0 0 0 0 
0 0 0 0 0 0 0 0 0 
0 0 0 0 0 0 0 0 0 
0 0 0 0 0 0 0 0 0 
0 0 0 0 0 0 0 0 0 
0 0 0 0 0 0 0 0 0 
0 0 0 0 0 0 0 0 0 
0 0 0 0 0 0 0 0 0 
0 0 0 0 0 0 0 0 0 
0 0 0 0 0 0 0 0 0 
0 0 0 0 0 0 0 0 0 
0 0 0 0 0 0 0 0 0 
0 0 0 0 0 0 0 0 0 
0 0 0 0 0 0 0 0 0 
0 0 0 0 0 0 0 0 0 
0 0 0 0 0 0 0 0 0 
0 0 0 0 0 0 0 0 0 
0 0 0 0 0 0 0 0 0 
0 0 0 0 0 0 0 0 0 
0 0 0 0 0 0 0 0 0 
0 0 0 0 0 0 0 0 0 
0 0 0 0 0 0 0 0 0 
0 0 0 0 0 0 0 0 0 
0 0 0 0 0 0 0 0 0 
0 0 0 0 0 0 0 0 0 
0 0 0 0 0 0 0 0 0 
0 0 0 0 0 0 0 0 0 
0 0 0 0 0 0 0 0 0 
0 0 0 0 0 0 0 0 0 
0 0 0 0 0 0 0 0 0 
-1.522614177e-07 0 0 0 0 0 0 0 0 
0 0 0 0 0 0 0 0 0 
0 0 0 0 0 0 0 0 0 
0 0 0 0 0 0 0 0 -2.213471681e-07 
0 0 0 0 0 0 0 0 0 
0 0 0 0 0 0 0 0 0 
0 0 0 0 0 0 0 0 0 
0 0 0 0 0 0 0 0 -1.20601912e-07 
0 0 0 0 0 0 0 0 -1.480527129e-07 
0 0 0 0 0 0 0 0 0 
0 0 0 0 0 0 0 0 0 
0 0 0 0 0 0 0 0 0 
0 0 0 0 0 0 0 0 0 
0 0 0 0 0 0 0 0 0 
0 0 0 0 0 0 0 0 0 
0 0 0 0 0 0 0 0 0 
0 0 0 0 0 0 0 0 0 
0 0 0 0 0 0 0 0 0 
0 0 0 0 0 0 0 0 0 
0 0 0 0 0 0 0 0 0 
0 0 0 0 0 0 0 0 0 
0 0 0 0 0 0 0 0 0 
0 0 0 0 0 0 0 0 0 
0 0 0 0 0 0 0 0 0 
0 0 0 0 0 0 0 0 0 
0 0 0 0 0 0 0 0 0 
0 0 0 0 0 0 0 0 0 
0 0 0 0 0 0 0 0 0 
0 0 0 0 0 0 0 0 0 
0 0 0 0 0 0 0 0 0 
0 0 0 0 0 0 0 0 0 
0 0 0 0 0 0 0 0 0 
0 0 0 0 0 0 0 0 0 
0 0 0 0 0 0 0 0 0 
0 0 0 0 0 0 0 0 0 
0 0 0 0 0 0 0 0 0 
0 0 0 0 0 0 0 0 0 
0 0 0 0 0 0 0 0 0 
0 0 0 0 0 0 0 0 0 
0 0 0 0 0 0 0 0 0 
0 0 0 0 0 0 0 0 0 
0 0 0 0 0 0 0 0 0 
0 0 0 0 0 0 0 0 0 
0 0 0 0 0 0 0 0 0 
0 0 0 0 0 0 0 0 0 
0 0 0 0 0 0 0 0 0 
0 0 0 0 0 0 0 0 0 
0 0 0 0 0 0 0 0 0 
0 0 0 0 0 0 0 0 0 
0 0 0 0 0 0 0 0 0 
0 0 0 0 0 0 0 0 0 
0 0 0 0 0 0 0 0 0 
0 0 0 0 0 0 0 0 0 
0 0 0 0 0 0 0 0 0 
0 0 0 0 0 0 0 0 0 
0 0 0 0 0 0 0 0 0 
0 0 0 0 0 0 0 0 0 
0 0 0 0 0 0 0 0 0 
0 0 0 0 0 0 0 0 0 
0 0 0 0 0 0 0 0 0 
0 0 0 0 0 0 0 0 0 
0 0 0 0 0 0 0 0 0 
0 0 0 0 0 0 0 0 0 
0 0 0 0 0 0 0 0 0 
0 0 0 0 0 0 0 0 0 
0 0 0 0 0 0 0 0 0 
0 0 0 0 0 0 0 0 0 
0 0 0 0 0 0 0 0 0 
0 0 0 0 0 0 0 0 0 
0 0 0 0 0 0 0 0 0 
0 0 0 0 0 0 0 0 0 
1.44704153e-07 0 0 0 2.251758529e-07 0 0 0 0 
0 0 0 0 0 0 0 0 0 
0 0 0 0 0 0 0 0 0 
0 0 0 0 1.199015782e-07 0 0 0 0 
0 0 0 0 0 0 0 0 0 
0 0 0 0 0 0 0 0 0 
0 0 0 0 0 0 0 0 0 
0 0 0 0 1.195055467e-07 0 0 0 0 
0 0 0 0 0 0 0 0 0 
0 0 0 0 0 0 0 0 1.771933248e-07 
0 0 0 0 0 0 0 0 1.808762344e-07 
0 0 0 0 0 0 0 0 1.782622317e-07 
0 0 0 0 0 0 0 0 0 
0 0 0 0 0 0 0 0 1.790347796e-07 
0 0 0 0 0 0 0 0 1.795692331e-07 
0 0 0 0 0 0 0 0 1.777277782e-07 
0 0 0 0 0 0 0 0 0 
0 0 0 0 0 0 0 0 0 
0 0 0 0 0 0 0 0 0 
0 0 0 0 0 0 0 0 0 
0 0 0 0 0 0 0 0 -1.597716529e-07 
-1.207003833e-07 0 0 0 0 0 0 0 -2.311436468e-07 
0 0 0 0 0 0 0 0 -1.861358961e-07 
0 0 0 0 0 0 0 0 0 
0 0 0 0 0 0 0 0 -1.954576499e-07 
0 0 0 0 0 0 0 0 -1.340381658e-07 
0 0 0 0 0 0 0 0 0 
0 0 0 0 0 0 0 0 -1.729537745e-07 
0 0 0 0 0 0 0 0 -2.086397715e-07 
-1.544783981e-07 0 0 0 0 0 0 0 -1.617461344e-07 
0 0 0 0 0 0 0 0 0 
0 0 0 0 0 0 0 0 1.769318848e-07 
0 0 0 0 0 0 0 0 0 
0 0 0 0 0 0 0 0 0 
0 0 0 0 0 0 0 0 0 
0 0 0 0 0 0 0 0 0 
0 0 0 0 0 0 0 0 0 
0 0 0 0 0 0 0 0 0 
0 0 0 0 0 0 0 0 0 
0 0 0 0 0 0 0 0 0 
0 0 0 0 0 0 0 0 0 
0 0 0 0 0 0 0 0 0 
0 0 0 0 0 0 0 0 0 
0 0 0 0 0 0 0 0 0 
0 0 0 0 0 0 0 0 0 
0 0 0 0 0 0 0 0 0 
0 0 0 0 0 0 0 0 0 
0 0 0 0 0 0 0 0 0 
0 0 0 0 0 0 0 0 0 
1.751770298e-07 0 0 0 2.92998108e-07 0 0 0 2.032508053e-07 
0 0 0 0 0 0 0 0 1.212445714e-07 
0 0 0 0 0 0 0 0 1.35456206e-07 
0 0 0 0 -1.889561172e-07 0 0 0 0 
0 0 0 0 1.528256882e-07 0 0 0 1.622476883e-07 
0 0 0 0 0 0 0 0 1.283503887e-07 
0 0 0 0 1.475885738e-07 0 0 0 1.693535056e-07 
0 0 0 0 0 0 0 0 0 
0 0 0 0 0 0 0 0 0 
0 0 0 0 0 0 0 0 0 
0 0 0 0 0 0 0 0 1.42967142e-07 
0 0 0 0 0 0 0 0 0 
0 0 0 0 0 0 0 0 0 
0 0 0 0 0 0 0 0 0 
0 0 0 0 0 0 0 0 0 
0 0 0 0 0 0 0 0 0 
0 0 0 0 0 0 0 0 0 
0 0 0 0 0 0 0 0 0 
0 0 0 0 0 0 0 0 0 
0 0 0 0 0 0 0 0 0 
0 0 0 0 0 0 0 0 1.326814302e-07 
0 0 0 0 0 0 0 0 0 
0 0 0 0 0 0 0 0 0 
0 0 0 0 -1.276035119e-07 0 0 0 0 
0 0 0 0 0 0 0 0 0 
0 0 0 0 0 0 0 0 0 
0 0 0 0 0 0 0 0 0 
0 0 0 0 0 0 0 0 0 
0 0 0 0 0 0 0 0 0 
0 0 0 0 0 0 0 0 0 
0 0 0 0 0 0 0 0 0 
-1.829031734e-07 0 0 0 -1.361907382e-07 0 0 0 -1.650430629e-07 
0 0 0 0 0 0 0 0 0 
0 0 0 0 0 0 0 0 0 
0 0 0 0 0 0 0 0 -1.272287924e-07 
0 0 0 0 0 0 0 0 0 
0 0 0 0 0 0 0 0 0 
0 0 0 0 0 0 0 0 0 
0 0 0 0 0 0 0 0 0 
0 0 0 0 0 0 0 0 0 
0 0 0 0 0 0 0 0 2.563300214e-07 
0 0 0 0 0 0 0 0 2.554739595e-07 
0 0 0 0 0 0 0 0 1.750264661e-07 
-1.219811936e-07 0 0 0 0 0 0 0 0 
0 0 0 0 0 0 0 0 2.559019904e-07 
0 0 0 0 0 0 0 0 2.152502128e-07 
0 0 0 0 0 0 0 0 2.156782438e-07 
0 0 0 0 0 0 0 0 0 
0 0 0 0 0 0 0 0 0 
0 0 0 0 0 0 0 0 0 
0 0 0 0 0 0 0 0 1.356911075e-07 
0 0 0 0 0 0 0 0 1.368175824e-07 
0 0 0 0 0 0 0 0 1.4876955e-07 
0 0 0 0 0 0 0 0 0 
0 0 0 0 0 0 0 0 1.36254345e-07 
0 0 0 0 0 0 0 0 1.427935662e-07 
0 0 0 0 0 0 0 0 1.422303288e-07 
0 0 0 0 0 0 0 0 0 
0 0 0 0 0 0 0 0 0 
0 0 0 0 0 0 0 0 0 
-1.905964583e-07 0 0 0 0 0 0 0 -2.567327908e-07 
1.274796908e-07 0 0 0 1.357339596e-07 0 0 0 0 
0 0 0 0 0 0 0 0 -1.967584508e-07 
0 0 0 0 0 0 0 0 -1.32807688e-07 
0 0 0 0 0 0 0 0 -1.422791608e-07 
0 0 0 0 0 0 0 0 0 
0 0 0 0 0 0 0 0 -2.267456208e-07 
0 0 0 0 0 0 0 0 -1.947702394e-07 
0 0 0 0 0 0 0 0 0 
0 0 0 0 0 0 0 0 -1.647830694e-07 
0 0 0 0 0 0 0 0 0 
0 0 0 0 0 0 0 0 1.937954203e-07 
0 0 0 0 0 0 0 0 0 
0 0 0 0 0 0 0 0 0 
0 0 0 0 0 0 0 0 0 
0 0 0 0 0 0 0 0 0 
0 0 0 0 0 0 0 0 0 
0 0 0 0 0 0 0 0 0 
0 0 0 0 0 0 0 0 0 
0 0 0 0 0 0 0 0 0 
0 0 0 0 0 0 0 0 0 
0 0 0 0 0 0 0 0 0 
0 0 0 0 0 0 0 0 0 
0 0 0 0 0 0 0 0 0 
0 0 0 0 0 0 0 0 0 
0 0 0 0 0 0 0 0 0 
0 0 0 0 0 0 0 0 0 
0 0 0 0 0 0 0 0 0 
0 0 0 0 0 0 0 0 0 
0 0 0 0 0 0 0 0 0 
0 0 0 0 0 0 0 0 -2.373454084e-07 
1.458322224e-07 0 0 0 1.539029598e-07 0 0 0 0 
0 0 0 0 0 0 0 0 -1.33378852e-07 
0 0 0 0 0 0 0 0 -2.271161856e-07 
0 0 0 0 0 0 0 0 -1.435505647e-07 
0 0 0 0 0 0 0 0 0 
0 0 0 0 0 0 0 0 -1.853621302e-07 
0 0 0 0 0 0 0 0 -2.32230797e-07 
0 0 0 0 0 0 0 0 -1.384359533e-07 
0 0 0 0 0 0 0 0 -1.802475188e-07 
0 0 0 0 0 0 0 0 -1.377741045e-07 
0 0 0 0 0 0 0 0 -1.742049579e-07 
1.485810775e-07 0 0 0 1.920742151e-07 0 0 0 0 
0 0 0 0 0 0 0 0 -2.700485085e-07 
0 0 0 0 0 0 0 0 -1.559895312e-07 
0 0 0 0 0 0 0 0 0 
0 0 0 0 0 0 0 0 0 
0 0 0 0 0 0 0 0 -2.039113065e-07 
0 0 0 0 0 0 0 0 -2.221267332e-07 
0 0 0 0 0 0 0 0 -1.395361766e-07 
0 0 0 0 0 0 0 0 2.058376506e-07 
-2.09322803e-07 0 0 0 0 0 0 0 -1.518734669e-07 
0 0 0 0 0 0 0 0 2.976533209e-07 
2.048119139e-07 0 0 0 0 0 0 0 3.436456496e-07 
-1.335970906e-07 0 0 0 0 0 0 0 0 
0 0 0 0 0 0 0 0 0 
0 0 0 0 0 0 0 0 2.517454858e-07 
0 0 0 0 0 0 0 0 2.747416501e-07 
0 0 0 0 0 0 0 0 0 
1.451065674e-07 0 0 0 0 0 0 0 3.206494853e-07 
0 0 0 0 0 0 0 0 0 
0 0 0 0 0 0 0 0 0 
0 0 0 0 0 0 0 0 -1.515342281e-07 
-1.290763513e-07 0 0 0 0 0 0 0 2.087272765e-07 
0 0 0 0 0 0 0 0 0 
0 0 0 0 0 0 0 0 -1.232685926e-07 
0 0 0 0 0 0 0 0 0 
0 0 0 0 0 0 0 0 0 
0 0 0 0 0 0 0 0 0 
0 0 0 0 0 0 0 0 0 
0 0 0 0 0 0 0 0 0 
1.47913435e-07 0 0 0 2.420284297e-07 0 0 0 0 
0 0 0 0 0 0 0 0 0 
0 0 0 0 -1.451475144e-07 0 0 0 0 
0 0 0 0 1.382254293e-07 0 0 0 0 
0 0 0 0 1.234930807e-07 0 0 0 0 
0 0 0 0 0 0 0 0 0 
0 0 0 0 0 0 0 0 0 
0 0 0 0 0 0 0 0 0 
0 0 0 0 0 0 0 0 0 
0 0 0 0 0 0 0 0 -1.75761167e-07 
0 0 0 0 0 0 0 0 -2.575451304e-07 
0 0 0 0 0 0 0 0 0 
0 0 0 0 0 0 0 0 -2.156855125e-07 
0 0 0 0 0 0 0 0 -2.166531487e-07 
0 0 0 0 0 0 0 0 -1.307559651e-07 
0 0 0 0 0 0 0 0 0 
0 0 0 0 0 0 0 0 -1.957233398e-07 
0 0 0 0 0 0 0 0 -2.366153215e-07 
0 0 0 0 0 0 0 0 0 
0 0 0 0 0 0 0 0 0 
0 0 0 0 0 0 0 0 -1.976267448e-07 
0 0 0 0 0 0 0 0 0 
0 0 0 0 0 0 0 0 -1.983627631e-07 
0 0 0 0 0 0 0 0 -1.435793293e-07 
0 0 0 0 0 0 0 0 0 
0 0 0 0 0 0 0 0 0 
0 0 0 0 0 0 0 0 -1.439473385e-07 
0 0 0 0 0 0 0 0 -1.97994754e-07 
0 0 0 0 0 0 0 0 0 
0 0 0 0 0 0 0 0 1.372020317e-07 
0 0 0 0 0 0 0 0 0 
0 0 0 0 0 0 0 0 1.452639325e-07 
0 0 0 0 0 0 0 0 0 
0 0 0 0 0 0 0 0 1.233293129e-07 
0 0 0 0 0 0 0 0 1.273602632e-07 
0 0 0 0 0 0 0 0 1.412329821e-07 
0 0 0 0 0 0 0 0 0 
0 0 0 0 0 0 0 0 0 
0 0 0 0 0 0 0 0 0 
0 0 0 0 0 0 0 0 0 
0 0 0 0 0 0 0 0 0 
0 0 0 0 0 0 0 0 0 
0 0 0 0 0 0 0 0 0 
0 0 0 0 0 0 0 0 0 
0 0 0 0 0 0 0 0 0 
0 0 0 0 0 0 0 0 0 
0 0 0 0 0 0 0 0 0 
0 0 0 0 0 0 0 0 0 
0 0 0 0 0 0 0 0 0 
0 0 0 0 0 0 0 0 0 
0 0 0 0 0 0 0 0 0 
0 0 0 0 0 0 0 0 0 
0 0 0 0 0 0 0 0 0 
0 0 0 0 0 0 0 0 0 
0 0 0 0 0 0 0 0 0 
0 0 0 0 0 0 0 0 0 
0 0 0 0 0 0 0 0 0 
0 0 0 0 0 0 0 0 0 
0 0 0 0 0 0 0 0 0 
0 0 0 0 0 0 0 0 0 
0 0 0 0 0 0 0 0 0 
0 0 0 0 0 0 0 0 0 
0 0 0 0 0 0 0 0 0 
0 0 0 0 0 0 0 0 0 
0 0 0 0 0 0 0 0 0 
0 0 0 0 0 0 0 0 0 
0 0 0 0 0 0 0 0 0 
0 0 0 0 0 0 0 0 0 
0 0 0 0 0 0 0 0 0 
0 0 0 0 0 0 0 0 1.350043848e-07 
0 0 0 0 0 0 0 0 1.336167904e-07 
0 0 0 0 0 0 0 0 0 
0 0 0 0 0 0 0 0 0 
0 0 0 0 0 0 0 0 1.343105876e-07 
0 0 0 0 0 0 0 0 1.2341033e-07 
0 0 0 0 0 0 0 0 1.241041272e-07 
0 0 0 0 0 0 0 0 0 
0 0 0 0 0 0 0 0 0 
0 0 0 0 0 0 0 0 0 
0 0 0 0 0 0 0 0 0 
0 0 0 0 0 0 0 0 0 
0 0 0 0 0 0 0 0 -1.383453012e-07 
0 0 0 0 0 0 0 0 1.981593339e-07 
0 0 0 0 0 0 0 0 0 
0 0 0 0 0 0 0 0 0 
0 0 0 0 0 0 0 0 0 
0 0 0 0 0 0 0 0 0 
0 0 0 0 0 0 0 0 0 
0 0 0 0 0 0 0 0 0 
0 0 0 0 0 0 0 0 0 
0 0 0 0 0 0 0 0 0 
0 0 0 0 0 0 0 0 1.358101416e-07 
0 0 0 0 0 0 0 0 0 
0 0 0 0 0 0 0 0 0 
0 0 0 0 0 0 0 0 0 
0 0 0 0 0 0 0 0 1.222349353e-07 
0 0 0 0 0 0 0 0 0 
0 0 0 0 0 0 0 0 0 
0 0 0 0 0 0 0 0 0 
0 0 0 0 0 0 0 0 0 
0 0 0 0 0 0 0 0 0 
1.510857592e-07 0 0 0 0 0 0 0 0 
-1.504887116e-07 0 0 0 0 0 0 0 -1.350297811e-07 
0 0 0 0 0 0 0 0 0 
0 0 0 0 0 0 0 0 0 
0 0 0 0 0 0 0 0 0 
0 0 0 0 0 0 0 0 0 
0 0 0 0 0 0 0 0 0 
0 0 0 0 0 0 0 0 0 
0 0 0 0 0 0 0 0 1.494405536e-07 
0 0 0 0 0 0 0 0 1.462930751e-07 
0 0 0 0 0 0 0 0 0 
0 0 0 0 0 0 0 0 0 
0 0 0 0 0 0 0 0 1.478668144e-07 
0 0 0 0 0 0 0 0 1.289263736e-07 
0 0 0 0 0 0 0 0 1.305001129e-07 
0 0 0 0 0 0 0 0 0 
0 0 0 0 0 0 0 0 0 
0 0 0 0 0 0 0 0 0 
-2.00208771e-07 0 0 0 -1.342041318e-07 0 0 0 1.616529261e-07 
0 0 0 0 0 0 0 0 -1.227276115e-07 
0 0 0 0 0 0 0 0 0 
0 0 0 0 0 0 0 0 0 
0 0 0 0 0 0 0 0 0 
0 0 0 0 0 0 0 0 0 
0 0 0 0 0 0 0 0 0 
0 0 0 0 0 0 0 0 0 
0 0 0 0 0 0 0 0 0 
0 0 0 0 0 0 0 0 0 
0 0 0 0 0 0 0 0 0 
0 0 0 0 0 0 0 0 0 
0 0 0 0 0 0 0 0 0 
0 0 0 0 0 0 0 0 0 
0 0 0 0 0 0 0 0 0 
0 0 0 0 0 0 0 0 0 
0 0 0 0 0 0 0 0 0 
0 0 0 0 0 0 0 0 0 
0 0 0 0 0 0 0 0 0 
0 0 0 0 0 0 0 0 0 
0 0 0 0 0 0 0 0 0 
0 0 0 0 0 0 0 0 0 
1.538259086e-07 0 0 0 0 0 0 0 0 
0 0 0 0 0 0 0 0 0 
0 0 0 0 0 0 0 0 0 
0 0 0 0 0 0 0 0 0 
0 0 0 0 0 0 0 0 0 
0 0 0 0 0 0 0 0 0 
0 0 0 0 0 0 0 0 0 
0 0 0 0 0 0 0 0 0 
0 0 0 0 0 0 0 0 1.213421551e-07 
0 0 0 0 0 0 0 0 0 
0 0 0 0 0 0 0 0 1.457402224e-07 
0 0 0 0 0 0 0 0 0 
0 0 0 0 0 0 0 0 0 
0 0 0 0 0 0 0 0 0 
0 0 0 0 0 0 0 0 1.335411887e-07 
0 0 0 0 0 0 0 0 0 
0 0 0 0 0 0 0 0 0 
0 0 0 0 0 0 0 0 0 
0 0 0 0 0 0 0 0 -1.71828403e-07 
0 0 0 0 0 0 0 0 0 
0 0 0 0 0 0 0 0 -1.303954411e-07 
0 0 0 0 0 0 0 0 -2.340587165e-07 
0 0 0 0 0 0 0 0 0 
0 0 0 0 0 0 0 0 0 
0 0 0 0 0 0 0 0 -1.51111922e-07 
0 0 0 0 0 0 0 0 -2.029435597e-07 
0 0 0 0 0 0 0 0 0 
0 0 0 0 0 0 0 0 -1.822270788e-07 
0 0 0 0 0 0 0 0 2.916281813e-07 
0 0 0 0 0 0 0 0 2.642761557e-07 
0 0 0 0 0 0 0 0 2.409051525e-07 
-2.368319387e-07 0 0 0 0 0 0 0 -2.021930502e-07 
0 0 0 0 0 0 0 0 2.779521685e-07 
0 0 0 0 0 0 0 0 2.525906541e-07 
0 0 0 0 0 0 0 0 2.662666669e-07 
0 0 0 0 0 0 0 0 0 
0 0 0 0 0 0 0 0 0 
-1.22947948e-07 0 0 0 0 0 0 0 0 
0 0 0 0 0 0 0 0 0 
0 0 0 0 0 0 0 0 -1.827809015e-07 
0 0 0 0 0 0 0 0 0 
0 0 0 0 0 0 0 0 -2.016514915e-07 
0 0 0 0 0 0 0 0 0 
0 0 0 0 0 0 0 0 -1.389668156e-07 
0 0 0 0 0 0 0 0 0 
0 0 0 0 0 0 0 0 -1.279266041e-07 
0 0 0 0 0 0 0 0 -1.922161965e-07 
0 0 0 0 0 0 0 0 -1.484021106e-07 
1.216642948e-07 0 0 0 0 0 0 0 0 
0 0 0 0 0 0 0 0 0 
0 0 0 0 0 0 0 0 0 
0 0 0 0 0 0 0 0 -2.244835688e-07 
0 0 0 0 0 0 0 0 0 
0 0 0 0 0 0 0 0 0 
0 0 0 0 0 0 0 0 0 
0 0 0 0 0 0 0 0 -1.233992632e-07 
0 0 0 0 0 0 0 0 -1.571018551e-07 
0 0 0 0 0 0 0 0 -1.596195836e-07 
0 0 0 0 0 0 0 0 0 
0 0 0 0 0 0 0 0 0 
0 0 0 0 0 0 0 0 0 
0 0 0 0 0 0 0 0 0 
0 0 0 0 0 0 0 0 0 
0 0 0 0 0 0 0 0 0 
0 0 0 0 0 0 0 0 0 
0 0 0 0 0 0 0 0 0 
0 0 0 0 0 0 0 0 0 
0 0 0 0 0 0 0 0 0 
0 0 0 0 0 0 0 0 0 
0 0 0 0 0 0 0 0 0 
0 0 0 0 0 0 0 0 0 
0 0 0 0 -1.193934382e-07 0 0 0 0 
0 0 0 0 0 0 0 0 0 
0 0 0 0 0 0 0 0 0 
0 0 0 0 0 0 0 0 0 
0 0 0 0 0 0 0 0 0 
0 0 0 0 0 0 0 0 0 
0 0 0 0 0 0 0 0 0 
0 0 0 0 0 0 0 0 0 
0 0 0 0 0 0 0 0 0 
0 0 0 0 0 0 0 0 0 
-1.378905866e-07 0 0 0 0 0 0 0 0 
0 0 0 0 0 0 0 0 0 
0 0 0 0 0 0 0 0 0 
0 0 0 0 0 0 0 0 0 
0 0 0 0 0 0 0 0 0 
0 0 0 0 0 0 0 0 0 
0 0 0 0 0 0 0 0 0 
0 0 0 0 0 0 0 0 0 
0 0 0 0 0 0 0 0 0 
0 0 0 0 0 0 0 0 0 
0 0 0 0 0 0 0 0 0 
0 0 0 0 0 0 0 0 0 
0 0 0 0 0 0 0 0 0 
0 0 0 0 0 0 0 0 0 
0 0 0 0 0 0 0 0 0 
0 0 0 0 0 0 0 0 0 
0 0 0 0 0 0 0 0 0 
0 0 0 0 0 0 0 0 0 
0 0 0 0 0 0 0 0 0 
0 0 0 0 0 0 0 0 0 
0 0 0 0 0 0 0 0 0 
0 0 0 0 0 0 0 0 0 
0 0 0 0 0 0 0 0 0 
0 0 0 0 0 0 0 0 0 
0 0 0 0 0 0 0 0 0 
0 0 0 0 0 0 0 0 0 
0 0 0 0 0 0 0 0 0 
1.257476512e-07 0 0 0 1.760644899e-07 0 0 0 0 
0 0 0 0 0 0 0 0 0 
0 0 0 0 0 0 0 0 0 
0 0 0 0 0 0 0 0 0 
0 0 0 0 0 0 0 0 0 
0 0 0 0 0 0 0 0 0 
0 0 0 0 0 0 0 0 0 
0 0 0 0 0 0 0 0 0 
0 0 0 0 0 0 0 0 0 
0 0 0 0 0 0 0 0 0 
0 0 0 0 0 0 0 0 0 
0 0 0 0 0 0 0 0 0 
0 0 0 0 0 0 0 0 0 
0 0 0 0 0 0 0 0 0 
0 0 0 0 0 0 0 0 0 
0 0 0 0 0 0 0 0 0 
0 0 0 0 0 0 0 0 0 
0 0 0 0 0 0 0 0 0 
0 0 0 0 0 0 0 0 0 
0 0 0 0 0 0 0 0 0 
0 0 0 0 0 0 0 0 0 
0 0 0 0 0 0 0 0 0 
0 0 0 0 0 0 0 0 0 
0 0 0 0 0 0 0 0 0 
0 0 0 0 0 0 0 0 0 
0 0 0 0 0 0 0 0 0 
0 0 0 0 0 0 0 0 0 
0 0 0 0 0 0 0 0 0 
0 0 0 0 0 0 0 0 0 
0 0 0 0 0 0 0 0 0 
0 0 0 0 -1.27630129e-07 0 0 0 -1.383977802e-07 
0 0 0 0 0 0 0 0 0 
0 0 0 0 0 0 0 0 0 
0 0 0 0 0 0 0 0 0 
0 0 0 0 0 0 0 0 0 
0 0 0 0 0 0 0 0 0 
0 0 0 0 0 0 0 0 0 
0 0 0 0 0 0 0 0 0 
0 0 0 0 0 0 0 0 0 
0 0 0 0 0 0 0 0 0 
0 0 0 0 0 0 0 0 0 
0 0 0 0 0 0 0 0 0 
0 0 0 0 0 0 0 0 0 
0 0 0 0 0 0 0 0 0 
0 0 0 0 0 0 0 0 0 
0 0 0 0 0 0 0 0 0 
0 0 0 0 0 0 0 0 0 
0 0 0 0 0 0 0 0 0 
0 0 0 0 0 0 0 0 0 
0 0 0 0 0 0 0 0 0 
0 0 0 0 0 0 0 0 0 
0 0 0 0 0 0 0 0 0 
0 0 0 0 0 0 0 0 0 
0 0 0 0 1.302995017e-07 0 0 0 0 
0 0 0 0 0 0 0 0 0 
0 0 0 0 0 0 0 0 0 
0 0 0 0 0 0 0 0 0 
0 0 0 0 0 0 0 0 0 
0 0 0 0 0 0 0 0 0 
0 0 0 0 0 0 0 0 0 
0 0 0 0 0 0 0 0 0 
0 0 0 0 0 0 0 0 0 
-1.244188919e-07 0 0 0 0 0 0 0 0 
0 0 0 0 0 0 0 0 -1.234788097e-07 
0 0 0 0 0 0 0 0 0 
0 0 0 0 0 0 0 0 0 
0 0 0 0 0 0 0 0 0 
0 0 0 0 0 0 0 0 0 
0 0 0 0 0 0 0 0 0 
0 0 0 0 0 0 0 0 0 
0 0 0 0 0 0 0 0 1.554596344e-07 
0 0 0 0 0 0 0 0 0 
0 0 0 0 0 0 0 0 0 
0 0 0 0 0 0 0 0 0 
0 0 0 0 0 0 0 0 0 
0 0 0 0 0 0 0 0 0 
0 0 0 0 0 0 0 0 0 
0 0 0 0 0 0 0 0 0 
0 0 0 0 0 0 0 0 0 
0 0 0 0 0 0 0 0 0 
0 0 0 0 0 0 0 0 0 
0 0 0 0 0 0 0 0 0 
0 0 0 0 0 0 0 0 0 
0 0 0 0 0 0 0 0 0 
0 0 0 0 0 0 0 0 0 
0 0 0 0 0 0 0 0 0 
0 0 0 0 0 0 0 0 0 
0 0 0 0 0 0 0 0 0 
0 0 0 0 0 0 0 0 0 
0 0 0 0 0 0 0 0 0 
1.568676518e-07 0 0 0 0 0 0 0 0 
0 0 0 0 0 0 0 0 0 
0 0 0 0 0 0 0 0 -1.494219066e-07 
0 0 0 0 0 0 0 0 -2.147036332e-07 
0 0 0 0 0 0 0 0 0 
0 0 0 0 0 0 0 0 -1.225654581e-07 
0 0 0 0 0 0 0 0 0 
0 0 0 0 0 0 0 0 0 
0 0 0 0 0 0 0 0 -1.552063214e-07 
0 0 0 0 0 0 0 0 -1.820627699e-07 
0 0 0 0 0 0 0 0 0 
0 0 0 0 0 0 0 0 0 
0 0 0 0 0 0 0 0 0 
0 0 0 0 1.833220616e-07 0 0 0 1.403184832e-07 
0 0 0 0 0 0 0 0 0 
0 0 0 0 0 0 0 0 0 
0 0 0 0 0 0 0 0 0 
0 0 0 0 0 0 0 0 0 
0 0 0 0 0 0 0 0 0 
0 0 0 0 0 0 0 0 0 
0 0 0 0 0 0 0 0 0 
1.385503028e-07 0 0 0 0 0 0 0 0 
0 0 0 0 0 0 0 0 -1.399430995e-07 
0 0 0 0 0 0 0 0 -2.1003051e-07 
0 0 0 0 0 0 0 0 0 
0 0 0 0 0 0 0 0 0 
0 0 0 0 0 0 0 0 0 
0 0 0 0 0 0 0 0 -1.412268296e-07 
0 0 0 0 0 0 0 0 0 
0 0 0 0 0 0 0 0 -1.749868047e-07 
-2.607064414e-07 0 0 0 -1.66383987e-07 0 0 0 -2.338146852e-07 
0 0 0 0 0 0 0 0 0 
2.715235228e-07 0 0 0 2.156670522e-07 0 0 0 0 
0 0 0 0 0 0 0 0 -2.455704963e-07 
-1.365830578e-07 0 0 0 0 0 0 0 -1.714139719e-07 
1.295319242e-07 0 0 0 0 0 0 0 0 
0 0 0 0 0 0 0 0 0 
-1.365080605e-07 0 0 0 0 0 0 0 -2.396925908e-07 
0 0 0 0 0 0 0 0 -1.772918775e-07 
1.296069215e-07 0 0 0 0 0 0 0 0 
0 0 0 0 0 0 0 0 0 
0 0 0 0 1.540096372e-07 0 0 0 0 
0 0 0 0 0 0 0 0 0 
0 0 0 0 -1.206929388e-07 0 0 0 0 
0 0 0 0 0 0 0 0 0 
0 0 0 0 0 0 0 0 0 
0 0 0 0 0 0 0 0 0 
0 0 0 0 0 0 0 0 0 
0 0 0 0 0 0 0 0 0 
0 0 0 0 0 0 0 0 0 
0 0 0 0 0 0 0 0 0 
0 0 0 0 0 0 0 0 0 
0 0 0 0 0 0 0 0 0 
0 0 0 0 0 0 0 0 0 
0 0 0 0 0 0 0 0 0 
0 0 0 0 0 0 0 0 0 
0 0 0 0 0 0 0 0 0 
0 0 0 0 0 0 0 0 0 
0 0 0 0 0 0 0 0 0 
0 0 0 0 0 0 0 0 0 
0 0 0 0 0 0 0 0 0 
0 0 0 0 1.200551551e-07 0 0 0 0 
-1.903061605e-07 0 0 0 0 0 0 0 -2.740513046e-07 
0 0 0 0 0 0 0 0 -2.074906046e-07 
0 0 0 0 0 0 0 0 0 
0 0 0 0 0 0 0 0 -1.893009097e-07 
0 0 0 0 0 0 0 0 -1.674929394e-07 
0 0 0 0 0 0 0 0 -1.342125894e-07 
0 0 0 0 0 0 0 0 -1.560205597e-07 
0 0 0 0 0 0 0 0 -2.407709546e-07 
1.455095578e-07 0 0 0 0 0 0 0 0 
0 0 0 0 0 0 0 0 0 
0 0 0 0 0 0 0 0 0 
0 0 0 0 0 0 0 0 -2.864468435e-07 
0 0 0 0 0 0 0 0 0 
0 0 0 0 0 0 0 0 0 
0 0 0 0 0 0 0 0 0 
0 0 0 0 0 0 0 0 -1.562582859e-07 
0 0 0 0 0 0 0 0 -1.933493634e-07 
0 0 0 0 0 0 0 0 -2.014200011e-07 
0 0 0 0 2.260699353e-07 0 0 0 -1.707914023e-07 
2.367377326e-07 1.227618764e-07 0 1.227618764e-07 2.483847268e-07 0 0 0 0 
0 0 0 0 0 0 0 0 -1.477429984e-07 
0 -1.359547605e-07 0 -1.359547605e-07 -3.718220235e-07 0 0 0 -2.259924746e-07 
1.227628286e-07 0 0 0 2.372273311e-07 0 0 0 0 
0 0 0 0 0 0 0 0 0 
0 0 0 0 0 0 0 0 -1.592672003e-07 
0 0 0 0 0 0 0 0 -1.983919385e-07 
0 0 0 0 0 0 0 0 0 
0 0 0 0 -2.328554691e-07 0 0 0 -1.868677365e-07 
0 0 0 0 2.273137508e-07 0 0 0 0 
0 0 0 0 0 0 0 0 -2.169067827e-07 
0 0 0 0 0 0 0 0 -2.362421652e-07 
0 0 0 0 0 0 0 0 -2.532395703e-07 
0 0 0 0 0 0 0 0 0 
0 0 0 0 0 0 0 0 -2.26574474e-07 
0 0 0 0 0 0 0 0 -1.238375419e-07 
0 0 0 0 0 0 0 0 -1.323362445e-07 
0 0 0 0 0 0 0 0 -2.350731765e-07 
0 0 0 0 0 0 0 0 -2.447408678e-07 
0 0 0 0 1.845091959e-07 0 0 0 1.991841677e-07 
0 0 0 0 0 0 0 0 2.762766472e-07 
0 0 0 0 1.595678434e-07 0 0 0 2.591161008e-07 
-1.636901721e-07 0 0 0 -2.908566519e-07 0 0 0 0 
0 0 0 0 1.309946169e-07 0 0 0 2.377304075e-07 
0 0 0 0 0 0 0 0 2.67696374e-07 
0 0 0 0 1.720385196e-07 0 0 0 2.291501343e-07 
0 0 0 0 0 0 0 0 1.312558179e-07 
0 0 0 0 0 0 0 0 1.698020576e-07 
0 0 0 0 0 0 0 0 1.612217844e-07 
0 0 0 0 0 0 0 0 0 
0 0 0 0 0 0 0 0 0 
0 0 0 0 0 0 0 0 0 
0 0 0 0 0 0 0 0 -2.128328116e-07 
0 0 0 0 0 0 0 0 0 
0 0 0 0 0 0 0 0 0 
0 0 0 0 0 0 0 0 0 
0 0 0 0 0 0 0 0 0 
0 0 0 0 0 0 0 0 0 
0 0 0 0 0 0 0 0 0 
0 0 0 0 2.376948972e-07 0 0 0 0 
0 0 0 0 0 0 0 0 -1.555899609e-07 
0 0 0 0 0 0 0 0 -1.82033113e-07 
0 0 0 0 -1.693036188e-07 0 0 0 -2.492453113e-07 
0 0 0 0 0 0 0 0 0 
0 0 0 0 0 0 0 0 -1.688115369e-07 
0 0 0 0 0 0 0 0 0 
0 0 0 0 0 0 0 0 0 
0 0 0 0 0 0 0 0 -2.024176361e-07 
0 0 0 0 0 0 0 0 -2.156392121e-07 
0 0 0 0 0 0 0 0 0 
1.251031883e-07 0 0 0 1.893751606e-07 0 0 0 0 
0 0 0 0 0 0 0 0 0 
0 0 0 0 0 0 0 0 0 
0 0 0 0 0 0 0 0 0 
0 0 0 0 0 0 0 0 0 
0 0 0 0 0 0 0 0 0 
0 0 0 0 0 0 0 0 0 
0 0 0 0 0 0 0 0 0 
0 0 0 0 0 0 0 0 0 
2.095737632e-07 0 0 0 2.4795679e-07 0 0 0 0 
0 0 0 0 0 0 0 0 0 
0 0 0 0 0 0 0 0 0 
0 0 0 0 0 0 0 0 -1.279994989e-07 
0 0 0 0 0 0 0 0 0 
0 0 0 0 0 0 0 0 0 
1.423714564e-07 0 0 0 1.283172968e-07 0 0 0 0 
0 0 0 0 0 0 0 0 0 
0 0 0 0 0 0 0 0 0 
0 0 0 0 0 0 0 0 0 
1.885912167e-07 0 0 0 3.021837713e-07 0 0 0 0 
0 0 0 0 0 0 0 0 0 
0 0 0 0 0 0 0 0 -1.429512355e-07 
0 0 0 0 0 0 0 0 0 
0 0 0 0 1.270975959e-07 0 0 0 0 
0 0 0 0 0 0 0 0 -1.29475347e-07 
0 0 0 0 1.223968637e-07 0 0 0 0 
0 0 0 0 1.208294456e-07 0 0 0 0 
0 0 0 0 0 0 0 0 0 
0 0 0 0 0 0 0 0 -1.253573401e-07 
0 0 0 0 0 0 0 0 0 
0 0 0 0 0 0 0 0 0 
0 0 0 0 0 0 0 0 0 
0 0 0 0 0 0 0 0 0 
0 0 0 0 0 0 0 0 0 
0 0 0 0 0 0 0 0 0 
0 0 0 0 0 0 0 0 0 
0 0 0 0 0 0 0 0 0 
0 0 0 0 0 0 0 0 0 
0 0 0 0 0 0 0 0 0 
0 0 0 0 0 0 0 0 0 
0 0 0 0 0 0 0 0 0 
0 0 0 0 0 0 0 0 -1.403076564e-07 
0 0 0 0 0 0 0 0 0 
0 0 0 0 0 0 0 0 0 
0 0 0 0 0 0 0 0 0 
0 0 0 0 0 0 0 0 0 
0 0 0 0 0 0 0 0 0 
0 0 0 0 0 0 0 0 0 
0 0 0 0 0 0 0 0 0 
1.449389726e-07 0 0 0 1.288177364e-07 0 0 0 0 
0 0 0 0 0 0 0 0 0 
0 0 0 0 0 0 0 0 0 
0 0 0 0 0 0 0 0 0 
0 0 0 0 0 0 0 0 0 
0 0 0 0 0 0 0 0 0 
0 0 0 0 0 0 0 0 0 
0 0 0 0 0 0 0 0 0 
0 0 0 0 0 0 0 0 0 
0 0 0 0 0 0 0 0 0 
0 0 0 0 1.543137809e-07 0 0 0 0 
0 0 0 0 -1.768280774e-07 0 0 0 -1.328785759e-07 
0 0 0 0 0 0 0 0 -1.256684779e-07 
0 0 0 0 0 0 0 0 0 
0 0 0 0 0 0 0 0 0 
0 0 0 0 0 0 0 0 -1.292735269e-07 
0 0 0 0 0 0 0 0 0 
0 0 0 0 0 0 0 0 0 
0 0 0 0 0 0 0 0 0 
0 0 0 0 0 0 0 0 0 
0 0 0 0 0 0 0 0 0 
0 0 0 0 0 0 0 0 0 
0 0 0 0 0 0 0 0 0 
0 0 0 0 0 0 0 0 0 
0 0 0 0 0 0 0 0 0 
0 0 0 0 0 0 0 0 0 
0 0 0 0 0 0 0 0 0 
0 0 0 0 0 0 0 0 0 
0 0 0 0 0 0 0 0 0 
0 0 0 0 0 0 0 0 0 
0 0 0 0 0 0 0 0 0 
0 0 0 0 0 0 0 0 0 
0 0 0 0 0 0 0 0 0 
0 0 0 0 0 0 0 0 0 
0 0 0 0 0 0 0 0 0 
0 0 0 0 0 0 0 0 0 
0 0 0 0 0 0 0 0 0 
0 0 0 0 0 0 0 0 0 
0 0 0 0 0 0 0 0 0 
0 0 0 0 0 0 0 0 0 
0 0 0 0 1.525927829e-07 0 0 0 0 
0 0 0 0 0 0 0 0 0 
0 0 0 0 0 0 0 0 -1.270818496e-07 
0 0 0 0 0 0 0 0 0 
0 0 0 0 0 0 0 0 0 
0 0 0 0 0 0 0 0 0 
0 0 0 0 0 0 0 0 0 
0 0 0 0 0 0 0 0 0 
0 0 0 0 0 0 0 0 0 
0 0 0 0 0 0 0 0 0 
0 0 0 0 0 0 0 0 -1.441955741e-07 
0 0 0 0 0 0 0 0 0 
0 0 0 0 0 0 0 0 0 
0 0 0 0 0 0 0 0 0 
0 0 0 0 0 0 0 0 -1.197148975e-07 
0 0 0 0 0 0 0 0 0 
0 0 0 0 0 0 0 0 0 
0 0 0 0 0 0 0 0 0 
0 0 0 0 0 0 0 0 0 
0 0 0 0 0 0 0 0 0 
0 0 0 0 0 0 0 0 0 
0 0 0 0 0 0 0 0 0 
0 0 0 0 0 0 0 0 0 
0 0 0 0 0 0 0 0 0 
0 0 0 0 0 0 0 0 0 
0 0 0 0 0 0 0 0 0 
0 0 0 0 0 0 0 0 0 
0 0 0 0 0 0 0 0 0 
0 0 0 0 0 0 0 0 0 
0 0 0 0 0 0 0 0 0 
1.551606657e-07 0 0 0 1.47790466e-07 0 0 0 0 
0 0 0 0 0 0 0 0 0 
0 0 0 0 0 0 0 0 0 
0 0 0 0 0 0 0 0 0 
0 0 0 0 0 0 0 0 0 
0 0 0 0 0 0 0 0 0 
0 0 0 0 0 0 0 0 0 
0 0 0 0 0 0 0 0 0 
0 0 0 0 0 0 0 0 0 
0 0 0 0 0 0 0 0 0 
0 0 0 0 0 0 0 0 0 
0 0 0 0 0 0 0 0 0 
0 0 0 0 0 0 0 0 0 
0 0 0 0 0 0 0 0 0 
0 0 0 0 0 0 0 0 0 
0 0 0 0 0 0 0 0 0 
0 0 0 0 0 0 0 0 0 
0 0 0 0 0 0 0 0 0 
0 0 0 0 0 0 0 0 0 
0 0 0 0 0 0 0 0 0 
0 0 0 0 0 0 0 0 0 
0 0 0 0 0 0 0 0 0 
0 0 0 0 0 0 0 0 0 
0 0 0 0 0 0 0 0 0 
0 0 0 0 0 0 0 0 0 
0 0 0 0 0 0 0 0 0 
0 0 0 0 0 0 0 0 0 
0 0 0 0 0 0 0 0 0 
0 0 0 0 0 0 0 0 0 
0 0 0 0 0 0 0 0 0 
0 0 0 0 1.214806118e-07 0 0 0 0 
0 0 0 0 0 0 0 0 0 
0 0 0 0 0 0 0 0 0 
0 0 0 0 0 0 0 0 0 
0 0 0 0 0 0 0 0 0 
0 0 0 0 0 0 0 0 0 
0 0 0 0 0 0 0 0 0 
0 0 0 0 0 0 0 0 0 
0 0 0 0 0 0 0 0 0 
0 0 0 0 0 0 0 0 0 
0 0 0 0 0 0 0 0 0 
0 0 0 0 0 0 0 0 0 
0 0 0 0 0 0 0 0 0 
0 0 0 0 0 0 0 0 1.265463534e-07 
0 0 0 0 0 0 0 0 0 
0 0 0 0 0 0 0 0 0 
0 0 0 0 0 0 0 0 0 
0 0 0 0 0 0 0 0 0 
0 0 0 0 0 0 0 0 0 
0 0 0 0 0 0 0 0 0 
0 0 0 0 0 0 0 0 0 
0 0 0 0 0 0 0 0 0 
0 0 0 0 0 0 0 0 0 
0 0 0 0 0 0 0 0 0 
0 0 0 0 0 0 0 0 0 
0 0 0 0 0 0 0 0 0 
0 0 0 0 0 0 0 0 0 
0 0 0 0 0 0 0 0 0 
0 0 0 0 0 0 0 0 0 
0 0 0 0 0 0 0 0 0 
0 0 0 0 0 0 0 0 0 
0 0 0 0 0 0 0 0 0 
0 0 0 0 0 0 0 0 0 
0 0 0 0 0 0 0 0 0 
0 0 0 0 0 0 0 0 0 
0 0 0 0 0 0 0 0 0 
0 0 0 0 0 0 0 0 0 
0 0 0 0 0 0 0 0 0 
0 0 0 0 0 0 0 0 0 
0 0 0 0 0 0 0 0 0 
0 0 0 0 0 0 0 0 0 
1.34863956e-07 0 0 0 1.367728801e-07 0 0 0 0 
0 0 0 0 0 0 0 0 0 
0 0 0 0 0 0 0 0 0 
0 0 0 0 0 0 0 0 0 
0 0 0 0 0 0 0 0 0 
0 0 0 0 0 0 0 0 0 
0 0 0 0 0 0 0 0 0 
0 0 0 0 0 0 0 0 0 
0 0 0 0 0 0 0 0 0 
0 0 0 0 0 0 0 0 0 
0 0 0 0 0 0 0 0 0 
0 0 0 0 0 0 0 0 0 
0 0 0 0 0 0 0 0 0 
0 0 0 0 0 0 0 0 0 
0 0 0 0 0 0 0 0 0 
0 0 0 0 0 0 0 0 0 
0 0 0 0 0 0 0 0 0 
0 0 0 0 0 0 0 0 0 
0 0 0 0 0 0 0 0 0 
-1.300454266e-07 0 0 0 -2.020990503e-07 0 0 0 0 
1.258154485e-07 0 0 0 2.113374309e-07 0 0 0 1.392940501e-07 
0 0 0 0 0 0 0 0 0 
0 0 0 0 0 0 0 0 1.241530379e-07 
0 0 0 0 0 0 0 0 0 
0 0 0 0 0 0 0 0 0 
0 0 0 0 0 0 0 0 0 
0 0 0 0 0 0 0 0 0 
0 0 0 0 1.519358877e-07 0 0 0 1.31723544e-07 
0 0 0 0 0 0 0 0 0 
0 0 0 0 0 0 0 0 0 
0 0 0 0 0 0 0 0 0 
0 0 0 0 0 0 0 0 0 
0 0 0 0 0 0 0 0 0 
0 0 0 0 0 0 0 0 0 
0 0 0 0 0 0 0 0 0 
0 0 0 0 0 0 0 0 0 
0 0 0 0 0 0 0 0 0 
0 0 0 0 0 0 0 0 0 
0 0 0 0 0 0 0 0 0 
0 0 0 0 0 0 0 0 0 
0 0 0 0 0 0 0 0 0 
0 0 0 0 0 0 0 0 0 
0 0 0 0 0 0 0 0 0 
0 0 0 0 0 0 0 0 0 
0 0 0 0 0 0 0 0 0 
0 0 0 0 0 0 0 0 0 
0 0 0 0 0 0 0 0 0 
0 0 0 0 0 0 0 0 0 
0 0 0 0 0 0 0 0 0 
0 0 0 0 0 0 0 0 0 
0 0 0 0 0 0 0 0 0 
0 0 0 0 0 0 0 0 0 
0 0 0 0 0 0 0 0 0 
0 0 0 0 0 0 0 0 0 
0 0 0 0 0 0 0 0 0 
0 0 0 0 0 0 0 0 0 
0 0 0 0 0 0 0 0 0 
0 0 0 0 0 0 0 0 0 
0 0 0 0 0 0 0 0 0 
0 0 0 0 0 0 0 0 0 
0 0 0 0 0 0 0 0 0 
0 0 0 0 0 0 0 0 0 
0 0 0 0 0 0 0 0 0 
0 0 0 0 0 0 0 0 0 
0 0 0 0 0 0 0 0 0 
0 0 0 0 0 0 0 0 0 
0 0 0 0 0 0 0 0 0 
0 0 0 0 0 0 0 0 0 
0 0 0 0 0 0 0 0 0 
0 0 0 0 0 0 0 0 0 
0 0 0 0 0 0 0 0 0 
0 0 0 0 0 0 0 0 0 
0 0 0 0 0 0 0 0 0 
0 0 0 0 0 0 0 0 0 
0 0 0 0 0 0 0 0 0 
0 0 0 0 0 0 0 0 0 
0 0 0 0 0 0 0 0 0 
0 0 0 0 0 0 0 0 0 
0 0 0 0 0 0 0 0 0 
0 0 0 0 0 0 0 0 0 
0 0 0 0 0 0 0 0 0 
0 0 0 0 0 0 0 0 0 
0 0 0 0 0 0 0 0 0 
0 0 0 0 0 0 0 0 0 
0 0 0 0 0 0 0 0 0 
0 0 0 0 0 0 0 0 0 
0 0 0 0 0 0 0 0 0 
0 0 0 0 0 0 0 0 0 
0 0 0 0 0 0 0 0 0 
0 0 0 0 0 0 0 0 0 
0 0 0 0 0 0 0 0 0 
0 0 0 0 0 0 0 0 0 
0 0 0 0 0 0 0 0 0 
0 0 0 0 0 0 0 0 0 
0 0 0 0 0 0 0 0 0 
0 0 0 0 0 0 0 0 0 
0 0 0 0 0 0 0 0 0 
0 0 0 0 0 0 0 0 0 
0 0 0 0 0 0 0 0 0 
0 0 0 0 2.120181589e-07 0 0 0 0 
0 0 0 0 0 0 0 0 0 
0 0 0 0 0 0 0 0 0 
0 0 0 0 0 0 0 0 0 
0 0 0 0 0 0 0 0 0 
0 0 0 0 0 0 0 0 0 
0 0 0 0 0 0 0 0 0 
0 0 0 0 0 0 0 0 0 
0 0 0 0 0 0 0 0 0 
0 0 0 0 0 0 0 0 0 
0 0 0 0 0 0 0 0 0 
0 0 0 0 0 0 0 0 0 
0 0 0 0 0 0 0 0 0 
0 0 0 0 0 0 0 0 0 
0 0 0 0 0 0 0 0 0 
0 0 0 0 0 0 0 0 0 
0 0 0 0 0 0 0 0 0 
0 0 0 0 0 0 0 0 0 
0 0 0 0 0 0 0 0 0 
0 0 0 0 0 0 0 0 0 
0 0 0 0 0 0 0 0 0 
0 0 0 0 0 0 0 0 0 
0 0 0 0 0 0 0 0 0 
0 0 0 0 0 0 0 0 0 
0 0 0 0 0 0 0 0 0 
0 0 0 0 0 0 0 0 0 
0 0 0 0 0 0 0 0 0 
0 0 0 0 0 0 0 0 0 
0 0 0 0 0 0 0 0 0 
0 0 0 0 0 0 0 0 0 
0 0 0 0 0 0 0 0 0 
0 0 0 0 0 0 0 0 0 
0 0 0 0 0 0 0 0 0 
0 0 0 0 0 0 0 0 0 
0 0 0 0 0 0 0 0 0 
0 0 0 0 0 0 0 0 0 
0 0 0 0 0 0 0 0 0 
0 0 0 0 0 0 0 0 0 
0 0 0 0 0 0 0 0 0 
0 0 0 0 0 0 0 0 0 
0 0 0 0 0 0 0 0 0 
0 0 0 0 0 0 0 0 0 
0 0 0 0 0 0 0 0 0 
0 0 0 0 0 0 0 0 0 
0 0 0 0 0 0 0 0 0 
0 0 0 0 0 0 0 0 0 
0 0 0 0 0 0 0 0 0 
0 0 0 0 0 0 0 0 0 
0 0 0 0 0 0 0 0 0 
0 0 0 0 0 0 0 0 0 
0 0 0 0 2.038685583e-07 0 0 0 1.86428908e-07 
0 0 0 0 -1.649067434e-07 0 0 0 0 
0 0 0 0 0 0 0 0 2.178853354e-07 
0 0 0 0 0 0 0 0 1.524013567e-07 
0 0 0 0 0 0 0 0 1.342512663e-07 
0 0 0 0 0 0 0 0 1.4997948e-07 
0 0 0 0 1.32350786e-07 0 0 0 2.021571217e-07 
0 0 0 0 0 0 0 0 1.694151324e-07 
0 0 0 0 0 0 0 0 0 
0 0 0 0 0 0 0 0 1.851433461e-07 
1.376552267e-07 0 0 0 2.110242517e-07 0 0 0 0 
0 0 0 0 0 0 0 0 0 
0 0 0 0 0 0 0 0 0 
0 0 0 0 0 0 0 0 0 
0 0 0 0 0 0 0 0 0 
0 0 0 0 0 0 0 0 0 
0 0 0 0 0 0 0 0 0 
0 0 0 0 0 0 0 0 0 
0 0 0 0 0 0 0 0 0 
0 0 0 0 0 0 0 0 0 
0 0 0 0 1.510022542e-07 0 0 0 0 
0 0 0 0 0 0 0 0 0 
0 0 0 0 0 0 0 0 0 
0 0 0 0 0 0 0 0 0 
0 0 0 0 0 0 0 0 0 
0 0 0 0 0 0 0 0 0 
0 0 0 0 0 0 0 0 0 
0 0 0 0 0 0 0 0 0 
0 0 0 0 0 0 0 0 0 
0 0 0 0 0 0 0 0 0 
0 0 0 0 0 0 0 0 0 
0 0 0 0 0 0 0 0 -1.748134646e-07 
0 0 0 0 0 0 0 0 0 
0 0 0 0 0 0 0 0 -1.342254212e-07 
0 0 0 0 0 0 0 0 -1.42043319e-07 
0 0 0 0 0 0 0 0 0 
0 0 0 0 0 0 0 0 0 
0 0 0 0 0 0 0 0 -1.217492973e-07 
0 0 0 0 0 0 0 0 -1.545194429e-07 
0 0 0 0 0 0 0 0 0 
0 0 0 0 0 0 0 0 0 
0 0 0 0 0 0 0 0 0 
0 0 0 0 0 0 0 0 0 
0 0 0 0 1.62407149e-07 0 0 0 0 
0 0 0 0 0 0 0 0 0 
0 0 0 0 0 0 0 0 0 
0 0 0 0 0 0 0 0 0 
0 0 0 0 0 0 0 0 0 
0 0 0 0 0 0 0 0 0 
0 0 0 0 0 0 0 0 0 
1.2052908e-07 0 0 0 1.668902533e-07 0 0 0 1.197221882e-07 
0 0 0 0 0 0 0 0 0 
0 0 0 0 0 0 0 0 0 
0 0 0 0 0 0 0 0 0 
0 0 0 0 0 0 0 0 0 
0 0 0 0 0 0 0 0 0 
0 0 0 0 0 0 0 0 0 
0 0 0 0 0 0 0 0 0 
0 0 0 0 0 0 0 0 0 
0 0 0 0 0 0 0 0 0 
0 0 0 0 -2.102996612e-07 0 0 0 0 
0 0 0 0 -1.458217401e-07 0 0 0 0 
0 0 0 0 0 0 0 0 0 
1.447245387e-07 0 0 0 2.15895002e-07 0 0 0 2.101024735e-07 
0 0 0 0 -1.780607007e-07 0 0 0 0 
0 0 0 0 0 0 0 0 0 
0 0 0 0 0 0 0 0 0 
0 0 0 0 0 0 0 0 0 
0 0 0 0 0 0 0 0 1.250611303e-07 
0 0 0 0 0 0 0 0 1.291899018e-07 
0 0 0 0 -1.310776113e-07 0 0 0 0 
0 0 0 0 0 0 0 0 0 
1.58656948e-07 0 0 0 2.62866175e-07 0 0 0 0 
0 0 0 0 0 0 0 0 1.304486006e-07 
0 0 0 0 0 0 0 0 0 
0 0 0 0 1.28976699e-07 0 0 0 0 
0 0 0 0 0 0 0 0 0 
0 0 0 0 0 0 0 0 0 
0 0 0 0 0 0 0 0 0 
0 0 0 0 1.485702437e-07 0 0 0 0 
1.442434264e-07 0 0 0 2.506147004e-07 0 0 0 0 
0 0 0 0 0 0 0 0 0 
0 0 0 0 0 0 0 0 0 
0 0 0 0 0 0 0 0 0 
0 0 0 0 0 0 0 0 0 
0 0 0 0 0 0 0 0 0 
0 0 0 0 1.22041675e-07 0 0 0 0 
0 0 0 0 0 0 0 0 0 
0 0 0 0 0 0 0 0 0 
0 0 0 0 0 0 0 0 0 
1.355293892e-07 0 0 0 2.012570302e-07 0 0 0 0 
0 0 0 0 0 0 0 0 0 
0 0 0 0 0 0 0 0 0 
0 0 0 0 0 0 0 0 0 
0 0 0 0 0 0 0 0 0 
0 0 0 0 0 0 0 0 0 
0 0 0 0 0 0 0 0 0 
0 0 0 0 0 0 0 0 0 
0 0 0 0 0 0 0 0 0 
0 0 0 0 0 0 0 0 0 
0 0 0 0 0 0 0 0 1.247937445e-07 
0 0 0 0 0 0 0 0 0 
0 0 0 0 0 0 0 0 0 
0 0 0 0 0 0 0 0 0 
0 0 0 0 0 0 0 0 0 
0 0 0 0 0 0 0 0 0 
0 0 0 0 0 0 0 0 0 
0 0 0 0 0 0 0 0 0 
0 0 0 0 0 0 0 0 0 
0 0 0 0 0 0 0 0 0 
0 0 0 0 0 0 0 0 0 
0 0 0 0 0 0 0 0 0 
0 0 0 0 0 0 0 0 0 
0 0 0 0 0 0 0 0 0 
0 0 0 0 0 0 0 0 0 
0 0 0 0 0 0 0 0 0 
0 0 0 0 0 0 0 0 0 
0 0 0 0 0 0 0 0 0 
0 0 0 0 0 0 0 0 0 
0 0 0 0 0 0 0 0 0 
0 0 0 0 0 0 0 0 0 
0 0 0 0 0 0 0 0 0 
0 0 0 0 0 0 0 0 0 
0 0 0 0 0 0 0 0 -1.801582448e-07 
0 0 0 0 0 0 0 0 0 
0 0 0 0 0 0 0 0 0 
0 0 0 0 0 0 0 0 0 
0 0 0 0 0 0 0 0 0 
0 0 0 0 0 0 0 0 0 
0 0 0 0 0 0 0 0 0 
0 0 0 0 0 0 0 0 1.53388308e-07 
0 0 0 0 0 0 0 0 1.250413149e-07 
0 0 0 0 0 0 0 0 1.46899643e-07 
0 0 0 0 0 0 0 0 2.339506371e-07 
0 0 0 0 0 0 0 0 1.392148115e-07 
0 0 0 0 0 0 0 0 1.359704789e-07 
0 0 0 0 0 0 0 0 1.501439755e-07 
0 0 0 0 0 0 0 0 1.936694725e-07 
0 0 0 0 0 0 0 0 1.79495976e-07 
0 0 0 0 0 0 0 0 1.9042514e-07 
0 0 0 0 0 0 0 0 1.461557157e-07 
1.743324975e-07 0 0 0 2.421177348e-07 0 0 0 1.724089346e-07 
0 0 0 0 0 0 0 0 0 
0 0 0 0 0 0 0 0 1.462259706e-07 
0 0 0 0 1.334288973e-07 0 0 0 1.592823251e-07 
0 0 0 0 0 0 0 0 1.300054208e-07 
0 0 0 0 0 0 0 0 0 
0 0 0 0 0 0 0 0 1.461908431e-07 
0 0 0 0 0 0 0 0 1.593174526e-07 
0 0 0 0 0 0 0 0 0 
0 0 0 0 0 0 0 0 0 
2.104992841e-07 0 0 0 2.847377414e-07 0 0 0 2.135393001e-07 
0 0 0 0 0 0 0 0 1.923802181e-07 
0 0 0 0 0 0 0 0 1.976019229e-07 
0 0 0 0 0 0 0 0 1.657634164e-07 
0 0 0 0 1.347243737e-07 0 0 0 2.029597591e-07 
0 0 0 0 0 0 0 0 1.551838754e-07 
0 0 0 0 0 0 0 0 1.577947278e-07 
1.240778878e-07 0 0 0 1.505005969e-07 0 0 0 2.055706115e-07 
0 0 0 0 0 0 0 0 1.949910705e-07 
0 0 0 0 0 0 0 0 0 
0 0 0 0 0 0 0 0 0 
0 0 0 0 0 0 0 0 0 
0 0 0 0 0 0 0 0 0 
0 0 0 0 0 0 0 0 0 
0 0 0 0 0 0 0 0 0 
0 0 0 0 0 0 0 0 0 
0 0 0 0 0 0 0 0 0 
0 0 0 0 0 0 0 0 0 
0 0 0 0 0 0 0 0 0 
0 0 0 0 0 0 0 0 0 
0 0 0 0 0 0 0 0 0 
0 0 0 0 0 0 0 0 0 
0 0 0 0 0 0 0 0 0 
0 0 0 0 0 0 0 0 0 
0 0 0 0 0 0 0 0 0 
0 0 0 0 0 0 0 0 0 
0 0 0 0 0 0 0 0 0 
0 0 0 0 0 0 0 0 0 
0 0 0 0 0 0 0 0 0 
0 0 0 0 0 0 0 0 0 
0 0 0 0 0 0 0 0 0 
0 0 0 0 0 0 0 0 0 
0 0 0 0 0 0 0 0 0 
0 0 0 0 0 0 0 0 0 
0 0 0 0 0 0 0 0 0 
0 0 0 0 0 0 0 0 0 
0 0 0 0 0 0 0 0 0 
0 0 0 0 0 0 0 0 0 
0 0 0 0 0 0 0 0 0 
0 0 0 0 0 0 0 0 0 
0 0 0 0 0 0 0 0 0 
0 0 0 0 0 0 0 0 0 
0 0 0 0 0 0 0 0 0 
0 0 0 0 0 0 0 0 0 
0 0 0 0 0 0 0 0 0 
0 0 0 0 0 0 0 0 0 
0 0 0 0 0 0 0 0 0 
0 0 0 0 0 0 0 0 0 
0 0 0 0 0 0 0 0 0 
0 0 0 0 0 0 0 0 0 
0 0 0 0 0 0 0 0 0 
0 0 0 0 0 0 0 0 0 
0 0 0 0 0 0 0 0 0 
0 0 0 0 0 0 0 0 0 
0 0 0 0 0 0 0 0 0 
0 0 0 0 0 0 0 0 0 
0 0 0 0 0 0 0 0 0 
0 0 0 0 0 0 0 0 0 
0 0 0 0 0 0 0 0 0 
0 0 0 0 0 0 0 0 0 
0 0 0 0 0 0 0 0 0 
0 0 0 0 0 0 0 0 0 
0 0 0 0 0 0 0 0 0 
0 0 0 0 0 0 0 0 0 
0 0 0 0 0 0 0 0 0 
0 0 0 0 0 0 0 0 0 
0 0 0 0 0 0 0 0 0 
0 0 0 0 0 0 0 0 0 
0 0 0 0 0 0 0 0 0 
0 0 0 0 0 0 0 0 0 
0 0 0 0 0 0 0 0 1.376205677e-07 
0 0 0 0 0 0 0 0 1.852008082e-07 
0 0 0 0 0 0 0 0 1.435087719e-07 
0 0 0 0 0 0 0 0 0 
0 0 0 0 0 0 0 0 1.61410688e-07 
0 0 0 0 0 0 0 0 1.284791866e-07 
0 0 0 0 0 0 0 0 0 
0 0 0 0 0 0 0 0 1.405646698e-07 
0 0 0 0 0 0 0 0 1.643547901e-07 
-1.694147132e-07 0 0 0 0 0 0 0 0 
1.469168746e-07 0 0 0 0 0 0 0 1.492019524e-07 
0 0 0 0 0 0 0 0 -2.252340392e-07 
0 0 0 0 0 0 0 0 0 
0 0 0 0 0 0 0 0 0 
0 0 0 0 0 0 0 0 0 
-1.216620041e-07 0 0 0 0 0 0 0 -1.472349118e-07 
0 0 0 0 0 0 0 0 0 
0 0 0 0 0 0 0 0 1.2333178e-07 
0 0 0 0 0 0 0 0 0 
0 0 0 0 0 0 0 0 2.064200419e-07 
0 0 0 0 0 0 0 0 1.815965018e-07 
0 0 0 0 0 0 0 0 1.407982587e-07 
0 0 0 0 0 0 0 0 0 
0 0 0 0 0 0 0 0 1.940082719e-07 
0 0 0 0 0 0 0 0 1.611973802e-07 
0 0 0 0 0 0 0 0 1.736091503e-07 
0 0 0 0 0 0 0 0 1.519331041e-07 
0 0 0 0 0 0 0 0 1.395213341e-07 
0 0 0 0 0 0 0 0 0 
0 0 0 0 0 0 0 0 0 
0 0 0 0 0 0 0 0 0 
0 0 0 0 0 0 0 0 -1.197884262e-07 
0 0 0 0 0 0 0 0 0 
0 0 0 0 0 0 0 0 0 
0 0 0 0 0 0 0 0 0 
0 0 0 0 0 0 0 0 0 
0 0 0 0 0 0 0 0 0 
0 0 0 0 0 0 0 0 0 
0 0 0 0 0 0 0 0 0 
0 0 0 0 0 0 0 0 0 
0 0 0 0 0 0 0 0 0 
0 0 0 0 0 0 0 0 0 
0 0 0 0 0 0 0 0 0 
0 0 0 0 0 0 0 0 0 
0 0 0 0 0 0 0 0 0 
0 0 0 0 0 0 0 0 0 
0 0 0 0 0 0 0 0 0 
0 0 0 0 0 0 0 0 0 
0 0 0 0 0 0 0 0 0 
0 0 0 0 0 0 0 0 0 
0 0 0 0 0 0 0 0 0 
0 0 0 0 0 0 0 0 0 
0 0 0 0 0 0 0 0 0 
0 0 0 0 0 0 0 0 0 
0 0 0 0 0 0 0 0 0 
0 0 0 0 0 0 0 0 0 
0 0 0 0 0 0 0 0 0 
0 0 0 0 0 0 0 0 0 
0 0 0 0 0 0 0 0 0 
0 0 0 0 0 0 0 0 0 
0 0 0 0 0 0 0 0 0 
0 0 0 0 0 0 0 0 0 
0 0 0 0 0 0 0 0 0 
0 0 0 0 0 0 0 0 0 
0 0 0 0 0 0 0 0 0 
0 0 0 0 0 0 0 0 0 
0 0 0 0 0 0 0 0 0 
0 0 0 0 0 0 0 0 0 
0 0 0 0 0 0 0 0 0 
0 0 0 0 0 0 0 0 0 
0 0 0 0 0 0 0 0 0 
0 0 0 0 0 0 0 0 0 
0 0 0 0 0 0 0 0 0 
0 0 0 0 0 0 0 0 0 
0 0 0 0 0 0 0 0 0 
0 0 0 0 0 0 0 0 0 
0 0 0 0 0 0 0 0 0 
0 0 0 0 0 0 0 0 0 
0 0 0 0 0 0 0 0 0 
0 0 0 0 0 0 0 0 0 
0 0 0 0 0 0 0 0 0 
0 0 0 0 0 0 0 0 0 
0 0 0 0 0 0 0 0 0 
0 0 0 0 0 0 0 0 0 
0 0 0 0 0 0 0 0 0 
0 0 0 0 0 0 0 0 0 
0 0 0 0 0 0 0 0 0 
0 0 0 0 0 0 0 0 0 
0 0 0 0 0 0 0 0 0 
0 0 0 0 0 0 0 0 0 
0 0 0 0 0 0 0 0 0 
0 0 0 0 0 0 0 0 0 
0 0 0 0 0 0 0 0 0 
0 0 0 0 0 0 0 0 0 
0 0 0 0 0 0 0 0 0 
0 0 0 0 0 0 0 0 0 
0 0 0 0 0 0 0 0 0 
0 0 0 0 0 0 0 0 0 
0 0 0 0 0 0 0 0 0 
-2.057590564e-07 0 0 0 -1.295663787e-07 0 0 0 0 
2.845049795e-07 0 0 0 1.606342389e-07 0 0 0 2.381723174e-07 
-1.871868197e-07 0 0 0 0 0 0 0 -3.607993463e-07 
0 0 0 0 0 0 0 0 1.200866963e-07 
0 0 0 0 0 0 0 0 0 
0 0 0 0 0 0 0 0 0 
-1.964729381e-07 0 0 0 0 0 0 0 -2.243606993e-07 
0 0 0 0 0 0 0 0 0 
1.438047817e-07 0 0 0 0 0 0 0 1.791295069e-07 
0 0 0 0 0 0 0 0 -1.20356325e-07 
0 0 0 0 0 0 0 0 0 
0 0 0 0 0 0 0 0 0 
0 0 0 0 0 0 0 0 1.413272455e-07 
0 0 0 0 0 0 0 0 0 
0 0 0 0 0 0 0 0 0 
0 0 0 0 0 0 0 0 0 
0 0 0 0 0 0 0 0 0 
0 0 0 0 0 0 0 0 0 
0 0 0 0 0 0 0 0 0 
0 0 0 0 0 0 0 0 1.248561437e-07 
0 0 0 0 0 0 0 0 0 
0 0 0 0 0 0 0 0 0 
0 0 0 0 0 0 0 0 0 
0 0 0 0 0 0 0 0 0 
0 0 0 0 0 0 0 0 0 
0 0 0 0 0 0 0 0 0 
0 0 0 0 0 0 0 0 0 
0 0 0 0 0 0 0 0 0 
0 0 0 0 0 0 0 0 0 
0 0 0 0 0 0 0 0 0 
0 0 0 0 0 0 0 0 1.305823996e-07 
0 0 0 0 0 0 0 0 0 
0 0 0 0 0 0 0 0 0 
0 0 0 0 0 0 0 0 0 
0 0 0 0 0 0 0 0 0 
0 0 0 0 0 0 0 0 0 
0 0 0 0 0 0 0 0 0 
0 0 0 0 0 0 0 0 0 
0 0 0 0 0 0 0 0 0 
0 0 0 0 0 0 0 0 0 
0 0 0 0 0 0 0 0 0 
0 0 0 0 0 0 0 0 -1.5747174e-07 
0 0 0 0 0 0 0 0 0 
0 0 0 0 0 0 0 0 0 
0 0 0 0 0 0 0 0 0 
0 0 0 0 0 0 0 0 0 
0 0 0 0 0 0 0 0 0 
0 0 0 0 0 0 0 0 0 
0 0 0 0 0 0 0 0 0 
0 0 0 0 0 0 0 0 0 
0 0 0 0 0 0 0 0 1.431778023e-07 
0 0 0 0 0 0 0 0 0 
0 0 0 0 0 0 0 0 0 
0 0 0 0 0 0 0 0 1.679783136e-07 
0 0 0 0 0 0 0 0 0 
0 0 0 0 0 0 0 0 0 
0 0 0 0 0 0 0 0 1.293942952e-07 
0 0 0 0 0 0 0 0 1.55578058e-07 
0 0 0 0 0 0 0 0 1.30840538e-07 
0 0 0 0 0 0 0 0 1.417945509e-07 
-1.882720125e-07 0 0 0 0 0 0 0 -2.691492574e-07 
0 0 0 0 0 0 0 0 0 
0 0 0 0 0 0 0 0 0 
0 0 0 0 0 0 0 0 0 
-1.268871005e-07 0 0 0 0 0 0 0 0 
0 0 0 0 0 0 0 0 0 
0 0 0 0 0 0 0 0 0 
0 0 0 0 0 0 0 0 0 
0 0 0 0 0 0 0 0 0 
0 0 0 0 0 0 0 0 0 
0 0 0 0 0 0 0 0 0 
0 0 0 0 0 0 0 0 1.830915816e-07 
0 0 0 0 0 0 0 0 1.202133121e-07 
0 0 0 0 0 0 0 0 0 
0 0 0 0 0 0 0 0 1.205433016e-07 
0 0 0 0 0 0 0 0 1.516524469e-07 
0 0 0 0 0 0 0 0 0 
0 0 0 0 0 0 0 0 0 
0 0 0 0 0 0 0 0 1.354220159e-07 
0 0 0 0 0 0 0 0 0 
0 0 0 0 0 0 0 0 0 
0 0 0 0 0 0 0 0 0 
0 0 0 0 0 0 0 0 0 
0 0 0 0 0 0 0 0 0 
0 0 0 0 0 0 0 0 0 
0 0 0 0 0 0 0 0 0 
0 0 0 0 0 0 0 0 0 
0 0 0 0 0 0 0 0 0 
0 0 0 0 0 0 0 0 0 
0 0 0 0 0 0 0 0 0 
0 0 0 0 0 0 0 0 -3.141410561e-07 
1.380658456e-07 0 0 0 0 0 0 0 -2.137316534e-07 
-1.388838146e-07 0 0 0 0 0 0 0 0 
0 0 0 0 0 0 0 0 -3.323502625e-07 
0 0 0 0 0 0 0 0 -2.639363548e-07 
0 0 0 0 0 0 0 0 -1.357218797e-07 
0 0 0 0 0 0 0 0 -1.85926581e-07 
0 0 0 0 0 0 0 0 -3.232456593e-07 
0 0 0 0 0 0 0 0 -2.73040958e-07 
0 0 0 0 0 0 0 0 -1.950311842e-07 
1.199884889e-07 0 0 0 0 0 0 0 -1.361390359e-07 
0 0 0 0 0 0 0 0 -2.613954771e-07 
-1.534223298e-07 0 0 0 0 0 0 0 0 
-1.386714903e-07 0 0 0 -1.211543537e-07 0 0 0 -2.965805878e-07 
0 0 0 0 0 0 0 0 -1.987672565e-07 
0 0 0 0 0 0 0 0 -1.279057929e-07 
0 0 0 0 0 0 0 0 0 
0 0 0 0 0 0 0 0 -2.163598118e-07 
0 0 0 0 0 0 0 0 -2.789880324e-07 
-1.4604691e-07 0 0 0 0 0 0 0 -1.454983483e-07 
0 0 0 0 0 0 0 0 0 
0 0 0 0 0 0 0 0 0 
0 0 0 0 0 0 0 0 0 
0 0 0 0 0 0 0 0 -1.332159615e-07 
0 0 0 0 0 0 0 0 0 
0 0 0 0 0 0 0 0 0 
0 0 0 0 0 0 0 0 0 
0 0 0 0 0 0 0 0 0 
0 0 0 0 0 0 0 0 0 
0 0 0 0 0 0 0 0 0 
1.813646273e-07 0 0 0 2.006862845e-07 0 0 0 3.184561814e-07 
2.11629267e-07 0 0 0 1.419599942e-07 0 0 0 1.906007215e-07 
-1.946956125e-07 0 0 0 -1.910625748e-07 0 0 0 0 
-1.945001834e-07 0 0 0 -1.334800788e-07 0 0 0 0 
1.964969471e-07 0 0 0 1.713231393e-07 0 0 0 2.545284514e-07 
0 0 0 0 0 0 0 0 1.217875968e-07 
0 0 0 0 0 0 0 0 1.857153267e-07 
0 0 0 0 0 0 0 0 1.651186156e-07 
0 0 0 0 0 0 0 0 0 
-1.94597898e-07 0 0 0 -1.622713268e-07 0 0 0 0 
-1.806815021e-07 0 0 0 -1.523719564e-07 0 0 0 -3.838998352e-07 
1.847526285e-07 0 0 0 0 0 0 0 -3.132071757e-07 
1.729074496e-07 0 0 0 0 0 0 0 -1.738225445e-07 
-2.77798307e-07 0 0 0 -1.637615582e-07 0 0 0 0 
0 0 0 0 0 0 0 0 -3.485535054e-07 
1.788300391e-07 0 0 0 0 0 0 0 -2.435148601e-07 
0 0 0 0 0 0 0 0 -2.788611899e-07 
-2.292399045e-07 0 0 0 -1.580667573e-07 0 0 0 -2.036560832e-07 
0 0 0 0 0 0 0 0 -1.683097534e-07 
0 0 0 0 0 0 0 0 0 
0 0 0 0 0 0 0 0 1.492272794e-07 
0 0 0 0 0 0 0 0 1.245873078e-07 
-3.457919105e-07 0 0 0 -1.28881871e-07 0 0 0 -3.917312369e-07 
0 0 0 0 0 0 0 0 0 
0 0 0 0 0 0 0 0 1.369072936e-07 
-1.221250875e-07 0 0 0 0 0 0 0 -1.335719646e-07 
-1.27502471e-07 0 0 0 0 0 0 0 -1.212519788e-07 
0 0 0 0 0 0 0 0 1.313812733e-07 
0 0 0 0 0 0 0 0 0 
-2.027088897e-07 0 0 0 0 0 0 0 -1.390979849e-07 
0 0 0 0 0 0 0 0 2.295261597e-07 
0 0 0 0 0 0 0 0 0 
0 0 0 0 0 0 0 0 1.635257392e-07 
0 0 0 0 0 0 0 0 0 
0 0 0 0 0 0 0 0 1.730260438e-07 
0 0 0 0 0 0 0 0 1.400258335e-07 
0 0 0 0 0 0 0 0 1.965259494e-07 
0 0 0 0 0 0 0 0 1.631381903e-07 
0 0 0 0 0 0 0 0 0 
0 0 0 0 0 0 0 0 1.301379801e-07 
0 0 0 0 0 0 0 0 -2.240391811e-07 
0 0 0 0 0 0 0 0 -1.919318295e-07 
0 0 0 0 0 0 0 0 -2.38602832e-07 
0 0 0 0 0 0 0 0 0 
0 0 0 0 0 0 0 0 -2.079855053e-07 
0 0 0 0 0 0 0 0 -2.152673307e-07 
0 0 0 0 0 0 0 0 -2.313210065e-07 
0 0 0 0 0 0 0 0 -1.636038049e-07 
0 0 0 0 0 0 0 0 -1.475501291e-07 
0 0 0 0 0 0 0 0 -1.708856304e-07 
0 0 0 0 0 0 0 0 0 
0 0 0 0 0 0 0 0 0 
0 0 0 0 0 0 0 0 0 
0 0 0 0 1.840141555e-07 0 0 0 2.769836073e-07 
0 0 0 0 0 0 0 0 0 
0 0 0 0 0 0 0 0 0 
0 0 0 0 0 0 0 0 0 
0 0 0 0 0 0 0 0 1.705343071e-07 
0 0 0 0 0 0 0 0 1.854981953e-07 
0 0 0 0 0 0 0 0 1.621704517e-07 
0 0 0 0 0 0 0 0 0 
0 0 0 0 0 0 0 0 0 
0 0 0 0 0 0 0 0 0 
0 0 0 0 0 0 0 0 -2.031649222e-07 
0 0 0 0 0 0 0 0 0 
0 0 0 0 0 0 0 0 0 
0 0 0 0 0 0 0 0 0 
0 0 0 0 0 0 0 0 -1.327216379e-07 
0 0 0 0 0 0 0 0 -1.552855345e-07 
0 0 0 0 0 0 0 0 -1.421396558e-07 
0 0 0 0 0 0 0 0 0 
0 0 0 0 0 0 0 0 0 
0 0 0 0 0 0 0 0 0 
0 0 0 0 0 0 0 0 0 
0 0 0 0 0 0 0 0 0 
0 0 0 0 0 0 0 0 0 
0 0 0 0 0 0 0 0 0 
0 0 0 0 0 0 0 0 0 
0 0 0 0 0 0 0 0 0 
0 0 0 0 0 0 0 0 0 
0 0 0 0 0 0 0 0 0 
0 0 0 0 0 0 0 0 0 
0 0 0 0 0 0 0 0 0 
0 0 0 0 1.793323695e-07 0 0 0 2.332635484e-07 
0 0 0 0 0 0 0 0 0 
0 0 0 0 0 0 0 0 0 
0 0 0 0 0 0 0 0 0 
0 0 0 0 0 0 0 0 1.484859019e-07 
0 0 0 0 0 0 0 0 1.493983111e-07 
0 0 0 0 0 0 0 0 1.362805131e-07 
0 0 0 0 0 0 0 0 0 
0 0 0 0 0 0 0 0 0 
0 0 0 0 0 0 0 0 0 
0 0 0 0 1.980574669e-07 0 0 0 1.229854988e-07 
0 0 0 0 0 0 0 0 0 
0 0 0 0 0 0 0 0 0 
0 0 0 0 0 0 0 0 0 
0 0 0 0 0 0 0 0 0 
0 0 0 0 0 0 0 0 0 
0 0 0 0 0 0 0 0 0 
0 0 0 0 0 0 0 0 0 
0 0 0 0 0 0 0 0 0 
0 0 0 0 0 0 0 0 0 
0 0 0 0 1.881366936e-07 0 0 0 2.340839887e-07 
0 0 0 0 0 0 0 0 0 
0 0 0 0 0 0 0 0 0 
0 0 0 0 0 0 0 0 0 
0 0 0 0 0 0 0 0 1.5384754e-07 
0 0 0 0 0 0 0 0 1.412848181e-07 
0 0 0 0 0 0 0 0 1.427740303e-07 
0 0 0 0 0 0 0 0 0 
0 0 0 0 0 0 0 0 0 
0 0 0 0 0 0 0 0 0 
0 0 0 0 1.793042618e-07 0 0 0 1.553969691e-07 
0 0 0 0 0 0 0 0 0 
0 0 0 0 0 0 0 0 0 
0 0 0 0 0 0 0 0 0 
0 0 0 0 0 0 0 0 0 
0 0 0 0 0 0 0 0 0 
0 0 0 0 0 0 0 0 0 
0 0 0 0 0 0 0 0 0 
0 0 0 0 0 0 0 0 0 
0 0 0 0 0 0 0 0 0 
0 0 0 0 0 0 0 0 0 
0 0 0 0 0 0 0 0 0 
0 0 0 0 0 0 0 0 0 
0 0 0 0 0 0 0 0 0 
0 0 0 0 0 0 0 0 0 
0 0 0 0 0 0 0 0 0 
0 0 0 0 0 0 0 0 0 
0 0 0 0 0 0 0 0 0 
0 0 0 0 0 0 0 0 0 
0 0 0 0 0 0 0 0 0 
0 0 0 0 0 0 0 0 0 
0 0 0 0 0 0 0 0 0 
0 0 0 0 0 0 0 0 0 
0 0 0 0 0 0 0 0 0 
0 0 0 0 0 0 0 0 0 
0 0 0 0 0 0 0 0 0 
0 0 0 0 0 0 0 0 0 
0 0 0 0 0 0 0 0 0 
0 0 0 0 0 0 0 0 0 
0 0 0 0 0 0 0 0 0 
0 0 0 0 1.643193437e-07 0 0 0 1.3710936e-07 
0 0 0 0 0 0 0 0 0 
0 0 0 0 0 0 0 0 0 
0 0 0 0 0 0 0 0 0 
0 0 0 0 0 0 0 0 0 
0 0 0 0 0 0 0 0 0 
0 0 0 0 0 0 0 0 0 
0 0 0 0 0 0 0 0 0 
0 0 0 0 0 0 0 0 0 
0 0 0 0 0 0 0 0 0 
0 0 0 0 0 0 0 0 0 
0 0 0 0 0 0 0 0 0 
0 0 0 0 0 0 0 0 0 
0 0 0 0 0 0 0 0 0 
0 0 0 0 0 0 0 0 0 
0 0 0 0 0 0 0 0 0 
0 0 0 0 0 0 0 0 0 
0 0 0 0 0 0 0 0 0 
0 0 0 0 0 0 0 0 0 
0 0 0 0 0 0 0 0 0 
0 0 0 0 0 0 0 0 0 
0 0 0 0 0 0 0 0 0 
0 0 0 0 0 0 0 0 0 
0 0 0 0 0 0 0 0 0 
0 0 0 0 0 0 0 0 0 
0 0 0 0 0 0 0 0 0 
0 0 0 0 0 0 0 0 0 
0 0 0 0 0 0 0 0 0 
0 0 0 0 0 0 0 0 -1.304343409e-07 
0 0 0 0 0 0 0 0 0 
0 0 0 0 2.807782614e-07 0 0 0 1.712617361e-07 
0 0 0 0 0 0 0 0 0 
0 0 0 0 0 0 0 0 -1.20041423e-07 
0 0 0 0 0 0 0 0 0 
0 0 0 0 0 0 0 0 0 
0 0 0 0 0 0 0 0 0 
0 0 0 0 1.200580934e-07 0 0 0 0 
0 0 0 0 0 0 0 0 0 
0 0 0 0 0 0 0 0 0 
0 0 0 0 0 0 0 0 0 
0 0 0 0 0 0 0 0 0 
0 0 0 0 0 0 0 0 0 
0 0 0 0 0 0 0 0 0 
0 0 0 0 0 0 0 0 0 
0 0 0 0 0 0 0 0 0 
0 0 0 0 0 0 0 0 0 
0 0 0 0 0 0 0 0 0 
0 0 0 0 0 0 0 0 0 
0 0 0 0 0 0 0 0 0 
0 0 0 0 0 0 0 0 0 
0 0 0 0 1.612574373e-07 0 0 0 1.873295073e-07 
0 0 0 0 0 0 0 0 0 
0 0 0 0 0 0 0 0 0 
0 0 0 0 0 0 0 0 0 
0 0 0 0 0 0 0 0 1.206791477e-07 
0 0 0 0 0 0 0 0 0 
0 0 0 0 0 0 0 0 0 
0 0 0 0 0 0 0 0 0 
0 0 0 0 0 0 0 0 0 
0 0 0 0 0 0 0 0 0 
0 0 0 0 2.33019969e-07 0 0 0 1.37229653e-07 
0 0 0 0 0 0 0 0 0 
0 0 0 0 0 0 0 0 0 
0 0 0 0 0 0 0 0 0 
0 0 0 0 0 0 0 0 0 
0 0 0 0 0 0 0 0 0 
0 0 0 0 0 0 0 0 0 
0 0 0 0 0 0 0 0 0 
0 0 0 0 0 0 0 0 0 
0 0 0 0 0 0 0 0 0 
0 0 0 0 2.036048558e-07 0 0 0 1.928875224e-07 
0 0 0 0 0 0 0 0 0 
0 0 0 0 0 0 0 0 0 
0 0 0 0 0 0 0 0 0 
0 0 0 0 0 0 0 0 0 
0 0 0 0 0 0 0 0 0 
0 0 0 0 0 0 0 0 0 
0 0 0 0 0 0 0 0 0 
0 0 0 0 0 0 0 0 0 
0 0 0 0 0 0 0 0 0 
0 0 0 0 1.611609313e-07 0 0 0 2.641682403e-07 
0 0 0 0 0 0 0 0 0 
0 0 0 0 0 0 0 0 0 
0 0 0 0 0 0 0 0 0 
0 0 0 0 0 0 0 0 1.760104138e-07 
0 0 0 0 0 0 0 0 1.557308177e-07 
0 0 0 0 0 0 0 0 1.675888315e-07 
0 0 0 0 0 0 0 0 0 
0 0 0 0 0 0 0 0 0 
0 0 0 0 0 0 0 0 0 
0 0 0 0 1.490353579e-07 0 0 0 0 
0 0 0 0 0 0 0 0 0 
0 0 0 0 0 0 0 0 0 
0 0 0 0 0 0 0 0 0 
0 0 0 0 0 0 0 0 0 
0 0 0 0 0 0 0 0 0 
0 0 0 0 0 0 0 0 0 
0 0 0 0 0 0 0 0 -1.742484071e-07 
0 0 0 0 0 0 0 0 -1.560189164e-07 
0 0 0 0 0 0 0 0 -1.628980351e-07 
0 0 0 0 0 0 0 0 0 
0 0 0 0 0 0 0 0 -1.651336618e-07 
0 0 0 0 0 0 0 0 -1.594584758e-07 
0 0 0 0 0 0 0 0 -1.685732211e-07 
0 0 0 0 0 0 0 0 -1.318355581e-07 
0 0 0 0 0 0 0 0 -1.227208127e-07 
0 0 0 0 0 0 0 0 -1.261603721e-07 
0 0 0 0 0 0 0 0 0 
1.215359132e-07 0 0 0 0 0 0 0 0 
0 0 0 0 0 0 0 0 0 
-1.616357934e-07 0 0 0 0 0 0 0 0 
0 0 0 0 0 0 0 0 0 
0 0 0 0 0 0 0 0 0 
0 0 0 0 0 0 0 0 0 
0 0 0 0 0 0 0 0 0 
0 0 0 0 0 0 0 0 0 
0 0 0 0 0 0 0 0 0 
0 0 0 0 0 0 0 0 0 
0 0 0 0 0 0 0 0 0 
0 0 0 0 0 0 0 0 0 
0 0 0 0 0 0 0 0 0 
0 0 0 0 0 0 0 0 0 
0 0 0 0 0 0 0 0 0 
0 0 0 0 0 0 0 0 0 
0 0 0 0 0 0 0 0 0 
0 0 0 0 0 0 0 0 0 
0 0 0 0 0 0 0 0 0 
-1.841766147e-07 0 0 0 -1.422388726e-07 0 0 0 0 
0 0 0 0 0 0 0 0 0 
0 0 0 0 0 0 0 0 0 
1.639731642e-07 0 0 0 1.672952484e-07 0 0 0 0 
0 0 0 0 0 0 0 0 0 
0 0 0 0 0 0 0 0 0 
0 0 0 0 0 0 0 0 0 
0 0 0 0 0 0 0 0 0 
0 0 0 0 0 0 0 0 0 
0 0 0 0 0 0 0 0 0 
0 0 0 0 0 0 0 0 0 
0 0 0 0 0 0 0 0 0 
0 0 0 0 0 0 0 0 0 
0 0 0 0 0 0 0 0 0 
0 0 0 0 0 0 0 0 0 
0 0 0 0 0 0 0 0 0 
0 0 0 0 0 0 0 0 0 
0 0 0 0 0 0 0 0 0 
0 0 0 0 0 0 0 0 0 
0 0 0 0 0 0 0 0 0 
0 0 0 0 0 0 0 0 1.902346711e-07 
0 0 0 0 0 0 0 0 -1.382631985e-07 
1.73924376e-07 0 0 0 2.157361277e-07 0 0 0 0 
0 0 0 0 0 0 0 0 0 
0 0 0 0 0 0 0 0 0 
0 0 0 0 0 0 0 0 0 
0 0 0 0 0 0 0 0 0 
0 0 0 0 0 0 0 0 0 
0 0 0 0 0 0 0 0 -1.256860627e-07 
0 0 0 0 0 0 0 0 0 
2.032743477e-07 0 0 0 1.915782581e-07 0 0 0 0 
0 0 0 0 0 0 0 0 0 
-2.010863385e-07 0 0 0 -1.336566986e-07 0 0 0 1.540317204e-07 
0 0 0 0 0 0 0 0 2.471624843e-07 
1.504348106e-07 0 0 0 1.409582907e-07 0 0 0 0 
0 0 0 0 0 0 0 0 0 
0 0 0 0 0 0 0 0 0 
0 0 0 0 1.294421832e-07 0 0 0 1.347408692e-07 
0 0 0 0 0 0 0 0 0 
0 0 0 0 0 0 0 0 2.005971024e-07 
-1.554228271e-07 0 0 0 0 0 0 0 -1.238224574e-07 
0 0 0 0 0 0 0 0 2.779233042e-07 
1.545923516e-07 0 0 0 0 0 0 0 3.016101488e-07 
0 0 0 0 0 0 0 0 -1.273827296e-07 
0 0 0 0 0 0 0 0 0 
0 0 0 0 0 0 0 0 2.897667265e-07 
0 0 0 0 0 0 0 0 0 
0 0 0 0 0 0 0 0 -1.256025935e-07 
0 0 0 0 0 0 0 0 0 
0 0 0 0 0 0 0 0 0 
1.422483956e-07 0 0 0 0 0 0 0 2.97722489e-07 
0 0 0 0 0 0 0 0 2.384913955e-07 
-1.918409156e-07 0 0 0 0 0 0 0 -1.461477086e-07 
0 0 0 0 0 0 0 0 2.353468493e-07 
0 0 0 0 0 0 0 0 2.681069423e-07 
0 0 0 0 0 0 0 0 0 
0 0 0 0 0 0 0 0 0 
0 0 0 0 0 0 0 0 2.665346692e-07 
0 0 0 0 0 0 0 0 2.369191224e-07 
0 0 0 0 0 0 0 0 0 
0 0 0 0 0 0 0 0 0 
0 0 0 0 0 0 0 0 0 
0 0 0 0 0 0 0 0 0 
0 0 0 0 0 0 0 0 0 
0 0 0 0 0 0 0 0 0 
0 0 0 0 0 0 0 0 0 
0 0 0 0 0 0 0 0 0 
0 0 0 0 0 0 0 0 0 
0 0 0 0 0 0 0 0 0 
0 0 0 0 0 0 0 0 0 
0 0 0 0 0 0 0 0 0 
0 0 0 0 0 0 0 0 0 
0 0 0 0 0 0 0 0 0 
0 0 0 0 0 0 0 0 0 
0 0 0 0 0 0 0 0 0 
0 0 0 0 0 0 0 0 0 
0 0 0 0 0 0 0 0 0 
0 0 0 0 0 0 0 0 0 
0 0 0 0 0 0 0 0 0 
0 0 0 0 0 0 0 0 0 
0 0 0 0 0 0 0 0 0 
0 0 0 0 0 0 0 0 0 
0 0 0 0 0 0 0 0 0 
0 0 0 0 0 0 0 0 0 
0 0 0 0 0 0 0 0 0 
0 0 0 0 0 0 0 0 0 
0 0 0 0 0 0 0 0 0 
0 0 0 0 0 0 0 0 0 
0 0 0 0 0 0 0 0 0 
0 0 0 0 0 0 0 0 0 
0 0 0 0 0 0 0 0 0 
1.655294872e-07 0 0 0 1.369182933e-07 0 0 0 0 
0 0 0 0 0 0 0 0 0 
0 0 0 0 0 0 0 0 0 
0 0 0 0 0 0 0 0 0 
0 0 0 0 0 0 0 0 0 
0 0 0 0 0 0 0 0 0 
0 0 0 0 0 0 0 0 0 
0 0 0 0 0 0 0 0 0 
0 0 0 0 0 0 0 0 0 
0 0 0 0 0 0 0 0 0 
0 0 0 0 0 0 0 0 0 
0 0 0 0 0 0 0 0 0 
0 0 0 0 0 0 0 0 0 
0 0 0 0 0 0 0 0 0 
0 0 0 0 0 0 0 0 0 
0 0 0 0 0 0 0 0 0 
0 0 0 0 0 0 0 0 0 
0 0 0 0 0 0 0 0 0 
0 0 0 0 0 0 0 0 0 
0 0 0 0 0 0 0 0 0 
0 0 0 0 0 0 0 0 0 
0 0 0 0 1.65517141e-07 0 0 0 0 
0 0 0 0 0 0 0 0 0 
0 0 0 0 0 0 0 0 0 
0 0 0 0 0 0 0 0 0 
0 0 0 0 0 0 0 0 0 
0 0 0 0 0 0 0 0 0 
0 0 0 0 0 0 0 0 0 
0 0 0 0 0 0 0 0 0 
0 0 0 0 0 0 0 0 1.678957128e-07 
0 0 0 0 1.376006884e-07 0 0 0 0 
0 0 0 0 0 0 0 0 0 
0 0 0 0 0 0 0 0 1.783007095e-07 
0 0 0 0 0 0 0 0 0 
0 0 0 0 0 0 0 0 0 
0 0 0 0 0 0 0 0 0 
0 0 0 0 0 0 0 0 1.730982112e-07 
0 0 0 0 0 0 0 0 0 
0 0 0 0 0 0 0 0 0 
1.511291296e-07 0 0 0 1.957329942e-07 0 0 0 0 
0 0 0 0 0 0 0 0 1.548870341e-07 
0 0 0 0 0 0 0 0 0 
0 0 0 0 0 0 0 0 0 
0 0 0 0 0 0 0 0 0 
0 0 0 0 0 0 0 0 0 
0 0 0 0 0 0 0 0 0 
0 0 0 0 0 0 0 0 0 
0 0 0 0 0 0 0 0 0 
0 0 0 0 0 0 0 0 0 
0 0 0 0 0 0 0 0 0 
0 0 0 0 0 0 0 0 2.329347305e-07 
0 0 0 0 0 0 0 0 2.07284153e-07 
0 0 0 0 0 0 0 0 1.876849338e-07 
0 0 0 0 0 0 0 0 0 
0 0 0 0 0 0 0 0 2.201094417e-07 
0 0 0 0 0 0 0 0 0 
0 0 0 0 0 0 0 0 0 
0 0 0 0 0 0 0 0 2.103098321e-07 
0 0 0 0 0 0 0 0 1.974845434e-07 
0 0 0 0 0 0 0 0 2.228528859e-07 
0 0 0 0 0 0 0 0 0 
0 0 0 0 0 0 0 0 2.378771236e-07 
0 0 0 0 0 0 0 0 0 
0 0 0 0 0 0 0 0 0 
0 0 0 0 0 0 0 0 0 
0 0 0 0 0 0 0 0 2.303650048e-07 
0 0 0 0 0 0 0 0 0 
0 0 0 0 0 0 0 0 0 
0 0 0 0 0 0 0 0 0 
0 0 0 0 0 0 0 0 0 
0 0 0 0 0 0 0 0 0 
0 0 0 0 0 0 0 0 0 
0 0 0 0 0 0 0 0 0 
0 0 0 0 0 0 0 0 0 
0 0 0 0 0 0 0 0 0 
0 0 0 0 0 0 0 0 0 
0 0 0 0 0 0 0 0 0 
0 0 0 0 0 0 0 0 0 
0 0 0 0 0 0 0 0 0 
0 0 0 0 0 0 0 0 0 
0 0 0 0 0 0 0 0 0 
0 0 0 0 0 0 0 0 0 
0 0 0 0 0 0 0 0 0 
0 0 0 0 0 0 0 0 0 
0 0 0 0 0 0 0 0 0 
0 0 0 0 0 0 0 0 0 
0 0 0 0 0 0 0 0 0 
0 0 0 0 0 0 0 0 0 
0 0 0 0 0 0 0 0 0 
0 0 0 0 0 0 0 0 0 
0 0 0 0 0 0 0 0 0 
0 0 0 0 0 0 0 0 0 
0 0 0 0 0 0 0 0 0 
0 0 0 0 0 0 0 0 0 
0 0 0 0 0 0 0 0 0 
0 0 0 0 0 0 0 0 0 
0 0 0 0 0 0 0 0 0 
0 0 0 0 0 0 0 0 0 
0 0 0 0 0 0 0 0 0 
0 0 0 0 0 0 0 0 0 
0 0 0 0 0 0 0 0 0 
0 0 0 0 0 0 0 0 0 
0 0 0 0 0 0 0 0 0 
0 0 0 0 0 0 0 0 0 
0 0 0 0 0 0 0 0 0 
0 0 0 0 0 0 0 0 0 
0 0 0 0 0 0 0 0 0 
0 0 0 0 0 0 0 0 0 
0 0 0 0 0 0 0 0 0 
-1.6441663e-07 0 0 0 0 0 0 0 -1.758360267e-07 
0 0 0 0 0 0 0 0 0 
2.382554672e-07 0 0 0 2.232784698e-07 0 0 0 0 
0 0 0 0 0 0 0 0 0 
0 0 0 0 0 0 0 0 -1.372768389e-07 
0 0 0 0 0 0 0 0 0 
0 0 0 0 0 0 0 0 0 
0 0 0 0 0 0 0 0 -1.365049578e-07 
0 0 0 0 0 0 0 0 0 
1.417760418e-07 0 0 0 0 0 0 0 0 
1.504901427e-07 0 0 0 0 0 0 0 0 
0 0 0 0 0 0 0 0 0 
-1.664271812e-07 0 0 0 -1.95545647e-07 0 0 0 -2.011589891e-07 
0 0 0 0 0 0 0 0 -1.821663337e-07 
0 0 0 0 0 0 0 0 0 
0 0 0 0 0 0 0 0 -1.49317141e-07 
0 0 0 0 0 0 0 0 -1.50202186e-07 
0 0 0 0 0 0 0 0 -1.407058583e-07 
0 0 0 0 0 0 0 0 -1.398208133e-07 
0 0 0 0 0 0 0 0 -1.916626614e-07 
0 0 0 0 -2.054315477e-07 0 0 0 -2.575303683e-07 
0 0 0 0 -1.446027451e-07 0 0 0 -2.874490682e-07 
0 0 0 0 3.548330049e-07 0 0 0 0 
0 0 0 0 0 0 0 0 -1.271373487e-07 
0 0 0 0 -1.750171464e-07 0 0 0 -2.724897183e-07 
0 0 0 0 0 0 0 0 -1.203420062e-07 
0 0 0 0 0 0 0 0 0 
0 0 0 0 -1.558879113e-07 0 0 0 -1.923338585e-07 
0 0 0 0 -1.2547351e-07 0 0 0 -2.072932085e-07 
0 0 0 0 1.24244365e-07 0 0 0 0 
0 0 0 0 0 0 0 0 0 
1.434949111e-07 0 0 0 1.619780017e-07 0 0 0 -1.394061856e-07 
0 0 0 0 -2.189572512e-07 0 0 0 -2.685015104e-07 
0 0 0 0 0 0 0 0 -2.110392617e-07 
0 0 0 0 1.340427508e-07 0 0 0 0 
0 0 0 0 0 0 0 0 -2.03953848e-07 
0 0 0 0 0 0 0 0 -1.609528964e-07 
0 0 0 0 0 0 0 0 -1.32221772e-07 
0 0 0 0 0 0 0 0 -1.752227237e-07 
0 0 0 0 -1.244343169e-07 0 0 0 -2.39770386e-07 
0 0 0 0 0 0 0 0 1.218687093e-07 
0 0 0 0 0 0 0 0 0 
0 0 0 0 0 0 0 0 0 
0 0 0 0 0 0 0 0 0 
0 0 0 0 0 0 0 0 0 
0 0 0 0 0 0 0 0 0 
0 0 0 0 0 0 0 0 0 
0 0 0 0 0 0 0 0 0 
0 0 0 0 0 0 0 0 0 
0 0 0 0 0 0 0 0 0 
0 0 0 0 0 0 0 0 0 
0 0 0 0 1.259032354e-07 0 0 0 1.196257958e-07 
0 0 0 0 -1.232917564e-07 0 0 0 0 
0 0 0 0 -2.268989263e-07 0 0 0 0 
0 0 0 0 0 0 0 0 0 
0 0 0 0 0 0 0 0 0 
0 0 0 0 0 0 0 0 0 
0 0 0 0 0 0 0 0 0 
0 0 0 0 0 0 0 0 0 
0 0 0 0 -1.750953414e-07 0 0 0 0 
0 0 0 0 -1.473457532e-07 0 0 0 0 
0 0 0 0 0 0 0 0 0 
1.348585289e-07 0 0 0 1.661715723e-07 0 0 0 1.679169835e-07 
-1.400011387e-07 0 0 0 -1.795270166e-07 0 0 0 0 
0 0 0 0 0 0 0 0 0 
0 0 0 0 0 0 0 0 0 
0 0 0 0 0 0 0 0 0 
0 0 0 0 -1.634363849e-07 0 0 0 0 
0 0 0 0 0 0 0 0 0 
0 0 0 0 0 0 0 0 0 
0 0 0 0 0 0 0 0 0 
0 0 0 0 0 0 0 0 0 
0 0 0 0 0 0 0 0 0 
0 0 0 0 0 0 0 0 0 
0 0 0 0 0 0 0 0 0 
0 0 0 0 0 0 0 0 0 
0 0 0 0 0 0 0 0 0 
0 0 0 0 0 0 0 0 0 
0 0 0 0 0 0 0 0 0 
0 0 0 0 0 0 0 0 0 
0 0 0 0 0 0 0 0 0 
0 0 0 0 0 0 0 0 0 
0 0 0 0 0 0 0 0 0 
0 0 0 0 0 0 0 0 0 
0 0 0 0 0 0 0 0 0 
0 0 0 0 0 0 0 0 0 
0 0 0 0 0 0 0 0 0 
0 0 0 0 0 0 0 0 0 
0 0 0 0 0 0 0 0 0 
0 0 0 0 0 0 0 0 0 
0 0 0 0 0 0 0 0 0 
0 0 0 0 0 0 0 0 0 
0 0 0 0 0 0 0 0 0 
0 0 0 0 -1.210047398e-07 0 0 0 0 
0 0 0 0 0 0 0 0 0 
0 0 0 0 0 0 0 0 0 
0 0 0 0 0 0 0 0 0 
0 0 0 0 0 0 0 0 0 
0 0 0 0 0 0 0 0 0 
0 0 0 0 0 0 0 0 0 
0 0 0 0 0 0 0 0 0 
0 0 0 0 0 0 0 0 0 
0 0 0 0 0 0 0 0 0 
0 0 0 0 -1.352032954e-07 0 0 0 0 
0 0 0 0 0 0 0 0 0 
0 0 0 0 0 0 0 0 0 
0 0 0 0 0 0 0 0 0 
0 0 0 0 0 0 0 0 0 
0 0 0 0 0 0 0 0 0 
0 0 0 0 0 0 0 0 0 
0 0 0 0 0 0 0 0 0 
0 0 0 0 0 0 0 0 0 
0 0 0 0 0 0 0 0 0 
0 0 0 0 0 0 0 0 0 
0 0 0 0 0 0 0 0 0 
0 0 0 0 0 0 0 0 0 
0 0 0 0 0 0 0 0 0 
0 0 0 0 0 0 0 0 0 
0 0 0 0 0 0 0 0 0 
0 0 0 0 0 0 0 0 0 
-1.198453115e-07 0 0 0 -1.773750264e-07 0 0 0 -1.635234267e-07 
0 0 0 0 0 0 0 0 -1.965828368e-07 
-1.606178115e-07 0 0 0 0 0 0 0 -1.648007699e-07 
2.920382546e-07 1.701692627e-07 0 1.701692627e-07 3.120841006e-07 0 0 0 0 
0 0 0 0 0 0 0 0 -1.800531317e-07 
0 0 0 0 0 0 0 0 -1.806918033e-07 
-1.402315615e-07 0 0 0 -1.440115689e-07 0 0 0 -1.641620983e-07 
0 0 0 0 0 0 0 0 0 
1.509452573e-07 0 0 0 1.457112122e-07 0 0 0 0 
0 0 0 0 0 0 0 0 0 
0 0 0 0 0 0 0 0 0 
0 0 0 0 2.109255223e-07 0 0 0 0 
1.565523974e-07 0 0 0 0 0 0 0 0 
0 0 0 0 -2.595828219e-07 0 0 0 -1.768749185e-07 
0 0 0 0 0 0 0 0 0 
0 0 0 0 1.55638856e-07 0 0 0 0 
0 0 0 0 0 0 0 0 0 
0 0 0 0 -1.592748219e-07 0 0 0 -1.42379641e-07 
0 0 0 0 0 0 0 0 -1.471167873e-07 
0 0 0 0 0 0 0 0 0 
0 0 0 0 0 0 0 0 1.210432954e-07 
0 0 0 0 0 0 0 0 0 
0 0 0 0 0 0 0 0 0 
0 0 0 0 0 0 0 0 1.351595977e-07 
0 0 0 0 0 0 0 0 0 
0 0 0 0 0 0 0 0 0 
0 0 0 0 0 0 0 0 0 
0 0 0 0 0 0 0 0 1.281014466e-07 
0 0 0 0 0 0 0 0 0 
0 0 0 0 0 0 0 0 0 
0 0 0 0 0 0 0 0 1.269360488e-07 
0 0 0 0 0 0 0 0 0 
0 0 0 0 0 0 0 0 0 
0 0 0 0 0 0 0 0 0 
0 0 0 0 0 0 0 0 0 
0 0 0 0 0 0 0 0 0 
0 0 0 0 0 0 0 0 0 
0 0 0 0 0 0 0 0 0 
0 0 0 0 0 0 0 0 0 
0 0 0 0 0 0 0 0 0 
0 0 0 0 0 0 0 0 0 
0 0 0 0 0 0 0 0 0 
0 0 0 0 0 0 0 0 0 
0 0 0 0 0 0 0 0 0 
0 0 0 0 0 0 0 0 0 
0 0 0 0 0 0 0 0 0 
0 0 0 0 0 0 0 0 0 
0 0 0 0 0 0 0 0 0 
0 0 0 0 0 0 0 0 0 
0 0 0 0 0 0 0 0 0 
0 0 0 0 0 0 0 0 0 
0 0 0 0 0 0 0 0 0 
0 0 0 0 0 0 0 0 0 
0 0 0 0 0 0 0 0 0 
0 0 0 0 0 0 0 0 0 
0 0 0 0 0 0 0 0 0 
0 0 0 0 0 0 0 0 0 
0 0 0 0 0 0 0 0 0 
0 0 0 0 0 0 0 0 0 
0 0 0 0 0 0 0 0 0 
0 0 0 0 0 0 0 0 0 
0 0 0 0 0 0 0 0 0 
0 0 0 0 0 0 0 0 0 
0 0 0 0 0 0 0 0 0 
0 0 0 0 0 0 0 0 0 
0 0 0 0 0 0 0 0 0 
0 0 0 0 0 0 0 0 0 
0 0 0 0 0 0 0 0 0 
0 0 0 0 0 0 0 0 0 
0 0 0 0 0 0 0 0 0 
0 0 0 0 0 0 0 0 0 
0 0 0 0 1.282779407e-07 0 0 0 0 
0 0 0 0 0 0 0 0 0 
0 0 0 0 -1.392149061e-07 0 0 0 -1.816609833e-07 
0 0 0 0 0 0 0 0 0 
0 0 0 0 0 0 0 0 0 
0 0 0 0 0 0 0 0 0 
0 0 0 0 0 0 0 0 -1.433106069e-07 
0 0 0 0 0 0 0 0 0 
0 0 0 0 0 0 0 0 0 
0 0 0 0 0 0 0 0 0 
0 0 0 0 0 0 0 0 0 
0 0 0 0 0 0 0 0 0 
0 0 0 0 -1.243417703e-07 0 0 0 -1.217000173e-07 
0 0 0 0 0 0 0 0 0 
0 0 0 0 0 0 0 0 0 
0 0 0 0 0 0 0 0 0 
0 0 0 0 0 0 0 0 0 
0 0 0 0 0 0 0 0 0 
0 0 0 0 0 0 0 0 0 
0 0 0 0 0 0 0 0 0 
0 0 0 0 0 0 0 0 -1.338810225e-07 
0 0 0 0 0 0 0 0 0 
0 0 0 0 0 0 0 0 0 
0 0 0 0 0 0 0 0 0 
0 0 0 0 0 0 0 0 0 
0 0 0 0 0 0 0 0 0 
0 0 0 0 0 0 0 0 0 
0 0 0 0 0 0 0 0 0 
0 0 0 0 0 0 0 0 0 
0 0 0 0 0 0 0 0 0 
0 0 0 0 0 0 0 0 0 
0 0 0 0 0 0 0 0 0 
0 0 0 0 0 0 0 0 0 
0 0 0 0 0 0 0 0 0 
0 0 0 0 0 0 0 0 0 
0 0 0 0 0 0 0 0 0 
0 0 0 0 0 0 0 0 0 
0 0 0 0 0 0 0 0 0 
0 0 0 0 0 0 0 0 0 
0 0 0 0 0 0 0 0 0 
0 0 0 0 0 0 0 0 0 
2.113204246e-07 0 0 0 2.016191607e-07 0 0 0 0 
-1.217932732e-07 0 0 0 -2.544706233e-07 0 0 0 -1.550815825e-07 
0 0 0 0 0 0 0 0 0 
0 0 0 0 0 0 0 0 0 
0 0 0 0 0 0 0 0 0 
0 0 0 0 0 0 0 0 -1.209223798e-07 
0 0 0 0 -1.30037468e-07 0 0 0 0 
0 0 0 0 0 0 0 0 0 
0 0 0 0 0 0 0 0 0 
0 0 0 0 0 0 0 0 0 
0 0 0 0 0 0 0 0 0 
0 0 0 0 0 0 0 0 -1.594077442e-07 
0 0 0 0 0 0 0 0 0 
0 0 0 0 0 0 0 0 0 
0 0 0 0 0 0 0 0 0 
0 0 0 0 0 0 0 0 0 
0 0 0 0 0 0 0 0 -1.194863358e-07 
0 0 0 0 0 0 0 0 0 
0 0 0 0 0 0 0 0 0 
0 0 0 0 -1.569272318e-07 0 0 0 -1.663075155e-07 
0 0 0 0 0 0 0 0 0 
0 0 0 0 0 0 0 0 0 
0 0 0 0 0 0 0 0 0 
0 0 0 0 0 0 0 0 0 
0 0 0 0 0 0 0 0 0 
0 0 0 0 0 0 0 0 0 
0 0 0 0 0 0 0 0 0 
0 0 0 0 0 0 0 0 0 
0 0 0 0 0 0 0 0 0 
0 0 0 0 0 0 0 0 0 
0 0 0 0 0 0 0 0 0 
-2.518625007e-07 0 0 0 -1.325417057e-07 0 0 0 -1.445358471e-07 
0 0 0 0 0 0 0 0 0 
0 0 0 0 0 0 0 0 0 
0 0 0 0 0 0 0 0 0 
0 0 0 0 0 0 0 0 -1.263579457e-07 
0 0 0 0 0 0 0 0 -1.205920568e-07 
0 0 0 0 0 0 0 0 0 
0 0 0 0 0 0 0 0 -1.237933279e-07 
0 0 0 0 0 0 0 0 0 
0 0 0 0 0 0 0 0 0 
0 0 0 0 0 0 0 0 0 
0 0 0 0 0 0 0 0 0 
0 0 0 0 0 0 0 0 0 
0 0 0 0 0 0 0 0 0 
0 0 0 0 0 0 0 0 0 
0 0 0 0 0 0 0 0 0 
0 0 0 0 0 0 0 0 0 
0 0 0 0 0 0 0 0 0 
0 0 0 0 0 0 0 0 0 
0 0 0 0 0 0 0 0 -1.432791678e-07 
0 0 0 0 0 0 0 0 0 
0 0 0 0 0 0 0 0 0 
0 0 0 0 0 0 0 0 0 
0 0 0 0 0 0 0 0 0 
0 0 0 0 0 0 0 0 0 
0 0 0 0 0 0 0 0 0 
0 0 0 0 0 0 0 0 0 
0 0 0 0 0 0 0 0 0 
0 0 0 0 0 0 0 0 0 
0 0 0 0 0 0 0 0 0 
0 0 0 0 0 0 0 0 0 
0 0 0 0 0 0 0 0 0 
0 0 0 0 0 0 0 0 0 
0 0 0 0 0 0 0 0 0 
0 0 0 0 0 0 0 0 0 
0 0 0 0 0 0 0 0 0 
0 0 0 0 0 0 0 0 0 
0 0 0 0 0 0 0 0 0 
0 0 0 0 0 0 0 0 0 
0 0 0 0 0 0 0 0 0 
0 0 0 0 0 0 0 0 0 
0 0 0 0 0 0 0 0 0 
0 0 0 0 0 0 0 0 0 
0 0 0 0 0 0 0 0 0 
0 0 0 0 0 0 0 0 0 
0 0 0 0 0 0 0 0 0 
0 0 0 0 0 0 0 0 0 
0 0 0 0 0 0 0 0 0 
0 0 0 0 0 0 0 0 0 
0 0 0 0 0 0 0 0 0 
0 0 0 0 0 0 0 0 0 
0 0 0 0 0 0 0 0 0 
0 0 0 0 0 0 0 0 0 
0 0 0 0 0 0 0 0 0 
0 0 0 0 0 0 0 0 0 
0 0 0 0 0 0 0 0 0 
0 0 0 0 0 0 0 0 0 
0 0 0 0 0 0 0 0 0 
0 0 0 0 0 0 0 0 0 
0 0 0 0 0 0 0 0 0 
0 0 0 0 0 0 0 0 0 
0 0 0 0 0 0 0 0 0 
0 0 0 0 0 0 0 0 0 
0 0 0 0 0 0 0 0 0 
0 0 0 0 0 0 0 0 0 
0 0 0 0 0 0 0 0 0 
0 0 0 0 0 0 0 0 0 
1.90444112e-07 0 0 0 0 0 0 0 -2.798468238e-07 
0 0 0 0 0 0 0 0 -1.972296404e-07 
-4.217177438e-07 0 0 0 -2.615141812e-07 0 0 0 0 
3.132745256e-07 0 0 0 2.211612785e-07 0 0 0 3.003150506e-07 
1.4813608e-07 0 0 0 0 0 0 0 -2.385382321e-07 
-1.579448479e-07 0 0 0 0 0 0 0 -1.483317363e-07 
0 0 0 0 0 0 0 0 -1.896403279e-07 
2.518593188e-07 0 0 0 1.656008898e-07 0 0 0 0 
2.095512868e-07 0 0 0 1.590618548e-07 0 0 0 0 
0 0 0 0 0 0 0 0 0 
0 0 0 0 0 0 0 0 0 
0 0 0 0 0 0 0 0 -1.939517591e-07 
0 0 0 0 0 0 0 0 -3.43323356e-07 
-2.041385061e-07 0 0 0 -1.209304455e-07 0 0 0 -4.891997932e-07 
0 0 0 0 0 0 0 0 0 
0 0 0 0 0 0 0 0 -2.686375576e-07 
0 0 0 0 0 0 0 0 -1.425059307e-07 
-1.496043071e-07 0 0 0 0 0 0 0 -2.154441493e-07 
0 0 0 0 0 0 0 0 -3.415757762e-07 
0 0 0 0 0 0 0 0 -4.162615746e-07 
0 0 0 0 0 0 0 0 1.739280804e-07 
0 0 0 0 0 0 0 0 0 
0 0 0 0 0 0 0 0 0 
0 0 0 0 0 0 0 0 1.198530634e-07 
0 0 0 0 0 0 0 0 0 
0 0 0 0 0 0 0 0 0 
0 0 0 0 0 0 0 0 0 
0 0 0 0 0 0 0 0 1.468905719e-07 
0 0 0 0 0 0 0 0 0 
0 0 0 0 0 0 0 0 0 
0 0 0 0 0 0 0 0 0 
0 0 0 0 0 0 0 0 1.643189403e-07 
0 0 0 0 0 0 0 0 0 
0 0 0 0 0 0 0 0 0 
0 0 0 0 0 0 0 0 0 
0 0 0 0 0 0 0 0 0 
0 0 0 0 0 0 0 0 0 
0 0 0 0 0 0 0 0 0 
0 0 0 0 0 0 0 0 0 
0 0 0 0 0 0 0 0 0 
0 0 0 0 0 0 0 0 0 
0 0 0 0 0 0 0 0 1.825914879e-07 
0 0 0 0 0 0 0 0 0 
0 0 0 0 0 0 0 0 1.975377533e-07 
0 0 0 0 0 0 0 0 0 
0 0 0 0 0 0 0 0 1.465847497e-07 
0 0 0 0 0 0 0 0 0 
0 0 0 0 0 0 0 0 0 
0 0 0 0 0 0 0 0 1.900646206e-07 
0 0 0 0 0 0 0 0 1.540578824e-07 
0 0 0 0 0 0 0 0 1.794367634e-07 
0 0 0 0 0 0 0 0 0 
0 0 0 0 0 0 0 0 1.617880306e-07 
-1.432840679e-07 0 0 0 0 0 0 0 -1.246039423e-07 
0 0 0 0 0 0 0 0 0 
0 0 0 0 0 0 0 0 0 
0 0 0 0 0 0 0 0 1.70612397e-07 
0 0 0 0 0 0 0 0 0 
0 0 0 0 0 0 0 0 0 
0 0 0 0 0 0 0 0 0 
0 0 0 0 0 0 0 0 0 
0 0 0 0 0 0 0 0 -1.499409326e-07 
0 0 0 0 0 0 0 0 0 
0 0 0 0 0 0 0 0 0 
0 0 0 0 0 0 0 0 -1.317995827e-07 
0 0 0 0 0 0 0 0 0 
0 0 0 0 0 0 0 0 0 
0 0 0 0 0 0 0 0 0 
0 0 0 0 0 0 0 0 0 
0 0 0 0 0 0 0 0 0 
0 0 0 0 0 0 0 0 0 
0 0 0 0 0 0 0 0 -1.414853732e-07 
0 0 0 0 0 0 0 0 -1.27057261e-07 
0 0 0 0 0 0 0 0 -1.450865068e-07 
0 0 0 0 0 0 0 0 0 
0 0 0 0 0 0 0 0 -1.342713171e-07 
0 0 0 0 0 0 0 0 0 
0 0 0 0 0 0 0 0 0 
0 0 0 0 0 0 0 0 -1.4328594e-07 
0 0 0 0 0 0 0 0 -1.360718839e-07 
0 0 0 0 0 0 0 0 0 
0 0 0 0 0 0 0 0 0 
0 0 0 0 0 0 0 0 0 
1.209549195e-07 0 0 0 0 0 0 0 0 
0 0 0 0 0 0 0 0 0 
0 0 0 0 0 0 0 0 0 
0 0 0 0 0 0 0 0 0 
0 0 0 0 0 0 0 0 0 
0 0 0 0 0 0 0 0 0 
0 0 0 0 0 0 0 0 0 
0 0 0 0 0 0 0 0 0 
0 0 0 0 0 0 0 0 0 
0 0 0 0 0 0 0 0 0 
0 0 0 0 0 0 0 0 0 
0 0 0 0 0 0 0 0 0 
0 0 0 0 0 0 0 0 0 
0 0 0 0 0 0 0 0 0 
0 0 0 0 0 0 0 0 0 
0 0 0 0 0 0 0 0 0 
0 0 0 0 0 0 0 0 0 
0 0 0 0 0 0 0 0 0 
0 0 0 0 0 0 0 0 1.450435683e-07 
0 0 0 0 0 0 0 0 1.610358004e-07 
0 0 0 0 0 0 0 0 1.840479536e-07 
0 0 0 0 0 0 0 0 0 
0 0 0 0 0 0 0 0 1.530396844e-07 
0 0 0 0 0 0 0 0 0 
0 0 0 0 0 0 0 0 0 
0 0 0 0 0 0 0 0 1.645457609e-07 
0 0 0 0 0 0 0 0 1.72541877e-07 
0 0 0 0 0 0 0 0 1.486758173e-07 
0 0 0 0 0 0 0 0 1.788393536e-07 
1.678600457e-07 0 0 0 0 0 0 0 1.595854151e-07 
-1.536375985e-07 0 0 0 0 0 0 0 0 
0 0 0 0 0 0 0 0 1.637575854e-07 
0 0 0 0 0 0 0 0 1.692123843e-07 
0 0 0 0 0 0 0 0 1.541306162e-07 
0 0 0 0 0 0 0 0 0 
0 0 0 0 0 0 0 0 0 
0 0 0 0 0 0 0 0 0 
0 0 0 0 0 0 0 0 -1.336514924e-07 
0 0 0 0 0 0 0 0 -1.516437419e-07 
0 0 0 0 0 0 0 0 -1.321801737e-07 
0 0 0 0 0 0 0 0 0 
0 0 0 0 0 0 0 0 -1.426476171e-07 
0 0 0 0 0 0 0 0 -1.419119578e-07 
0 0 0 0 0 0 0 0 -1.32915833e-07 
0 0 0 0 0 0 0 0 0 
0 0 0 0 0 0 0 0 0 
0 0 0 0 0 0 0 0 0 
0 0 0 0 1.296812588e-07 0 0 0 0 
1.469799228e-07 0 0 0 2.51167822e-07 0 0 0 0 
0 0 0 0 0 0 0 0 -1.332350386e-07 
-1.203303327e-07 0 0 0 -3.388476225e-07 0 0 0 -2.812358339e-07 
0 0 0 0 1.904245404e-07 0 0 0 0 
0 0 0 0 0 0 0 0 0 
0 0 0 0 0 0 0 0 0 
0 0 0 0 0 0 0 0 -1.788634465e-07 
0 0 0 0 0 0 0 0 0 
0 0 0 0 -1.910546734e-07 0 0 0 -2.072354362e-07 
0 0 0 0 0 0 0 0 -1.39950208e-07 
0 0 0 0 0 0 0 0 0 
0 0 0 0 0 0 0 0 -1.409524914e-07 
0 0 0 0 2.76743676e-07 0 0 0 0 
0 0 0 0 0 0 0 0 -1.211359586e-07 
0 0 0 0 0 0 0 0 -1.216371003e-07 
0 0 0 0 0 0 0 0 -1.404513497e-07 
0 0 0 0 1.212963232e-07 0 0 0 0 
0 0 0 0 0 0 0 0 0 
0 0 0 0 0 0 0 0 0 
0 0 0 0 0 0 0 0 1.435033587e-07 
0 0 0 0 0 0 0 0 0 
0 0 0 0 0 0 0 0 1.595270048e-07 
0 0 0 0 0 0 0 0 0 
0 0 0 0 0 0 0 0 0 
0 0 0 0 0 0 0 0 0 
0 0 0 0 0 0 0 0 1.515151817e-07 
0 0 0 0 0 0 0 0 0 
0 0 0 0 0 0 0 0 0 
0 0 0 0 0 0 0 0 0 
0 0 0 0 0 0 0 0 1.471851519e-07 
0 0 0 0 0 0 0 0 1.260336803e-07 
0 0 0 0 -1.284497497e-07 0 0 0 0 
0 0 0 0 0 0 0 0 1.656510896e-07 
0 0 0 0 0 0 0 0 1.366094161e-07 
0 0 0 0 0 0 0 0 0 
0 0 0 0 0 0 0 0 0 
0 0 0 0 0 0 0 0 1.564181207e-07 
0 0 0 0 0 0 0 0 1.458423849e-07 
0 0 0 0 0 0 0 0 1.252616802e-07 
0 0 0 0 0 0 0 0 1.205591142e-07 
0 0 0 0 0 0 0 0 0 
0 0 0 0 0 0 0 0 1.807829489e-07 
0 0 0 0 0 0 0 0 0 
0 0 0 0 0 0 0 0 0 
0 0 0 0 0 0 0 0 1.38006788e-07 
0 0 0 0 0 0 0 0 1.506710315e-07 
0 0 0 0 0 0 0 0 0 
0 0 0 0 0 0 0 0 0 
0 0 0 0 0 0 0 0 0 
-2.397908139e-07 0 0 0 -2.421363023e-07 0 0 0 0 
0 0 0 0 0 0 0 0 0 
0 0 0 0 0 0 0 0 1.376228419e-07 
2.663207148e-07 0 0 0 2.570808043e-07 0 0 0 3.430661894e-07 
-1.384048618e-07 0 0 0 0 0 0 0 0 
0 0 0 0 0 0 0 0 1.207171064e-07 
0 0 0 0 0 0 0 0 0 
0 0 0 0 0 0 0 0 1.723798424e-07 
0 0 0 0 1.456912521e-07 0 0 0 2.234387801e-07 
1.614709289e-07 0 0 0 1.424122375e-07 0 0 0 2.403445156e-07 
0 0 0 0 0 0 0 0 0 
0 0 0 0 0 0 0 0 0 
0 0 0 0 0 0 0 0 -3.000063544e-07 
0 0 0 0 0 0 0 0 1.565062246e-07 
0 0 0 0 0 0 0 0 0 
0 0 0 0 0 0 0 0 -1.488638968e-07 
0 0 0 0 0 0 0 0 -1.270172863e-07 
0 0 0 0 0 0 0 0 0 
0 0 0 0 0 0 0 0 0 
0 0 0 0 0 0 0 0 0 
0 0 0 0 0 0 0 0 -3.279633213e-07 
0 0 0 0 0 0 0 0 0 
1.699905015e-07 0 0 0 0 0 0 0 1.414192882e-07 
0 0 0 0 0 0 0 0 -2.980191294e-07 
0 0 0 0 0 0 0 0 -1.644517053e-07 
0 0 0 0 0 0 0 0 0 
0 0 0 0 0 0 0 0 0 
0 0 0 0 0 0 0 0 -3.129912254e-07 
0 0 0 0 0 0 0 0 -1.494796093e-07 
0 0 0 0 0 0 0 0 0 
0 0 0 0 0 0 0 0 -2.33318485e-07 
0 0 0 0 0 0 0 0 -1.373678274e-07 
-2.567320506e-07 0 0 0 -1.637935562e-07 0 0 0 0 
1.529515111e-07 0 0 0 1.206999135e-07 0 0 0 1.936318542e-07 
0 0 0 0 0 0 0 0 -1.853431562e-07 
0 0 0 0 0 0 0 0 0 
0 0 0 0 0 0 0 0 -1.40174745e-07 
1.261250191e-07 0 0 0 0 0 0 0 0 
1.286781721e-07 0 0 0 0 0 0 0 0 
0 0 0 0 0 0 0 0 0 
0 0 0 0 0 0 0 0 0 
0 0 0 0 0 0 0 0 -1.550676827e-07 
0 0 0 0 0 0 0 0 -2.599782591e-07 
0 0 0 0 0 0 0 0 -3.577083293e-07 
0 0 0 0 0 0 0 0 0 
0 0 0 0 0 0 0 0 -2.075229709e-07 
0 0 0 0 0 0 0 0 0 
0 0 0 0 0 0 0 0 -1.585742611e-07 
0 0 0 0 0 0 0 0 -2.56388006e-07 
0 0 0 0 0 0 0 0 -3.088432942e-07 
0 0 0 0 -1.526924354e-07 0 0 0 -1.576201817e-07 
1.704887202e-07 0 0 0 2.533066463e-07 0 0 0 0 
0 0 0 0 0 0 0 0 0 
-1.594766006e-07 0 0 0 -1.78760356e-07 0 0 0 -2.721609428e-07 
0 0 0 0 0 0 0 0 0 
0 0 0 0 0 0 0 0 0 
0 0 0 0 0 0 0 0 -1.370306368e-07 
-1.315542314e-07 0 0 0 -1.657263957e-07 0 0 0 -2.148905623e-07 
0 0 0 0 0 0 0 0 -1.651687446e-07 
-1.229239001e-07 0 0 0 0 0 0 0 -1.943010174e-07 
0 0 0 0 0 0 0 0 -1.463878519e-07 
0 0 0 0 0 0 0 0 0 
0 0 0 0 0 0 0 0 0 
0 0 0 0 0 0 0 0 0 
0 0 0 0 0 0 0 0 -1.314029802e-07 
0 0 0 0 0 0 0 0 0 
0 0 0 0 0 0 0 0 -1.265671201e-07 
0 0 0 0 0 0 0 0 0 
0 0 0 0 0 0 0 0 0 
0 0 0 0 0 0 0 0 0 
0 0 0 0 0 0 0 0 -1.470554076e-07 
0 0 0 0 0 0 0 0 0 
0 0 0 0 0 0 0 0 -1.619196154e-07 
0 0 0 0 0 0 0 0 -2.274245658e-07 
0 0 0 0 0 0 0 0 0 
0 0 0 0 0 0 0 0 0 
0 0 0 0 0 0 0 0 -1.544875115e-07 
0 0 0 0 0 0 0 0 -1.872399867e-07 
0 0 0 0 0 0 0 0 -1.363188664e-07 
0 0 0 0 0 0 0 0 -1.946720906e-07 
0 0 0 0 2.152934507e-07 0 0 0 0 
0 0 0 0 0 0 0 0 -2.234675129e-07 
0 0 0 0 0 0 0 0 -2.153192382e-07 
0 0 0 0 0 0 0 0 0 
0 0 0 0 0 0 0 0 0 
0 0 0 0 0 0 0 0 -2.193933756e-07 
0 0 0 0 0 0 0 0 0 
0 0 0 0 0 0 0 0 0 
0 0 0 0 0 0 0 0 -1.501553292e-07 
0 0 0 0 0 0 0 0 -1.460811918e-07 
0 0 0 0 0 0 0 0 0 
0 0 0 0 0 0 0 0 2.334778976e-07 
-1.342427381e-07 0 0 0 0 0 0 0 1.676786142e-07 
0 0 0 0 0 0 0 0 1.886248978e-07 
0 0 0 0 0 0 0 0 1.649678051e-07 
0 0 0 0 0 0 0 0 2.005782559e-07 
0 0 0 0 0 0 0 0 1.320681634e-07 
0 0 0 0 0 0 0 0 1.425413052e-07 
0 0 0 0 0 0 0 0 2.110513977e-07 
0 0 0 0 0 0 0 0 1.78151756e-07 
0 0 0 0 0 0 0 0 1.866027373e-07 
-1.287581233e-07 0 0 0 -1.317555322e-07 0 0 0 1.193136096e-07 
1.883758782e-07 0 0 0 0 0 0 0 1.826119419e-07 
0 0 0 0 0 0 0 0 1.655306374e-07 
0 0 0 0 0 0 0 0 1.529581735e-07 
0 0 0 0 0 0 0 0 1.509627757e-07 
0 0 0 0 0 0 0 0 1.846073396e-07 
0 0 0 0 0 0 0 0 1.760666874e-07 
0 0 0 0 0 0 0 0 1.424221235e-07 
0 0 0 0 0 0 0 0 1.740712897e-07 
0 0 0 0 0 0 0 0 2.057417259e-07 
0 0 0 0 0 0 0 0 1.926355663e-07 
0 0 0 0 0 0 0 0 0 
0 0 0 0 0 0 0 0 2.244331464e-07 
0 0 0 0 0 0 0 0 1.991886461e-07 
0 0 0 0 0 0 0 0 1.216615698e-07 
0 0 0 0 0 0 0 0 1.282146496e-07 
0 0 0 0 0 0 0 0 2.150874361e-07 
0 0 0 0 0 0 0 0 2.085343564e-07 
0 0 0 0 0 0 0 0 1.375603599e-07 
3.164475815e-07 0 0 0 2.079884524e-07 0 0 0 2.576101617e-07 
0 0 0 0 0 0 0 0 2.229905443e-07 
0 0 0 0 0 0 0 0 2.238319366e-07 
-3.492281402e-07 1.262060469e-07 0 1.262060469e-07 -2.531936257e-07 0 0 0 0 
1.677024939e-07 0 0 0 1.332658361e-07 0 0 0 2.40300353e-07 
0 0 0 0 0 0 0 0 2.234112405e-07 
1.551788054e-07 0 0 0 0 0 0 0 2.407210492e-07 
0 0 0 0 0 0 0 0 0 
-1.651353669e-07 0 0 0 0 0 0 0 0 
-1.776590554e-07 0 0 0 -1.272479154e-07 0 0 0 0 
0 0 0 0 0 0 0 0 1.701562013e-07 
0 0 0 0 0 0 0 0 0 
0 0 0 0 0 0 0 0 0 
0 0 0 0 0 0 0 0 1.442483796e-07 
0 0 0 0 0 0 0 0 1.206997646e-07 
0 0 0 0 0 0 0 0 0 
0 0 0 0 0 0 0 0 0 
0 0 0 0 0 0 0 0 1.572022905e-07 
0 0 0 0 0 0 0 0 0 
0 0 0 0 0 0 0 0 0 
0 0 0 0 1.38588903e-07 0 0 0 1.37104945e-07 
0 0 0 0 0 0 0 0 1.483166471e-07 
0 0 0 0 -1.549533154e-07 0 0 0 0 
-1.374528772e-07 0 0 0 -2.592306037e-07 0 0 0 0 
0 0 0 0 1.260932144e-07 0 0 0 1.42710796e-07 
0 0 0 0 0 0 0 0 0 
0 0 0 0 0 0 0 0 0 
0 0 0 0 0 0 0 0 0 
0 0 0 0 0 0 0 0 0 
-1.253287083e-07 0 0 0 -2.070919596e-07 0 0 0 0 
0 0 0 0 -1.78070485e-07 0 0 0 0 
0 0 0 0 0 0 0 0 0 
2.079450982e-07 0 0 0 2.630357091e-07 0 0 0 2.564295828e-07 
-1.691433972e-07 0 0 0 -2.023866028e-07 0 0 0 0 
0 0 0 0 0 0 0 0 0 
0 0 0 0 1.219012109e-07 0 0 0 1.491091157e-07 
0 0 0 0 0 0 0 0 1.211255238e-07 
-1.283363688e-07 0 0 0 -1.902285439e-07 0 0 0 0 
0 0 0 0 0 0 0 0 0 
0 0 0 0 0 0 0 0 1.371712745e-07 
0 0 0 0 0 0 0 0 1.292925947e-07 
0 0 0 0 0 0 0 0 0 
0 0 0 0 0 0 0 0 0 
0 0 0 0 0 0 0 0 0 
0 0 0 0 0 0 0 0 0 
0 0 0 0 0 0 0 0 0 
0 0 0 0 0 0 0 0 0 
0 0 0 0 0 0 0 0 0 
0 0 0 0 0 0 0 0 0 
0 0 0 0 0 0 0 0 0 
0 0 0 0 0 0 0 0 0 
0 0 0 0 0 0 0 0 0 
0 0 0 0 0 0 0 0 0 
0 0 0 0 0 0 0 0 0 
0 0 0 0 0 0 0 0 0 
0 0 0 0 0 0 0 0 0 
0 0 0 0 0 0 0 0 0 
0 0 0 0 0 0 0 0 0 
0 0 0 0 0 0 0 0 0 
0 0 0 0 0 0 0 0 0 
0 0 0 0 0 0 0 0 0 
0 0 0 0 0 0 0 0 0 
0 0 0 0 0 0 0 0 0 
0 0 0 0 0 0 0 0 0 
0 0 0 0 0 0 0 0 0 
0 0 0 0 0 0 0 0 0 
0 0 0 0 0 0 0 0 0 
0 0 0 0 0 0 0 0 0 
0 0 0 0 0 0 0 0 0 
0 0 0 0 0 0 0 0 0 
0 0 0 0 0 0 0 0 0 
0 0 0 0 0 0 0 0 0 
0 0 0 0 0 0 0 0 0 
0 0 0 0 0 0 0 0 0 
0 0 0 0 0 0 0 0 0 
0 0 0 0 0 0 0 0 0 
0 0 0 0 0 0 0 0 0 
0 0 0 0 0 0 0 0 0 
0 0 0 0 0 0 0 0 0 
0 0 0 0 0 0 0 0 0 
0 0 0 0 0 0 0 0 0 
0 0 0 0 0 0 0 0 0 
0 0 0 0 0 0 0 0 0 
0 0 0 0 0 0 0 0 0 
0 0 0 0 0 0 0 0 0 
0 0 0 0 0 0 0 0 0 
0 0 0 0 0 0 0 0 0 
0 0 0 0 0 0 0 0 0 
0 0 0 0 0 0 0 0 0 
0 0 0 0 0 0 0 0 0 
0 0 0 0 0 0 0 0 0 
0 0 0 0 0 0 0 0 0 
0 0 0 0 0 0 0 0 0 
0 0 0 0 0 0 0 0 0 
0 0 0 0 0 0 0 0 0 
0 0 0 0 0 0 0 0 0 
0 0 0 0 0 0 0 0 0 
0 0 0 0 0 0 0 0 0 
0 0 0 0 0 0 0 0 0 
0 0 0 0 0 0 0 0 0 
0 0 0 0 0 0 0 0 0 
0 0 0 0 0 0 0 0 0 
0 0 0 0 0 0 0 0 0 
0 0 0 0 0 0 0 0 1.305297417e-07 
0 0 0 0 0 0 0 0 0 
0 0 0 0 0 0 0 0 0 
0 0 0 0 0 0 0 0 0 
0 0 0 0 0 0 0 0 1.226566489e-07 
0 0 0 0 0 0 0 0 0 
0 0 0 0 0 0 0 0 0 
0 0 0 0 0 0 0 0 0 
0 0 0 0 0 0 0 0 0 
0 0 0 0 0 0 0 0 1.35040355e-07 
0 0 0 0 0 0 0 0 0 
0 0 0 0 0 0 0 0 0 
0 0 0 0 0 0 0 0 0 
0 0 0 0 0 0 0 0 0 
0 0 0 0 0 0 0 0 0 
0 0 0 0 0 0 0 0 0 
0 0 0 0 0 0 0 0 0 
-2.439521581e-07 0 0 0 -2.439373984e-07 0 0 0 0 
0 0 0 0 0 0 0 0 0 
0 0 0 0 0 0 0 0 0 
2.354423863e-07 0 0 0 2.295066754e-07 0 0 0 2.779442942e-07 
-1.379559616e-07 0 0 0 0 0 0 0 0 
0 0 0 0 0 0 0 0 0 
0 0 0 0 0 0 0 0 0 
0 0 0 0 0 0 0 0 1.211252668e-07 
0 0 0 0 1.255802719e-07 0 0 0 1.774068486e-07 
1.516144359e-07 0 0 0 1.368289036e-07 0 0 0 1.954090549e-07 
1.216391195e-07 0 0 0 1.94176695e-07 0 0 0 0 
0 0 0 0 0 0 0 0 0 
0 0 0 0 -1.774850761e-07 0 0 0 0 
0 0 0 0 -1.769427508e-07 0 0 0 -1.491174436e-07 
0 0 0 0 0 0 0 0 0 
0 0 0 0 0 0 0 0 0 
0 0 0 0 0 0 0 0 0 
0 0 0 0 0 0 0 0 0 
0 0 0 0 0 0 0 0 0 
0 0 0 0 -1.772139135e-07 0 0 0 0 
0 0 0 0 0 0 0 0 0 
0 0 0 0 0 0 0 0 0 
0 0 0 0 0 0 0 0 0 
0 0 0 0 0 0 0 0 0 
0 0 0 0 0 0 0 0 0 
0 0 0 0 0 0 0 0 0 
0 0 0 0 0 0 0 0 0 
0 0 0 0 0 0 0 0 0 
0 0 0 0 0 0 0 0 0 
0 0 0 0 0 0 0 0 0 
0 0 0 0 0 0 0 0 0 
0 0 0 0 0 0 0 0 0 
0 0 0 0 0 0 0 0 0 
0 0 0 0 0 0 0 0 0 
0 0 0 0 0 0 0 0 0 
0 0 0 0 0 0 0 0 0 
0 0 0 0 0 0 0 0 0 
0 0 0 0 0 0 0 0 0 
0 0 0 0 0 0 0 0 0 
0 0 0 0 0 0 0 0 0 
0 0 0 0 -1.684476798e-07 0 0 0 -1.217215704e-07 
0 0 0 0 0 0 0 0 0 
0 0 0 0 2.469319207e-07 0 0 0 1.48591252e-07 
0 0 0 0 -1.51878171e-07 0 0 0 0 
0 0 0 0 0 0 0 0 0 
0 0 0 0 0 0 0 0 0 
0 0 0 0 0 0 0 0 0 
0 0 0 0 -1.601629254e-07 0 0 0 0 
0 0 0 0 0 0 0 0 0 
0 0 0 0 0 0 0 0 0 
0 0 0 0 1.32860241e-07 0 0 0 0 
0 0 0 0 0 0 0 0 0 
0 0 0 0 -1.958846488e-07 0 0 0 0 
0 0 0 0 0 0 0 0 0 
0 0 0 0 0 0 0 0 0 
0 0 0 0 0 0 0 0 0 
0 0 0 0 0 0 0 0 0 
0 0 0 0 0 0 0 0 0 
0 0 0 0 0 0 0 0 0 
0 0 0 0 -1.501061743e-07 0 0 0 0 
0 0 0 0 -1.216328197e-07 0 0 0 0 
0 0 0 0 0 0 0 0 0 
0 0 0 0 1.320649849e-07 0 0 0 0 
0 0 0 0 0 0 0 0 0 
0 0 0 0 0 0 0 0 0 
0 0 0 0 0 0 0 0 0 
0 0 0 0 0 0 0 0 0 
0 0 0 0 0 0 0 0 0 
0 0 0 0 0 0 0 0 0 
0 0 0 0 0 0 0 0 0 
0 0 0 0 0 0 0 0 0 
0 0 0 0 0 0 0 0 0 
0 0 0 0 -1.253959882e-07 0 0 0 0 
0 0 0 0 0 0 0 0 0 
0 0 0 0 0 0 0 0 0 
0 0 0 0 0 0 0 0 0 
0 0 0 0 0 0 0 0 0 
0 0 0 0 0 0 0 0 0 
0 0 0 0 0 0 0 0 0 
0 0 0 0 0 0 0 0 0 
0 0 0 0 -2.255767973e-07 0 0 0 -1.244722126e-07 
0 0 0 0 0 0 0 0 0 
0 0 0 0 2.680549529e-07 0 0 0 1.617057027e-07 
0 0 0 0 -1.716594125e-07 0 0 0 0 
0 0 0 0 -1.192417937e-07 0 0 0 0 
0 0 0 0 1.275740814e-07 0 0 0 0 
0 0 0 0 0 0 0 0 0 
0 0 0 0 -1.986181049e-07 0 0 0 0 
0 0 0 0 0 0 0 0 0 
0 0 0 0 0 0 0 0 0 
0 0 0 0 0 0 0 0 0 
0 0 0 0 0 0 0 0 0 
0 0 0 0 0 0 0 0 0 
0 0 0 0 0 0 0 0 0 
0 0 0 0 0 0 0 0 0 
0 0 0 0 0 0 0 0 0 
0 0 0 0 0 0 0 0 0 
0 0 0 0 0 0 0 0 0 
0 0 0 0 0 0 0 0 0 
0 0 0 0 0 0 0 0 0 
-1.904428135e-07 0 0 0 -1.916199166e-07 0 0 0 0 
0 0 0 0 0 0 0 0 0 
0 0 0 0 0 0 0 0 0 
1.569965514e-07 0 0 0 1.611576245e-07 0 0 0 1.88816716e-07 
0 0 0 0 0 0 0 0 0 
0 0 0 0 0 0 0 0 0 
0 0 0 0 0 0 0 0 0 
0 0 0 0 0 0 0 0 0 
0 0 0 0 0 0 0 0 1.240710983e-07 
0 0 0 0 0 0 0 0 1.322679839e-07 
0 0 0 0 0 0 0 0 0 
0 0 0 0 0 0 0 0 0 
0 0 0 0 0 0 0 0 0 
0 0 0 0 0 0 0 0 0 
0 0 0 0 0 0 0 0 0 
0 0 0 0 0 0 0 0 0 
0 0 0 0 0 0 0 0 0 
0 0 0 0 0 0 0 0 0 
0 0 0 0 0 0 0 0 0 
0 0 0 0 0 0 0 0 0 
0 0 0 0 0 0 0 0 0 
0 0 0 0 0 0 0 0 0 
0 0 0 0 0 0 0 0 0 
0 0 0 0 0 0 0 0 0 
0 0 0 0 0 0 0 0 0 
0 0 0 0 0 0 0 0 0 
0 0 0 0 0 0 0 0 0 
0 0 0 0 0 0 0 0 0 
0 0 0 0 0 0 0 0 0 
0 0 0 0 0 0 0 0 0 
0 0 0 0 0 0 0 0 1.946276064e-07 
0 0 0 0 0 0 0 0 1.249058531e-07 
0 0 0 0 0 0 0 0 1.193926668e-07 
0 0 0 0 0 0 0 0 1.778063348e-07 
0 0 0 0 0 0 0 0 1.597667297e-07 
0 0 0 0 0 0 0 0 1.221492599e-07 
0 0 0 0 0 0 0 0 1.570101366e-07 
0 0 0 0 0 0 0 0 1.862169706e-07 
0 0 0 0 0 0 0 0 1.513560939e-07 
0 0 0 0 0 0 0 0 1.485995008e-07 
0 0 0 0 1.808925489e-07 0 0 0 1.820114824e-07 
0 0 0 0 0 0 0 0 1.759137449e-07 
-1.376777606e-07 0 0 0 -1.955792783e-07 0 0 0 0 
0 0 0 0 -2.281701321e-07 0 0 0 0 
0 0 0 0 1.320972841e-07 0 0 0 1.789626137e-07 
0 0 0 0 0 0 0 0 0 
0 0 0 0 0 0 0 0 1.22215807e-07 
0 0 0 0 0 0 0 0 0 
0 0 0 0 0 0 0 0 0 
-1.281109166e-07 0 0 0 -2.118747052e-07 0 0 0 0 
0 0 0 0 -1.886459496e-07 0 0 0 0 
0 0 0 0 0 0 0 0 0 
2.336841357e-07 -1.283792183e-07 0 -1.283792183e-07 3.142961934e-07 0 0 0 3.199461876e-07 
-1.745541156e-07 0 0 0 -1.918932954e-07 0 0 0 0 
0 0 0 0 -1.36233668e-07 0 0 0 0 
0 0 0 0 0 0 0 0 1.736333056e-07 
0 0 0 0 0 0 0 0 1.639907786e-07 
-1.292172837e-07 0 0 0 -1.902696225e-07 0 0 0 0 
0 0 0 0 -1.378573409e-07 0 0 0 0 
0 0 0 0 0 0 0 0 1.919556515e-07 
0 0 0 0 0 0 0 0 1.884310291e-07 
0 0 0 0 0 0 0 0 0 
0 0 0 0 0 0 0 0 0 
0 0 0 0 0 0 0 0 0 
0 0 0 0 0 0 0 0 1.213914813e-07 
0 0 0 0 0 0 0 0 0 
0 0 0 0 0 0 0 0 1.311105071e-07 
0 0 0 0 0 0 0 0 1.36311996e-07 
0 0 0 0 0 0 0 0 0 
0 0 0 0 0 0 0 0 0 
0 0 0 0 -1.377484667e-07 0 0 0 -2.387974168e-07 
-1.52767275e-07 0 0 0 -1.852273937e-07 0 0 0 -2.186965305e-07 
0 0 0 0 0 0 0 0 0 
0 0 0 0 3.021219683e-07 0 0 0 0 
0 0 0 0 -1.614879302e-07 0 0 0 -2.287469737e-07 
0 0 0 0 -1.301115735e-07 0 0 0 -1.580404521e-07 
0 0 0 0 0 0 0 0 -1.680908952e-07 
0 0 0 0 0 0 0 0 0 
0 0 0 0 0 0 0 0 0 
0 0 0 0 0 0 0 0 0 
-1.301920934e-07 0 0 0 0 0 0 0 -1.769269054e-07 
1.347103139e-07 0 0 0 1.805957638e-07 0 0 0 0 
0 0 0 0 0 0 0 0 0 
0 0 0 0 -1.245260641e-07 0 0 0 -1.676564638e-07 
0 0 0 0 0 0 0 0 -1.316489527e-07 
0 0 0 0 0 0 0 0 0 
0 0 0 0 0 0 0 0 -1.25732112e-07 
0 0 0 0 0 0 0 0 -1.722916846e-07 
0 0 0 0 0 0 0 0 -1.270137319e-07 
0 0 0 0 0 0 0 0 -1.210968912e-07 
0 0 0 0 0 0 0 0 0 
0 0 0 0 1.206866823e-07 0 0 0 0 
0 0 0 0 0 0 0 0 0 
0 0 0 0 0 0 0 0 0 
0 0 0 0 0 0 0 0 0 
0 0 0 0 0 0 0 0 0 
0 0 0 0 0 0 0 0 0 
0 0 0 0 0 0 0 0 0 
0 0 0 0 0 0 0 0 0 
0 0 0 0 0 0 0 0 0 
0 0 0 0 2.884619719e-07 0 0 0 1.804845144e-07 
0 0 0 0 -1.835701932e-07 0 0 0 -1.470527819e-07 
0 0 0 0 0 0 0 0 -1.277696603e-07 
0 0 0 0 -1.415984563e-07 0 0 0 0 
0 0 0 0 0 0 0 0 0 
0 0 0 0 -1.437178899e-07 0 0 0 -1.374112211e-07 
0 0 0 0 0 0 0 0 0 
0 0 0 0 0 0 0 0 0 
0 0 0 0 -1.625843247e-07 0 0 0 0 
0 0 0 0 -1.227320214e-07 0 0 0 0 
0 0 0 0 -1.608897086e-07 0 0 0 0 
1.274307735e-07 0 0 0 1.772435901e-07 0 0 0 0 
0 0 0 0 0 0 0 0 0 
0 0 0 0 -1.299504327e-07 0 0 0 -1.486138334e-07 
0 0 0 0 0 0 0 0 0 
0 0 0 0 0 0 0 0 0 
0 0 0 0 0 0 0 0 0 
0 0 0 0 -1.454200707e-07 0 0 0 0 
0 0 0 0 0 0 0 0 0 
0 0 0 0 0 0 0 0 0 
0 0 0 0 1.398878714e-07 0 0 0 0 
0 0 0 0 0 0 0 0 0 
0 0 0 0 0 0 0 0 0 
0 0 0 0 0 0 0 0 0 
0 0 0 0 0 0 0 0 0 
0 0 0 0 0 0 0 0 0 
0 0 0 0 0 0 0 0 0 
0 0 0 0 0 0 0 0 0 
0 0 0 0 0 0 0 0 0 
0 0 0 0 0 0 0 0 0 
0 0 0 0 0 0 0 0 0 
0 0 0 0 0 0 0 0 0 
1.278464122e-07 0 0 0 1.879607312e-07 0 0 0 0 
0 0 0 0 0 0 0 0 0 
0 0 0 0 0 0 0 0 0 
0 0 0 0 0 0 0 0 0 
0 0 0 0 0 0 0 0 0 
0 0 0 0 0 0 0 0 0 
0 0 0 0 0 0 0 0 0 
0 0 0 0 0 0 0 0 0 
0 0 0 0 1.627616409e-07 0 0 0 0 
0 0 0 0 -1.637211791e-07 0 0 0 0 
0 0 0 0 0 0 0 0 0 
0 0 0 0 0 0 0 0 0 
0 0 0 0 0 0 0 0 0 
0 0 0 0 0 0 0 0 0 
0 0 0 0 0 0 0 0 0 
0 0 0 0 0 0 0 0 0 
0 0 0 0 0 0 0 0 0 
0 0 0 0 0 0 0 0 0 
-1.248361417e-07 0 0 0 -1.924920522e-07 0 0 0 0 
1.607840307e-07 0 0 0 2.618476618e-07 0 0 0 0 
0 0 0 0 0 0 0 0 0 
0 0 0 0 -1.671209333e-07 0 0 0 -1.775014671e-07 
0 0 0 0 0 0 0 0 0 
0 0 0 0 0 0 0 0 0 
0 0 0 0 -1.251938893e-07 0 0 0 0 
0 0 0 0 -1.798064927e-07 0 0 0 0 
0 0 0 0 0 0 0 0 0 
0 0 0 0 0 0 0 0 0 
0 0 0 0 2.730683762e-07 0 0 0 2.033436445e-07 
0 0 0 0 -2.300989717e-07 0 0 0 -1.822693812e-07 
0 0 0 0 0 0 0 0 -1.313909874e-07 
0 0 0 0 0 0 0 0 0 
0 0 0 0 0 0 0 0 0 
0 0 0 0 -1.531587697e-07 0 0 0 -1.568301843e-07 
0 0 0 0 0 0 0 0 0 
0 0 0 0 0 0 0 0 1.4424275e-07 
0 0 0 0 -1.473223469e-07 0 0 0 0 
0 0 0 0 0 0 0 0 0 
0 0 0 0 0 0 0 0 0 
0 0 0 0 1.769099117e-07 0 0 0 1.603668174e-07 
0 0 0 0 0 0 0 0 0 
0 0 0 0 0 0 0 0 -1.246976196e-07 
0 0 0 0 0 0 0 0 0 
0 0 0 0 0 0 0 0 0 
0 0 0 0 0 0 0 0 0 
0 0 0 0 0 0 0 0 0 
0 0 0 0 0 0 0 0 0 
0 0 0 0 0 0 0 0 -1.198565976e-07 
0 0 0 0 0 0 0 0 0 
0 0 0 0 0 0 0 0 0 
0 0 0 0 0 0 0 0 0 
0 0 0 0 0 0 0 0 0 
0 0 0 0 0 0 0 0 0 
0 0 0 0 0 0 0 0 0 
0 0 0 0 0 0 0 0 0 
0 0 0 0 0 0 0 0 0 
0 0 0 0 0 0 0 0 0 
0 0 0 0 0 0 0 0 0 
0 0 0 0 0 0 0 0 0 
0 0 0 0 0 0 0 0 0 
0 0 0 0 0 0 0 0 0 
0 0 0 0 0 0 0 0 0 
0 0 0 0 0 0 0 0 0 
0 0 0 0 0 0 0 0 0 
0 0 0 0 0 0 0 0 0 
0 0 0 0 0 0 0 0 0 
0 0 0 0 0 0 0 0 0 
0 0 0 0 0 0 0 0 0 
0 0 0 0 0 0 0 0 0 
0 0 0 0 0 0 0 0 0 
0 0 0 0 0 0 0 0 0 
0 0 0 0 0 0 0 0 0 
0 0 0 0 0 0 0 0 0 
0 0 0 0 0 0 0 0 0 
0 0 0 0 0 0 0 0 0 
0 0 0 0 0 0 0 0 0 
0 0 0 0 0 0 0 0 0 
0 0 0 0 0 0 0 0 0 
0 0 0 0 0 0 0 0 0 
0 0 0 0 0 0 0 0 0 
0 0 0 0 0 0 0 0 0 
0 0 0 0 0 0 0 0 0 
0 0 0 0 0 0 0 0 0 
0 0 0 0 0 0 0 0 0 
0 0 0 0 0 0 0 0 0 
0 0 0 0 0 0 0 0 0 
0 0 0 0 0 0 0 0 0 
0 0 0 0 0 0 0 0 0 
0 0 0 0 1.660840768e-07 0 0 0 0 
0 0 0 0 0 0 0 0 0 
0 0 0 0 -1.722909536e-07 0 0 0 0 
0 0 0 0 -1.388679025e-07 0 0 0 -1.412795739e-07 
0 0 0 0 0 0 0 0 0 
0 0 0 0 0 0 0 0 0 
0 0 0 0 0 0 0 0 0 
0 0 0 0 0 0 0 0 0 
0 0 0 0 0 0 0 0 0 
0 0 0 0 -1.555794281e-07 0 0 0 0 
0 0 0 0 -1.48495473e-07 0 0 0 0 
0 0 0 0 0 0 0 0 0 
0 0 0 0 1.287068536e-07 0 0 0 0 
0 0 0 0 0 0 0 0 0 
0 0 0 0 0 0 0 0 0 
0 0 0 0 0 0 0 0 0 
0 0 0 0 0 0 0 0 0 
0 0 0 0 0 0 0 0 0 
0 0 0 0 0 0 0 0 0 
0 0 0 0 0 0 0 0 0 
0 0 0 0 1.301718002e-07 0 0 0 1.223966407e-07 
0 0 0 0 0 0 0 0 0 
0 0 0 0 0 0 0 0 0 
0 0 0 0 0 0 0 0 0 
0 0 0 0 0 0 0 0 0 
0 0 0 0 0 0 0 0 0 
0 0 0 0 0 0 0 0 0 
0 0 0 0 0 0 0 0 0 
0 0 0 0 0 0 0 0 0 
0 0 0 0 0 0 0 0 0 
0 0 0 0 -2.137310152e-07 0 0 0 -1.501539604e-07 
0 0 0 0 0 0 0 0 0 
0 0 0 0 2.852840475e-07 0 0 0 1.910692197e-07 
0 0 0 0 -1.660264601e-07 0 0 0 0 
0 0 0 0 -1.216215736e-07 0 0 0 -1.193524725e-07 
0 0 0 0 1.278859578e-07 0 0 0 0 
0 0 0 0 0 0 0 0 0 
0 0 0 0 -1.898787377e-07 0 0 0 0 
0 0 0 0 0 0 0 0 0 
0 0 0 0 0 0 0 0 0 
0 0 0 0 1.315035488e-07 0 0 0 2.461679394e-07 
0 0 0 0 0 0 0 0 0 
0 0 0 0 0 0 0 0 0 
0 0 0 0 0 0 0 0 0 
0 0 0 0 0 0 0 0 1.601538042e-07 
0 0 0 0 0 0 0 0 0 
0 0 0 0 0 0 0 0 1.618798275e-07 
0 0 0 0 0 0 0 0 1.685743498e-07 
0 0 0 0 0 0 0 0 0 
0 0 0 0 0 0 0 0 0 
0 0 0 0 -1.76001556e-07 0 0 0 0 
0 0 0 0 -1.707850967e-07 0 0 0 0 
2.451429597e-07 -1.401297836e-07 0 -1.401297836e-07 3.459298301e-07 0 0 0 3.752656106e-07 
-1.466275933e-07 0 0 0 -1.330550039e-07 0 0 0 1.315036257e-07 
0 0 0 0 -1.733933264e-07 0 0 0 0 
0 0 0 0 0 0 0 0 1.878509593e-07 
0 0 0 0 0 0 0 0 2.035198092e-07 
0 0 0 0 -1.5452828e-07 0 0 0 0 
-1.266672646e-07 0 0 0 -1.519200503e-07 0 0 0 0 
0 0 0 0 0 0 0 0 2.533846181e-07 
0 0 0 0 1.822972766e-07 0 0 0 2.055653282e-07 
0 0 0 0 0 0 0 0 1.948651003e-07 
-1.587207775e-07 0 0 0 -2.156526677e-07 0 0 0 0 
0 0 0 0 -1.44992162e-07 0 0 0 0 
0 0 0 0 0 0 0 0 2.002152142e-07 
0 0 0 0 0 0 0 0 1.445650311e-07 
0 0 0 0 0 0 0 0 1.49915145e-07 
0 0 0 0 0 0 0 0 0 
0 0 0 0 0 0 0 0 0 
-1.213322922e-07 0 0 0 -1.803224149e-07 0 0 0 0 
0 0 0 0 0 0 0 0 2.281631174e-07 
0 0 0 0 0 0 0 0 1.745188356e-07 
0 0 0 0 0 0 0 0 1.616308632e-07 
0 0 0 0 0 0 0 0 1.900704511e-07 
0 0 0 0 0 0 0 0 2.013409765e-07 
0 0 0 0 0 0 0 0 1.680748494e-07 
0 0 0 0 0 0 0 0 1.948969903e-07 
0 0 0 0 0 0 0 0 2.091167842e-07 
0 0 0 0 0 0 0 0 1.822946433e-07 
0 0 0 0 0 0 0 0 1.758506571e-07 
0 0 0 0 0 0 0 0 0 
0 0 0 0 0 0 0 0 0 
0 0 0 0 0 0 0 0 0 
0 0 0 0 0 0 0 0 0 
0 0 0 0 0 0 0 0 0 
0 0 0 0 0 0 0 0 0 
0 0 0 0 0 0 0 0 0 
0 0 0 0 0 0 0 0 0 
0 0 0 0 0 0 0 0 0 
0 0 0 0 0 0 0 0 0 
0 0 0 0 0 0 0 0 0 
0 0 0 0 0 0 0 0 0 
0 0 0 0 0 0 0 0 0 
0 0 0 0 0 0 0 0 0 
0 0 0 0 0 0 0 0 0 
0 0 0 0 0 0 0 0 0 
0 0 0 0 0 0 0 0 0 
0 0 0 0 0 0 0 0 0 
0 0 0 0 0 0 0 0 0 
0 0 0 0 0 0 0 0 0 
0 0 0 0 0 0 0 0 0 
0 0 0 0 0 0 0 0 0 
0 0 0 0 0 0 0 0 0 
0 0 0 0 0 0 0 0 0 
0 0 0 0 0 0 0 0 0 
0 0 0 0 0 0 0 0 0 
0 0 0 0 0 0 0 0 0 
0 0 0 0 0 0 0 0 0 
0 0 0 0 0 0 0 0 0 
0 0 0 0 0 0 0 0 0 
0 0 0 0 0 0 0 0 0 
0 0 0 0 0 0 0 0 0 
0 0 0 0 0 0 0 0 0 
0 0 0 0 0 0 0 0 0 
0 0 0 0 0 0 0 0 0 
0 0 0 0 0 0 0 0 0 
0 0 0 0 0 0 0 0 0 
0 0 0 0 0 0 0 0 0 
0 0 0 0 0 0 0 0 0 
0 0 0 0 0 0 0 0 0 
0 0 0 0 0 0 0 0 0 
0 0 0 0 0 0 0 0 0 
0 0 0 0 0 0 0 0 0 
0 0 0 0 0 0 0 0 0 
0 0 0 0 0 0 0 0 0 
0 0 0 0 0 0 0 0 0 
0 0 0 0 0 0 0 0 0 
0 0 0 0 0 0 0 0 0 
0 0 0 0 0 0 0 0 0 
0 0 0 0 0 0 0 0 0 
0 0 0 0 0 0 0 0 0 
0 0 0 0 0 0 0 0 0 
0 0 0 0 1.315742074e-07 0 0 0 0 
0 0 0 0 0 0 0 0 0 
0 0 0 0 0 0 0 0 0 
0 0 0 0 0 0 0 0 0 
0 0 0 0 0 0 0 0 0 
0 0 0 0 0 0 0 0 0 
0 0 0 0 0 0 0 0 0 
0 0 0 0 0 0 0 0 0 
0 0 0 0 0 0 0 0 0 
0 0 0 0 0 0 0 0 0 
0 0 0 0 0 0 0 0 0 
0 0 0 0 0 0 0 0 0 
0 0 0 0 0 0 0 0 0 
0 0 0 0 0 0 0 0 0 
0 0 0 0 0 0 0 0 0 
0 0 0 0 0 0 0 0 0 
0 0 0 0 0 0 0 0 0 
0 0 0 0 0 0 0 0 0 
0 0 0 0 0 0 0 0 0 
0 0 0 0 0 0 0 0 0 
0 0 0 0 0 0 0 0 0 
0 0 0 0 0 0 0 0 0 
0 0 0 0 0 0 0 0 0 
0 0 0 0 0 0 0 0 0 
0 0 0 0 0 0 0 0 0 
0 0 0 0 0 0 0 0 0 
0 0 0 0 0 0 0 0 0 
0 0 0 0 0 0 0 0 0 
0 0 0 0 0 0 0 0 0 
0 0 0 0 0 0 0 0 0 
0 0 0 0 0 0 0 0 0 
0 0 0 0 0 0 0 0 0 
0 0 0 0 0 0 0 0 0 
0 0 0 0 0 0 0 0 0 
0 0 0 0 0 0 0 0 0 
0 0 0 0 0 0 0 0 0 
0 0 0 0 0 0 0 0 0 
0 0 0 0 0 0 0 0 0 
0 0 0 0 0 0 0 0 0 
0 0 0 0 0 0 0 0 0 
0 0 0 0 0 0 0 0 0 
0 0 0 0 0 0 0 0 0 
0 0 0 0 0 0 0 0 0 
0 0 0 0 0 0 0 0 0 
0 0 0 0 0 0 0 0 0 
0 0 0 0 0 0 0 0 0 
0 0 0 0 0 0 0 0 0 
0 0 0 0 0 0 0 0 0 
0 0 0 0 0 0 0 0 0 
0 0 0 0 0 0 0 0 1.874123824e-07 
0 0 0 0 0 0 0 0 0 
0 0 0 0 0 0 0 0 0 
0 0 0 0 0 0 0 0 0 
0 0 0 0 0 0 0 0 0 
0 0 0 0 0 0 0 0 0 
0 0 0 0 0 0 0 0 0 
0 0 0 0 0 0 0 0 0 
0 0 0 0 0 0 0 0 0 
0 0 0 0 0 0 0 0 1.740598781e-07 
1.320378538e-07 0 0 0 0 0 0 0 0 
0 0 0 0 0 0 0 0 0 
0 0 0 0 0 0 0 0 2.12340923e-07 
0 0 0 0 0 0 0 0 0 
0 0 0 0 0 0 0 0 0 
0 0 0 0 0 0 0 0 0 
0 0 0 0 0 0 0 0 1.932004005e-07 
0 0 0 0 0 0 0 0 0 
0 0 0 0 0 0 0 0 0 
0 0 0 0 0 0 0 0 2.59999219e-07 
-2.023033564e-07 0 0 0 0 0 0 0 -1.956113171e-07 
0 0 0 0 0 0 0 0 2.900500236e-07 
0 0 0 0 0 0 0 0 0 
0 0 0 0 0 0 0 0 0 
0 0 0 0 0 0 0 0 0 
0 0 0 0 0 0 0 0 2.750246213e-07 
0 0 0 0 0 0 0 0 0 
0 0 0 0 0 0 0 0 0 
0 0 0 0 0 0 0 0 1.236541839e-07 
0 0 0 0 0 0 0 0 -1.204293306e-07 
0 0 0 0 0 0 0 0 2.441049487e-07 
0 0 0 0 0 0 0 0 2.580543228e-07 
0 0 0 0 0 0 0 0 2.053768759e-07 
0 0 0 0 0 0 0 0 0 
0 0 0 0 0 0 0 0 2.510796357e-07 
0 0 0 0 0 0 0 0 0 
0 0 0 0 0 0 0 0 0 
0 0 0 0 0 0 0 0 2.247409123e-07 
0 0 0 0 0 0 0 0 2.317155994e-07 
0 0 0 0 0 0 0 0 0 
0 0 0 0 0 0 0 0 0 
0 0 0 0 0 0 0 0 0 
0 0 0 0 0 0 0 0 0 
0 0 0 0 0 0 0 0 0 
0 0 0 0 0 0 0 0 0 
0 0 0 0 0 0 0 0 0 
0 0 0 0 0 0 0 0 0 
0 0 0 0 0 0 0 0 0 
0 0 0 0 0 0 0 0 0 
0 0 0 0 0 0 0 0 0 
0 0 0 0 0 0 0 0 0 
0 0 0 0 0 0 0 0 0 
0 0 0 0 0 0 0 0 0 
0 0 0 0 0 0 0 0 0 
0 0 0 0 0 0 0 0 0 
0 0 0 0 0 0 0 0 0 
0 0 0 0 0 0 0 0 0 
0 0 0 0 0 0 0 0 0 
0 0 0 0 0 0 0 0 0 
0 0 0 0 0 0 0 0 0 
0 0 0 0 0 0 0 0 0 
0 0 0 0 0 0 0 0 0 
0 0 0 0 0 0 0 0 0 
0 0 0 0 0 0 0 0 0 
0 0 0 0 0 0 0 0 0 
0 0 0 0 0 0 0 0 0 
0 0 0 0 0 0 0 0 0 
0 0 0 0 0 0 0 0 0 
0 0 0 0 0 0 0 0 0 
0 0 0 0 0 0 0 0 0 
0 0 0 0 0 0 0 0 0 
0 0 0 0 0 0 0 0 0 
0 0 0 0 0 0 0 0 0 
0 0 0 0 0 0 0 0 0 
0 0 0 0 0 0 0 0 0 
0 0 0 0 0 0 0 0 0 
0 0 0 0 0 0 0 0 0 
0 0 0 0 0 0 0 0 0 
0 0 0 0 0 0 0 0 0 
-1.754357998e-07 0 0 0 -1.341574375e-07 0 0 0 1.849162132e-07 
1.824369992e-07 0 0 0 1.241147913e-07 0 0 0 0 
0 0 0 0 1.235695298e-07 0 0 0 0 
0 0 0 0 0 0 0 0 2.550632151e-07 
0 0 0 0 0 0 0 0 0 
1.248339058e-07 0 0 0 1.238421606e-07 0 0 0 0 
0 0 0 0 0 0 0 0 0 
0 0 0 0 0 0 0 0 2.199897141e-07 
0 0 0 0 0 0 0 0 0 
0 0 0 0 0 0 0 0 0 
0 0 0 0 0 0 0 0 -1.260541211e-07 
0 0 0 0 0 0 0 0 2.152233829e-07 
0 0 0 0 0 0 0 0 0 
0 0 0 0 0 0 0 0 0 
0 0 0 0 0 0 0 0 0 
0 0 0 0 0 0 0 0 0 
0 0 0 0 0 0 0 0 0 
0 0 0 0 0 0 0 0 0 
0 0 0 0 0 0 0 0 0 
0 0 0 0 0 0 0 0 0 
0 0 0 0 -1.458448912e-07 0 0 0 0 
0 0 0 0 0 0 0 0 0 
0 0 0 0 0 0 0 0 0 
0 0 0 0 0 0 0 0 0 
0 0 0 0 0 0 0 0 0 
0 0 0 0 0 0 0 0 0 
0 0 0 0 0 0 0 0 0 
0 0 0 0 -1.23395439e-07 0 0 0 0 
0 0 0 0 0 0 0 0 0 
0 0 0 0 0 0 0 0 0 
0 0 0 0 0 0 0 0 0 
0 0 0 0 0 0 0 0 0 
0 0 0 0 0 0 0 0 0 
0 0 0 0 0 0 0 0 0 
0 0 0 0 0 0 0 0 0 
0 0 0 0 0 0 0 0 0 
0 0 0 0 0 0 0 0 0 
0 0 0 0 0 0 0 0 0 
0 0 0 0 0 0 0 0 0 
0 0 0 0 0 0 0 0 0 
0 0 0 0 0 0 0 0 0 
0 0 0 0 0 0 0 0 0 
0 0 0 0 0 0 0 0 0 
0 0 0 0 0 0 0 0 0 
0 0 0 0 0 0 0 0 0 
0 0 0 0 0 0 0 0 0 
0 0 0 0 0 0 0 0 0 
0 0 0 0 0 0 0 0 0 
0 0 0 0 0 0 0 0 0 
0 0 0 0 0 0 0 0 0 
0 0 0 0 1.827496764e-07 0 0 0 0 
0 0 0 0 -1.584887087e-07 0 0 0 0 
0 0 0 0 0 0 0 0 0 
0 0 0 0 -1.384936719e-07 0 0 0 0 
0 0 0 0 0 0 0 0 0 
0 0 0 0 0 0 0 0 0 
0 0 0 0 0 0 0 0 0 
0 0 0 0 0 0 0 0 0 
0 0 0 0 -1.484911903e-07 0 0 0 0 
0 0 0 0 0 0 0 0 0 
0 0 0 0 0 0 0 0 -1.654997684e-07 
0 0 0 0 0 0 0 0 -1.290523049e-07 
-2.058774903e-07 0 0 0 -1.783365655e-07 0 0 0 -2.860819837e-07 
0 0 0 0 2.927350038e-07 0 0 0 0 
0 0 0 0 0 0 0 0 -1.472760366e-07 
0 0 0 0 -1.31585356e-07 0 0 0 -2.075671443e-07 
0 0 0 0 0 0 0 0 -2.25790876e-07 
0 0 0 0 1.343202342e-07 0 0 0 0 
0 0 0 0 0 0 0 0 0 
0 0 0 0 0 0 0 0 -1.751159705e-07 
0 0 0 0 0 0 0 0 0 
1.520545121e-07 0 0 0 0 0 0 0 0 
0 0 0 0 0 0 0 0 -1.248255051e-07 
-3.797363468e-07 0 0 0 -2.531693337e-07 0 0 0 -2.74102974e-07 
0 0 0 0 0 0 0 0 0 
1.197462926e-07 0 0 0 0 0 0 0 0 
0 0 0 0 0 0 0 0 0 
-1.599308469e-07 0 0 0 0 0 0 0 -1.708339237e-07 
0 0 0 0 0 0 0 0 -1.884483976e-07 
-1.461491368e-07 0 0 0 0 0 0 0 -1.994642395e-07 
0 0 0 0 0 0 0 0 0 
0 0 0 0 0 0 0 0 0 
0 0 0 0 0 0 0 0 0 
0 0 0 0 0 0 0 0 0 
0 0 0 0 0 0 0 0 0 
0 0 0 0 0 0 0 0 0 
0 0 0 0 0 0 0 0 0 
0 0 0 0 0 0 0 0 0 
0 0 0 0 0 0 0 0 0 
0 0 0 0 0 0 0 0 0 
0 0 0 0 -1.811176333e-07 0 0 0 0 
0 0 0 0 0 0 0 0 0 
0 0 0 0 2.119701475e-07 0 0 0 0 
0 0 0 0 -1.326889451e-07 0 0 0 0 
0 0 0 0 0 0 0 0 0 
0 0 0 0 0 0 0 0 0 
0 0 0 0 0 0 0 0 0 
0 0 0 0 -1.569032892e-07 0 0 0 0 
0 0 0 0 0 0 0 0 0 
0 0 0 0 0 0 0 0 0 
0 0 0 0 0 0 0 0 0 
0 0 0 0 0 0 0 0 0 
0 0 0 0 -1.594683786e-07 0 0 0 0 
0 0 0 0 0 0 0 0 0 
0 0 0 0 0 0 0 0 0 
0 0 0 0 0 0 0 0 0 
0 0 0 0 0 0 0 0 0 
0 0 0 0 0 0 0 0 0 
0 0 0 0 0 0 0 0 0 
0 0 0 0 -1.330866571e-07 0 0 0 0 
0 0 0 0 0 0 0 0 0 
0 0 0 0 0 0 0 0 0 
0 0 0 0 0 0 0 0 0 
0 0 0 0 0 0 0 0 0 
0 0 0 0 0 0 0 0 0 
0 0 0 0 0 0 0 0 0 
0 0 0 0 0 0 0 0 0 
0 0 0 0 0 0 0 0 0 
0 0 0 0 0 0 0 0 0 
0 0 0 0 0 0 0 0 0 
0 0 0 0 0 0 0 0 0 
0 0 0 0 0 0 0 0 0 
0 0 0 0 0 0 0 0 0 
0 0 0 0 -1.435571736e-07 0 0 0 0 
0 0 0 0 0 0 0 0 0 
0 0 0 0 0 0 0 0 0 
0 0 0 0 0 0 0 0 0 
0 0 0 0 -1.231064751e-07 0 0 0 0 
0 0 0 0 0 0 0 0 0 
0 0 0 0 0 0 0 0 0 
0 0 0 0 0 0 0 0 0 
-2.204988944e-07 0 0 0 -3.1101587e-07 0 0 0 0 
1.300674896e-07 0 0 0 1.791546248e-07 0 0 0 1.737910233e-07 
0 0 0 0 0 0 0 0 0 
0 0 0 0 0 0 0 0 0 
0 0 0 0 0 0 0 0 0 
0 0 0 0 1.462114001e-07 0 0 0 1.343933954e-07 
0 0 0 0 0 0 0 0 0 
-1.225337535e-07 0 0 0 -1.454184552e-07 0 0 0 0 
0 0 0 0 0 0 0 0 1.420387564e-07 
-1.243725444e-07 0 0 0 -1.73438615e-07 0 0 0 0 
0 0 0 0 0 0 0 0 0 
0 0 0 0 0 0 0 0 0 
0 0 0 0 0 0 0 0 0 
0 0 0 0 0 0 0 0 0 
0 0 0 0 0 0 0 0 0 
0 0 0 0 0 0 0 0 0 
0 0 0 0 0 0 0 0 0 
0 0 0 0 0 0 0 0 0 
0 0 0 0 0 0 0 0 0 
0 0 0 0 0 0 0 0 0 
0 0 0 0 0 0 0 0 0 
0 0 0 0 0 0 0 0 0 
0 0 0 0 0 0 0 0 0 
0 0 0 0 0 0 0 0 0 
0 0 0 0 0 0 0 0 0 
0 0 0 0 0 0 0 0 0 
0 0 0 0 0 0 0 0 0 
0 0 0 0 0 0 0 0 0 
0 0 0 0 0 0 0 0 0 
0 0 0 0 -1.307972151e-07 0 0 0 0 
0 0 0 0 0 0 0 0 0 
0 0 0 0 1.403382712e-07 0 0 0 1.337225159e-07 
0 0 0 0 -1.433968366e-07 0 0 0 0 
0 0 0 0 0 0 0 0 0 
0 0 0 0 0 0 0 0 0 
0 0 0 0 0 0 0 0 0 
0 0 0 0 -1.370970259e-07 0 0 0 0 
0 0 0 0 0 0 0 0 0 
0 0 0 0 0 0 0 0 0 
0 0 0 0 0 0 0 0 0 
0 0 0 0 0 0 0 0 0 
0 0 0 0 0 0 0 0 0 
0 0 0 0 0 0 0 0 0 
0 0 0 0 0 0 0 0 0 
0 0 0 0 0 0 0 0 0 
0 0 0 0 0 0 0 0 0 
0 0 0 0 0 0 0 0 0 
0 0 0 0 0 0 0 0 0 
0 0 0 0 0 0 0 0 0 
0 0 0 0 0 0 0 0 0 
0 0 0 0 0 0 0 0 0 
0 0 0 0 0 0 0 0 0 
0 0 0 0 0 0 0 0 0 
0 0 0 0 0 0 0 0 0 
0 0 0 0 0 0 0 0 0 
0 0 0 0 0 0 0 0 0 
0 0 0 0 0 0 0 0 0 
0 0 0 0 0 0 0 0 0 
0 0 0 0 0 0 0 0 0 
0 0 0 0 0 0 0 0 0 
0 0 0 0 0 0 0 0 0 
0 0 0 0 0 0 0 0 0 
0 0 0 0 0 0 0 0 0 
0 0 0 0 0 0 0 0 0 
0 0 0 0 0 0 0 0 0 
0 0 0 0 0 0 0 0 0 
0 0 0 0 0 0 0 0 0 
0 0 0 0 0 0 0 0 0 
0 0 0 0 0 0 0 0 0 
0 0 0 0 0 0 0 0 0 
0 0 0 0 0 0 0 0 0 
0 0 0 0 0 0 0 0 0 
0 0 0 0 0 0 0 0 0 
0 0 0 0 0 0 0 0 0 
0 0 0 0 0 0 0 0 0 
0 0 0 0 0 0 0 0 0 
0 0 0 0 0 0 0 0 0 
0 0 0 0 0 0 0 0 0 
0 0 0 0 0 0 0 0 0 
0 0 0 0 0 0 0 0 0 
0 0 0 0 0 0 0 0 0 
0 0 0 0 0 0 0 0 0 
0 0 0 0 0 0 0 0 0 
0 0 0 0 0 0 0 0 0 
0 0 0 0 0 0 0 0 0 
0 0 0 0 0 0 0 0 0 
0 0 0 0 0 0 0 0 0 
0 0 0 0 0 0 0 0 0 
0 0 0 0 0 0 0 0 0 
0 0 0 0 0 0 0 0 0 
0 0 0 0 0 0 0 0 0 
0 0 0 0 0 0 0 0 0 
0 0 0 0 0 0 0 0 1.265945167e-07 
0 0 0 0 0 0 0 0 0 
0 0 0 0 0 0 0 0 0 
0 0 0 0 0 0 0 0 0 
0 0 0 0 0 0 0 0 0 
0 0 0 0 0 0 0 0 0 
0 0 0 0 0 0 0 0 0 
0 0 0 0 0 0 0 0 0 
0 0 0 0 0 0 0 0 0 
0 0 0 0 0 0 0 0 0 
0 0 0 0 0 0 0 0 0 
0 0 0 0 0 0 0 0 0 
0 0 0 0 0 0 0 0 0 
0 0 0 0 0 0 0 0 0 
0 0 0 0 0 0 0 0 0 
0 0 0 0 0 0 0 0 0 
0 0 0 0 0 0 0 0 0 
0 0 0 0 0 0 0 0 0 
0 0 0 0 0 0 0 0 0 
0 0 0 0 -1.436638485e-07 0 0 0 0 
1.388461054e-07 0 0 0 1.44404452e-07 0 0 0 1.89606615e-07 
0 0 0 0 0 0 0 0 0 
0 0 0 0 0 0 0 0 0 
0 0 0 0 0 0 0 0 0 
0 0 0 0 0 0 0 0 1.344853338e-07 
0 0 0 0 0 0 0 0 0 
0 0 0 0 0 0 0 0 0 
0 0 0 0 0 0 0 0 0 
0 0 0 0 0 0 0 0 0 
0 0 0 0 0 0 0 0 0 
0 0 0 0 0 0 0 0 0 
0 0 0 0 0 0 0 0 0 
0 0 0 0 0 0 0 0 0 
0 0 0 0 0 0 0 0 0 
0 0 0 0 0 0 0 0 0 
0 0 0 0 0 0 0 0 0 
0 0 0 0 0 0 0 0 0 
0 0 0 0 0 0 0 0 0 
0 0 0 0 0 0 0 0 1.978463136e-07 
0 0 0 0 0 0 0 0 1.872496e-07 
0 0 0 0 0 0 0 0 2.171958849e-07 
0 0 0 0 0 0 0 0 0 
0 0 0 0 0 0 0 0 1.925479568e-07 
0 0 0 0 0 0 0 0 0 
0 0 0 0 0 0 0 0 0 
0 0 0 0 0 0 0 0 2.075210993e-07 
0 0 0 0 0 0 0 0 2.022227425e-07 
0 0 0 0 0 0 0 0 2.229577806e-07 
0 0 0 0 0 0 0 0 1.931859062e-07 
-1.825365419e-07 0 0 0 0 0 0 0 -1.655427098e-07 
0 0 0 0 0 0 0 0 0 
0 0 0 0 0 0 0 0 2.080718434e-07 
0 0 0 0 0 0 0 0 0 
0 0 0 0 0 0 0 0 0 
0 0 0 0 0 0 0 0 0 
0 0 0 0 0 0 0 0 0 
0 0 0 0 0 0 0 0 0 
0 0 0 0 0 0 0 0 1.426129092e-07 
0 0 0 0 0 0 0 0 0 
0 0 0 0 -1.266619334e-07 0 0 0 0 
1.640749334e-07 0 0 0 2.398388079e-07 0 0 0 1.703064554e-07 
0 0 0 0 0 0 0 0 0 
0 0 0 0 0 0 0 0 0 
0 0 0 0 0 0 0 0 0 
0 0 0 0 0 0 0 0 1.564596823e-07 
0 0 0 0 0 0 0 0 1.27616287e-07 
0 0 0 0 0 0 0 0 0 
0 0 0 0 -1.36161384e-07 0 0 0 0 
2.391309005e-07 -1.242186696e-07 0 -1.242186696e-07 3.544784751e-07 0 0 0 2.99609517e-07 
0 0 0 0 0 0 0 0 1.864673785e-07 
-3.256686751e-07 1.590453513e-07 0 1.590453513e-07 -4.46984744e-07 0 0 0 0 
0 0 0 0 0 0 0 0 1.4419881e-07 
1.272538868e-07 0 0 0 2.132025925e-07 0 0 0 2.430384478e-07 
0 0 0 0 0 0 0 0 0 
-1.953520954e-07 0 0 0 -2.91573064e-07 0 0 0 0 
0 0 0 0 0 0 0 0 0 
-1.551459011e-07 0 0 0 -1.875290171e-07 0 0 0 0 
0 0 0 0 0 0 0 0 0 
0 0 0 0 0 0 0 0 0 
0 0 0 0 0 0 0 0 0 
0 0 0 0 0 0 0 0 0 
0 0 0 0 0 0 0 0 0 
0 0 0 0 0 0 0 0 0 
0 0 0 0 0 0 0 0 0 
0 0 0 0 0 0 0 0 0 
0 0 0 0 0 0 0 0 0 
0 0 0 0 0 0 0 0 0 
0 0 0 0 -1.252667477e-07 0 0 0 0 
0 0 0 0 0 0 0 0 0 
0 0 0 0 0 0 0 0 0 
1.547107319e-07 0 0 0 2.434421634e-07 0 0 0 2.638941587e-07 
0 0 0 0 0 0 0 0 0 
0 0 0 0 0 0 0 0 0 
0 0 0 0 0 0 0 0 0 
0 0 0 0 0 0 0 0 1.832902739e-07 
0 0 0 0 0 0 0 0 1.510334524e-07 
0 0 0 0 0 0 0 0 1.530353832e-07 
0 0 0 0 0 0 0 0 -1.23612497e-07 
0 0 0 0 0 0 0 0 0 
0 0 0 0 -1.347122088e-07 0 0 0 -1.871792152e-07 
0 0 0 0 1.243975617e-07 0 0 0 0 
0 0 0 0 0 0 0 0 0 
0 0 0 0 0 0 0 0 0 
0 0 0 0 0 0 0 0 -1.553958561e-07 
0 0 0 0 0 0 0 0 0 
0 0 0 0 0 0 0 0 0 
0 0 0 0 0 0 0 0 -1.294727668e-07 
0 0 0 0 2.713538732e-07 0 0 0 0 
0 0 0 0 -2.174462877e-07 0 0 0 -1.55665604e-07 
0 0 0 0 0 0 0 0 -1.38747574e-07 
0 0 0 0 0 0 0 0 0 
0 0 0 0 0 0 0 0 0 
0 0 0 0 -1.372925972e-07 0 0 0 -1.47206589e-07 
0 0 0 0 0 0 0 0 0 
0 0 0 0 1.740282623e-07 0 0 0 0 
0 0 0 0 0 0 0 0 -1.284699032e-07 
0 0 0 0 0 0 0 0 -1.200108882e-07 
0 0 0 0 0 0 0 0 0 
0 0 0 0 0 0 0 0 0 
0 0 0 0 0 0 0 0 0 
0 0 0 0 0 0 0 0 0 
0 0 0 0 0 0 0 0 0 
0 0 0 0 0 0 0 0 0 
0 0 0 0 0 0 0 0 0 
0 0 0 0 0 0 0 0 0 
0 0 0 0 0 0 0 0 0 
0 0 0 0 0 0 0 0 0 
0 0 0 0 0 0 0 0 0 
0 0 0 0 0 0 0 0 0 
0 0 0 0 0 0 0 0 0 
0 0 0 0 0 0 0 0 0 
0 0 0 0 0 0 0 0 0 
0 0 0 0 0 0 0 0 0 
0 0 0 0 0 0 0 0 0 
0 0 0 0 0 0 0 0 0 
0 0 0 0 0 0 0 0 0 
0 0 0 0 0 0 0 0 0 
0 0 0 0 0 0 0 0 0 
0 0 0 0 0 0 0 0 0 
0 0 0 0 0 0 0 0 0 
0 0 0 0 0 0 0 0 0 
0 0 0 0 0 0 0 0 0 
0 0 0 0 0 0 0 0 0 
0 0 0 0 0 0 0 0 0 
0 0 0 0 0 0 0 0 0 
0 0 0 0 0 0 0 0 0 
0 0 0 0 0 0 0 0 0 
0 0 0 0 0 0 0 0 0 
0 0 0 0 0 0 0 0 0 
0 0 0 0 0 0 0 0 0 
0 0 0 0 0 0 0 0 0 
0 0 0 0 0 0 0 0 0 
0 0 0 0 0 0 0 0 0 
0 0 0 0 0 0 0 0 0 
0 0 0 0 0 0 0 0 0 
0 0 0 0 0 0 0 0 0 
0 0 0 0 0 0 0 0 0 
0 0 0 0 0 0 0 0 0 
0 0 0 0 0 0 0 0 1.924519869e-07 
0 0 0 0 -1.329563777e-07 0 0 0 0 
2.209977819e-07 0 0 0 3.020342478e-07 0 0 0 2.233613498e-07 
0 0 0 0 0 0 0 0 0 
0 0 0 0 0 0 0 0 1.43716527e-07 
0 0 0 0 -1.226902644e-07 0 0 0 0 
0 0 0 0 0 0 0 0 0 
0 0 0 0 1.406139546e-07 0 0 0 2.079066684e-07 
0 0 0 0 0 0 0 0 1.591712085e-07 
0 0 0 0 1.23231184e-07 0 0 0 2.589544926e-07 
0 0 0 0 0 0 0 0 0 
3.133135978e-07 -1.681737783e-07 0 -1.681737783e-07 4.558157079e-07 0 0 0 3.891691602e-07 
-4.896213656e-07 2.364411609e-07 0 2.364411609e-07 -6.711894816e-07 0 0 0 -1.602059739e-07 
0 0 0 0 0 0 0 0 1.372746884e-07 
1.329499557e-07 0 0 0 1.789881297e-07 0 0 0 2.023820222e-07 
1.841680545e-07 0 0 0 2.89523446e-07 0 0 0 3.240618264e-07 
-2.172994273e-07 0 0 0 -2.739791488e-07 0 0 0 0 
-2.68517526e-07 1.225132821e-07 0 1.225132821e-07 -3.845144651e-07 0 0 0 0 
0 0 0 0 0 0 0 0 0 
0 0 0 0 0 0 0 0 1.680862228e-07 
0 0 0 0 0 0 0 0 0 
0 0 0 0 0 0 0 0 1.254178791e-07 
0 0 0 0 0 0 0 0 0 
0 0 0 0 0 0 0 0 0 
0 0 0 0 0 0 0 0 0 
0 0 0 0 0 0 0 0 1.467520509e-07 
0 0 0 0 0 0 0 0 1.201751181e-07 
0 0 0 0 0 0 0 0 0 
0 0 0 0 0 0 0 0 0 
0 0 0 0 0 0 0 0 0 
0 0 0 0 0 0 0 0 1.574541502e-07 
0 0 0 0 -1.280932131e-07 0 0 0 0 
1.985210485e-07 0 0 0 3.22364562e-07 0 0 0 3.462159743e-07 
0 0 0 0 0 0 0 0 0 
0 0 0 0 0 0 0 0 0 
0 0 0 0 0 0 0 0 0 
0 0 0 0 1.303242745e-07 0 0 0 1.903397524e-07 
0 0 0 0 0 0 0 0 2.518350622e-07 
0 0 0 0 0 0 0 0 1.947839959e-07 
0 0 0 0 0 0 0 0 -2.873140219e-07 
-3.89127909e-07 0 0 0 -2.144820067e-07 0 0 0 0 
0 0 0 0 0 0 0 0 0 
5.571383083e-07 0 0 0 2.712655755e-07 0 0 0 2.545407986e-07 
-1.649268349e-07 0 0 0 0 0 0 0 -1.867481488e-07 
-2.198306814e-07 0 0 0 0 0 0 0 0 
0 0 0 0 0 0 0 0 0 
3.082062738e-07 0 0 0 1.265425395e-07 0 0 0 0 
0 0 0 0 0 0 0 0 0 
2.533024272e-07 0 0 0 1.376151498e-07 0 0 0 1.712758777e-07 
0 0 0 0 0 0 0 0 1.309751562e-07 
1.57333081e-07 0 0 0 0 0 0 0 1.568102098e-07 
0 0 0 0 0 0 0 0 -2.646850623e-07 
-2.767818883e-07 0 0 0 0 0 0 0 -3.682192297e-07 
0 0 0 0 0 0 0 0 1.43892683e-07 
1.220860466e-07 0 0 0 0 0 0 0 0 
0 0 0 0 0 0 0 0 0 
0 0 0 0 0 0 0 0 0 
0 0 0 0 0 0 0 0 0 
0 0 0 0 0 0 0 0 -3.16452146e-07 
0 0 0 0 0 0 0 0 1.597090171e-07 
1.617090609e-07 0 0 0 0 0 0 0 -2.022623716e-07 
0 0 0 0 0 0 0 0 -3.018860722e-07 
-3.230513601e-07 0 0 0 -1.77856548e-07 0 0 0 -1.440771137e-07 
1.401046481e-07 0 0 0 0 0 0 0 0 
0 0 0 0 0 0 0 0 -2.520742219e-07 
0 0 0 0 0 0 0 0 0 
0 0 0 0 0 0 0 0 0 
0 0 0 0 0 0 0 0 -1.731697426e-07 
-1.48212626e-07 0 0 0 0 0 0 0 -2.229815929e-07 
0 0 0 0 0 0 0 0 -2.775268172e-07 
0 0 0 0 0 0 0 0 -3.18007666e-07 
0 0 0 0 0 0 0 0 1.508520494e-07 
0 0 0 0 0 0 0 0 -2.564961883e-07 
0 0 0 0 0 0 0 0 -2.977672416e-07 
0 0 0 0 0 0 0 0 0 
0 0 0 0 0 0 0 0 0 
0 0 0 0 0 0 0 0 -2.670115027e-07 
0 0 0 0 0 0 0 0 -2.872519272e-07 
0 0 0 0 0 0 0 0 0 
0 0 0 0 0 0 0 0 0 
0 0 0 0 0 0 0 0 0 
0 0 0 0 0 0 0 0 0 
0 0 0 0 0 0 0 0 0 
0 0 0 0 0 0 0 0 0 
0 0 0 0 0 0 0 0 0 
0 0 0 0 0 0 0 0 0 
0 0 0 0 0 0 0 0 0 
0 0 0 0 0 0 0 0 0 
0 0 0 0 0 0 0 0 0 
0 0 0 0 0 0 0 0 1.289967463e-07 
-1.265060534e-07 0 0 0 0 0 0 0 0 
-1.460449913e-07 0 0 0 -1.644676034e-07 0 0 0 0 
1.585219868e-07 0 0 0 1.692357262e-07 0 0 0 2.537354388e-07 
0 0 0 0 0 0 0 0 0 
-1.362755224e-07 0 0 0 -1.236879015e-07 0 0 0 0 
0 0 0 0 0 0 0 0 0 
1.375632225e-07 0 0 0 1.296483046e-07 0 0 0 1.913660925e-07 
0 0 0 0 0 0 0 0 1.359790297e-07 
0 0 0 0 0 0 0 0 1.438633813e-07 
0 0 0 0 0 0 0 0 -2.074042865e-07 
0 0 0 0 0 0 0 0 0 
1.228274384e-07 0 0 0 0 0 0 0 1.213537955e-07 
-1.641026444e-07 0 0 0 0 0 0 0 -2.63554153e-07 
0 0 0 0 0 0 0 0 0 
0 0 0 0 0 0 0 0 0 
0 0 0 0 0 0 0 0 0 
0 0 0 0 0 0 0 0 -2.354792198e-07 
0 0 0 0 0 0 0 0 0 
0 0 0 0 0 0 0 0 0 
0 0 0 0 0 0 0 0 0 
0 0 0 0 0 0 0 0 -2.489099578e-07 
-1.739507847e-07 0 0 0 0 0 0 0 0 
2.960093306e-07 0 0 0 1.374417225e-07 0 0 0 1.343026379e-07 
0 0 0 0 0 0 0 0 0 
0 0 0 0 0 0 0 0 -1.284360249e-07 
0 0 0 0 0 0 0 0 0 
1.510317258e-07 0 0 0 0 0 0 0 0 
1.323411776e-07 0 0 0 0 0 0 0 0 
0 0 0 0 0 0 0 0 0 
0 0 0 0 0 0 0 0 0 
0 0 0 0 0 0 0 0 -2.04406791e-07 
0 0 0 0 0 0 0 0 -2.165042197e-07 
0 0 0 0 0 0 0 0 -2.046706232e-07 
0 0 0 0 0 0 0 0 0 
0 0 0 0 0 0 0 0 -2.104555053e-07 
0 0 0 0 0 0 0 0 0 
0 0 0 0 0 0 0 0 0 
0 0 0 0 0 0 0 0 -2.045387071e-07 
0 0 0 0 0 0 0 0 -2.105874214e-07 
0 0 0 0 0 0 0 0 -2.229980846e-07 
0 0 0 0 0 0 0 0 0 
0 0 0 0 0 0 0 0 -1.617024291e-07 
-1.769823118e-07 0 0 0 0 0 0 0 0 
0 0 0 0 0 0 0 0 0 
0 0 0 0 0 0 0 0 0 
0 0 0 0 0 0 0 0 -1.923502568e-07 
0 0 0 0 0 0 0 0 -1.514505746e-07 
0 0 0 0 0 0 0 0 0 
0 0 0 0 0 0 0 0 -1.208027469e-07 
0 0 0 0 0 0 0 0 -2.900379893e-07 
1.498130078e-07 0 0 0 0 0 0 0 -3.340858404e-07 
-1.487884802e-07 0 0 0 -1.355389079e-07 0 0 0 -3.524349678e-07 
1.754102179e-07 0 0 0 0 0 0 0 -1.44623699e-07 
0 0 0 0 0 0 0 0 -3.120619149e-07 
0 0 0 0 0 0 0 0 -3.432604041e-07 
0 0 0 0 0 0 0 0 -3.212364786e-07 
0 0 0 0 0 0 0 0 -2.173308442e-07 
1.626116128e-07 0 0 0 0 0 0 0 -2.393547697e-07 
0 0 0 0 0 0 0 0 -2.485293334e-07 
-1.396491275e-07 0 0 0 0 0 0 0 -3.57623477e-07 
1.823923508e-07 0 -1.597924642e-07 0 0 0 -1.597924642e-07 0 -3.380581723e-07 
0 0 1.287665263e-07 0 1.546120564e-07 0 1.287665263e-07 0 -3.269434466e-07 
-1.315496645e-07 0 0 0 0 0 0 0 -2.412156751e-07 
0 0 0 0 0 0 0 0 -3.478408247e-07 
0 0 0 0 0 0 0 0 -3.325008095e-07 
-1.203202855e-07 0 0 0 0 0 0 0 -3.422834618e-07 
-1.35599396e-07 0 0 0 0 0 0 0 -2.994195761e-07 
0 0 0 0 0 0 0 0 -2.896369237e-07 
0 0 0 0 0 0 0 0 -2.840795609e-07 
1.935857899e-07 0 0 0 0 0 0 0 -2.360758826e-07 
0 0 0 0 0 0 0 0 -1.896654441e-07 
0 0 0 0 0 0 0 0 -1.494262965e-07 
0 0 0 0 0 0 0 0 -2.123744852e-07 
1.414163183e-07 0 0 0 0 0 0 0 -2.128706633e-07 
0 0 0 0 0 0 0 0 -1.695458703e-07 
1.449446051e-07 0 0 0 0 0 0 0 -1.927510896e-07 
0 0 0 0 0 0 0 0 -2.242251839e-07 
0 0 0 0 0 0 0 0 -2.010199646e-07 
0 0 0 0 0 0 0 0 -1.809003909e-07 
-2.633254373e-07 0 0 0 0 0 0 0 -6.387939328e-07 
0 0 0 0 1.254071417e-07 0 0 0 2.758899301e-07 
4.131251096e-07 0 0 0 0 0 0 0 -4.272926014e-07 
-2.160098936e-07 0 0 0 0 0 0 0 0 
0 0 0 0 0 0 0 0 -1.814520014e-07 
2.450013245e-07 0 0 0 0 0 0 0 0 
0 0 0 0 0 0 0 0 -5.330432671e-07 
-2.396676654e-07 0 0 0 0 0 0 0 -3.596555092e-07 
0 0 0 0 0 0 0 0 0 
0 0 0 0 0 0 0 0 -2.539048435e-07 
1.761848208e-07 0 0 0 0 0 0 0 -1.211711108e-07 
-1.834517022e-07 0 0 0 0 0 0 0 -2.405295283e-07 
0 0 0 0 0 0 0 0 -2.125133432e-07 
1.491646216e-07 0 0 0 0 0 0 0 2.319576092e-07 
0 0 0 0 0 0 0 0 -1.808503195e-07 
0 0 0 0 0 0 0 0 -2.265214357e-07 
0 0 0 0 0 0 0 0 -1.66842227e-07 
1.626747212e-07 0 0 0 0 0 0 0 0 
0 0 0 0 0 0 0 0 0 
0 0 0 0 0 0 0 0 0 
0 0 0 0 0 0 0 0 3.094007718e-07 
0 0 0 0 0 0 0 0 4.344307914e-07 
1.486922125e-07 0 0 0 0 0 0 0 2.618826982e-07 
0 0 0 0 0 0 0 0 3.606777557e-07 
0 0 0 0 0 0 0 0 3.719157816e-07 
0 0 0 0 0 0 0 0 3.481567448e-07 
0 0 0 0 0 0 0 0 2.85641735e-07 
0 0 0 0 0 0 0 0 3.350392638e-07 
0 0 0 0 0 0 0 0 3.975542736e-07 
0 0 0 0 0 0 0 0 3.112802269e-07 
0 0 0 0 0 0 0 0 1.587355893e-07 
0 0 0 0 0 0 0 0 1.596826551e-07 
-1.901440849e-07 0 0 0 0 0 0 0 0 
0 0 0 0 0 0 0 0 3.073775578e-07 
0 0 0 0 0 0 0 0 1.592091222e-07 
0 0 0 0 0 0 0 0 0 
0 0 0 0 0 0 0 0 0 
0 0 0 0 0 0 0 0 2.330565735e-07 
0 0 0 0 0 0 0 0 2.335301064e-07 
0 0 0 0 0 0 0 0 1.85592548e-07 
0 0 0 0 0 0 0 0 -1.758722288e-07 
-1.600002528e-07 0 0 0 -1.942877819e-07 0 0 0 0 
0 0 0 0 0 0 0 0 1.292949678e-07 
0 0 0 0 0 0 0 0 1.814047803e-07 
0 0 0 0 0 0 0 0 0 
0 0 0 0 0 0 0 0 0 
0 0 0 0 0 0 0 0 0 
0 0 0 0 0 0 0 0 0 
0 0 0 0 -1.422756029e-07 0 0 0 0 
0 0 0 0 0 0 0 0 1.55349874e-07 
1.85003752e-07 0 0 0 0 0 0 0 2.476523115e-07 
2.066490491e-07 0 0 0 0 0 0 0 0 
1.634465304e-07 0 -1.354764646e-07 0 0 0 -1.354764646e-07 0 2.431419576e-07 
-1.533374637e-07 0 0 0 0 0 0 0 0 
1.958264006e-07 0 0 0 0 0 0 0 0 
1.850477897e-07 0 0 0 0 0 0 0 0 
1.742251412e-07 0 0 0 0 0 0 0 2.453971345e-07 
0 0 0 0 0 0 0 0 1.684839221e-07 
0 0 0 0 0 0 0 0 0 
0 0 0 0 0 0 0 0 1.662287452e-07 
0 0 0 0 0 0 0 0 -1.344193092e-07 
0 0 0 0 0 0 0 0 -3.395292529e-07 
0 0 0 0 0 0 0 0 -3.676026331e-07 
0 0 0 0 0 0 0 0 -3.235567015e-07 
0 0 0 0 0 0 0 0 -2.369742811e-07 
0 0 0 0 0 0 0 0 -3.53565943e-07 
0 0 0 0 0 0 0 0 -2.510109712e-07 
0 0 0 0 0 0 0 0 -2.289880054e-07 
0 0 0 0 0 0 0 0 -3.315429772e-07 
0 0 0 0 0 0 0 0 -3.455796673e-07 
-1.849332498e-07 0 0 0 -1.23453722e-07 0 0 0 -4.043179257e-07 
0 0 0 0 0 0 0 0 -3.897863165e-07 
0 0 0 0 0 0 0 0 -3.511858544e-07 
0 0 0 0 1.840617524e-07 0 0 0 0 
0 0 0 0 0 0 0 0 -3.970521211e-07 
0 0 0 0 0 0 0 0 -3.704860855e-07 
0 0 0 0 0 0 0 0 -3.777518901e-07 
0 0 0 0 0 0 0 0 -2.438719427e-07 
0 0 0 0 0 0 0 0 -2.366061381e-07 
0 0 0 0 0 0 0 0 -2.17305907e-07 
0 0 0 0 0 0 0 0 -1.689012716e-07 
0 0 0 0 0 0 0 0 -1.78043909e-07 
-1.883976516e-07 0 0 0 0 0 0 0 -2.60189766e-07 
0 0 0 0 0 0 0 0 1.568477134e-07 
0 0 0 0 0 0 0 0 -1.734725903e-07 
0 0 0 0 0 0 0 0 -2.191168375e-07 
-1.240065145e-07 0 0 0 0 0 0 0 -2.145455188e-07 
0 0 0 0 0 0 0 0 0 
0 0 0 0 0 0 0 0 0 
-1.264767603e-07 0 0 0 0 0 0 0 0 
0 0 0 0 0 0 0 0 3.603781405e-07 
0 0 0 0 0 0 0 0 3.369319545e-07 
1.551105356e-07 0 0 0 0 0 0 0 4.534751676e-07 
0 0 0 0 0 0 0 0 2.505335337e-07 
0 0 0 0 0 0 0 0 3.486550475e-07 
0 0 0 0 0 0 0 0 3.952035611e-07 
0 0 0 0 0 0 0 0 4.069266541e-07 
0 0 0 0 0 0 0 0 3.054558371e-07 
0 0 0 0 0 0 0 0 2.937327441e-07 
0 0 0 0 0 0 0 0 3.520043506e-07 
-2.242407946e-07 0 0 0 0 0 0 0 -2.660168207e-07 
0 0 0 0 0 0 0 0 -3.807780756e-07 
0 0 0 0 0 0 0 0 -1.715237661e-07 
0 0 0 0 0 0 0 0 -1.720326176e-07 
-1.263659502e-07 0 0 0 0 0 0 0 -3.233974482e-07 
0 0 0 0 0 0 0 0 -2.761509209e-07 
0 0 0 0 0 0 0 0 -2.187702934e-07 
-1.391736536e-07 0 0 0 0 0 0 0 -2.190247192e-07 
0 0 0 0 0 0 0 0 -2.764053466e-07 
0 0 0 0 0 0 0 0 -1.717781919e-07 
-5.241414565e-07 0 2.224950393e-07 0 -2.030296083e-07 0 2.224950393e-07 0 -7.459558702e-07 
2.527206446e-07 0 -3.522476184e-07 0 -1.500145457e-07 -2.316930235e-07 -3.522476184e-07 -2.316930235e-07 -5.578558536e-07 
0 1.246026081e-07 1.258710852e-07 1.246026081e-07 0 0 1.258710852e-07 0 -4.918371144e-07 
0 1.35393506e-07 0 1.35393506e-07 0 0 0 0 0 
-1.357104059e-07 0 0 0 -1.76522077e-07 0 0 0 -6.519058619e-07 
0 0 0 0 0 -1.208336689e-07 0 -1.208336689e-07 -5.24846484e-07 
-2.971074137e-07 0 1.741830622e-07 0 0 0 1.741830622e-07 0 -6.188964923e-07 
-2.602957293e-07 0 1.699492477e-07 0 0 0 1.699492477e-07 0 -3.833628506e-07 
1.281353212e-07 0 0 0 0 0 0 0 -2.893128423e-07 
0 1.299980571e-07 1.216372707e-07 1.299980571e-07 0 0 1.216372707e-07 0 -2.563034727e-07 
0 0 0 0 0 0 0 0 0 
1.371957223e-07 0 0 0 0 0 0 0 2.271090015e-07 
0 0 0 0 0 0 0 0 2.18293466e-07 
0 0 0 0 0 0 0 0 3.704298393e-07 
0 0 0 0 0 0 0 0 1.692855463e-07 
0 0 0 0 0 0 0 0 2.227012338e-07 
0 0 0 0 0 0 0 0 1.648777785e-07 
0 0 0 0 0 0 0 0 2.409459652e-07 
0 0 0 0 0 0 0 0 2.987694204e-07 
0 0 0 0 0 0 0 0 2.943616527e-07 
0 0 0 0 0 0 0 0 3.360326031e-07 
2.604181092e-07 0 -1.266250371e-07 0 3.080779653e-07 0 -1.266250371e-07 0 3.706858058e-07 
0 -1.624715076e-07 0 -1.624715076e-07 0 0 0 0 3.781035685e-07 
-2.974059949e-07 1.567701694e-07 0 1.567701694e-07 -3.173588726e-07 -1.882592912e-07 0 -1.882592912e-07 1.560417555e-07 
0 0 0 0 1.243793531e-07 0 0 0 3.533592044e-07 
1.876727083e-07 0 0 0 1.941544019e-07 0 0 0 3.743946871e-07 
0 0 0 0 0 0 0 0 3.570680858e-07 
-1.614959433e-07 0 0 0 -1.883390658e-07 0 0 0 2.460371793e-07 
0 0 0 0 0 0 0 0 2.633637806e-07 
0 0 0 0 0 0 0 0 2.67072662e-07 
1.680936482e-07 0 0 0 0 0 0 0 -1.284439286e-07 
1.623256177e-07 0 0 0 0 0 0 0 -1.378900717e-07 
-1.7707077e-07 0 0 0 0 0 0 0 -2.581680366e-07 
1.841581043e-07 0 0 0 0 0 0 0 2.554133527e-07 
1.65209633e-07 0 0 0 0 0 0 0 -1.331670001e-07 
0 0 0 0 0 0 0 0 -1.980290541e-07 
0 0 0 0 0 0 0 0 -1.933059826e-07 
1.761258763e-07 0 0 0 0 0 0 0 0 
1.73241861e-07 0 0 0 0 0 0 0 0 
0 0 0 0 0 0 0 0 0 
-1.460723604e-07 0 0 0 0 0 0 0 -2.519242185e-07 
0 0 0 0 0 0 0 0 -4.037137249e-07 
0 0 0 0 0 0 0 0 -1.451023489e-07 
1.373138746e-07 0 0 0 0 0 0 0 -1.489049169e-07 
0 0 0 0 0 0 0 0 -3.278189717e-07 
0 0 0 0 0 0 0 0 -2.744080369e-07 
0 0 0 0 0 0 0 0 -1.985132837e-07 
0 0 0 0 0 0 0 0 -2.004145677e-07 
0 0 0 0 0 0 0 0 -2.763093209e-07 
1.250127145e-07 0 0 0 0 0 0 0 -1.470036329e-07 
0 0 0 0 -1.58209377e-07 0 0 0 0 
0 0 0 0 1.580911583e-07 0 0 0 -1.250663447e-07 
0 0 0 0 0 0 0 0 0 
-1.91095521e-07 0 0 0 -1.383728851e-07 0 0 0 0 
0 0 0 0 0 0 0 0 0 
0 0 0 0 0 0 0 0 0 
0 0 0 0 0 0 0 0 0 
0 0 0 0 -1.482911311e-07 0 0 0 0 
-1.352448274e-07 0 0 0 0 0 0 0 0 
-1.435488841e-07 0 0 0 0 0 0 0 0 
0 0 0 0 0 0 0 0 1.258043364e-07 
0 0 0 0 0 0 0 0 3.579938668e-07 
0 0 0 0 -1.597960613e-07 0 0 0 2.938707584e-07 
0 0 0 0 0 0 0 0 3.160322126e-07 
0 0 0 0 0 0 0 0 2.418991016e-07 
0 0 0 0 -1.193646867e-07 0 0 0 3.259323126e-07 
0 0 0 0 0 0 0 0 2.098375474e-07 
0 0 0 0 0 0 0 0 2.209182745e-07 
0 0 0 0 0 0 0 0 3.370130397e-07 
0 0 0 0 0 0 0 0 3.049514855e-07 
2.333279173e-07 0 -2.055874137e-07 0 0 0 -2.055874137e-07 0 -3.604843956e-07 
0 0 1.858198634e-07 0 1.866782548e-07 0 1.858198634e-07 0 -3.623287396e-07 
-2.097495355e-07 0 0 0 -1.704296447e-07 0 0 0 -4.419656253e-07 
-1.55750804e-07 0 0 0 0 0 0 0 -2.684351159e-07 
0 0 0 0 0 0 0 0 -3.614065676e-07 
-1.612623851e-07 0 1.476600081e-07 0 0 0 1.476600081e-07 0 -4.021471825e-07 
0 0 0 0 0 0 0 0 -4.012250105e-07 
0 0 0 0 0 0 0 0 -3.144597558e-07 
-1.342630193e-07 0 1.21473884e-07 0 0 0 1.21473884e-07 0 -3.153819278e-07 
-1.827501698e-07 0 0 0 -1.222918995e-07 0 0 0 -3.552003706e-07 
1.703786779e-07 0 0 0 0 0 0 0 0 
-2.154995627e-07 0 0 0 0 0 0 0 0 
1.366911983e-07 0 0 0 0 0 0 0 1.978921205e-07 
1.7946158e-07 0 -1.3416442e-07 0 0 0 -1.3416442e-07 0 2.573791523e-07 
0 0 0 0 0 0 0 0 0 
0 0 0 0 0 0 0 0 1.356191728e-07 
1.535349381e-07 0 0 0 0 0 0 0 0 
1.74920129e-07 0 -1.193867867e-07 0 0 0 -1.193867867e-07 0 0 
0 0 0 0 0 0 0 0 1.653626887e-07 
1.580763891e-07 0 -1.220067662e-07 0 0 0 -1.220067662e-07 0 2.276356364e-07 
0 0 0 0 0 0 0 0 -3.613961179e-07 
0 0 0 0 0 0 0 0 -3.203549714e-07 
1.221676947e-07 -1.2199565e-07 0 -1.2199565e-07 0 0 0 0 -4.037543668e-07 
1.818864921e-07 0 0 0 0 0 0 0 -1.8069821e-07 
0 0 0 0 0 0 0 0 -3.408755447e-07 
0 0 0 0 0 0 0 0 -3.620546691e-07 
0 0 0 0 0 0 0 0 -3.825752423e-07 
0 0 0 0 0 0 0 0 -2.710471639e-07 
0 0 0 0 0 0 0 0 -2.505265907e-07 
1.520270934e-07 0 0 0 0 0 0 0 -2.922262884e-07 
0 0 0 0 0 0 0 0 1.258742724e-07 
0 0 0 0 0 0 0 0 0 
0 0 0 0 0 0 0 0 1.202223416e-07 
0 0 0 0 0 0 0 0 3.598511025e-07 
0 0 0 0 0 0 0 0 1.198800073e-07 
0 0 0 0 0 0 0 0 0 
0 0 0 0 0 0 0 0 1.23048307e-07 
0 0 0 0 0 0 0 0 2.428626875e-07 
0 0 0 0 0 0 0 0 2.368684224e-07 
0 0 0 0 0 0 0 0 2.400367221e-07 
1.304750629e-07 0 0 0 0 0 0 0 -2.252546072e-07 
-3.17581244e-07 0 0 0 -2.072649751e-07 0 0 0 -2.730340282e-07 
0 0 0 0 -1.27541999e-07 0 0 0 -1.893525251e-07 
2.783728633e-07 1.621855871e-07 0 1.621855871e-07 2.916374329e-07 0 0 0 0 
0 0 0 0 0 0 0 0 -2.491443177e-07 
-1.968572729e-07 0 0 0 -1.67403487e-07 0 0 0 -2.311932766e-07 
0 0 0 0 0 0 0 0 -2.073035661e-07 
2.044239631e-07 0 0 0 1.771259239e-07 0 0 0 -1.467478684e-07 
0 0 0 0 0 0 0 0 -1.706375789e-07 
0 0 0 0 0 0 0 0 -1.287968273e-07 
0 0 0 0 0 0 0 0 -1.962488891e-07 
-1.521434647e-07 0 0 0 0 0 0 0 -2.088201873e-07 
0 0 0 0 0 0 0 0 -1.819024569e-07 
0 0 0 0 1.239173237e-07 0 0 0 1.905678682e-07 
-1.305188356e-07 0 0 0 0 0 0 0 -2.025345382e-07 
0 0 0 0 0 0 0 0 -1.953613221e-07 
0 0 0 0 0 0 0 0 -1.89075673e-07 
0 0 0 0 0 0 0 0 0 
0 0 0 0 0 0 0 0 0 
0 0 0 0 0 0 0 0 0 
-5.47215756e-07 0 0 0 0 0 0 0 -2.778023581e-07 
1.528899131e-07 0 0 0 1.24568006e-07 0 0 0 4.572242771e-07 
1.931616038e-07 0 0 0 0 0 0 0 -1.273919907e-07 
1.593446476e-07 0 0 0 0 0 0 0 5.167732917e-07 
-1.971629215e-07 0 0 0 0 0 0 0 0 
1.730257584e-07 0 0 0 0 0 0 0 1.649161432e-07 
-1.770270761e-07 0 0 0 0 0 0 0 -2.025971744e-07 
-1.939355542e-07 0 0 0 0 0 0 0 1.194854668e-07 
1.561172804e-07 0 0 0 0 0 0 0 4.869987844e-07 
1.762531257e-07 0 0 0 0 0 0 0 1.946906505e-07 
0 0 0 0 0 0 0 0 1.538728744e-07 
0 0 0 0 0 0 0 0 2.252121486e-07 
-1.2068981e-07 0 0 0 0 0 0 0 0 
0 0 0 0 0 0 0 0 4.190852016e-07 
0 0 0 0 0 0 0 0 1.895425115e-07 
0 0 0 0 0 0 0 0 1.65945547e-07 
0 0 0 0 0 0 0 0 1.302759099e-07 
0 0 0 0 0 0 0 0 2.86479038e-07 
0 0 0 0 0 0 0 0 3.221486751e-07 
0 0 0 0 0 0 0 0 2.628820735e-07 
2.59896928e-07 0 0 0 0 0 0 0 -2.092021304e-07 
0 0 0 0 0 0 0 0 -1.995844698e-07 
-1.889232382e-07 0 0 0 0 0 0 0 -2.226804091e-07 
0 0 0 0 0 0 0 0 -1.822099319e-07 
1.543551856e-07 0 0 0 0 0 0 0 -2.043933001e-07 
0 0 0 0 0 0 0 0 -2.111324394e-07 
0 0 0 0 0 0 0 0 -2.159412697e-07 
0 0 0 0 0 0 0 0 -1.957060312e-07 
0 0 0 0 0 0 0 0 -1.908972009e-07 
-1.348222106e-07 0 0 0 0 0 0 0 -2.024451705e-07 
2.416812646e-07 0 0 0 0 0 0 0 -1.506380806e-07 
-6.081342774e-07 0 0 0 0 1.325248484e-07 0 1.325248484e-07 -2.935671742e-07 
2.52594887e-07 0 0 0 1.748301491e-07 0 0 0 5.694127419e-07 
0 0 0 0 0 0 0 0 5.751275222e-07 
-1.832265064e-07 0 0 0 0 0 0 0 -2.221026274e-07 
-1.777696952e-07 0 0 0 0 0 0 0 1.379227838e-07 
2.471380758e-07 0 0 0 0 0 0 0 2.093873306e-07 
1.574668411e-07 0 0 0 0 0 0 0 2.122447208e-07 
-2.674409299e-07 0 0 0 0 0 0 0 1.40780174e-07 
1.629236523e-07 0 0 0 0 0 0 0 5.722701321e-07 
-2.370089917e-07 0 0 0 0 0 0 0 -2.731921308e-07 
1.279386523e-07 0 0 0 0 0 0 0 -1.875653418e-07 
2.378127361e-07 0 0 0 0 0 0 0 0 
1.898811809e-07 0 -1.314043273e-07 0 0 0 -1.314043273e-07 0 2.568414377e-07 
0 0 0 0 0 0 0 0 -2.303787363e-07 
1.828756942e-07 0 0 0 0 0 0 0 -1.472478613e-07 
0 0 0 0 0 0 0 0 -1.900612557e-07 
0 0 0 0 0 0 0 0 0 
1.589099166e-07 0 -1.231889034e-07 0 0 0 -1.231889034e-07 0 0 
2.138469585e-07 0 -1.204286766e-07 0 0 0 -1.204286766e-07 0 0 
0 0 0 0 0 0 0 0 -1.443386678e-07 
0 0 0 0 0 0 0 0 -4.062258416e-07 
-1.278847809e-07 0 0 0 0 0 0 0 -4.346049483e-07 
1.197349218e-07 0 0 0 1.479153996e-07 0 0 0 -3.648696937e-07 
0 0 0 0 0 0 0 0 -2.752822547e-07 
0 0 0 0 0 0 0 0 -4.20415395e-07 
0 0 0 0 0 0 0 0 -2.894718081e-07 
0 0 0 0 0 0 0 0 -2.546041808e-07 
0 0 0 0 0 0 0 0 -3.855477676e-07 
0 0 0 0 0 0 0 0 -3.99737321e-07 
0 0 0 0 0 0 0 0 -5.392747632e-07 
1.88819167e-07 0 0 0 1.35541077e-07 0 0 0 -1.353760208e-07 
-1.599086209e-07 0 0 0 -1.33365031e-07 0 0 0 -6.173574276e-07 
1.458786248e-07 0 -1.284996897e-07 0 0 0 -1.284996897e-07 0 -1.347505651e-07 
0 0 0 0 0 0 0 0 -3.37325392e-07 
0 0 0 0 0 0 0 0 -3.763667242e-07 
0 0 0 0 0 0 0 0 -5.783160954e-07 
0 0 0 0 0 0 0 0 -3.370126641e-07 
1.673488959e-07 0 -1.22894584e-07 0 0 0 -1.22894584e-07 0 -1.35063293e-07 
0 0 0 0 0 0 0 0 -3.760539963e-07 
-5.021956101e-07 0 1.530247698e-07 0 0 1.823758641e-07 1.530247698e-07 1.823758641e-07 -4.333359962e-07 
0 0 0 0 0 0 0 0 6.19041334e-07 
-4.229761075e-07 0 0 0 -2.329072704e-07 0 0 0 4.901137774e-07 
7.262186494e-07 0 -1.303170712e-07 0 1.590573278e-07 -2.04664196e-07 -1.303170712e-07 -2.04664196e-07 0 
-2.070772804e-07 0 0 0 0 1.482183927e-07 0 1.482183927e-07 0 
-1.674675291e-07 0 0 0 0 0 0 0 5.545775557e-07 
-4.625858588e-07 0 0 0 -1.499245423e-07 0 0 0 0 
0 0 0 0 0 0 0 0 -2.074935459e-07 
4.071298494e-07 0 0 0 1.264461875e-07 0 0 0 3.186951192e-07 
1.51621271e-07 0 0 0 0 -1.458869449e-07 0 -1.458869449e-07 2.542313408e-07 
4.158835209e-07 0 0 0 2.536545488e-07 0 0 0 7.300402604e-07 
-5.9384518e-07 0 0 0 0 1.89170042e-07 0 1.89170042e-07 -2.867251261e-07 
0 0 0 0 0 0 0 0 6.191583429e-07 
2.642844985e-07 0 0 0 0 -1.298697112e-07 0 -1.298697112e-07 -1.995738125e-07 
0 0 0 0 0 0 0 0 2.216575671e-07 
-3.552775859e-07 0 0 0 0 0 0 0 1.662166084e-07 
1.495867645e-07 0 0 0 0 0 0 0 6.745993016e-07 
3.400840097e-07 0 0 0 0 0 0 0 2.652332239e-07 
-1.647803408e-07 0 0 0 0 0 0 0 -2.431494693e-07 
0 0 0 0 0 0 0 0 2.097922652e-07 
1.584951709e-07 0 0 0 0 0 0 0 2.252776334e-07 
-1.758675624e-07 0 0 0 0 0 0 0 0 
0 0 0 0 0 0 0 0 -2.152008731e-07 
0 0 0 0 0 0 0 0 1.25984157e-07 
0 0 0 0 0 0 0 0 1.512231752e-07 
-1.371794955e-07 0 0 0 0 0 0 0 0 
0 0 0 0 0 0 0 0 0 
0 0 0 0 0 0 0 0 1.756308952e-07 
-1.449934445e-07 0 0 0 0 0 0 0 0 
0 0 0 0 0 0 0 0 0 
2.457147873e-07 0 -1.229506442e-07 0 0 0 -1.229506442e-07 0 0 
1.969717501e-07 0 -1.260485596e-07 0 0 0 -1.260485596e-07 0 -1.692432602e-07 
-2.460987243e-07 0 0 0 0 0 0 0 -2.97116558e-07 
2.076042508e-07 0 -1.41744791e-07 0 0 0 -1.41744791e-07 0 2.760915365e-07 
2.213432687e-07 0 -1.244996019e-07 0 0 0 -1.244996019e-07 0 -1.310962595e-07 
0 0 0 0 0 0 0 0 -2.331799091e-07 
0 0 0 0 0 0 0 0 -1.950329085e-07 
2.266595191e-07 0 -1.323477176e-07 0 0 0 -1.323477176e-07 0 0 
2.022880004e-07 0 -1.338966753e-07 0 0 0 -1.338966753e-07 0 0 
0 0 0 0 0 0 0 0 0 
-1.847796045e-07 0 0 0 0 0 0 0 -2.559577291e-07 
-1.626499407e-07 0 0 0 0 0 0 0 -6.039923459e-07 
1.647026639e-07 0 -1.285548197e-07 0 0 0 -1.285548197e-07 0 -1.622353217e-07 
2.09682966e-07 0 0 0 0 0 0 0 -1.250255782e-07 
-1.737147726e-07 0 0 0 0 0 0 0 -4.299750375e-07 
0 0 0 0 0 0 0 0 -3.831138338e-07 
0 0 0 0 0 0 0 0 -2.090965254e-07 
0 0 0 0 0 0 0 0 -1.904916536e-07 
0 0 0 0 0 0 0 0 -3.645089621e-07 
1.87192815e-07 0 -1.231615381e-07 0 0 0 -1.231615381e-07 0 -1.436304499e-07 
0 0 1.210957421e-07 0 1.743381653e-07 0 1.210957421e-07 0 -3.943629292e-07 
-3.605949534e-07 0 1.455282086e-07 0 0 0 1.455282086e-07 0 -5.878799035e-07 
1.196656709e-07 0 -2.8300241e-07 0 -2.440425179e-07 -2.02327555e-07 -2.8300241e-07 -2.02327555e-07 -5.272434587e-07 
0 0 0 0 0 0 0 0 0 
-1.844136719e-07 0 1.333119753e-07 0 0 0 1.333119753e-07 0 -4.911214163e-07 
-1.204646413e-07 0 0 0 -1.768137799e-07 0 0 0 -5.575616811e-07 
0 0 0 0 0 0 0 0 -4.60803194e-07 
0 0 0 0 1.323807981e-07 0 0 0 -2.373039423e-07 
-1.872553186e-07 0 0 0 0 0 0 0 -3.340624295e-07 
0 0 0 0 0 0 0 0 -3.037442071e-07 
0 0 0 0 0 0 0 0 1.510420748e-07 
0 0 0 0 0 0 0 0 2.05045282e-07 
-1.42603914e-07 0 0 0 0 0 0 0 1.192922988e-07 
0 0 0 0 0 0 0 0 3.460309616e-07 
0 0 0 0 0 0 0 0 1.780436784e-07 
0 0 0 0 0 0 0 0 1.621687904e-07 
0 0 0 0 0 0 0 0 1.351671868e-07 
0 0 0 0 0 0 0 0 2.485365182e-07 
0 0 0 0 0 0 0 0 2.755381218e-07 
0 0 0 0 0 0 0 0 2.326616302e-07 
2.528101115e-07 0 -1.589091039e-07 0 0 0 -1.589091039e-07 0 3.376668973e-07 
2.365222853e-07 0 0 0 0 0 0 0 -1.361015272e-07 
-1.941678986e-07 0 0 0 0 0 0 0 1.425055287e-07 
2.412778282e-07 0 -1.282414851e-07 0 0 0 -1.282414851e-07 0 2.875956206e-07 
2.446661984e-07 0 -1.386008902e-07 0 0 0 -1.386008902e-07 0 0 
0 0 0 0 0 0 0 0 0 
0 0 0 0 0 0 0 0 2.40086213e-07 
2.470439699e-07 0 -1.435752945e-07 0 0 0 -1.435752945e-07 0 3.126312589e-07 
2.389000567e-07 0 -1.232670808e-07 0 0 0 -1.232670808e-07 0 0 
0 0 0 0 0 0 0 0 2.150505747e-07 
1.314531848e-07 0 0 0 0 0 0 0 -1.465971479e-07 
0 0 0 0 0 0 0 0 -5.014352664e-07 
0 0 0 0 0 0 0 0 -4.126851793e-07 
-1.537012211e-07 0 0 0 0 0 0 0 -2.508925834e-07 
0 0 0 0 0 0 0 0 -3.240162071e-07 
0 0 0 0 0 0 0 0 -4.570602228e-07 
0 0 0 0 0 0 0 0 -2.796411636e-07 
0 0 0 0 0 0 0 0 -1.987448656e-07 
-1.297170456e-07 0 0 0 0 0 0 0 -3.761639249e-07 
0 0 0 0 0 0 0 0 -3.317888814e-07 
1.450271411e-07 0 0 0 0 0 0 0 -1.880491076e-07 
0 0 -1.19833786e-07 0 0 0 -1.19833786e-07 0 -1.501139782e-07 
2.120126113e-07 0 -1.587195953e-07 0 0 0 -1.587195953e-07 0 -3.01359567e-07 
0 0 0 0 0 0 0 0 -2.318955005e-07 
1.229344392e-07 0 0 0 0 0 0 0 -1.690815429e-07 
1.564271744e-07 0 -1.392766907e-07 0 0 0 -1.392766907e-07 0 -2.257367726e-07 
1.785198762e-07 0 -1.335665761e-07 0 0 0 -1.335665761e-07 0 -2.447043373e-07 
0 0 0 0 0 0 0 0 -2.09972304e-07 
0 0 0 0 0 0 0 0 -1.910047393e-07 
0 0 0 0 0 0 0 0 -2.666275337e-07 
0 0 0 0 0 0 0 0 -2.026207343e-07 
0 0 0 0 0 0 0 0 -1.824181063e-07 
-2.30409568e-07 0 0 0 0 0 0 0 -2.83611605e-07 
-1.291671683e-07 0 0 0 0 0 0 0 1.588412142e-07 
0 0 0 0 0 0 0 0 -1.925194203e-07 
0 0 0 0 0 0 0 0 -2.330148557e-07 
-1.718258845e-07 0 0 0 0 0 0 0 -2.431161697e-07 
-1.212046847e-07 0 0 0 0 0 0 0 0 
0 0 0 0 0 0 0 0 0 
-1.797883681e-07 0 0 0 0 0 0 0 0 
0 0 0 0 0 0 0 0 5.386748328e-07 
-2.004507168e-07 0 0 0 0 1.203535088e-07 0 1.203535088e-07 -2.468690341e-07 
4.654857575e-07 0 0 0 0 -1.459556843e-07 0 -1.459556843e-07 0 
-4.773846522e-07 0 0 0 -2.613466807e-07 0 0 0 3.419545231e-07 
0 0 0 0 0 0 0 0 1.459028993e-07 
1.325175204e-07 0 0 0 0 0 0 0 -1.467012981e-07 
2.858193816e-07 0 0 0 0 0 0 0 2.460706353e-07 
-1.856158233e-07 0 0 0 0 0 0 0 4.403146779e-07 
-3.389176845e-07 0 0 0 0 0 0 0 0 
0 0 0 0 0 0 0 0 1.477104805e-07 
-2.287742927e-07 0 0 0 0 0 0 0 -2.657922669e-07 
0 0 0 0 0 0 0 0 -4.691676744e-07 
0 0 0 0 0 0 0 0 -1.786358173e-07 
0 0 0 0 0 0 0 0 -2.003846789e-07 
-1.437383508e-07 0 0 0 0 0 0 0 -3.674799706e-07 
0 0 0 0 0 0 0 0 -3.239017459e-07 
0 0 0 0 0 0 0 0 -2.222140421e-07 
-1.541705552e-07 0 0 0 0 0 0 0 -2.330884729e-07 
0 0 0 0 0 0 0 0 -3.347761767e-07 
0 0 0 0 0 0 0 0 -1.895102481e-07 
1.816050967e-07 0 0 0 1.200028381e-07 0 0 0 -2.370428581e-07 
-4.410626097e-07 0 0 0 -2.857862189e-07 0 0 0 -3.577658466e-07 
0 0 0 0 0 0 0 0 -1.950422579e-07 
2.410200897e-07 1.605897294e-07 0 1.605897294e-07 2.498798536e-07 0 0 0 -1.305131288e-07 
-1.297287565e-07 0 0 0 0 0 0 0 -2.974043523e-07 
-2.403565385e-07 0 0 0 -2.012116912e-07 0 0 0 -2.764040523e-07 
0 0 0 0 0 0 0 0 -2.16042558e-07 
2.113125932e-07 0 0 0 1.849413458e-07 0 0 0 -1.837779935e-07 
0 0 0 0 0 0 0 0 -2.441394877e-07 
0 0 0 0 0 0 0 0 -1.627776934e-07 
0 0 0 0 0 0 0 0 3.701190978e-07 
0 0 0 0 0 -1.241807336e-07 0 -1.241807336e-07 2.87625282e-07 
0 0 -1.27712353e-07 0 0 0 -1.27712353e-07 0 4.684263881e-07 
0 0 0 0 0 -1.366591062e-07 0 -1.366591062e-07 4.022136054e-07 
0 0 0 0 0 0 0 0 3.288721899e-07 
0 0 0 0 0 0 0 0 3.780258351e-07 
0 0 0 0 0 0 0 0 4.19272743e-07 
0 0 0 0 0 0 0 0 3.861663516e-07 
0 0 0 0 0 -1.304199199e-07 0 -1.304199199e-07 3.449194437e-07 
0 0 -1.202937662e-07 0 0 0 -1.202937662e-07 0 4.353199967e-07 
-1.990277682e-07 0 0 0 0 0 0 0 1.371877399e-07 
2.477813616e-07 0 -1.271801483e-07 0 0 0 -1.271801483e-07 0 2.941228845e-07 
2.43107131e-07 0 -1.218442254e-07 0 0 0 -1.218442254e-07 0 -1.252378907e-07 
-2.085745096e-07 0 0 0 0 0 0 0 0 
0 0 0 0 0 0 0 0 2.156553122e-07 
2.454442463e-07 0 -1.245121868e-07 0 0 0 -1.245121868e-07 0 0 
0 0 0 0 0 0 0 0 0 
-2.038011389e-07 0 0 0 0 0 0 0 1.204687642e-07 
0 0 0 0 0 0 0 0 1.989363365e-07 
0 0 0 0 0 0 0 0 0 
0 0 -1.231898101e-07 0 0 -1.247335034e-07 -1.231898101e-07 -1.247335034e-07 2.005880646e-07 
0 0 0 0 0 0 0 0 5.213370197e-07 
0 0 -1.513367878e-07 0 0 0 -1.513367878e-07 0 4.893388286e-07 
0 0 0 0 0 0 0 0 4.306413562e-07 
0 0 0 0 0 -1.216812072e-07 0 -1.216812072e-07 3.609625421e-07 
0 0 -1.254489628e-07 0 0 0 -1.254489628e-07 0 5.053379241e-07 
0 0 -1.37263299e-07 0 0 0 -1.37263299e-07 0 3.449634466e-07 
0 0 0 0 0 0 0 0 3.156147104e-07 
0 0 0 0 0 0 0 0 4.759891879e-07 
0 0 0 0 0 0 0 0 4.599900924e-07 
3.319555356e-07 0 -2.810588297e-07 0 0 -1.418454736e-07 -2.810588297e-07 -1.418454736e-07 -3.688170263e-07 
-1.641483679e-07 0 2.400335677e-07 0 1.440702845e-07 1.39788914e-07 2.400335677e-07 1.39788914e-07 -4.280381571e-07 
-2.097807657e-07 0 1.485041535e-07 0 0 0 1.485041535e-07 0 -4.742267673e-07 
-1.945633838e-07 0 0 0 0 0 0 0 -2.982817595e-07 
0 0 0 0 0 0 0 0 -3.984275917e-07 
-1.869645668e-07 0 1.942688606e-07 0 0 0 1.942688606e-07 0 -4.511324622e-07 
0 0 0 0 0 0 0 0 -4.215218968e-07 
0 0 0 0 0 0 0 0 -3.335493929e-07 
-1.793558758e-07 0 1.621757467e-07 0 0 0 1.621757467e-07 0 -3.631599583e-07 
-2.021720748e-07 0 0 0 0 0 0 0 -3.862542634e-07 
-2.041545254e-07 0 0 0 0 0 0 0 1.310865068e-07 
2.641553707e-07 0 -1.244860471e-07 0 0 0 -1.244860471e-07 0 0 
-1.986336216e-07 0 0 0 0 0 0 0 -2.967801654e-07 
-1.92395849e-07 0 0 0 0 0 0 0 1.251098482e-07 
0 0 0 0 0 0 0 0 0 
0 0 0 0 0 0 0 0 -2.039535563e-07 
-2.013940735e-07 0 0 0 0 0 0 0 0 
-1.982751872e-07 0 0 0 0 0 0 0 1.280981775e-07 
0 0 0 0 0 0 0 0 0 
-1.955147353e-07 0 0 0 0 0 0 0 0 
-2.003892699e-07 0 0 0 -1.581688956e-07 0 0 0 -2.824020724e-07 
2.328867344e-07 0 0 0 2.119171488e-07 0 0 0 3.037057486e-07 
0 0 0 0 -1.749560478e-07 0 0 0 -2.1280597e-07 
0 0 0 0 1.871895373e-07 0 0 0 1.836399605e-07 
0 0 0 0 0 0 0 0 0 
1.551735116e-07 0 0 0 0 0 0 0 0 
0 0 0 0 -1.665624717e-07 0 0 0 -2.476040212e-07 
-1.494680638e-07 0 0 0 0 0 0 0 0 
0 0 0 0 1.995533431e-07 0 0 0 2.436728545e-07 
0 0 0 0 0 0 0 0 0 
2.094492104e-07 0 0 0 0 0 0 0 -1.273185383e-07 
-1.681703156e-07 0 0 0 0 0 0 0 1.663895866e-07 
-2.482662848e-07 0 0 0 0 0 0 0 -2.820774331e-07 
2.034831925e-07 0 -1.304626066e-07 0 0 0 -1.304626066e-07 0 2.695258004e-07 
0 0 0 0 0 0 0 0 0 
-2.082183002e-07 0 0 0 0 0 0 0 0 
0 0 0 0 0 0 0 0 -2.046979857e-07 
2.064662014e-07 0 -1.207575671e-07 0 0 0 -1.207575671e-07 0 0 
0 0 0 0 0 0 0 0 2.179576935e-07 
0 0 0 0 0 0 0 0 0 
-2.150046016e-07 0 0 0 -1.461037777e-07 0 0 0 -4.799735682e-07 
0 0 0 0 0 0 0 0 -4.299151801e-07 
0 0 0 0 0 0 0 0 -4.145516503e-07 
0 0 0 0 1.398133875e-07 0 0 0 0 
0 0 0 0 0 0 0 0 -4.549443741e-07 
0 0 0 0 0 0 0 0 -4.222334152e-07 
-1.354608003e-07 0 0 0 0 0 0 0 -4.472626092e-07 
-1.259167944e-07 0 0 0 0 0 0 0 -2.895043961e-07 
0 0 0 0 0 0 0 0 -2.644752021e-07 
0 0 0 0 0 0 0 0 -2.567934372e-07 
1.827238189e-07 0 0 0 1.837852966e-07 0 0 0 2.638387268e-07 
0 0 0 0 -2.444632602e-07 0 0 0 -2.404030827e-07 
-2.203234849e-07 0 0 0 -1.617878826e-07 0 0 0 -2.740874237e-07 
0 0 0 0 2.57188828e-07 0 0 0 2.409415156e-07 
0 0 0 0 0 0 0 0 0 
0 0 0 0 -2.031255714e-07 0 0 0 -2.572452532e-07 
0 0 0 0 0 0 0 0 0 
0 0 0 0 2.204870623e-07 0 0 0 2.523901212e-07 
0 0 0 0 0 0 0 0 0 
0 0 0 0 0 0 0 0 0 
-1.651550682e-07 0 0 0 0 0 0 0 -6.005027713e-07 
2.270098081e-07 0 -1.451286901e-07 0 0 0 -1.451286901e-07 0 0 
-2.109683021e-07 0 0 0 0 0 0 0 -2.647958876e-07 
-1.419916739e-07 0 0 0 0 0 0 0 -2.43498449e-07 
0 0 0 0 0 0 0 0 -3.595858303e-07 
0 0 0 0 0 0 0 0 -1.917323884e-07 
-1.880616851e-07 0 0 0 0 0 0 0 -4.326493295e-07 
-1.53573371e-07 0 0 0 0 0 0 0 -4.220006101e-07 
0 0 0 0 0 0 0 0 -1.810836691e-07 
-1.76479988e-07 0 0 0 0 0 0 0 -2.541471683e-07 
-2.345541203e-07 0 0 0 0 0 0 0 1.659971991e-07 
-2.947575549e-07 0 0 0 0 0 0 0 -2.837362805e-07 
2.078336076e-07 0 -1.447036342e-07 0 0 0 -1.447036342e-07 0 0 
2.185107285e-07 0 -1.293065033e-07 0 0 0 -1.293065033e-07 0 2.7530496e-07 
-2.646558376e-07 0 0 0 0 0 0 0 0 
0 0 0 0 0 0 0 0 -1.935474943e-07 
0 0 0 0 0 0 0 0 0 
0 0 0 0 0 0 0 0 2.206510796e-07 
0 0 0 0 0 0 0 0 0 
2.131721681e-07 0 -1.370050688e-07 0 0 0 -1.370050688e-07 0 0 
2.511373737e-07 0 -1.234286461e-07 0 0 0 -1.234286461e-07 0 0 
2.154662775e-07 0 -1.385787276e-07 0 0 0 -1.385787276e-07 0 2.807001578e-07 
-2.233498302e-07 0 0 0 0 0 0 0 -2.694619438e-07 
-2.413226815e-07 0 0 0 0 0 0 0 1.293986508e-07 
2.333018256e-07 0 -1.310036869e-07 0 0 0 -1.310036869e-07 0 0 
0 0 0 0 0 0 0 0 0 
0 0 0 0 0 0 0 0 -1.870298315e-07 
0 0 0 0 0 0 0 0 0 
0 0 0 0 0 0 0 0 2.050494043e-07 
-2.323362559e-07 0 0 0 0 0 0 0 0 
0 0 0 0 2.851722242e-07 0 0 0 2.243175428e-07 
-1.617163599e-07 0 0 0 -1.872217881e-07 0 0 0 -2.670595694e-07 
0 0 0 0 -2.487465355e-07 0 0 0 -2.484168942e-07 
2.058042716e-07 0 0 0 2.534816279e-07 0 0 0 2.836194504e-07 
0 0 0 0 0 0 0 0 0 
0 0 0 0 -2.179841618e-07 0 0 0 -2.577382318e-07 
0 0 0 0 0 0 0 0 0 
0 0 0 0 2.69326926e-07 0 0 0 2.539684966e-07 
0 0 0 0 0 0 0 0 0 
0 0 0 0 0 0 0 0 0 
-2.637395978e-07 0 0 0 0 0 0 0 -3.012698371e-07 
-2.005364234e-07 0 0 0 0 0 0 0 -2.496788534e-07 
2.666002519e-07 0 -1.280422917e-07 0 0 0 -1.280422917e-07 0 0 
-2.216214987e-07 0 0 0 0 0 0 0 1.458470098e-07 
-2.321380106e-07 0 0 0 0 0 0 0 -2.754743452e-07 
0 0 0 0 0 0 0 0 -1.68096158e-07 
0 0 0 0 0 0 0 0 -1.938916498e-07 
-2.426805483e-07 0 0 0 0 0 0 0 0 
-2.110789611e-07 0 0 0 0 0 0 0 0 
0 0 0 0 0 0 0 0 0 
0 0 0 0 0 0 0 0 4.475184563e-07 
0 0 0 0 0 0 0 0 3.676475458e-07 
0 0 0 0 0 -1.235177229e-07 0 -1.235177229e-07 4.257413026e-07 
0 0 0 0 0 0 0 0 2.403938411e-07 
0 0 0 0 0 0 0 0 4.07583001e-07 
0 0 0 0 0 0 0 0 3.966944242e-07 
0 0 0 0 0 0 0 0 4.366298794e-07 
0 0 0 0 0 0 0 0 3.439561487e-07 
0 0 0 0 0 0 0 0 3.040206935e-07 
0 0 0 0 0 0 0 0 3.330675718e-07 
2.277756957e-07 0 -1.552860021e-07 0 0 0 -1.552860021e-07 0 -1.48168451e-07 
-2.252545821e-07 0 0 0 0 0 0 0 -2.351404797e-07 
-2.666891464e-07 0 0 0 0 0 0 0 -2.818949167e-07 
-2.411959947e-07 0 0 0 0 0 0 0 1.652396949e-07 
0 0 0 0 0 0 0 0 -1.916544653e-07 
-2.459718642e-07 0 0 0 0 0 0 0 -2.585176982e-07 
0 0 0 0 0 0 0 0 -2.150316839e-07 
0 0 0 0 0 0 0 0 0 
-2.332252884e-07 0 0 0 0 0 0 0 0 
-2.539425706e-07 0 0 0 0 0 0 0 0 
-1.610586543e-07 0 0 0 1.260808079e-07 0 0 0 -1.751299628e-07 
-2.540891923e-07 0 0 0 -1.410231507e-07 0 0 0 0 
2.144315688e-07 0 0 0 1.712041984e-07 0 0 0 0 
1.258791145e-07 0 -1.330548874e-07 0 0 0 -1.330548874e-07 0 2.095432486e-07 
-2.075739233e-07 0 0 0 0 0 0 0 0 
0 0 0 0 0 0 0 0 0 
0 0 0 0 1.486425032e-07 0 0 0 0 
0 0 0 0 0 0 0 0 0 
0 0 0 0 -1.268196323e-07 0 0 0 1.250197415e-07 
1.701553417e-07 0 -1.196854722e-07 0 0 0 -1.196854722e-07 0 0 
2.178058609e-07 0 0 0 0 0 0 0 -1.229488026e-07 
-1.532869121e-07 0 0 0 0 0 0 0 -1.97178667e-07 
-2.292357437e-07 0 0 0 0 0 0 0 -2.675852893e-07 
-1.673217135e-07 0 0 0 0 0 0 0 1.722162525e-07 
0 0 0 0 0 0 0 0 -1.600637348e-07 
-1.912613279e-07 0 0 0 0 0 0 0 -2.323819781e-07 
0 0 0 0 0 0 0 0 -1.95267046e-07 
0 0 0 0 0 0 0 0 0 
-1.603043128e-07 0 0 0 0 0 0 0 0 
-1.982787286e-07 0 0 0 0 0 0 0 0 
0 0 0 0 0 0 0 0 4.593157544e-07 
0 0 0 0 1.255452308e-07 0 0 0 -1.315989305e-07 
2.861812179e-07 0 0 0 0 0 0 0 0 
-4.562143778e-07 0 0 0 -2.525128105e-07 0 0 0 2.570161578e-07 
0 0 0 0 0 0 0 0 1.63858412e-07 
1.399971267e-07 0 0 0 0 0 0 0 0 
1.848163739e-07 0 0 0 0 0 0 0 1.879814979e-07 
-1.863814239e-07 0 0 0 0 0 0 0 3.581659561e-07 
-2.312006711e-07 0 0 0 0 0 0 0 0 
0 0 0 0 -1.291707971e-07 0 0 0 0 
-1.74200599e-07 0 0 0 0 0 0 0 -1.85917683e-07 
-2.341522235e-07 0 0 0 0 0 0 0 0 
-1.868530264e-07 0 0 0 0 0 0 0 0 
1.415421024e-07 0 -1.321195332e-07 0 0 0 -1.321195332e-07 0 2.243112396e-07 
-2.041764113e-07 0 0 0 0 0 0 0 0 
-2.10502625e-07 0 0 0 0 0 0 0 0 
-1.805268127e-07 0 0 0 0 0 0 0 0 
0 0 0 0 0 0 0 0 0 
0 0 0 0 0 0 0 0 1.639221471e-07 
0 0 0 0 0 0 0 0 1.612948516e-07 
0 0 0 0 0 0 0 0 -3.754483132e-07 
0 0 0 0 0 0 0 0 -2.596830262e-07 
2.125178205e-07 0 -1.798224907e-07 0 0 0 -1.798224907e-07 0 -4.371130944e-07 
-1.946258076e-07 0 0 0 0 0 0 0 -2.897029623e-07 
0 0 0 0 0 0 0 0 -3.175656697e-07 
1.653019379e-07 0 -1.465930888e-07 0 0 0 -1.465930888e-07 0 -3.483980603e-07 
0 0 0 0 0 0 0 0 -4.062807038e-07 
-1.361956308e-07 0 0 0 0 0 0 0 -3.325756377e-07 
0 0 0 0 0 0 0 0 -2.746929943e-07 
0 0 0 0 0 0 0 0 -3.634080283e-07 
0 0 0 0 -2.475244876e-07 0 0 0 -2.412747825e-07 
0 0 0 0 3.075279899e-07 0 0 0 2.357459287e-07 
0 0 0 0 -1.360296447e-07 0 0 0 -2.182625435e-07 
1.457925633e-07 0 0 0 1.92039019e-07 0 0 0 2.333162515e-07 
0 0 0 0 0 0 0 0 0 
0 0 0 0 0 0 0 0 0 
0 0 0 0 -1.917770662e-07 0 0 0 -2.29768663e-07 
0 0 0 0 0 0 0 0 0 
0 0 0 0 2.497835044e-07 0 0 0 2.345310901e-07 
0 0 0 0 0 0 0 0 0 
-1.32639862e-07 0 0 0 0 0 0 0 -5.380633309e-07 
2.72887348e-07 0 -1.759873374e-07 0 1.570436492e-07 0 -1.759873374e-07 0 -2.987608986e-07 
0 0 0 0 0 0 0 0 -5.263902822e-07 
1.421715185e-07 0 0 0 0 0 0 0 0 
0 0 0 0 0 0 0 0 -4.184121148e-07 
1.489695988e-07 0 0 0 0 0 0 0 -4.125755904e-07 
0 0 0 0 0 0 0 0 -5.322268066e-07 
0 0 0 0 0 0 0 0 -3.127220604e-07 
2.075294333e-07 0 -1.27991335e-07 0 1.264130028e-07 0 -1.27991335e-07 0 -1.930708443e-07 
0 0 0 0 0 0 0 0 -3.068855361e-07 
-2.828731895e-07 0 0 0 0 0 0 0 -2.669569528e-07 
2.380795161e-07 0 -1.261453811e-07 0 0 0 -1.261453811e-07 0 2.91722821e-07 
-2.818068824e-07 0 0 0 0 0 0 0 1.291102728e-07 
-2.734817665e-07 0 1.237864706e-07 0 0 0 1.237864706e-07 0 0 
0 0 0 0 0 0 0 0 0 
0 0 0 0 0 0 0 0 2.104165469e-07 
-2.823400359e-07 0 0 0 0 0 0 0 0 
-2.78177478e-07 0 0 0 0 0 0 0 0 
0 0 0 0 0 0 0 0 1.948506608e-07 
-2.776443245e-07 0 0 0 0 0 0 0 0 
-1.667586453e-07 0 0 0 -1.590693596e-07 0 0 0 -2.343106787e-07 
1.266029963e-07 0 0 0 1.379989505e-07 0 0 0 2.008991475e-07 
0 0 0 0 -3.288878631e-07 0 0 0 -2.759375507e-07 
0 0 0 0 3.608328334e-07 0 0 0 2.604721534e-07 
0 0 0 0 0 0 0 0 0 
0 0 0 0 0 0 0 0 0 
0 0 0 0 -2.439786113e-07 0 0 0 -2.551241147e-07 
0 0 0 0 0 0 0 0 0 
0 0 0 0 2.494158919e-07 0 0 0 2.306856505e-07 
0 0 0 0 0 0 0 0 0 
2.11866986e-07 0 -1.779396672e-07 0 0 0 -1.779396672e-07 0 -3.634714535e-07 
1.572674244e-07 0 0 0 0 0 0 0 0 
-1.305558792e-07 0 0 0 0 0 0 0 -5.116707266e-07 
-1.245406636e-07 0 0 0 0 0 0 0 -1.295807454e-07 
1.845672052e-07 0 -1.361525816e-07 0 0 0 -1.361525816e-07 0 -2.408511432e-07 
0 0 0 0 0 0 0 0 -3.149507797e-07 
0 0 0 0 0 0 0 0 -4.375710901e-07 
0 0 0 0 0 0 0 0 -2.465260995e-07 
0 0 0 0 0 0 0 0 -1.239057891e-07 
-1.275482714e-07 0 0 0 0 0 0 0 -3.20625736e-07 
0 0 0 0 0 0 0 0 -1.610453644e-07 
0 0 0 0 0 0 0 0 -4.125630805e-07 
1.552582566e-07 0 0 0 1.967540905e-07 0 0 0 -2.840320836e-07 
-1.796467285e-07 0 0 0 -1.611268818e-07 0 0 0 -2.648080051e-07 
0 0 0 0 0 0 0 0 -2.868042224e-07 
0 0 0 0 0 0 0 0 -3.48297582e-07 
1.212756322e-07 0 0 0 0 0 0 0 -2.22538724e-07 
0 0 0 0 0 0 0 0 -2.129266848e-07 
-1.297268259e-07 0 0 0 0 0 0 0 -3.386855428e-07 
0 0 0 0 0 0 0 0 -2.744200444e-07 
2.712844411e-07 0 0 0 2.716935876e-07 0 0 0 0 
0 0 0 0 -1.866113459e-07 0 0 0 1.789075149e-07 
0 0 0 0 1.601221604e-07 0 0 0 -1.928497822e-07 
-2.093778115e-07 0 0 0 -1.949655318e-07 0 0 0 0 
1.915471901e-07 0 0 0 0 0 0 0 0 
0 0 0 0 0 0 0 0 0 
0 0 0 0 2.15907874e-07 0 0 0 0 
0 0 0 0 0 0 0 0 0 
0 0 0 0 -1.907884389e-07 0 0 0 0 
-1.43252959e-07 0 0 0 0 0 0 0 0 
2.168606367e-07 2.296574088e-07 0 2.296574088e-07 6.825209835e-07 0 0 0 0 
0 0 0 0 0 0 0 0 -1.85111235e-07 
-3.255069997e-07 0 0 0 -3.69808671e-07 0 0 0 -4.228540538e-07 
0 -1.423331692e-07 0 -1.423331692e-07 -2.606241636e-07 0 0 0 -2.318881465e-07 
1.536672115e-07 1.275274e-07 0 1.275274e-07 3.205604562e-07 0 0 0 0 
0 0 0 0 -2.05604371e-07 0 0 0 -3.039826444e-07 
0 0 0 0 1.563561562e-07 0 0 0 -1.924469428e-07 
0 0 0 0 2.109484099e-07 0 0 0 0 
0 0 0 0 -1.510121173e-07 0 0 0 -2.084996907e-07 
-1.948377511e-07 -1.29918337e-07 0 -1.29918337e-07 -3.152164173e-07 0 0 0 -3.273711002e-07 
-2.117457944e-07 0 0 0 -2.137514254e-07 0 0 0 0 
2.060989254e-07 0 0 0 2.762810097e-07 0 0 0 0 
0 0 0 0 2.331027267e-07 0 0 0 0 
0 0 0 0 -2.206412813e-07 0 0 0 0 
0 0 0 0 0 0 0 0 0 
0 0 0 0 2.546918682e-07 0 0 0 0 
-1.294787232e-07 0 0 0 0 0 0 0 0 
0 0 0 0 -2.171963533e-07 0 0 0 0 
0 0 0 0 0 0 0 0 0 
0 0 0 0 0 0 0 0 0 
0 0 0 0 0 0 0 0 -3.419025408e-07 
1.413610229e-07 0 0 0 0 0 0 0 -1.997565211e-07 
1.508410605e-07 0 -1.307924116e-07 0 0 0 -1.307924116e-07 0 -4.029588395e-07 
0 0 0 0 0 0 0 0 -2.332229566e-07 
0 0 0 0 0 0 0 0 -2.708295309e-07 
1.461010417e-07 0 0 0 0 0 0 0 -3.013576803e-07 
0 0 0 0 0 0 0 0 -3.724306902e-07 
0 0 0 0 0 0 0 0 -2.875627487e-07 
0 0 0 0 0 0 0 0 -2.164897388e-07 
0 0 0 0 0 0 0 0 -3.180908981e-07 
0 0 0 0 0 0 0 0 3.493572831e-07 
0 0 0 0 0 0 0 0 4.480513365e-07 
0 0 0 0 0 0 0 0 4.5313788e-07 
0 0 0 0 0 0 0 0 3.498525627e-07 
0 0 0 0 0 0 0 0 3.987043098e-07 
0 0 0 0 0 0 0 0 4.505946083e-07 
0 0 0 0 0 0 0 0 4.012475816e-07 
0 0 0 0 0 0 0 0 3.496049229e-07 
0 0 0 0 0 0 0 0 3.989519496e-07 
0 0 0 0 0 0 0 0 4.014952213e-07 
0 0 0 0 0 0 0 0 3.525141208e-07 
0 0 0 0 0 0 0 0 1.218146631e-07 
0 0 0 0 0 0 0 0 1.965926404e-07 
0 0 0 0 0 0 0 0 4.124190697e-07 
0 0 0 0 0 0 0 0 2.371643919e-07 
0 0 0 0 0 0 0 0 1.592036517e-07 
0 0 0 0 0 0 0 0 2.745533806e-07 
0 0 0 0 0 0 0 0 3.824665953e-07 
0 0 0 0 0 0 0 0 2.671168664e-07 
0 0 0 0 0 0 0 0 3.04505855e-07 
0 0 0 0 0 0 0 0 4.588431168e-07 
0 0 0 0 0 0 0 0 0 
0 0 0 0 0 0 0 0 2.104796412e-07 
0 0 0 0 0 0 0 0 3.490109034e-07 
0 0 0 0 0 0 0 0 2.839986128e-07 
0 0 0 0 0 0 0 0 1.59816875e-07 
0 0 0 0 0 0 0 0 3.34661379e-07 
0 0 0 0 0 0 0 0 4.039270101e-07 
0 0 0 0 0 0 0 0 2.290825061e-07 
0 0 0 0 0 0 0 0 2.797452723e-07 
0 0 0 0 -1.369821497e-07 0 0 0 2.761178494e-07 
0 0 0 0 0 0 0 0 1.331739205e-07 
1.567843146e-07 0 0 0 2.345651275e-07 0 0 0 2.548226973e-07 
0 0 0 0 0 0 0 0 2.159693248e-07 
0 0 0 0 0 0 0 0 2.04645885e-07 
0 0 0 0 1.586478868e-07 0 0 0 1.939983089e-07 
0 0 0 0 0 0 0 0 2.654702733e-07 
0 0 0 0 0 0 0 0 2.460435871e-07 
0 0 0 0 0 0 0 0 1.745716227e-07 
0 0 0 0 0 0 0 0 2.353960111e-07 
0 0 0 0 1.348368946e-07 0 0 0 -1.610268926e-07 
-1.99318752e-07 0 0 0 -2.723550766e-07 0 0 0 0 
2.734469907e-07 0 0 0 3.778209894e-07 0 0 0 0 
0 0 0 0 -2.074202268e-07 0 0 0 1.347101632e-07 
0 0 0 0 0 0 0 0 0 
0 0 0 0 0 0 0 0 0 
1.200757459e-07 0 0 0 2.56328942e-07 0 0 0 0 
0 0 0 0 0 0 0 0 0 
0 0 0 0 -2.398876517e-07 0 0 0 0 
1.605674364e-07 0 0 0 0 0 0 0 0 
1.250560628e-07 0 -1.26809403e-07 0 0 0 -1.26809403e-07 0 2.761124408e-07 
0 0 -1.353059009e-07 0 0 0 -1.353059009e-07 0 2.404062014e-07 
0 0 0 0 0 0 0 0 1.796717033e-07 
0 0 0 0 0 0 0 0 3.907921932e-07 
0 0 -1.31057652e-07 0 0 0 -1.31057652e-07 0 2.582593211e-07 
0 0 0 0 0 0 0 0 2.100389523e-07 
0 0 0 0 0 0 0 0 2.278920721e-07 
0 0 0 0 0 0 0 0 3.33452317e-07 
0 0 0 0 0 0 0 0 3.155991973e-07 
0 0 0 0 0 0 0 0 2.852319482e-07 
3.107354161e-07 0 -2.19007836e-07 0 0 0 -2.19007836e-07 0 -3.35987106e-07 
-1.552018689e-07 0 0 0 0 0 0 0 -2.498314977e-07 
2.044900379e-07 0 -1.456386977e-07 0 0 0 -1.456386977e-07 0 -1.696250763e-07 
-2.299821917e-07 0 0 0 0 0 0 0 -2.228060311e-07 
0 0 0 0 0 0 0 0 -2.929093018e-07 
0 0 0 0 0 0 0 0 -2.09728287e-07 
2.57612727e-07 0 -1.823232669e-07 0 0 0 -1.823232669e-07 0 -2.528060911e-07 
0 0 0 0 0 0 0 0 -2.793965685e-07 
-1.925920303e-07 0 0 0 0 0 0 0 -2.363187644e-07 
0 0 0 0 0 0 0 0 -1.962155537e-07 
0 0 0 0 -1.261748692e-07 0 0 0 3.446311727e-07 
0 0 0 0 1.200124167e-07 0 0 0 1.394056056e-07 
1.623989339e-07 0 0 0 1.885337632e-07 0 0 0 2.492499965e-07 
0 0 0 0 0 0 0 0 2.731030079e-07 
0 0 0 0 0 0 0 0 2.420183891e-07 
0 0 0 0 1.542730899e-07 0 0 0 1.94327801e-07 
0 0 0 0 0 0 0 0 2.969405846e-07 
0 0 0 0 0 0 0 0 3.088670903e-07 
0 0 0 0 0 0 0 0 2.062543067e-07 
0 0 0 0 0 0 0 0 2.611765022e-07 
1.861621892e-07 0 0 0 1.549416355e-07 0 0 0 -2.701580197e-07 
-4.96359352e-07 0 0 0 -3.285039771e-07 0 0 0 -4.130026668e-07 
0 0 0 0 0 0 0 0 -1.906505235e-07 
1.546901167e-07 1.357643808e-07 0 1.357643808e-07 1.628286969e-07 0 0 0 -2.188003963e-07 
-1.550985814e-07 0 0 0 0 0 0 0 -3.415803433e-07 
-2.438152876e-07 0 0 0 -2.083745337e-07 0 0 0 -3.018265952e-07 
0 0 0 0 0 0 0 0 -2.304042716e-07 
1.704261529e-07 0 0 0 1.588851662e-07 0 0 0 -2.44479208e-07 
-1.708346177e-07 0 0 0 0 0 0 0 -3.159015316e-07 
0 0 0 0 0 0 0 0 -2.047254599e-07 
0 0 0 0 -1.593659083e-07 0 0 0 0 
0 0 0 0 1.691085837e-07 0 0 0 4.051232474e-07 
0 0 0 0 0 0 0 0 0 
0 0 0 0 0 0 0 0 3.925369271e-07 
0 0 0 0 0 0 0 0 2.485408063e-07 
0 0 0 0 0 0 0 0 2.39486882e-07 
0 0 0 0 -1.282094891e-07 0 0 0 0 
0 0 0 0 0 0 0 0 2.422476461e-07 
0 0 0 0 1.31778208e-07 0 0 0 3.988300872e-07 
0 0 0 0 0 0 0 0 2.331937219e-07 
0 0 0 0 0 0 0 0 3.688376343e-07 
0 0 0 0 1.405697848e-07 0 0 0 0 
2.115753635e-07 0 0 0 0 0 0 0 0 
-3.84072403e-07 0 0 0 -2.146634602e-07 0 0 0 2.156431274e-07 
0 0 0 0 0 0 0 0 1.479092834e-07 
1.453672385e-07 0 0 0 0 0 0 0 0 
0 0 0 0 0 0 0 0 1.425242379e-07 
-1.878924954e-07 0 0 0 0 0 0 0 2.922403808e-07 
-1.524566447e-07 0 0 0 0 0 0 0 0 
0 0 0 0 -1.199374717e-07 0 0 0 0 
0 0 0 0 2.113269926e-07 0 0 0 0 
-1.727126757e-07 0 0 0 -2.162245035e-07 0 0 0 0 
1.804589176e-07 0 0 0 2.801739921e-07 0 0 0 0 
0 0 0 0 -2.038450648e-07 0 0 0 0 
0 0 0 0 0 0 0 0 0 
0 0 0 0 0 0 0 0 0 
0 0 0 0 2.457504924e-07 0 0 0 0 
0 0 0 0 0 0 0 0 0 
0 0 0 0 -2.100347841e-07 0 0 0 0 
0 0 0 0 0 0 0 0 0 
0 0 0 0 0 0 0 0 1.711142137e-07 
0 0 0 0 0 0 0 0 1.744034576e-07 
1.271402479e-07 0 -1.313436509e-07 0 0 0 -1.313436509e-07 0 2.540224733e-07 
0 0 0 0 0 0 0 0 3.844668628e-07 
0 0 0 0 0 0 0 0 1.727588356e-07 
0 0 0 0 0 0 0 0 2.142129654e-07 
0 0 0 0 0 0 0 0 2.125683435e-07 
0 0 0 0 0 0 0 0 2.777905383e-07 
0 0 0 0 0 0 0 0 2.794351602e-07 
0 0 0 0 0 0 0 0 3.19244668e-07 
0 0 0 0 0 0 0 0 -3.311993288e-07 
1.509848775e-07 0 0 0 0 0 0 0 -1.483552351e-07 
0 0 0 0 0 0 0 0 -3.703907559e-07 
0 0 0 0 0 0 0 0 -1.770140092e-07 
0 0 0 0 0 0 0 0 -2.397772819e-07 
1.346504513e-07 0 0 0 0 0 0 0 -2.593729955e-07 
0 0 0 0 0 0 0 0 -3.507950424e-07 
0 0 0 0 0 0 0 0 -2.54106669e-07 
0 0 0 0 0 0 0 0 -1.626846221e-07 
0 0 0 0 0 0 0 0 -2.737023825e-07 
0 0 0 0 0 0 0 0 -4.569842264e-07 
0 0 0 0 0 0 0 0 -1.212275705e-07 
1.385546727e-07 0 -1.417680531e-07 0 0 0 -1.417680531e-07 0 -3.181098425e-07 
1.617541362e-07 0 0 0 0 0 0 0 -1.236383489e-07 
0 0 0 0 0 0 0 0 -2.891058984e-07 
0 0 0 0 0 0 0 0 -2.196687065e-07 
0 0 0 0 0 0 0 0 -3.875470344e-07 
0 0 0 0 0 0 0 0 -2.903112877e-07 
0 0 0 0 0 0 0 0 -1.224329597e-07 
1.501544045e-07 0 0 0 0 0 0 0 -2.208740957e-07 
0 0 0 0 0 0 0 0 -4.146017656e-07 
0 0 0 0 0 0 0 0 -2.454845115e-07 
0 0 0 0 0 0 0 0 -2.761609435e-07 
0 0 0 0 1.436504645e-07 0 0 0 -4.164114643e-07 
0 0 0 0 0 0 0 0 -3.300431385e-07 
0 0 0 0 0 0 0 0 -2.608227275e-07 
0 0 0 0 0 0 0 0 -3.453813545e-07 
0 0 0 0 0 0 0 0 -4.155066149e-07 
0 0 0 0 0 0 0 0 -3.309479879e-07 
0 0 0 0 0 0 0 0 -3.462862039e-07 
0 0 0 0 0 0 0 0 -4.331248374e-07 
1.501082666e-07 0 0 0 1.380340918e-07 0 0 0 -3.716727625e-07 
0 0 0 0 0 0 0 0 -4.37952419e-07 
0 0 0 0 0 0 0 0 -3.430829002e-07 
0 0 0 0 0 0 0 0 -4.023987999e-07 
0 0 0 0 0 0 0 0 -4.048125907e-07 
0 0 0 0 0 0 0 0 -4.355386282e-07 
0 0 0 0 0 0 0 0 -3.881038688e-07 
0 0 0 0 0 0 0 0 -3.573778313e-07 
0 0 0 0 0 0 0 0 -3.905176596e-07 
1.479620239e-07 -1.412404038e-07 -1.264846619e-07 -1.412404038e-07 0 1.686602841e-07 -1.264846619e-07 1.686602841e-07 -4.888063367e-07 
0 0 0 0 0 -1.276957384e-07 0 -1.276957384e-07 -3.615051761e-07 
1.263517147e-07 0 0 0 1.422795723e-07 0 0 0 -3.314154765e-07 
0 0 0 0 0 0 0 0 -2.599323748e-07 
0 0 0 0 0 0 0 0 -4.251557564e-07 
0 0 0 0 0 0 0 0 -3.464603263e-07 
1.371568693e-07 0 0 0 0 0 0 0 -4.101109066e-07 
1.314557818e-07 0 0 0 0 1.247637455e-07 0 1.247637455e-07 -3.743693557e-07 
0 0 0 0 0 0 0 0 -3.107187754e-07 
1.206506272e-07 0 0 0 0 0 0 0 -2.956739256e-07 
0 0 0 0 0 0 0 0 1.337159237e-07 
0 0 0 0 0 0 0 0 1.936072407e-07 
-1.443926148e-07 0 0 0 0 0 0 0 1.612973908e-07 
0 0 0 0 0 0 0 0 3.476263331e-07 
0 0 0 0 0 0 0 0 1.636615822e-07 
0 0 0 0 0 0 0 0 1.774523157e-07 
0 0 0 0 0 0 0 0 1.475066572e-07 
0 0 0 0 0 0 0 0 2.406711284e-07 
0 0 0 0 0 0 0 0 2.706167869e-07 
0 0 0 0 0 0 0 0 2.544618619e-07 
-1.672759177e-07 0 0 0 -2.582213137e-07 0 0 0 0 
2.364521428e-07 0 0 0 3.782745437e-07 0 0 0 0 
0 0 0 0 0 0 0 0 -1.632186953e-07 
0 0 0 0 -1.460539449e-07 0 0 0 0 
0 0 0 0 0 0 0 0 0 
0 0 0 0 2.002288051e-07 0 0 0 0 
0 0 0 0 0 0 0 0 0 
0 0 0 0 -2.021376293e-07 0 0 0 0 
1.294483949e-07 0 0 0 0 0 0 0 0 
0 0 0 0 0 0 0 0 0 
0 0 0 0 0 0 0 0 -1.942888192e-07 
0 0 0 0 1.618377145e-07 0 0 0 -4.219885991e-07 
0 0 0 0 0 0 0 0 -4.880594485e-07 
0 0 0 0 -1.810978335e-07 0 0 0 -5.278198654e-07 
0 0 0 0 0 0 0 0 -3.081387091e-07 
0 0 0 0 0 0 0 0 -4.550240238e-07 
0 0 0 0 0 0 0 0 -3.411741339e-07 
0 0 0 0 0 0 0 0 -3.610543423e-07 
0 0 0 0 0 0 0 0 -4.749042322e-07 
0 0 0 0 0 0 0 0 -5.07939657e-07 
1.669156866e-07 0 0 0 1.758381322e-07 0 0 0 -3.216580902e-07 
-5.412929833e-07 0 0 0 -3.667546182e-07 0 0 0 -4.714017599e-07 
0 0 0 0 0 0 0 0 -1.872155868e-07 
0 0 0 0 0 0 0 0 -3.158950111e-07 
-1.871886483e-07 0 0 0 0 0 0 0 -3.965299251e-07 
-2.380182807e-07 0 0 0 -2.098321037e-07 0 0 0 -3.293086734e-07 
0 0 0 0 0 0 0 0 -2.544368385e-07 
0 0 0 0 1.253440808e-07 0 0 0 -3.187765507e-07 
-2.461932874e-07 0 0 0 -1.459522944e-07 0 0 0 -3.936483855e-07 
0 0 0 0 0 0 0 0 -2.51555299e-07 
-1.243107308e-07 0 1.207308119e-07 0 0 0 1.207308119e-07 0 2.052842877e-07 
0 0 1.357544304e-07 0 0 0 1.357544304e-07 0 1.587301165e-07 
0 0 -1.258426286e-07 0 0 0 -1.258426286e-07 0 2.141666972e-07 
0 0 0 0 0 0 0 0 3.629273529e-07 
0 0 1.282426212e-07 0 0 0 1.282426212e-07 0 1.820072021e-07 
0 0 0 0 0 0 0 0 1.864484068e-07 
0 0 0 0 0 0 0 0 2.097254925e-07 
0 0 0 0 0 0 0 0 2.841058203e-07 
0 0 1.261689774e-07 0 0 0 1.261689774e-07 0 2.608287347e-07 
0 0 0 0 0 0 0 0 2.885470251e-07 
0 0 0 0 0 0 0 0 1.238468179e-07 
0 0 0 0 0 0 0 0 4.512165746e-07 
0 0 0 0 0 0 0 0 3.567666713e-07 
0 0 0 0 0 0 0 0 3.488434211e-07 
0 0 0 0 0 0 0 0 2.875316962e-07 
0 0 0 0 0 0 0 0 4.039916229e-07 
0 0 0 0 0 0 0 0 2.403067446e-07 
0 0 0 0 0 0 0 0 2.363451195e-07 
0 0 0 0 0 0 0 0 4.000299979e-07 
0 0 0 0 0 0 0 0 3.528050462e-07 
2.703109242e-07 0 -1.505954643e-07 0 0 0 -1.505954643e-07 0 -2.91369309e-07 
0 0 0 0 0 0 0 0 -2.28109532e-07 
0 0 -1.280393723e-07 0 0 0 -1.280393723e-07 0 -1.624827703e-07 
-1.994921504e-07 0 0 0 0 0 0 0 -2.005519629e-07 
0 0 0 0 0 0 0 0 -2.597394205e-07 
0 0 0 0 0 0 0 0 -1.952961512e-07 
1.747941623e-07 0 -1.393174183e-07 0 0 0 -1.393174183e-07 0 -2.269260397e-07 
0 0 0 0 0 0 0 0 -2.45960636e-07 
-1.53959916e-07 0 0 0 0 0 0 0 -2.143307475e-07 
0 0 0 0 0 0 0 0 -1.815173666e-07 
0 0 1.413253076e-07 0 0 0 1.413253076e-07 0 4.04553011e-07 
-1.241759088e-07 0 1.289141153e-07 0 0 0 1.289141153e-07 0 0 
0 0 0 0 0 0 0 0 2.07893009e-07 
0 0 0 0 0 0 0 0 3.9359651e-07 
0 0 1.351197115e-07 0 0 0 1.351197115e-07 0 2.501398342e-07 
0 0 0 0 0 0 0 0 1.518098332e-07 
0 0 0 0 0 0 0 0 3.0622301e-07 
0 0 0 0 0 0 0 0 3.990747605e-07 
0 0 0 0 0 0 0 0 2.446615838e-07 
0 0 0 0 0 0 0 0 3.007447595e-07 
2.518079055e-07 0 0 0 3.608630231e-07 0 0 0 -2.727531748e-07 
-2.972083173e-07 0 0 0 -1.264970505e-07 0 0 0 -5.083014748e-07 
0 0 -2.179537236e-07 0 -2.990474764e-07 -1.503571319e-07 -2.179537236e-07 -1.503571319e-07 -4.591170092e-07 
0 0 0 0 0 0 0 0 0 
0 0 0 0 0 0 0 0 -3.905273248e-07 
-1.353383905e-07 0 0 0 -2.127722634e-07 0 0 0 -4.83709242e-07 
1.391697209e-07 0 0 0 0 0 0 0 -3.65935092e-07 
1.259857472e-07 0 0 0 2.111676103e-07 0 0 0 -1.919644789e-07 
-1.485223642e-07 0 0 0 0 0 0 0 -3.097386289e-07 
0 0 0 0 0 0 0 0 -2.851463961e-07 
0 0 0 0 0 0 0 0 1.916237272e-07 
0 0 0 0 0 0 0 0 3.257532349e-07 
1.23692608e-07 0 -1.326935596e-07 0 0 0 -1.326935596e-07 0 3.089415954e-07 
0 0 0 0 0 0 0 0 3.541749114e-07 
0 0 0 0 0 0 0 0 2.586884811e-07 
0 0 0 0 0 0 0 0 3.173474152e-07 
0 0 0 0 0 0 0 0 2.502826613e-07 
0 0 0 0 0 0 0 0 2.728993193e-07 
0 0 0 0 0 0 0 0 3.399640732e-07 
0 0 0 0 0 0 0 0 3.315582534e-07 
0 0 0 0 0 0 0 0 3.129837374e-07 
-1.202710304e-07 0 0 0 -2.314701005e-07 0 0 0 0 
0 0 0 0 0 0 0 0 0 
1.430249986e-07 -1.335518145e-07 0 -1.335518145e-07 2.890957795e-07 0 0 0 4.233287093e-07 
0 0 0 0 0 0 0 0 1.649976655e-07 
0 0 0 0 -1.567410335e-07 0 0 0 0 
0 0 0 0 0 0 0 0 1.925890661e-07 
0 0 0 0 1.644105534e-07 0 0 0 3.681562234e-07 
0 0 0 0 0 0 0 0 2.201701515e-07 
0 0 0 0 0 0 0 0 2.477615521e-07 
0 0 0 0 0 0 0 0 1.261955789e-07 
-1.341358851e-07 0 0 0 0 0 0 0 2.53878161e-07 
1.799818575e-07 0 -1.203266506e-07 0 0 0 -1.203266506e-07 0 2.827019523e-07 
0 0 0 0 0 0 0 0 3.176515427e-07 
0 0 0 0 0 0 0 0 1.9003687e-07 
0 0 0 0 0 0 0 0 2.682900567e-07 
0 0 0 0 0 0 0 0 2.044487656e-07 
0 0 0 0 0 0 0 0 2.219235608e-07 
0 0 0 0 0 0 0 0 2.857648519e-07 
0 0 0 0 0 0 0 0 3.001767475e-07 
2.924409527e-07 0 0 0 2.008786141e-07 0 0 0 -2.507265308e-07 
-8.400409273e-07 1.681356598e-07 0 1.681356598e-07 -4.716553342e-07 0 0 0 -2.379146542e-07 
0 0 0 0 0 0 0 0 -6.192059932e-07 
6.17940517e-07 -1.19543064e-07 0 -1.19543064e-07 3.733603475e-07 0 0 0 4.857325508e-07 
-2.737999873e-07 0 0 0 -1.353883601e-07 0 0 0 -2.443205925e-07 
-4.678029152e-07 0 0 0 -2.842694507e-07 0 0 0 -4.285603237e-07 
0 0 0 0 0 0 0 0 -4.34966262e-07 
4.551907349e-07 0 0 0 2.871194808e-07 0 0 0 0 
0 0 0 0 0 0 0 0 1.239089483e-07 
2.61187807e-07 0 0 0 1.382383902e-07 0 0 0 0 
2.833643285e-07 0 0 0 3.183115194e-07 0 0 0 2.924405091e-07 
0 0 0 0 0 0 0 0 3.008930802e-07 
0 0 0 0 0 0 0 0 0 
-1.716208297e-07 0 0 0 -2.345355128e-07 0 0 0 1.246521618e-07 
1.374143001e-07 0 0 0 1.587987302e-07 0 0 0 2.966667947e-07 
0 0 0 0 0 0 0 0 1.734282859e-07 
0 0 0 0 1.303978884e-07 0 0 0 1.692020004e-07 
0 0 0 0 0 0 0 0 2.085463354e-07 
0 0 0 0 0 0 0 0 2.12772621e-07 
0 0 0 0 -1.460256277e-07 0 0 0 0 
7.003533023e-07 -1.280256269e-07 0 -1.280256269e-07 4.11801103e-07 0 0 0 5.365635437e-07 
0 0 0 0 0 0 0 0 -4.203843719e-07 
0 0 0 0 0 0 0 0 -6.646257952e-07 
-7.745800715e-07 1.595990023e-07 0 1.595990023e-07 -4.372494071e-07 0 0 0 -1.978734197e-07 
3.878107683e-07 0 0 0 2.534139723e-07 0 0 0 0 
0 0 0 0 0 0 0 0 -5.425050835e-07 
3.301278683e-07 0 0 0 1.658468976e-07 0 0 0 0 
0 0 0 0 0 0 0 0 1.69345062e-07 
-3.496559186e-07 0 0 0 -1.711112828e-07 0 0 0 -3.091288958e-07 
-4.073388186e-07 0 0 0 -2.586783575e-07 0 0 0 -4.312496075e-07 
1.764400746e-07 0 0 0 0 0 0 0 -4.02401893e-07 
1.446396657e-07 0 0 0 0 0 0 0 1.941990369e-07 
-5.171456562e-07 0 0 0 -2.003878578e-07 0 0 0 -5.984202462e-07 
2.196188834e-07 0 0 0 1.402583873e-07 0 0 0 2.629571068e-07 
1.605398702e-07 0 0 0 0 0 0 0 0 
-1.862529952e-07 0 0 0 0 0 0 0 -2.021106046e-07 
-1.703527908e-07 0 0 0 0 0 0 0 -5.004110696e-07 
1.98029479e-07 0 0 0 0 0 0 0 0 
1.821292746e-07 0 0 0 0 0 0 0 2.285780718e-07 
-1.487633864e-07 0 0 0 0 0 0 0 -1.677315697e-07 
0 0 0 0 0 0 0 0 -6.83268973e-07 
6.698229339e-07 0 0 0 3.963097409e-07 0 0 0 5.262397125e-07 
0 0 0 0 0 0 0 0 -5.552776878e-07 
-6.626755604e-07 1.356462439e-07 0 1.356462439e-07 -3.634668208e-07 0 0 0 -1.405647533e-07 
3.511979207e-07 0 0 0 1.736810197e-07 0 0 0 0 
2.866422115e-07 0 0 0 2.022639045e-07 0 0 0 0 
0 0 0 0 0 0 0 0 -6.192733304e-07 
-3.150513264e-07 0 0 0 -2.062072611e-07 0 0 0 -4.119168631e-07 
0 0 0 0 0 0 0 0 1.928374796e-07 
-3.796070357e-07 0 0 0 -1.776243763e-07 0 0 0 -3.479212206e-07 
0 0 0 0 0 0 0 0 2.448787674e-07 
0 0 0 0 0 0 0 0 0 
2.756318709e-07 0 0 0 3.517196671e-07 0 0 0 2.731349634e-07 
-1.388804705e-07 0 0 0 -2.037420868e-07 0 0 0 0 
0 0 0 0 0 0 0 0 1.320508003e-07 
0 0 0 0 1.307899375e-07 0 0 0 1.461788983e-07 
1.228583115e-07 0 0 0 1.685985253e-07 0 0 0 2.590068654e-07 
0 0 0 0 0 0 0 0 1.719772912e-07 
0 0 0 0 -1.469409394e-07 0 0 0 0 
0 0 0 0 0 0 0 0 1.861053892e-07 
0 0 0 0 0 0 0 0 -3.846920746e-07 
0 0 0 0 0 0 0 0 -4.739411569e-07 
1.758414964e-07 0 0 0 1.559071632e-07 0 0 0 -3.585896372e-07 
0 0 0 0 0 0 0 0 -4.240980111e-07 
0 0 0 0 0 0 0 0 -4.293166157e-07 
0 0 0 0 0 0 0 0 -4.162653971e-07 
0 0 0 0 0 0 0 0 -3.716408559e-07 
0 0 0 0 0 0 0 0 -4.043950428e-07 
0 0 0 0 0 0 0 0 -4.49019584e-07 
0 0 0 0 0 0 0 0 -3.913438241e-07 
-2.197331546e-07 0 0 0 0 -1.298727498e-07 0 -1.298727498e-07 -6.598939376e-07 
5.311582975e-07 0 0 0 3.203160971e-07 0 0 0 4.632807507e-07 
1.288349401e-07 0 0 0 0 1.217301825e-07 0 1.217301825e-07 -6.60403942e-07 
-4.781494057e-07 0 0 0 -2.630856151e-07 1.698103988e-07 0 1.698103988e-07 0 
1.557125715e-07 0 0 0 1.340440327e-07 0 0 0 0 
3.299966188e-07 0 0 0 1.5344066e-07 0 0 0 0 
0 0 0 0 0 0 0 0 -6.601489398e-07 
-3.489412801e-07 0 0 0 -1.576568234e-07 0 0 0 -3.506283819e-07 
0 0 0 0 0 0 0 0 2.109589622e-07 
-1.746572328e-07 0 0 0 -1.38260196e-07 1.457702906e-07 0 1.457702906e-07 -3.508833841e-07 
2.634788171e-07 1.274608128e-07 0 1.274608128e-07 0 0 0 0 0 
-5.248142402e-07 0 0 0 -2.130082481e-07 0 0 0 -4.023635083e-07 
1.514879458e-07 0 0 0 1.202695698e-07 0 0 0 4.313140661e-07 
1.511006454e-07 0 0 0 0 0 0 0 4.943105736e-07 
-1.306677116e-07 0 0 0 0 0 0 0 -2.240989144e-07 
-1.866631472e-07 0 0 0 0 0 0 0 0 
2.074833814e-07 0 0 0 0 0 0 0 1.927398728e-07 
2.072897313e-07 0 0 0 0 0 0 0 2.242381265e-07 
-1.868567974e-07 0 0 0 0 0 0 0 0 
1.512942956e-07 0 0 0 0 0 0 0 4.628123198e-07 
0 0 0 0 0 0 0 0 4.429776566e-07 
1.273825358e-07 0 0 0 0 0 0 0 -1.198200546e-07 
2.227926042e-07 0 0 0 0 0 0 0 0 
-4.506911268e-07 0 0 0 -2.592573149e-07 0 0 0 2.420887734e-07 
0 0 0 0 0 0 0 0 1.61578801e-07 
1.7508757e-07 0 0 0 0 0 0 0 0 
1.539658124e-07 0 0 0 0 0 0 0 1.75410466e-07 
-1.827760531e-07 0 0 0 0 0 0 0 3.42533215e-07 
-1.616542955e-07 0 0 0 0 0 0 0 0 
0 0 0 0 0 0 0 0 0 
1.323534277e-07 0 0 0 0 0 0 0 -4.706857773e-07 
0 0 0 0 0 0 0 0 -4.569153516e-07 
0 0 0 0 1.781207083e-07 0 0 0 -4.16798565e-07 
0 0 0 0 -1.78527184e-07 0 0 0 -5.27702377e-07 
0 0 0 0 0 0 0 0 -4.638005644e-07 
0 0 0 0 0 0 0 0 -4.368569583e-07 
0 0 0 0 0 0 0 0 -4.437421712e-07 
0 0 0 0 -1.233049739e-07 0 0 0 -4.991940771e-07 
0 0 0 0 0 0 0 0 -4.923088643e-07 
0 0 0 0 0 0 0 0 -4.72250471e-07 
3.739137911e-07 1.614451037e-07 0 1.614451037e-07 1.329517505e-07 0 0 0 0 
-5.82300354e-07 -1.464401679e-07 0 -1.464401679e-07 -2.439756285e-07 0 0 0 -4.601385971e-07 
2.193883941e-07 0 0 0 1.612980028e-07 0 0 0 5.240060643e-07 
0 0 0 0 0 0 0 0 5.289954476e-07 
0 0 0 0 0 0 0 0 -2.460496051e-07 
-1.8145598e-07 0 0 0 0 0 0 0 0 
2.966510926e-07 0 0 0 1.471248766e-07 0 0 0 2.460227255e-07 
2.097061029e-07 0 0 0 0 0 0 0 2.485174172e-07 
-2.684009696e-07 0 0 0 -1.46491781e-07 0 0 0 0 
1.324434045e-07 0 0 0 0 0 0 0 5.265007559e-07 
4.603437207e-07 1.992340264e-07 0 1.992340264e-07 1.657508771e-07 0 0 0 0 
-5.97823443e-07 -1.60078389e-07 0 -1.60078389e-07 -2.570973952e-07 0 0 0 -5.125937346e-07 
3.41094333e-07 0 0 0 2.245798743e-07 0 0 0 6.560497649e-07 
-1.327850558e-07 0 0 0 -1.366887639e-07 0 0 0 5.551507222e-07 
0 0 0 0 0 0 0 0 -2.766506414e-07 
-1.28364555e-07 0 0 0 0 0 0 0 0 
4.007190268e-07 0 0 0 1.951653757e-07 0 0 0 3.076711083e-07 
1.637793324e-07 0 0 0 0 0 0 0 2.57221587e-07 
-3.653042494e-07 0 0 0 -1.968930795e-07 0 0 0 0 
0 0 0 0 0 0 0 0 6.056002435e-07 
1.273187971e-07 0 0 0 1.338346447e-07 0 0 0 5.278090333e-07 
0 0 0 0 0 0 0 0 -2.236247724e-07 
3.488815177e-07 1.344625349e-07 0 1.344625349e-07 0 0 0 0 0 
-4.558936001e-07 0 0 0 -2.668216012e-07 0 0 0 3.246205407e-07 
0 0 0 0 0 0 0 0 1.520921305e-07 
1.557129658e-07 0 0 0 0 0 0 0 -1.435564328e-07 
2.381001574e-07 0 0 0 0 0 0 0 2.3216047e-07 
-1.642874015e-07 0 0 0 0 0 0 0 4.26214787e-07 
-2.466745931e-07 0 0 0 -1.296863053e-07 0 0 0 0 
0 0 0 0 0 0 0 0 1.305662237e-07 
1.444618266e-07 0 0 0 1.421060372e-07 0 0 0 6.187303972e-07 
-3.183550143e-07 -1.500382654e-07 0 -1.500382654e-07 -1.389199354e-07 0 0 0 -3.940149155e-07 
5.560447081e-07 1.900685026e-07 0 1.900685026e-07 1.962366802e-07 -1.520716245e-07 0 -1.520716245e-07 0 
-3.979475881e-07 0 0 0 -2.364158202e-07 0 0 0 4.609067744e-07 
0 0 0 0 0 0 0 0 0 
0 0 0 0 0 0 0 0 -1.996103023e-07 
3.502532673e-07 0 0 0 1.691713587e-07 0 0 0 3.06762354e-07 
-1.267428807e-07 0 0 0 0 0 0 0 5.398185858e-07 
-3.581513012e-07 0 0 0 -1.876678778e-07 0 0 0 0 
0 0 0 0 0 -1.197359907e-07 0 -1.197359907e-07 2.278505427e-07 
4.759610709e-07 0 0 0 1.218783063e-07 0 0 0 -4.747777899e-07 
-4.718111484e-07 0 0 0 -2.15133827e-07 0 0 0 -1.953360414e-07 
-1.379984185e-07 0 0 0 0 0 0 0 -6.423970919e-07 
1.478947179e-07 0 0 0 1.712314751e-07 0 0 0 3.323051201e-07 
0 0 0 0 0 0 0 0 -3.350569157e-07 
-3.049047835e-07 0 0 0 -1.288267964e-07 0 0 0 -4.188665667e-07 
1.689813262e-07 0 0 0 0 0 0 0 -5.585874409e-07 
3.119278944e-07 0 0 0 1.465548907e-07 0 0 0 0 
-1.619582153e-07 0 0 0 0 0 0 0 0 
0 0 0 0 0 0 0 0 -1.550459859e-07 
2.884375231e-07 0 0 0 1.972193008e-07 0 0 0 0 
-3.18941503e-07 0 0 0 -2.416094083e-07 0 0 0 -3.077660869e-07 
-1.605821552e-07 -1.215356652e-07 0 -1.215356652e-07 0 0 0 0 -2.181363668e-07 
1.723405614e-07 0 0 0 1.670422709e-07 0 0 0 -2.191797806e-07 
0 0 0 0 0 0 0 0 -1.495595058e-07 
-2.397618291e-07 0 0 0 -1.530595655e-07 0 0 0 -2.629512268e-07 
0 0 0 0 0 0 0 0 0 
2.303890422e-07 0 0 0 1.821307858e-07 0 0 0 0 
0 0 0 0 0 0 0 0 -2.634729337e-07 
0 0 0 0 0 0 0 0 -2.186580737e-07 
2.025937758e-07 0 0 0 2.999967642e-07 0 0 0 0 
-1.30683913e-07 0 0 0 -1.703690281e-07 0 0 0 0 
0 0 0 0 0 0 0 0 1.327971655e-07 
0 0 0 0 0 0 0 0 1.762746293e-07 
0 0 0 0 0 0 0 0 0 
0 0 0 0 0 0 0 0 0 
1.370088267e-07 0 0 0 1.525744818e-07 0 0 0 0 
1.441412151e-07 0 0 0 1.46446868e-07 0 0 0 0 
0 0 0 0 0 0 0 0 0 
0 0 0 0 0 0 0 0 1.545358974e-07 
0 0 0 0 0 0 0 0 -1.644752572e-07 
-1.446082585e-07 0 0 0 -1.985345621e-07 0 0 0 0 
0 0 0 0 1.201191024e-07 0 0 0 1.201002105e-07 
0 0 0 0 0 0 0 0 1.581636672e-07 
0 0 0 0 0 0 0 0 0 
0 0 0 0 0 0 0 0 0 
0 0 0 0 0 0 0 0 0 
0 0 0 0 0 0 0 0 0 
0 0 0 0 -1.194371231e-07 0 0 0 0 
0 0 0 0 0 0 0 0 1.391319388e-07 
-1.389341104e-07 0 0 0 -2.153432242e-07 1.322497303e-07 0 1.322497303e-07 2.423662685e-07 
-2.331452905e-07 0 2.87603744e-07 0 0 0 2.87603744e-07 0 0 
0 0 0 0 -2.20128471e-07 0 0 0 0 
1.243324909e-07 0 0 0 1.915834431e-07 0 0 0 3.05087862e-07 
-1.860397004e-07 0 1.373214891e-07 0 0 0 1.373214891e-07 0 1.33762832e-07 
-1.361585499e-07 0 1.398350573e-07 0 0 0 1.398350573e-07 0 0 
0 0 0 0 -2.177358476e-07 0 0 0 1.513374471e-07 
0 0 0 0 0 0 0 0 2.737270653e-07 
0 0 0 0 0 0 0 0 1.651236287e-07 
0 0 0 0 0 0 0 0 1.826982439e-07 
0 0 0 0 0 0 0 0 2.765038907e-07 
0 0 0 0 0 0 0 0 2.07760905e-07 
1.887874709e-07 0 0 0 0 0 0 0 3.650117224e-07 
0 0 0 0 0 0 0 0 1.661141517e-07 
0 0 0 0 0 0 0 0 2.421323978e-07 
0 0 0 0 0 0 0 0 2.863863137e-07 
0 0 0 0 0 0 0 0 3.207578065e-07 
0 0 0 0 0 0 0 0 2.213090212e-07 
0 0 0 0 0 0 0 0 1.869375284e-07 
0 0 0 0 0 0 0 0 2.655629371e-07 
4.245400553e-07 0 0 0 2.49374166e-07 0 0 0 5.970581219e-07 
-1.635585982e-07 -1.392301871e-07 0 -1.392301871e-07 0 0 0 0 -2.900497714e-07 
1.66318649e-07 0 0 0 0 0 0 0 0 
0 0 0 0 1.365943378e-07 0 0 0 -1.513080412e-07 
1.304907285e-07 0 0 0 0 0 0 0 1.535041753e-07 
0 0 0 0 0 0 0 0 -1.95030547e-07 
2.954293522e-07 0 0 0 1.330627116e-07 0 0 0 2.485233996e-07 
1.76855799e-07 0 0 0 1.929842519e-07 0 0 0 2.228750404e-07 
0 0 0 0 0 0 0 0 -2.206789063e-07 
0 0 0 0 0 0 0 0 -1.256596819e-07 
0 0 0 0 0 0 0 0 -1.561628635e-07 
0 0 0 0 -2.276386356e-07 0 0 0 -2.35021228e-07 
1.330333254e-07 1.317019536e-07 0 1.317019536e-07 1.957343676e-07 0 0 0 0 
0 0 0 0 0 0 0 0 -3.120558883e-07 
0 0 0 0 0 0 0 0 -1.955920457e-07 
0 0 0 0 0 0 0 0 -1.367003388e-07 
0 0 0 0 1.22317828e-07 0 0 0 0 
0 0 0 0 0 0 0 0 -2.341093759e-07 
0 0 0 0 -1.363993853e-07 0 0 0 -2.735385581e-07 
0 0 0 0 0 0 0 0 -1.75217669e-07 
0 0 0 0 0 0 0 0 -1.434773722e-07 
1.909515956e-07 0 0 0 1.521724711e-07 0 0 0 0 
0 0 0 0 0 0 0 0 0 
-1.549385997e-07 0 0 0 0 0 0 0 -3.619557414e-07 
0 0 0 0 0 0 0 0 0 
0 0 0 0 0 0 0 0 0 
0 0 0 0 0 0 0 0 -1.237733203e-07 
0 0 0 0 0 0 0 0 -2.527165568e-07 
0 0 0 0 0 0 0 0 -1.879444348e-07 
0 0 0 0 0 0 0 0 -2.330125049e-07 
-2.868858254e-07 0 0 0 -1.475297638e-07 0 0 0 -3.436659549e-07 
3.898840408e-07 1.906355558e-07 0 1.906355558e-07 3.439209388e-07 0 0 0 0 
1.61465151e-07 0 0 0 1.539759671e-07 0 0 0 -3.822414964e-07 
-4.913783473e-07 -2.574052377e-07 0 -2.574052377e-07 -2.683110388e-07 0 0 0 -4.834754724e-07 
0 0 0 0 0 0 0 0 -1.777027011e-07 
2.756745959e-07 0 0 0 2.489484529e-07 0 0 0 -1.969904718e-07 
0 0 0 0 0 0 0 0 -3.629537257e-07 
-3.891320864e-07 -1.314790756e-07 0 -1.314790756e-07 -2.079204013e-07 0 0 0 -4.135707137e-07 
0 0 0 0 0 0 0 0 -2.476074598e-07 
-1.649565981e-07 -1.707224336e-07 0 -1.707224336e-07 0 0 0 0 -4.328584844e-07 
1.385808247e-07 0 -1.310416006e-07 0 0 1.355134402e-07 -1.310416006e-07 1.355134402e-07 4.621568401e-07 
0 0 0 0 0 0 0 0 4.868996262e-07 
0 0 0 0 0 0 0 0 1.52916011e-07 
0 0 0 0 0 -1.385905912e-07 0 -1.385905912e-07 3.182649446e-07 
0 0 0 0 0 0 0 0 4.745282331e-07 
0 0 0 0 0 0 0 0 3.199078186e-07 
0 0 0 0 0 0 0 0 3.075364255e-07 
0 0 0 0 0 0 0 0 3.902108924e-07 
0 0 0 0 0 0 0 0 4.025822854e-07 
0 0 0 0 0 0 0 0 2.355904778e-07 
3.933164126e-07 0 0 0 0 0 0 0 0 
2.147199776e-07 0 0 0 0 0 0 0 5.21704269e-07 
-3.614518858e-07 0 0 0 -2.302048392e-07 0 0 0 2.904704565e-07 
-1.334530675e-07 0 0 0 0 0 0 0 3.562372428e-07 
3.040181951e-07 0 0 0 0 0 0 0 2.413164164e-07 
0 0 0 0 0 0 0 0 4.060873627e-07 
0 0 0 0 0 0 0 0 1.256995101e-07 
1.299316725e-07 0 0 0 0 0 0 0 1.585829033e-07 
0 0 0 0 0 0 0 0 4.389707559e-07 
-2.474524766e-07 0 0 0 0 0 0 0 3.233538496e-07 
0 0 0 0 0 0 0 0 -1.767068452e-07 
0 0 0 0 -1.216124644e-07 0 0 0 -1.919157921e-07 
0 0 0 0 0 0 0 0 -1.669514119e-07 
0 0 0 0 1.826229508e-07 0 0 0 1.897179807e-07 
0 0 0 0 0 0 0 0 -1.843113187e-07 
0 0 0 0 0 0 0 0 -1.79433602e-07 
0 0 0 0 0 0 0 0 -1.718291285e-07 
0 0 0 0 0 0 0 0 0 
0 0 0 0 0 0 0 0 0 
0 0 0 0 0 0 0 0 0 
1.48887335e-07 0 2.09066007e-07 0 3.32064728e-07 2.173955775e-07 2.09066007e-07 2.173955775e-07 0 
0 0 0 0 0 -1.626941304e-07 0 -1.626941304e-07 -2.660458772e-07 
7.94719558e-07 0 0 0 3.993112853e-07 0 0 0 8.617329273e-07 
-4.293584718e-07 -2.282502561e-07 0 -2.282502561e-07 -2.568294269e-07 0 0 0 -4.940543615e-07 
0 0 0 0 1.213621291e-07 0 0 0 -1.362143038e-07 
3.919391346e-07 0 0 0 1.549854077e-07 0 0 0 2.97843525e-07 
4.718034465e-07 0 0 0 3.656880067e-07 1.359503369e-07 0 1.359503369e-07 4.276750985e-07 
-1.402355684e-07 0 0 0 0 0 0 0 -2.502185459e-07 
-2.200998803e-07 0 0 0 -1.730849484e-07 0 0 0 -3.800501194e-07 
1.826805431e-07 0 0 0 0 0 0 0 1.838392829e-07 
5.556017416e-07 0 0 0 4.005505931e-07 0 0 0 0 
0 0 0 0 -1.737136059e-07 0 0 0 -4.215278188e-07 
-2.961289274e-07 0 1.392623136e-07 0 0 0 1.392623136e-07 0 -5.359484101e-07 
0 -1.690280098e-07 0 -1.690280098e-07 -1.356638527e-07 0 0 0 -4.994548121e-07 
2.582696148e-07 0 0 0 0 0 0 0 -1.733353536e-07 
-1.675957197e-07 0 0 0 0 0 0 0 -4.787381144e-07 
1.297364071e-07 0 0 0 1.866862728e-07 0 0 0 -2.305456493e-07 
2.42465774e-07 0 0 0 1.324433702e-07 0 0 0 -2.122988503e-07 
0 0 0 0 -1.546887293e-07 0 0 0 -4.604913154e-07 
-1.833995605e-07 0 0 0 0 0 0 0 -5.177016111e-07 
-1.251196997e-07 0 0 0 0 0 0 0 -2.391376441e-07 
4.054816829e-07 0 -2.942733797e-07 0 0 -1.549008919e-07 -2.942733797e-07 -1.549008919e-07 -3.231994039e-07 
-3.363868788e-07 0 2.813870325e-07 0 0 1.763727959e-07 2.813870325e-07 1.763727959e-07 -5.579124642e-07 
-2.147651074e-07 0 0 0 0 0 0 0 -2.432338956e-07 
1.401809916e-07 0 0 0 0 -1.194462985e-07 0 -1.194462985e-07 -2.81168524e-07 
0 0 0 0 0 0 0 0 -4.405559341e-07 
-2.307532893e-07 0 1.791606091e-07 0 0 0 1.791606091e-07 0 -3.985250542e-07 
-1.699424035e-07 0 0 0 0 0 0 0 -2.411857699e-07 
0 0 -1.234582004e-07 0 0 0 -1.234582004e-07 0 -2.832166497e-07 
-2.755759931e-07 0 1.643720057e-07 0 0 0 1.643720057e-07 0 -4.005731799e-07 
0 0 0 0 0 0 0 0 1.193428252e-07 
1.344626e-07 0 0 0 0 0 0 0 0 
-1.426839797e-07 0 0 0 0 0 0 0 0 
0 0 0 0 0 0 0 0 1.938686741e-07 
0 0 0 0 0 0 0 0 0 
0 0 0 0 0 0 0 0 0 
0 0 0 0 0 0 0 0 0 
0 0 0 0 0 0 0 0 1.566057496e-07 
1.234148989e-07 0 0 0 0 0 0 0 0 
0 0 0 0 0 0 0 0 1.339337544e-07 
-5.48915086e-07 0 0 0 -3.226415527e-07 0 0 0 2.874042639e-07 
0 0 0 0 -1.379098257e-07 0 0 0 -2.366299521e-07 
2.385693727e-07 0 0 0 0 0 0 0 0 
0 0 0 0 0 0 0 0 -2.253496204e-07 
-3.149676267e-07 0 0 0 -2.302756892e-07 0 0 0 0 
0 0 0 0 0 0 0 0 -1.572784803e-07 
-1.551728566e-07 0 0 0 -1.324576925e-07 0 0 0 0 
-2.757009733e-07 0 0 0 -1.605594472e-07 0 0 0 0 
0 0 0 0 0 0 0 0 -2.309897862e-07 
0 0 0 0 0 0 0 0 -1.516383145e-07 
0 0 0 0 0 0 0 0 -2.875531246e-07 
1.995606714e-07 0 0 0 1.593067569e-07 0 0 0 0 
1.998655377e-07 0 0 0 1.780696945e-07 0 0 0 0 
-3.109448619e-07 0 0 0 -1.513314397e-07 0 0 0 -3.753178697e-07 
0 0 0 0 0 0 0 0 -1.972981832e-07 
1.997131045e-07 0 0 0 1.686882257e-07 0 0 0 0 
0 0 0 0 0 0 0 0 -1.534304829e-07 
-1.380698927e-07 0 0 0 0 0 0 0 -3.314354971e-07 
0 0 0 0 0 0 0 0 -2.411805558e-07 
0 0 0 0 0 0 0 0 -1.973128555e-07 
3.681347462e-07 1.924843633e-07 0 1.924843633e-07 3.644680547e-07 0 0 0 0 
0 0 0 0 0 0 0 0 0 
-1.887993784e-07 -1.450687037e-07 0 -1.450687037e-07 0 0 0 0 -3.08167374e-07 
-3.902994127e-07 -2.306380366e-07 0 -2.306380366e-07 -3.022931461e-07 0 0 0 -5.82060736e-07 
2.24225805e-07 1.269838631e-07 0 1.269838631e-07 2.304962014e-07 0 0 0 0 
0 0 0 0 0 0 0 0 -1.908025868e-07 
0 0 0 0 1.546702204e-07 0 0 0 -1.293292245e-07 
0 0 0 0 0 0 0 0 -2.662759055e-07 
-1.549912745e-07 0 0 0 0 0 0 0 -3.277492678e-07 
-2.895493955e-07 -1.878533702e-07 0 -1.878533702e-07 -1.7871038e-07 0 0 0 -4.45114055e-07 
0 0 1.925812211e-07 0 0 0 1.925812211e-07 0 0 
0 0 0 0 0 0 0 0 2.51978446e-07 
0 0 0 0 0 0 0 0 1.290915204e-07 
0 0 0 0 0 0 0 0 2.249379651e-07 
0 0 0 0 0 0 0 0 0 
0 0 0 0 0 0 0 0 1.905349832e-07 
0 0 0 0 0 0 0 0 0 
0 0 0 0 0 0 0 0 0 
0 0 0 0 0 0 0 0 2.384582056e-07 
0 0 0 0 0 0 0 0 1.770147427e-07 
-7.891135832e-07 0 0 0 -2.909564772e-07 -1.239486289e-07 0 -1.239486289e-07 -8.974593627e-07 
0 0 0 0 0 0 0 0 2.796070001e-07 
0 0 0 0 0 0 0 0 2.600646053e-07 
0 0 0 0 0 1.415071687e-07 0 1.415071687e-07 1.715691599e-07 
-3.705417074e-07 0 0 0 0 0 0 0 -3.089261813e-07 
0 0 0 0 0 0 0 0 2.698358027e-07 
-3.739889831e-07 0 0 0 0 0 0 0 -3.186973787e-07 
-3.487861323e-07 0 0 0 -1.685921659e-07 0 0 0 -3.629451014e-07 
0 0 0 0 0 0 0 0 2.2558808e-07 
0 0 0 0 0 0 0 0 2.158168826e-07 
0 0 0 0 1.995720935e-07 0 0 0 -2.463326767e-07 
1.899403213e-07 1.278272955e-07 0 1.278272955e-07 2.46413357e-07 0 0 0 0 
0 0 0 0 0 0 0 0 -1.679055116e-07 
0 0 0 0 -3.449676796e-07 0 0 0 -1.819649188e-07 
0 0 0 0 2.229927253e-07 0 0 0 -1.218211708e-07 
0 0 0 0 0 0 0 0 0 
0 0 0 0 0 0 0 0 -2.071190941e-07 
0 0 0 0 0 0 0 0 -2.141487978e-07 
1.359878937e-07 0 0 0 0 0 0 0 0 
0 0 0 0 -2.228759853e-07 0 0 0 -1.749352152e-07 
-4.548796175e-07 0 0 0 -1.671367522e-07 0 0 0 -3.626884584e-07 
1.283560194e-07 0 0 0 1.406843813e-07 0 0 0 4.81076675e-07 
0 0 0 0 0 0 0 0 4.238296168e-07 
0 0 0 0 0 0 0 0 4.754690161e-07 
-1.63261799e-07 0 0 0 0 0 0 0 0 
0 0 0 0 1.230327422e-07 0 0 0 4.524531459e-07 
-1.740849137e-07 0 0 0 0 0 0 0 0 
-1.732177444e-07 0 0 0 0 0 0 0 0 
0 0 0 0 0 0 0 0 4.782728455e-07 
0 0 0 0 0 0 0 0 4.496493165e-07 
-7.236606961e-07 0 0 0 -4.034094329e-07 0 0 0 3.237741576e-07 
0 0 0 0 -1.549599183e-07 -1.4464581e-07 0 -1.4464581e-07 -2.793237599e-07 
3.480793848e-07 0 0 0 0 0 0 0 0 
0 -1.643992402e-07 0 -1.643992402e-07 0 0 0 0 -3.180191175e-07 
-4.183819386e-07 0 0 0 -2.791846756e-07 0 0 0 0 
0 0 0 0 0 0 0 0 -1.771350885e-07 
-1.877906556e-07 0 0 0 -1.583232414e-07 0 0 0 1.244138703e-07 
-4.072368504e-07 -1.296867192e-07 0 -1.296867192e-07 -2.314820067e-07 0 0 0 0 
0 0 0 0 0 0 0 0 -2.986714387e-07 
1.2863319e-07 0 0 0 0 0 0 0 -1.964827673e-07 
-1.436887467e-07 -2.241685185e-07 0 -2.241685185e-07 -2.273791812e-07 0 0 0 -4.434798043e-07 
-1.323123274e-07 0 0 0 -2.722384158e-07 0 0 0 -3.60951081e-07 
2.47400752e-07 1.729129176e-07 0 1.729129176e-07 1.217769569e-07 0 0 0 -1.381489451e-07 
5.50372812e-07 2.827300652e-07 0 2.827300652e-07 5.28088124e-07 0 0 0 -1.850688016e-07 
-1.38000537e-07 0 0 0 -2.498087985e-07 0 0 0 -4.022154426e-07 
0 0 0 0 0 0 0 0 -2.49550013e-07 
0 0 0 0 0 0 0 0 -2.908143747e-07 
2.033420327e-07 0 0 0 1.503544714e-07 0 0 0 -3.142743029e-07 
2.090302423e-07 1.505610083e-07 0 1.505610083e-07 1.279248541e-07 0 0 0 -2.730099413e-07 
3.98886782e-07 2.278214914e-07 0 2.278214914e-07 3.249325404e-07 0 0 0 -1.616088733e-07 
-1.315217522e-06 1.805238646e-07 0 1.805238646e-07 -6.048687929e-07 0 0 0 -5.578182689e-07 
2.680747731e-07 0 0 0 0 0 0 0 -5.981641662e-07 
1.699521955e-07 0 0 0 0 1.19813974e-07 0 1.19813974e-07 -6.607401336e-07 
6.474969049e-07 0 0 0 3.270616015e-07 0 0 0 -3.418592801e-07 
-5.235713745e-07 0 0 0 -2.622076459e-07 0 0 0 -5.779912175e-07 
2.190134843e-07 0 0 0 0 0 0 0 -6.294521499e-07 
-5.726326633e-07 0 0 0 -3.09970259e-07 0 0 0 -6.092792012e-07 
-3.338603087e-07 0 0 0 -1.389035957e-07 0 0 0 -4.498387745e-07 
4.57785839e-07 0 0 0 2.037575513e-07 0 0 0 -4.700117231e-07 
4.087245502e-07 0 0 0 1.559949382e-07 0 0 0 -5.012997069e-07 
2.153781565e-07 0 -1.661077955e-07 0 0 -2.066592958e-07 -1.661077955e-07 -2.066592958e-07 -2.045858677e-07 
3.503193388e-07 0 0 0 0 -1.529403066e-07 0 -1.529403066e-07 0 
-8.930251831e-07 0 0 0 -4.469201277e-07 0 0 0 3.215423162e-07 
-2.576262064e-07 0 2.787300283e-07 0 0 2.058824247e-07 2.787300283e-07 2.058824247e-07 -2.561663984e-07 
2.828487477e-07 0 -1.193678188e-07 0 0 -1.797998012e-07 -1.193678188e-07 -1.797998012e-07 -1.605666927e-07 
-2.713529222e-07 0 0 0 -2.213974693e-07 -1.250021715e-07 0 -1.250021715e-07 0 
-3.388235133e-07 0 0 0 -2.549131814e-07 -1.518616661e-07 0 -1.518616661e-07 0 
0 0 0 0 0 0 0 0 -2.303761331e-07 
0 0 0 0 0 0 0 0 -1.86356958e-07 
-5.753256947e-07 0 1.517141809e-07 0 -1.860509155e-07 0 1.517141809e-07 0 0 
0 0 -1.370361661e-07 0 1.54097856e-07 0 -1.370361661e-07 0 -3.860830763e-07 
0 0 -1.360861816e-07 0 -1.622722667e-07 -1.440154477e-07 -1.360861816e-07 -1.440154477e-07 -5.10414013e-07 
-4.179686609e-07 0 2.730880136e-07 0 0 2.832482443e-07 2.730880136e-07 2.832482443e-07 -5.401226585e-07 
6.157400649e-07 0 -2.102578183e-07 0 3.614052804e-07 0 -2.102578183e-07 0 -1.27953273e-07 
0 0 -1.365611739e-07 0 0 0 -1.365611739e-07 0 -4.482485446e-07 
-2.361222724e-07 0 0 0 0 0 0 0 -5.252683358e-07 
-1.591174725e-07 0 0 0 0 1.807028582e-07 0 1.807028582e-07 -4.631028674e-07 
3.577368905e-07 0 -1.736469922e-07 0 2.577515682e-07 0 -1.736469922e-07 0 -2.570181746e-07 
2.807320905e-07 0 -1.731719999e-07 0 0 0 -1.731719999e-07 0 -3.19183643e-07 
0 0 0 0 1.451852976e-07 1.312259644e-07 0 1.312259644e-07 -3.340379658e-07 
2.607652176e-07 0 0 0 1.840369192e-07 0 0 0 6.906799224e-07 
1.051449281e-06 2.182733251e-07 0 2.182733251e-07 4.528575294e-07 0 0 0 1.117713153e-06 
-1.840218895e-07 0 0 0 0 0 0 0 5.042388129e-07 
-1.167944857e-06 -1.814643418e-07 -2.050392194e-07 -1.814643418e-07 -3.461389159e-07 1.486318989e-07 -2.050392194e-07 1.486318989e-07 -6.233947816e-07 
6.561072494e-07 1.312490818e-07 0 1.312490818e-07 3.184472243e-07 0 0 0 9.041965378e-07 
4.337136959e-07 0 0 0 2.144182723e-07 0 0 0 8.109759831e-07 
0 0 0 0 0 0 0 0 5.974593676e-07 
-4.535898197e-07 0 0 0 0 1.301162327e-07 0 1.301162327e-07 0 
0 0 0 0 0 0 0 0 2.471591859e-07 
-6.759833732e-07 -1.370872658e-07 0 -1.370872658e-07 -1.850799504e-07 0 0 0 0 
-8.095901674e-07 -4.180462043e-07 0 -4.180462043e-07 -6.295002243e-07 1.482972772e-07 0 1.482972772e-07 -9.279924138e-07 
-3.044168159e-07 -1.910779165e-07 0 -1.910779165e-07 0 1.773613161e-07 0 1.773613161e-07 -4.799840446e-07 
1.962291793e-07 0 -1.410792928e-07 0 1.907489633e-07 -1.426554265e-07 -1.410792928e-07 -1.426554265e-07 0 
5.311571601e-07 3.167333593e-07 0 3.167333593e-07 6.179120492e-07 0 0 0 0 
-5.570034917e-07 -3.045620604e-07 0 -3.045620604e-07 -3.641459007e-07 1.628292967e-07 0 1.628292967e-07 -7.039882292e-07 
0 0 0 0 0 0 0 0 -2.713782518e-07 
-3.066804941e-07 -1.534980959e-07 0 -1.534980959e-07 -2.193756305e-07 0 0 0 -4.953824364e-07 
-1.392165037e-07 0 0 0 0 0 0 0 -4.216947763e-07 
0 0 0 0 2.595602361e-07 0 0 0 -1.976905917e-07 
3.636931697e-07 2.138916859e-07 0 2.138916859e-07 4.043305063e-07 0 0 0 0 
4.006318695e-07 1.211279971e-07 -1.28610964e-07 1.211279971e-07 0 -1.448700998e-07 -1.28610964e-07 -1.448700998e-07 -3.100486189e-07 
1.007596383e-06 2.34499429e-07 0 2.34499429e-07 8.624481426e-07 1.946062714e-07 0 1.946062714e-07 1.826465113e-07 
4.517983866e-07 0 -1.469406709e-07 0 2.494136229e-07 0 -1.469406709e-07 0 -2.551298734e-07 
-1.776668867e-06 -4.148376414e-07 1.408935568e-07 -4.148376414e-07 -1.063455317e-06 0 1.408935568e-07 0 -1.126788505e-06 
7.04114126e-07 1.778137131e-07 0 1.778137131e-07 4.570542446e-07 0 0 0 0 
7.296973846e-07 0 0 0 5.559308827e-07 1.277428215e-07 0 1.277428215e-07 0 
4.26215128e-07 0 -1.377758174e-07 0 1.505369848e-07 0 -1.377758174e-07 0 -2.825892461e-07 
-6.880184987e-07 -1.468548221e-07 0 -1.468548221e-07 -5.058974852e-07 0 0 0 -7.184185622e-07 
-3.845362422e-07 0 0 0 0 0 0 0 -4.720709971e-07 
-6.624352402e-07 -2.289259878e-07 0 -2.289259878e-07 -4.070208471e-07 0 0 0 -6.909591894e-07 
-3.311766285e-07 -2.204020536e-07 -1.442036781e-07 -2.204020536e-07 -2.004982636e-07 0 -1.442036781e-07 0 -4.707742144e-07 
8.0912824e-07 0 0 0 3.999394805e-07 0 0 0 9.180256293e-07 
0 0 1.408480443e-07 0 1.993336358e-07 1.887792334e-07 1.408480443e-07 1.887792334e-07 -2.337422129e-07 
3.05640756e-07 1.877289363e-07 0 1.877289363e-07 0 -1.635950319e-07 0 -1.635950319e-07 0 
2.389758058e-07 0 0 0 0 0 0 0 2.236257075e-07 
3.722673104e-07 0 0 0 2.996365582e-07 1.480268672e-07 0 1.480268672e-07 3.421417082e-07 
-1.978851238e-07 0 0 0 0 0 0 0 -3.522582136e-07 
0 0 0 0 0 0 0 0 -2.84102538e-07 
5.57384498e-07 0 0 0 2.520142246e-07 0 0 0 4.102973839e-07 
1.205235684e-07 1.199512698e-07 0 1.199512698e-07 1.517113023e-07 0 0 0 -1.655865372e-07 
1.780987629e-07 0 0 0 2.257456763e-07 0 0 0 0 
0 0 0 0 0 0 0 0 -3.313010268e-07 
0 0 0 0 0 0 0 0 -1.503547793e-07 
0 0 0 0 0 0 0 0 -2.160915501e-07 
0 0 0 0 0 0 0 0 -1.727921638e-07 
0 0 0 0 0 0 0 0 -2.408279031e-07 
0 0 0 0 0 0 0 0 0 
0 0 0 0 0 0 0 0 0 
0 0 0 0 0 0 0 0 -2.736962884e-07 
0 0 0 0 0 0 0 0 -1.832231647e-07 
5.925500305e-07 0 0 0 3.143904903e-07 0 0 0 7.363362832e-07 
-2.079628724e-07 -1.626241154e-07 0 -1.626241154e-07 -1.208551343e-07 0 0 0 -3.572869818e-07 
2.334687023e-07 1.432195421e-07 0 1.432195421e-07 0 0 0 0 0 
0 0 0 0 1.622413966e-07 1.248114629e-07 0 1.248114629e-07 -1.881560622e-07 
1.922935791e-07 0 0 0 0 0 0 0 1.895246507e-07 
0 0 0 0 0 0 0 0 -2.277351286e-07 
4.130093664e-07 0 0 0 1.8369855e-07 0 0 0 3.190765038e-07 
2.532273794e-07 0 0 0 2.383159434e-07 0 0 0 2.740901105e-07 
-1.47029072e-07 0 0 0 0 0 0 0 -2.72721522e-07 
0 0 0 0 0 0 0 0 -1.431696689e-07 
0 -1.214446238e-07 0 -1.214446238e-07 0 0 0 0 -2.361183471e-07 
0 0 0 0 -2.720246844e-07 0 0 0 -2.771019018e-07 
1.890033366e-07 1.61598947e-07 0 1.61598947e-07 2.265696267e-07 0 0 0 0 
1.29192676e-07 0 0 0 0 0 0 0 -3.04538901e-07 
0 0 0 0 -1.528320945e-07 0 0 0 -2.566101244e-07 
0 0 0 0 0 0 0 0 -1.596509937e-07 
0 0 0 0 0 0 0 0 -1.391592163e-07 
0 0 0 0 0 0 0 0 -2.70328624e-07 
0 0 0 0 0 0 0 0 -2.908204014e-07 
1.590980063e-07 1.237043728e-07 0 1.237043728e-07 1.484746259e-07 0 0 0 -1.733694933e-07 
0 0 0 0 -1.337297789e-07 0 0 0 -3.638823308e-07 
3.480799985e-07 0 0 0 3.410552013e-07 0 0 0 0 
-1.544052596e-07 0 0 0 0 0 0 0 -1.919159214e-07 
0 -1.42918033e-07 0 -1.42918033e-07 0 0 0 0 -4.389434729e-07 
1.490682391e-07 0 0 0 0 0 0 0 -1.72244553e-07 
0 0 0 0 1.672178842e-07 0 0 0 0 
0 0 0 0 0 0 0 0 -2.778991261e-07 
0 0 0 0 0 0 0 0 -4.014129019e-07 
1.21433537e-07 0 0 0 1.212229819e-07 0 0 0 -2.09775124e-07 
-1.298090921e-07 0 0 0 0 0 0 0 -3.154296971e-07 
-8.240759405e-07 -1.457110828e-07 0 -1.457110828e-07 -3.359290317e-07 0 0 0 -5.880147173e-07 
4.011529414e-07 0 0 0 2.7550331e-07 0 0 0 7.621667778e-07 
0 0 0 0 0 0 0 0 5.442328858e-07 
1.914656906e-07 0 0 0 0 0 0 0 6.915800985e-07 
-2.114614995e-07 0 0 0 0 0 0 0 0 
2.13366875e-07 0 0 0 1.793634198e-07 0 0 0 6.531998318e-07 
-3.99247566e-07 0 0 0 -1.26352751e-07 0 0 0 0 
-3.163051249e-07 0 0 0 -1.531506073e-07 0 0 0 0 
2.96309316e-07 0 0 0 1.525655635e-07 0 0 0 7.268734382e-07 
0 0 0 0 0 0 0 0 6.179064922e-07 
0 0 0 0 0 0 0 0 -1.203715059e-07 
0 0 0 0 0 0 0 0 -2.908092492e-07 
0 0 0 0 0 0 0 0 -3.072209949e-07 
0 0 0 0 0 0 0 0 -2.971363361e-07 
0 0 0 0 0 0 0 0 -2.055903776e-07 
0 0 0 0 0 0 0 0 -2.990151221e-07 
0 0 0 0 0 0 0 0 -2.137962504e-07 
0 0 0 0 0 0 0 0 -2.08753921e-07 
0 0 0 0 0 0 0 0 -2.939727927e-07 
0 0 0 0 0 0 0 0 -3.021786655e-07 
0 0 0 0 0 0 0 0 -1.450848287e-07 
2.35801774e-07 0 0 0 2.771136866e-07 0 0 0 0 
0 0 0 0 0 0 0 0 0 
0 0 0 0 0 0 0 0 -1.394669483e-07 
0 0 0 0 0 0 0 0 0 
1.588146484e-07 0 0 0 1.431909408e-07 0 0 0 0 
0 0 0 0 0 0 0 0 -1.202139763e-07 
0 0 0 0 0 0 0 0 -1.422758885e-07 
0 0 0 0 0 0 0 0 0 
0 0 0 0 0 0 0 0 0 
-3.515517783e-07 0 0 0 -2.408646655e-07 0 0 0 -8.062631005e-07 
0 0 0 0 0 0 0 0 -6.231195247e-07 
-2.651583932e-07 0 0 0 0 0 0 0 -5.765167357e-07 
8.679521536e-07 0 0 0 4.643567406e-07 0 0 0 5.983842045e-07 
-2.081478336e-07 0 0 0 -1.33443804e-07 0 0 0 -7.146913126e-07 
-1.649511411e-07 0 0 0 0 0 0 0 -5.998181302e-07 
-3.083550857e-07 0 0 0 -1.464480958e-07 0 0 0 -6.913899181e-07 
2.582001877e-07 0 0 0 0 0 0 0 0 
4.016041323e-07 0 0 0 2.191668991e-07 0 0 0 0 
3.013968802e-07 0 0 0 2.061626072e-07 0 0 0 0 
-2.796139177e-07 -1.531650451e-07 0 -1.531650451e-07 0 0 0 0 -2.948270777e-07 
3.043312638e-07 1.309148869e-07 0 1.309148869e-07 2.342942327e-07 0 0 0 0 
-3.290476221e-07 0 0 0 -2.408620026e-07 0 0 0 -3.296424406e-07 
1.894180012e-07 0 0 0 1.608362892e-07 0 0 0 -2.612975492e-07 
0 0 0 0 0 0 0 0 -1.451742276e-07 
0 0 0 0 0 0 0 0 -1.625819091e-07 
-3.043307699e-07 0 0 0 -1.726638355e-07 0 0 0 -3.122347592e-07 
0 0 0 0 0 0 0 0 -2.780623134e-07 
2.468746325e-07 0 0 0 1.97565261e-07 0 0 0 -1.284094634e-07 
0 0 0 0 0 0 0 0 -2.954699949e-07 
0 0 0 0 0 0 0 0 -1.688821426e-07 
-2.161752356e-07 -1.350558351e-07 0 -1.350558351e-07 0 0 0 0 -2.964457002e-07 
3.287273256e-07 0 0 0 1.940911582e-07 0 0 0 5.251725599e-07 
1.280309526e-07 0 1.222263496e-07 0 2.591426578e-07 0 1.222263496e-07 0 0 
0 0 0 0 0 0 0 0 -2.326639214e-07 
0 0 0 0 0 0 0 0 0 
1.924124969e-07 0 0 0 0 0 0 0 1.781452086e-07 
0 0 0 0 0 0 0 0 0 
0 0 0 0 0 0 0 0 -1.508937518e-07 
2.283791391e-07 0 0 0 2.26616908e-07 0 0 0 2.599153783e-07 
-3.015464015e-07 0 0 0 0 0 0 0 -2.778315999e-07 
0 0 0 0 -1.969427488e-07 0 0 0 -4.551638052e-07 
5.64606128e-07 0 0 0 5.176962653e-07 0 0 0 0 
0 -1.648523777e-07 0 -1.648523777e-07 0 0 0 0 -4.962241667e-07 
-1.979088693e-07 0 0 0 -1.402899431e-07 0 0 0 -3.664977025e-07 
2.351673954e-07 0 0 0 1.603767582e-07 0 0 0 -1.756520505e-07 
1.315298633e-07 0 0 0 2.170295639e-07 0 0 0 0 
-2.012098193e-07 0 0 0 0 0 0 0 -3.870278833e-07 
0 0 0 0 -1.487812375e-07 0 0 0 -4.756939859e-07 
2.318664455e-07 0 0 0 2.085382696e-07 0 0 0 -1.961822313e-07 
0 0 0 0 -1.343750745e-07 0 0 0 0 
0 0 0 0 0 0 0 0 0 
0 0 0 0 0 0 0 0 0 
0 0 0 0 0 0 0 0 1.571406637e-07 
0 0 0 0 0 0 0 0 0 
0 0 0 0 0 0 0 0 0 
0 0 0 0 0 0 0 0 0 
0 0 0 0 0 0 0 0 1.218947233e-07 
0 0 0 0 0 0 0 0 0 
0 0 0 0 0 0 0 0 1.215560207e-07 
2.591725777e-07 0 0 0 1.735619986e-07 0 0 0 4.683495949e-07 
0 0 0 0 0 0 0 0 -2.232335361e-07 
1.470318768e-07 0 0 0 0 0 0 0 0 
0 0 0 0 0 0 0 0 0 
0 0 0 0 0 0 0 0 1.225580294e-07 
0 0 0 0 0 0 0 0 -1.549672788e-07 
2.031022273e-07 0 0 0 0 0 0 0 1.908242867e-07 
0 0 0 0 1.44636889e-07 0 0 0 1.748864371e-07 
0 0 0 0 0 0 0 0 -1.709051285e-07 
0 0 0 0 0 0 0 0 0 
-3.057413441e-07 -1.76731544e-07 0 -1.76731544e-07 -1.74448676e-07 0 0 0 -3.805492469e-07 
5.330777491e-07 0 0 0 2.840262331e-07 0 0 0 6.720890267e-07 
0 0 0 0 0 0 0 0 -2.123132665e-07 
1.385788793e-07 0 1.643148807e-07 0 2.988983822e-07 1.501136646e-07 1.643148807e-07 1.501136646e-07 0 
0 0 0 0 0 0 0 0 1.457698899e-07 
2.789313747e-07 0 0 0 0 0 0 0 2.298878801e-07 
-1.404781719e-07 0 0 0 -1.248955394e-07 0 0 0 -2.964312567e-07 
0 0 0 0 0 0 0 0 -1.900919165e-07 
3.358283142e-07 0 0 0 2.914623077e-07 0 0 0 3.362272203e-07 
0 0 0 0 0 0 0 0 0 
0 0 0 0 0 0 0 0 2.703266713e-07 
0 0 0 0 0 0 0 0 0 
0 0 0 0 0 0 0 0 2.755580876e-07 
0 0 0 0 0 0 0 0 2.86074161e-07 
0 0 0 0 0 0 0 0 1.897954058e-07 
0 0 0 0 0 0 0 0 1.92411114e-07 
0 0 0 0 0 0 0 0 2.729423794e-07 
0 0 0 0 0 0 0 0 2.782004161e-07 
0 0 0 0 0 0 0 0 1.976691507e-07 
0 0 0 0 0 0 0 0 2.808161243e-07 
0 0 0 0 0 0 0 0 3.649287716e-07 
-3.832760219e-07 0 0 0 -1.32992457e-07 0 0 0 -3.126496358e-07 
0 0 0 0 0 0 0 0 3.789376358e-07 
1.576640766e-07 0 0 0 0 0 0 0 4.236999953e-07 
-1.47734616e-07 0 0 0 0 0 0 0 0 
-1.603379288e-07 0 0 0 0 0 0 0 0 
0 0 0 0 0 0 0 0 3.719332037e-07 
1.227354333e-07 0 0 0 0 0 0 0 3.943143835e-07 
0 0 0 0 0 0 0 0 0 
0 0 0 0 0 0 0 0 4.013188156e-07 
-3.249122939e-07 0 0 0 0 0 0 0 -2.215435916e-07 
0 0 0 0 1.216520348e-07 0 0 0 4.125002638e-07 
0 0 0 0 0 0 0 0 3.000813264e-07 
3.646460182e-07 0 0 0 0 0 0 0 5.373676084e-07 
0 0 0 0 0 0 0 0 0 
0 0 0 0 0 0 0 0 3.562907951e-07 
-2.171447466e-07 0 0 0 0 0 0 0 0 
0 0 0 0 0 0 0 0 1.579120084e-07 
2.346614308e-07 0 0 0 0 0 0 0 4.749339361e-07 
1.276344094e-07 0 0 0 0 0 0 0 4.187244674e-07 
-5.97303632e-07 0 0 0 -2.768653132e-07 0 0 0 -2.544887112e-07 
1.396449385e-07 0 0 0 0 0 0 0 -4.352737824e-07 
0 0 0 0 0 0 0 0 -5.576641939e-07 
4.422098719e-07 0 0 0 2.507298187e-07 0 0 0 -2.356494394e-07 
-2.288293468e-07 0 0 0 -1.23922911e-07 0 0 0 -3.448812468e-07 
0 0 0 0 0 0 0 0 -4.964689881e-07 
-3.301374583e-07 0 0 0 -1.959669882e-07 0 0 0 -4.060764525e-07 
0 0 0 0 0 0 0 0 -2.450690753e-07 
2.909274052e-07 0 0 0 1.39874655e-07 0 0 0 -3.354616109e-07 
1.896192936e-07 0 0 0 0 0 0 0 -3.966568167e-07 
-3.150455089e-07 0 0 0 -2.231488358e-07 0 0 0 -8.40464916e-07 
-2.03784402e-07 0 0 0 0 0 0 0 -7.327864394e-07 
-2.200502744e-07 0 0 0 0 0 0 0 -6.226873227e-07 
9.557572866e-07 -1.194685582e-07 0 -1.194685582e-07 5.107772994e-07 0 0 0 6.414056479e-07 
-2.594149555e-07 0 0 0 -1.586802105e-07 0 0 0 -7.866256777e-07 
-2.119173382e-07 0 0 0 0 0 0 0 -6.77736881e-07 
-2.675478916e-07 0 0 0 -1.324027851e-07 0 0 0 -7.315761194e-07 
3.203558888e-07 0 0 0 1.438142318e-07 0 0 0 0 
3.759864423e-07 0 0 0 2.082828571e-07 0 0 0 0 
3.678535061e-07 0 0 0 2.345602825e-07 0 0 0 0 
-4.270106773e-07 0 0 0 -2.367913567e-07 0 0 0 0 
2.363488488e-07 0 0 0 0 0 0 0 -3.717138791e-07 
-1.571702034e-07 0 0 0 -1.439917669e-07 0 0 0 -4.492081961e-07 
2.1982225e-07 0 0 0 1.446959948e-07 0 0 0 -2.205552534e-07 
0 0 0 0 0 0 0 0 -2.174155668e-07 
0 0 0 0 0 0 0 0 -4.104610376e-07 
-2.920904404e-07 0 0 0 -1.903915618e-07 0 0 0 -2.561627253e-07 
0 0 0 0 0 0 0 0 -1.418362539e-07 
2.280855494e-07 0 0 0 1.204061028e-07 0 0 0 -2.961345663e-07 
0 0 0 0 0 0 0 0 -3.348817248e-07 
-4.096857422e-07 0 0 0 -2.522599504e-07 0 0 0 2.601850855e-07 
0 0 0 0 -1.278607477e-07 0 0 0 -2.101176594e-07 
1.596253101e-07 0 0 0 0 0 0 0 0 
0 0 0 0 0 0 0 0 -1.587357668e-07 
-2.410723357e-07 0 0 0 -1.90060349e-07 0 0 0 0 
0 0 0 0 0 0 0 0 -1.453627156e-07 
-1.250302161e-07 0 0 0 0 0 0 0 0 
-1.752559757e-07 0 0 0 0 0 0 0 0 
0 0 0 0 0 0 0 0 -1.844267131e-07 
0 0 0 0 0 0 0 0 -1.196717693e-07 
4.956084445e-07 0 0 0 3.850965773e-07 0 0 0 0 
0 0 0 0 0 0 0 0 -2.889610695e-07 
-3.015439408e-07 0 0 0 0 0 0 0 -4.747964693e-07 
0 -1.616840686e-07 0 -1.616840686e-07 -1.766386238e-07 0 0 0 -4.642899809e-07 
2.87974346e-07 0 0 0 1.777569539e-07 0 0 0 0 
0 0 0 0 0 0 0 0 -3.818787694e-07 
0 0 0 0 1.535163403e-07 0 0 0 -1.961119171e-07 
1.963965208e-07 0 0 0 0 0 0 0 -1.908586729e-07 
0 0 0 0 0 0 0 0 -3.766255252e-07 
-2.021796718e-07 0 0 0 -1.273512603e-07 0 0 0 -4.695432251e-07 
0 0 0 0 0 0 0 0 3.744422336e-07 
-5.487071695e-07 0 0 0 0 0 0 0 -3.199055148e-07 
0 0 0 0 0 0 0 0 4.590976911e-07 
5.386191766e-07 0 0 0 1.921977453e-07 0 0 0 6.799479311e-07 
-3.054531969e-07 0 0 0 0 0 0 0 0 
-2.34448139e-07 0 0 0 0 0 0 0 0 
0 0 0 0 0 0 0 0 4.167699623e-07 
2.382099762e-07 0 0 0 0 0 0 0 5.271950824e-07 
0 0 0 0 0 0 0 0 1.800212082e-07 
3.09215034e-07 0 0 0 1.536429424e-07 0 0 0 5.695228111e-07 
0 0 0 0 0 0 0 0 4.378080062e-07 
-8.079866491e-07 -1.364264425e-07 0 -1.364264425e-07 -2.002923978e-07 0 0 0 -4.401237434e-07 
1.439338847e-07 0 0 0 1.436198455e-07 0 0 0 5.565341306e-07 
7.513431148e-07 1.561943833e-07 0 1.561943833e-07 2.992708032e-07 0 0 0 8.642964389e-07 
-4.528156429e-07 0 0 0 0 0 0 0 0 
-3.320263822e-07 0 0 0 0 0 0 0 0 
0 0 0 0 0 0 0 0 4.971710684e-07 
3.268492391e-07 0 0 0 1.520332107e-07 0 0 0 6.510522226e-07 
0 0 0 0 0 0 0 0 2.120863478e-07 
4.476384997e-07 0 0 0 2.214453244e-07 0 0 0 7.104152848e-07 
-6.155717133e-07 0 0 0 -2.372949621e-07 0 0 0 -4.576634298e-07 
2.33583151e-07 0 0 0 1.94724391e-07 0 0 0 5.999605659e-07 
0 0 0 0 0 0 0 0 4.861053557e-07 
1.368169425e-07 0 0 0 0 0 0 0 5.654270011e-07 
-1.909942812e-07 0 0 0 0 0 0 0 0 
1.635576665e-07 0 0 0 1.506117407e-07 0 0 0 5.430329608e-07 
-2.610197657e-07 0 0 0 0 0 0 0 0 
-2.393773854e-07 0 0 0 0 0 0 0 0 
1.852000468e-07 0 0 0 0 0 0 0 5.826937835e-07 
0 0 0 0 0 0 0 0 5.257661784e-07 
0 0 0 0 0 0 0 0 3.103032193e-07 
-3.062537538e-07 0 0 0 0 0 0 0 -2.545531855e-07 
0 0 0 0 0 0 0 0 3.052103366e-07 
1.267620778e-07 0 0 0 0 0 0 0 3.5091211e-07 
0 0 0 0 0 0 0 0 0 
-1.408166193e-07 0 0 0 0 0 0 0 0 
0 0 0 0 0 0 0 0 3.07756778e-07 
0 0 0 0 0 0 0 0 3.306076647e-07 
0 0 0 0 0 0 0 0 0 
0 0 0 0 0 0 0 0 3.280612233e-07 
1.573239079e-07 0 0 0 1.655667496e-07 0 0 0 0 
-1.855356806e-07 0 0 0 0 0 0 0 -2.900727687e-07 
0 0 0 0 0 0 0 0 -1.990204322e-07 
0 0 0 0 0 0 0 0 -2.280069388e-07 
0 0 0 0 0 0 0 0 -1.644067451e-07 
0 0 0 0 0 0 0 0 -2.445466005e-07 
0 0 0 0 0 0 0 0 0 
0 0 0 0 0 0 0 0 -1.333738302e-07 
0 0 0 0 0 0 0 0 -2.590398538e-07 
0 0 0 0 0 0 0 0 -2.135136855e-07 
0 0 0 0 0 0 0 0 2.56391332e-07 
-3.065765858e-07 0 0 0 0 0 0 0 -2.039691837e-07 
0 0 0 0 0 0 0 0 3.357151227e-07 
3.324692285e-07 0 0 0 0 0 0 0 4.52481133e-07 
-1.849906267e-07 0 0 0 0 0 0 0 0 
-1.211049489e-07 0 0 0 0 0 0 0 0 
0 0 0 0 0 0 0 0 2.960532274e-07 
1.345322804e-07 0 0 0 0 0 0 0 3.544362325e-07 
0 0 0 0 0 0 0 0 1.242559747e-07 
1.984179582e-07 0 0 0 0 0 0 0 3.940981279e-07 
-2.902330551e-07 0 0 0 -2.059315731e-07 0 0 0 -2.711853474e-07 
0 0 0 0 0 0 0 0 -1.665244354e-07 
2.870191718e-07 0 0 0 2.100132861e-07 0 0 0 0 
0 0 0 0 0 0 0 0 -2.294750105e-07 
-1.896231698e-07 0 0 0 -1.206727003e-07 0 0 0 -2.188548914e-07 
0 0 0 0 0 0 0 0 0 
0 0 0 0 0 0 0 0 0 
0 0 0 0 0 0 0 0 -2.50330179e-07 
0 0 0 0 0 0 0 0 -1.979997229e-07 
1.824967855e-07 0 0 0 1.433314302e-07 0 0 0 0 
-1.496810075e-07 0 0 0 0 0 0 0 -3.357983991e-07 
0 0 0 0 -1.245350651e-07 0 0 0 -3.582953781e-07 
0 0 0 0 0 0 0 0 -3.039365861e-07 
0 0 0 0 2.565308849e-07 0 0 0 0 
0 0 0 0 0 0 0 0 -3.470468886e-07 
0 0 0 0 0 0 0 0 -3.311159821e-07 
0 0 0 0 0 0 0 0 -3.198674926e-07 
0 0 0 0 0 0 0 0 -1.906740216e-07 
0 0 0 0 0 0 0 0 -2.019225111e-07 
0 0 0 0 0 0 0 0 -1.747431151e-07 
-1.898058095e-07 0 0 0 -1.256364391e-07 0 0 0 -3.274255943e-07 
0 0 0 0 0 0 0 0 -2.317227256e-07 
1.933507267e-07 0 0 0 1.895928835e-07 0 0 0 0 
0 0 0 0 0 0 0 0 -2.737312881e-07 
0 0 0 0 0 0 0 0 -2.7957416e-07 
0 0 0 0 1.194907177e-07 0 0 0 -1.403505238e-07 
0 0 0 0 0 0 0 0 -1.882019581e-07 
0 0 0 0 0 0 0 0 -3.005784412e-07 
0 0 0 0 0 0 0 0 -2.527270069e-07 
0 0 0 0 0 0 0 0 -1.61354805e-07 
2.182020309e-07 0 0 0 2.188030611e-07 0 0 0 0 
0 0 0 0 0 0 0 0 -2.826343611e-07 
-1.469989831e-07 0 0 0 0 0 0 0 -1.932197099e-07 
0 0 0 0 0 0 0 0 -2.578584843e-07 
0 0 0 0 0 0 0 0 -1.580718776e-07 
0 0 0 0 0 0 0 0 -2.379270355e-07 
0 0 0 0 0 0 0 0 0 
1.305499457e-07 0 0 0 0 0 0 0 -1.456839391e-07 
0 0 0 0 0 0 0 0 -2.702464227e-07 
0 0 0 0 0 0 0 0 -2.255390971e-07 
0 0 0 0 0 0 0 0 0 
2.311899369e-07 0 0 0 0 0 0 0 0 
0 0 0 0 0 0 0 0 -1.649482054e-07 
-3.870159221e-07 0 0 0 -2.234417941e-07 0 0 0 2.222414759e-07 
0 0 0 0 0 0 0 0 0 
1.287829538e-07 0 0 0 0 0 0 0 -1.241252681e-07 
0 0 0 0 0 0 0 0 -1.387012322e-07 
-2.282501043e-07 0 0 0 0 0 0 0 0 
0 0 0 0 0 0 0 0 0 
-1.803199757e-07 0 0 0 -1.668422931e-07 0 0 0 0 
2.073184023e-07 0 0 0 0 0 0 0 -1.548285381e-07 
2.488737041e-07 0 0 0 2.325552396e-07 0 0 0 0 
-7.912694355e-07 -1.935390489e-07 0 -1.935390489e-07 -5.02976919e-07 0 0 0 -5.149725052e-07 
2.423433337e-07 0 0 0 1.72274277e-07 0 0 0 -1.34823924e-07 
2.280960532e-07 0 0 0 1.40124054e-07 0 0 0 0 
-2.711978657e-07 0 0 0 -1.352108397e-07 0 0 0 -2.661820955e-07 
-2.919755166e-07 0 0 0 -2.276420253e-07 0 0 0 -3.349005216e-07 
2.24830868e-07 0 0 0 0 0 0 0 -1.448262311e-07 
2.456085189e-07 0 0 0 2.024147583e-07 0 0 0 0 
-2.744630509e-07 0 0 0 -1.65351321e-07 0 0 0 -3.248982146e-07 
0 0 0 0 0 0 0 0 0 
0 0 0 0 -1.539410038e-07 0 0 0 -1.872493956e-07 
0 0 0 0 1.230429336e-07 0 0 0 0 
0 0 0 0 0 0 0 0 -2.890008037e-07 
0 0 0 0 0 0 0 0 -1.437697962e-07 
0 0 0 0 0 0 0 0 -1.234541963e-07 
0 0 0 0 0 0 0 0 0 
0 0 0 0 0 0 0 0 -1.946455003e-07 
0 0 0 0 -1.217050238e-07 0 0 0 -2.381250997e-07 
0 0 0 0 0 0 0 0 -1.743299003e-07 
0 0 0 0 0 0 0 0 -2.887435991e-07 
2.307930335e-07 0 0 0 2.590244068e-07 0 0 0 0 
0 0 0 0 0 0 0 0 -1.459933942e-07 
-1.219242332e-07 -1.304469105e-07 0 -1.304469105e-07 0 0 0 0 -3.947092105e-07 
0 0 0 0 0 0 0 0 -1.504279509e-07 
0 0 0 0 1.43488523e-07 0 0 0 0 
0 0 0 0 0 0 0 0 -2.173684967e-07 
0 0 0 0 0 0 0 0 -3.417264048e-07 
0 0 0 0 0 0 0 0 -2.034107566e-07 
0 0 0 0 0 0 0 0 -2.703513024e-07 
-1.247186543e-07 0 0 0 1.998178979e-07 0 0 0 -3.049438993e-07 
0 1.226894584e-07 0 1.226894584e-07 2.159608994e-07 0 0 0 0 
-1.445259969e-07 0 0 0 -1.235166028e-07 0 0 0 -2.201202045e-07 
3.12842937e-07 0 -1.888309687e-07 0 -3.033453127e-07 -1.659941871e-07 -1.888309687e-07 -1.659941871e-07 0 
0 0 0 0 2.078893986e-07 0 0 0 -1.772491003e-07 
0 0 0 0 0 0 0 0 -1.348372529e-07 
-1.346223256e-07 0 0 0 0 0 0 0 -2.625320519e-07 
0 0 0 0 0 0 0 0 -2.114669341e-07 
2.126735672e-07 0 0 0 0 0 0 0 0 
0 0 0 0 -2.134309577e-07 0 0 0 -1.690550867e-07 
2.903098375e-07 1.389159451e-07 0 1.389159451e-07 2.615147905e-07 0 0 0 0 
0 0 0 0 0 0 0 0 0 
0 0 0 0 0 0 0 0 -2.293903898e-07 
-2.386705244e-07 -1.586236548e-07 0 -1.586236548e-07 -1.868830471e-07 0 0 0 -4.569837137e-07 
1.413715554e-07 0 0 0 1.471906937e-07 0 0 0 0 
0 0 0 0 0 0 0 0 -1.672862775e-07 
0 0 0 0 1.273637611e-07 0 0 0 0 
0 0 0 0 0 0 0 0 -2.167215749e-07 
-1.231186256e-07 0 0 0 0 0 0 0 -2.810829395e-07 
-1.753200326e-07 -1.333780563e-07 0 -1.333780563e-07 0 0 0 0 -3.431870517e-07 
4.532044122e-07 2.514750781e-07 0 2.514750781e-07 4.783820473e-07 0 0 0 0 
1.318137192e-07 0 0 0 1.482938224e-07 0 0 0 0 
-2.625636187e-07 -1.738048534e-07 0 -1.738048534e-07 0 1.204701452e-07 0 1.204701452e-07 -4.004763097e-07 
-5.818267992e-07 -3.183219671e-07 0 -3.183219671e-07 -4.540020256e-07 0 0 0 -7.386028295e-07 
2.925090657e-07 1.693359673e-07 0 1.693359673e-07 3.133379348e-07 0 0 0 0 
0 0 0 0 0 0 0 0 -2.307989845e-07 
0 0 0 0 1.889053393e-07 0 0 0 -1.641798231e-07 
0 0 0 0 0 0 0 0 -3.33243083e-07 
-2.2500654e-07 0 0 0 -1.528541016e-07 0 0 0 -3.998622444e-07 
-4.22195209e-07 -2.460634102e-07 0 -2.460634102e-07 -2.772866971e-07 0 0 0 -5.695395696e-07 
0 0 0 0 2.529282184e-07 0 0 0 0 
0 0 0 0 0 0 0 0 -2.721677027e-07 
0 0 0 0 0 0 0 0 -2.658627586e-07 
0 0 0 0 -1.208155888e-07 0 0 0 -3.08855814e-07 
0 0 0 0 0 0 0 0 -1.497886276e-07 
0 0 0 0 0 0 0 0 -2.690152307e-07 
0 0 0 0 0 0 0 0 -1.466361556e-07 
0 0 0 0 0 0 0 0 -1.681326833e-07 
0 0 0 0 0 0 0 0 -2.905117584e-07 
0 0 0 0 0 0 0 0 -2.873592863e-07 
1.866104079e-07 0 0 0 3.170032235e-07 0 0 0 -1.314002746e-07 
0 0 0 0 0 0 0 0 -1.27271317e-07 
0 0 0 0 0 0 0 0 -1.362283801e-07 
0 0 0 0 0 0 0 0 -1.854559269e-07 
0 0 0 0 1.296699588e-07 0 0 0 -1.293357958e-07 
0 0 0 0 0 0 0 0 -1.317498486e-07 
0 0 0 0 1.373167831e-07 0 0 0 -1.338143274e-07 
0 0 0 0 0 0 0 0 -1.584281007e-07 
0 0 0 0 0 0 0 0 -1.563636219e-07 
0 0 0 0 0 0 0 0 -1.608421535e-07 
-2.569842652e-07 0 0 0 -1.699626402e-07 0 0 0 1.889694249e-07 
0 0 0 0 0 0 0 0 -1.479809083e-07 
0 0 0 0 0 0 0 0 0 
0 0 0 0 0 0 0 0 0 
-1.380985892e-07 0 0 0 -1.231676047e-07 0 0 0 0 
0 0 0 0 0 0 0 0 -1.223917712e-07 
0 0 0 0 0 0 0 0 0 
0 0 0 0 0 0 0 0 0 
0 0 0 0 0 0 0 0 0 
0 0 0 0 0 0 0 0 0 
-1.381426423e-07 -1.834573509e-07 0 -1.834573509e-07 -3.253788328e-07 0 0 0 -3.008718205e-07 
-2.962361094e-07 0 0 0 -3.477032092e-07 0 0 0 -4.523901246e-07 
0 0 0 0 0 0 0 0 -2.05494833e-07 
2.052149613e-07 2.389793045e-07 1.448472199e-07 2.389793045e-07 7.083120073e-07 1.271784449e-07 1.448472199e-07 1.271784449e-07 0 
-2.171893759e-07 -1.414758901e-07 0 -1.414758901e-07 -3.36541021e-07 0 0 0 -3.766309726e-07 
0 0 0 0 -1.870194552e-07 0 0 0 -3.289424788e-07 
0 0 0 0 -1.75857267e-07 0 0 0 -2.531833268e-07 
0 0 0 0 1.914665873e-07 0 0 0 -1.530746119e-07 
0 0 0 0 1.803043991e-07 0 0 0 -2.288337639e-07 
1.588310955e-07 1.377301033e-07 0 1.377301033e-07 3.409881531e-07 0 0 0 0 
0 -1.261193847e-07 0 -1.261193847e-07 -1.444046376e-07 0 0 0 -3.833923004e-07 
1.864841352e-07 0 0 0 0 0 0 0 -1.67856084e-07 
3.212988637e-07 0 0 0 2.669022039e-07 0 0 0 0 
-3.127879149e-07 0 0 0 -1.23386202e-07 0 0 0 -4.266899374e-07 
0 0 0 0 0 0 0 0 -2.756241922e-07 
2.538914994e-07 0 0 0 1.906678311e-07 0 0 0 0 
1.372848646e-07 0 0 0 0 0 0 0 -1.809697775e-07 
-1.797585247e-07 0 0 0 -1.338954198e-07 0 0 0 -4.050411189e-07 
0 0 0 0 0 0 0 0 -2.972730107e-07 
0 0 0 0 0 0 0 0 -2.02618596e-07 
-1.58928498e-07 0 2.386062483e-07 0 0 0 2.386062483e-07 0 0 
-1.240212012e-07 0 0 0 -1.650727193e-07 0 0 0 2.749846999e-07 
0 0 0 0 -1.219911759e-07 1.329350698e-07 0 1.329350698e-07 1.228540036e-07 
0 0 0 0 1.379325958e-07 0 0 0 2.883447725e-07 
-1.414748496e-07 0 1.222999386e-07 0 0 0 1.222999386e-07 0 0 
0 0 0 0 -1.435319476e-07 0 0 0 1.989193518e-07 
0 0 0 0 0 0 0 0 0 
0 0 0 0 0 0 0 0 0 
0 0 0 0 0 0 0 0 2.816647362e-07 
0 0 0 0 0 0 0 0 2.05599388e-07 
-5.040781033e-07 0 0 0 -1.944504359e-07 0 0 0 -3.961646478e-07 
8.99746318e-07 2.007229977e-07 0 2.007229977e-07 7.700238994e-07 0 0 0 2.346898665e-07 
-1.288007045e-07 -2.179988366e-07 -1.280818462e-07 -2.179988366e-07 -1.509949662e-07 0 -1.280818462e-07 0 -5.734780258e-07 
-1.699620111e-07 0 0 0 -2.752520244e-07 0 0 0 -5.791845492e-07 
1.978341074e-07 0 0 0 2.877867318e-07 0 0 0 0 
3.854728068e-07 0 0 0 3.095144666e-07 0 0 0 -1.693940797e-07 
-3.164394039e-07 -1.232475314e-07 0 -1.232475314e-07 -1.72722701e-07 0 0 0 -4.848213368e-07 
-3.370200572e-07 0 0 0 -2.348512301e-07 0 0 0 -4.876745985e-07 
3.648921534e-07 0 0 0 2.473859375e-07 0 0 0 -1.722473413e-07 
-1.493813578e-07 -1.298652991e-07 0 -1.298652991e-07 -2.131234953e-07 0 0 0 -5.763312875e-07 
-2.838926385e-07 0 2.423744675e-07 0 0 1.756510524e-07 2.423744675e-07 1.756510524e-07 -6.10219472e-07 
0 -1.339590035e-07 -1.420324958e-07 -1.339590035e-07 0 0 -1.420324958e-07 0 -4.466798812e-07 
3.434003479e-07 0 0 0 1.531043479e-07 0 0 0 0 
0 0 0 0 -2.028420366e-07 -1.209785674e-07 0 -1.209785674e-07 -5.161343989e-07 
0 0 0 0 0 0 0 0 -5.284496766e-07 
2.078791722e-07 0 -1.246134716e-07 0 0 0 -1.246134716e-07 0 -2.728481054e-07 
0 0 0 0 0 0 0 0 -3.546179009e-07 
-1.792727844e-07 0 0 0 0 0 0 0 -5.631769355e-07 
0 0 0 0 0 0 0 0 -4.8140714e-07 
1.343737088e-07 0 0 0 0 0 0 0 -3.075753643e-07 
0 0 0 0 3.15630164e-07 0 0 0 -2.794195424e-07 
0 1.208550552e-07 0 1.208550552e-07 1.807523369e-07 0 0 0 0 
-2.058997866e-07 0 0 0 -1.677765898e-07 0 0 0 -2.776173415e-07 
3.274077868e-07 0 -2.58961521e-07 0 -3.434470879e-07 -2.230543255e-07 -2.58961521e-07 -2.230543255e-07 -1.424666316e-07 
0 0 0 0 2.481912505e-07 0 0 0 -1.809820133e-07 
0 0 0 0 0 0 0 0 -1.800809128e-07 
0 0 0 0 0 0 0 0 -2.78518442e-07 
1.609011262e-07 0 0 0 0 0 0 0 -2.10943087e-07 
2.136219729e-07 0 0 0 0 0 0 0 0 
0 0 0 0 -2.556118388e-07 0 0 0 -2.100419866e-07 
1.233965406e-07 0 0 0 4.821234902e-07 1.624762882e-07 0 1.624762882e-07 -2.427365516e-07 
2.231711171e-07 1.510432955e-07 1.247673816e-07 1.510432955e-07 2.270924019e-07 0 1.247673816e-07 0 0 
-4.908981953e-07 0 1.360383332e-07 0 -3.16451855e-07 0 1.360383332e-07 0 -4.411215746e-07 
4.584846836e-07 0 -3.720533349e-07 0 -3.928655044e-07 -3.123697765e-07 -3.720533349e-07 -3.123697765e-07 -1.423931684e-07 
1.732838288e-07 0 0 0 3.54607946e-07 0 0 0 -1.49242141e-07 
-1.338635391e-07 0 1.304028574e-07 0 0 0 1.304028574e-07 0 -2.484346525e-07 
-1.837508273e-07 0 0 0 0 0 0 0 -3.419290631e-07 
2.909406121e-07 0 -1.47497316e-07 0 0 0 -1.47497316e-07 0 -1.9256486e-07 
3.408279004e-07 0 -1.236429767e-07 0 0 -1.434672315e-07 -1.236429767e-07 -1.434672315e-07 0 
0 0 0 0 -3.546586797e-07 -1.307580863e-07 0 -1.307580863e-07 -2.917573715e-07 
3.627055793e-07 1.673724634e-07 0 1.673724634e-07 3.066611256e-07 0 0 0 0 
-3.226627423e-07 0 0 0 -2.118700418e-07 0 0 0 -3.427216927e-07 
-3.710383489e-07 -2.005671921e-07 0 -2.005671921e-07 -1.70420862e-07 0 0 0 -3.75654601e-07 
1.584559087e-07 0 0 0 1.308799708e-07 0 0 0 -3.301056146e-07 
0 0 0 0 0 0 0 0 -1.642136345e-07 
-3.468505456e-07 -1.20735279e-07 0 -1.20735279e-07 -1.911454519e-07 0 0 0 -3.591881468e-07 
0 0 0 0 0 0 0 0 -1.806800886e-07 
2.60580744e-07 0 0 0 2.187705482e-07 0 0 0 -1.579055955e-07 
0 0 0 0 0 0 0 0 -3.364136536e-07 
0 -1.340668698e-07 0 -1.340668698e-07 0 0 0 0 -3.528801078e-07 
0 -1.390083332e-07 0 -1.390083332e-07 1.368559918e-07 0 0 0 2.550974435e-07 
0 0 0 0 0 0 0 0 0 
-4.626128848e-07 2.24811074e-07 0 2.24811074e-07 -3.474093445e-07 0 0 0 0 
7.479110348e-07 0 0 0 2.751861098e-07 0 0 0 -2.757788151e-07 
0 0 0 0 0 0 0 0 1.585417421e-07 
-1.915933339e-07 0 0 0 -1.299423067e-07 0 0 0 0 
-2.331356739e-07 0 0 0 0 0 0 0 0 
3.721262859e-07 -1.206402708e-07 0 -1.206402708e-07 2.060210508e-07 0 0 0 0 
4.136686259e-07 0 0 0 1.813554205e-07 0 0 0 0 
1.42649075e-07 0 0 0 0 0 0 0 -1.889213612e-07 
0 0 0 0 0 0 0 0 -1.327263234e-07 
0 0 0 0 -1.263168262e-07 0 0 0 -2.130990362e-07 
0 0 0 0 0 0 0 0 -1.43207526e-07 
0 0 0 0 0 0 0 0 1.859384258e-07 
0 0 0 0 0 0 0 0 -1.729126798e-07 
0 0 0 0 0 0 0 0 -1.781532811e-07 
0 0 0 0 0 0 0 0 -1.379669247e-07 
0 0 0 0 0 0 0 0 0 
0 0 0 0 0 0 0 0 0 
0 0 0 0 0 0 0 0 0 
0 0 0 0 0 0 0 0 -2.190287082e-07 
2.886219098e-07 0 -2.253935771e-07 0 0 -1.203000605e-07 -2.253935771e-07 -1.203000605e-07 -3.024788624e-07 
-1.725336498e-07 0 1.966922024e-07 0 1.367340612e-07 1.295782279e-07 1.966922024e-07 1.295782279e-07 -3.800069474e-07 
-2.306995387e-07 0 0 0 -1.615135838e-07 0 0 0 -2.612549221e-07 
0 0 0 0 0 0 0 0 -2.607537853e-07 
0 0 0 0 0 0 0 0 -3.412429049e-07 
-1.304726065e-07 0 1.209149637e-07 0 0 0 1.209149637e-07 0 -2.995178278e-07 
-1.59555551e-07 0 0 0 0 0 0 0 -2.401418151e-07 
0 0 0 0 0 0 0 0 -2.818668922e-07 
-2.016165942e-07 0 0 0 0 0 0 0 -3.206309347e-07 
2.072911945e-07 0 -1.711225446e-07 0 0 0 -1.711225446e-07 0 -2.763836694e-07 
-1.901931967e-07 0 0 0 -1.286814991e-07 0 0 0 -2.485560204e-07 
-1.1938769e-07 0 1.355082102e-07 0 1.577244528e-07 0 1.355082102e-07 0 -2.874132638e-07 
0 0 0 0 0 0 0 0 -1.948869106e-07 
0 0 0 0 0 0 0 0 -2.624698449e-07 
-1.547904433e-07 0 0 0 0 0 0 0 -2.679846421e-07 
0 0 0 0 0 0 0 0 -2.818984666e-07 
0 0 0 0 0 0 0 0 -2.3563529e-07 
-1.360875421e-07 0 0 0 0 0 0 0 -2.217214655e-07 
0 0 0 0 0 0 0 0 -2.411500872e-07 
1.677379499e-07 0 0 0 2.750273879e-07 0 0 0 -2.016095979e-07 
0 0 0 0 0 0 0 0 -1.400265632e-07 
0 0 0 0 0 0 0 0 -1.33790603e-07 
-1.378731862e-07 0 0 0 -1.380673379e-07 0 0 0 -2.24692722e-07 
0 0 0 0 0 0 0 0 -1.708180805e-07 
0 0 0 0 0 0 0 0 -1.369085831e-07 
0 0 0 0 1.480750659e-07 0 0 0 -1.677001004e-07 
0 0 0 0 0 0 0 0 -2.131511599e-07 
0 0 0 0 0 0 0 0 -1.823596426e-07 
0 0 0 0 0 0 0 0 -1.792416625e-07 
1.842387312e-07 0 0 0 2.706093067e-07 0 0 0 3.809633355e-07 
0 0 0 0 0 0 0 0 1.922256455e-07 
0 0 0 0 0 0 0 0 3.308501711e-07 
0 0 0 0 -1.807293554e-07 0 0 0 2.087424598e-07 
1.272170326e-07 0 0 0 1.826839716e-07 0 0 0 2.865944905e-07 
0 0 0 0 0 0 0 0 2.615379083e-07 
0 0 0 0 1.208337013e-07 0 0 0 3.559067533e-07 
0 0 0 0 0 0 0 0 2.948528977e-07 
0 0 0 0 0 0 0 0 2.004840526e-07 
0 0 0 0 0 0 0 0 2.697963155e-07 
0 0 0 0 -1.466631921e-07 0 0 0 -2.091625684e-07 
1.35108223e-07 0 0 0 0 0 0 0 0 
-1.350389356e-07 0 0 0 0 0 0 0 -2.061391397e-07 
0 0 0 0 0 0 0 0 1.870022058e-07 
0 0 0 0 0 0 0 0 -1.609875964e-07 
0 0 0 0 0 0 0 0 -1.594758821e-07 
0 0 0 0 0 0 0 0 -2.07650854e-07 
0 0 0 0 0 0 0 0 0 
1.229841824e-07 0 0 0 0 0 0 0 0 
0 0 0 0 0 0 0 0 0 
0 0 0 0 -1.8668092e-07 0 0 0 0 
0 0 0 0 1.482613779e-07 0 0 0 0 
0 0 0 0 0 0 0 0 0 
-1.258618601e-07 0 0 0 0 0 0 0 0 
0 0 0 0 0 0 0 0 0 
0 0 0 0 0 0 0 0 0 
0 0 0 0 0 0 0 0 0 
0 0 0 0 -1.363244814e-07 0 0 0 0 
0 0 0 0 0 0 0 0 0 
0 0 0 0 0 0 0 0 0 
-1.401840914e-07 0 0 0 -1.429494431e-07 0 0 0 -2.465430963e-07 
1.347572488e-07 0 0 0 2.049673802e-07 0 0 0 -2.918503478e-07 
0 0 0 0 0 0 0 0 -1.383724595e-07 
0 0 0 0 0 0 0 0 -1.481901885e-07 
0 0 0 0 0 0 0 0 -2.691967221e-07 
0 0 0 0 1.243466661e-07 0 0 0 -2.151114036e-07 
0 0 0 0 0 0 0 0 -1.924577779e-07 
0 0 0 0 0 0 0 0 -1.973666424e-07 
0 0 0 0 0 0 0 0 -2.200202682e-07 
0 0 0 0 0 0 0 0 -1.43281324e-07 
0 0 0 0 0 0 0 0 -1.949150356e-07 
0 0 0 0 -1.211958654e-07 0 0 0 -1.837015113e-07 
2.080860217e-07 0 0 0 1.566748325e-07 0 0 0 -1.692367493e-07 
0 0 0 0 0 0 0 0 -1.229988913e-07 
0 0 0 0 0 0 0 0 -1.893082735e-07 
1.260504644e-07 0 0 0 0 0 0 0 -1.764691303e-07 
0 0 0 0 0 0 0 0 -1.820758925e-07 
0 0 0 0 0 0 0 0 -1.589569635e-07 
0 0 0 0 0 0 0 0 -1.533502013e-07 
1.582689495e-07 0 0 0 0 0 0 0 -1.461178203e-07 
0 0 0 0 0 0 0 0 -2.147903752e-07 
0 0 0 0 -1.384687347e-07 0 0 0 -2.94909789e-07 
0 0 0 0 0 0 0 0 -2.736213489e-07 
0 0 0 0 0 0 0 0 -1.382573104e-07 
0 0 0 0 0 0 0 0 -2.548500821e-07 
0 0 0 0 0 0 0 0 -2.842655689e-07 
0 0 0 0 0 0 0 0 -2.44205862e-07 
0 0 0 0 0 0 0 0 -1.765238428e-07 
0 0 0 0 0 0 0 0 -2.165835497e-07 
0 0 0 0 0 0 0 0 -2.059393297e-07 
0 0 0 0 0 0 0 0 -1.529944843e-07 
0 0 0 0 0 0 0 0 -1.72329652e-07 
0 0 0 0 0 0 0 0 -1.49053764e-07 
0 0 0 0 2.145597717e-07 0 0 0 1.811477305e-07 
0 0 0 0 0 0 0 0 -1.626620681e-07 
0 0 0 0 0 0 0 0 -1.60691708e-07 
0 0 0 0 0 0 0 0 -1.510241241e-07 
0 0 0 0 0 0 0 0 0 
0 0 0 0 0 0 0 0 0 
0 0 0 0 0 0 0 0 0 
-1.412602471e-07 0 0 0 0 0 0 0 -2.219993959e-07 
0 0 0 0 0 0 0 0 -1.502535127e-07 
0 0 0 0 0 0 0 0 -1.582454428e-07 
0 0 0 0 0 0 0 0 1.523923301e-07 
0 0 0 0 0 0 0 0 -1.861264543e-07 
0 0 0 0 0 0 0 0 -1.542494778e-07 
0 0 0 0 0 0 0 0 -1.901224194e-07 
0 0 0 0 0 0 0 0 0 
0 0 0 0 0 0 0 0 0 
0 0 0 0 0 0 0 0 0 
0 0 0 0 0 0 0 0 -1.716036404e-07 
2.279460732e-07 0 0 0 2.348354753e-07 0 0 0 0 
0 0 0 0 0 0 0 0 0 
0 0 0 0 -1.325707636e-07 0 0 0 -1.690128931e-07 
0 0 0 0 0 0 0 0 -1.38706395e-07 
1.600034113e-07 0 0 0 1.289038257e-07 0 0 0 0 
0 0 0 0 0 0 0 0 -1.420947412e-07 
0 0 0 0 0 0 0 0 -1.703082667e-07 
1.195551489e-07 0 0 0 0 0 0 0 -1.374110213e-07 
0 0 0 0 0 0 0 0 -1.407993676e-07 
1.256102863e-07 0 0 0 1.74984055e-07 0 0 0 0 
0 0 0 0 -1.194884714e-07 0 0 0 0 
0 0 0 0 0 0 0 0 0 
0 0 0 0 0 0 0 0 0 
0 0 0 0 0 0 0 0 0 
0 0 0 0 0 0 0 0 0 
0 0 0 0 0 0 0 0 0 
0 0 0 0 0 0 0 0 0 
0 0 0 0 0 0 0 0 0 
0 0 0 0 0 0 0 0 0 
0 0 0 0 0 0 0 0 0 
1.818609789e-07 0 0 0 2.956531633e-07 0 0 0 0 
0 0 0 0 -1.542535609e-07 0 0 0 0 
0 0 0 0 0 0 0 0 1.510041313e-07 
0 0 0 0 1.47313083e-07 0 0 0 0 
0 0 0 0 0 0 0 0 0 
0 0 0 0 0 0 0 0 0 
0 0 0 0 0 0 0 0 1.25566703e-07 
1.230804279e-07 0 0 0 1.551550806e-07 0 0 0 0 
0 0 0 0 0 0 0 0 0 
0 0 0 0 0 0 0 0 -2.411536521e-07 
0 0 0 0 0 0 0 0 0 
0 0 0 0 0 0 0 0 -1.686443425e-07 
0 0 0 0 -1.534956693e-07 0 0 0 -2.612872343e-07 
0 0 0 0 0 0 0 0 -1.640082005e-07 
0 0 0 0 0 0 0 0 -1.277535457e-07 
0 0 0 0 0 0 0 0 -2.048989973e-07 
0 0 0 0 0 0 0 0 -2.512204432e-07 
0 0 0 0 0 0 0 0 -1.740749916e-07 
0 0 0 0 0 0 0 0 -2.149657884e-07 
-1.651360145e-07 0 0 0 0 0 0 0 0 
-8.648838629e-07 1.280719411e-07 0 1.280719411e-07 -4.528918185e-07 0 0 0 -2.640124005e-07 
9.350361605e-07 -1.686456294e-07 0 -1.686456294e-07 4.514907187e-07 0 0 0 4.28770472e-07 
4.531794655e-07 0 0 0 1.512945377e-07 0 0 0 -2.962931386e-07 
-5.150099387e-07 0 0 0 -2.373186672e-07 0 0 0 0 
0 0 0 0 0 0 0 0 0 
3.84950073e-07 0 0 0 2.148726014e-07 0 0 0 2.618313925e-07 
1.440217255e-07 0 0 0 0 0 0 0 0 
-2.058521987e-07 0 0 0 -1.507986404e-07 0 0 0 -2.801527696e-07 
6.94107813e-07 0 0 0 3.013926282e-07 0 0 0 0 
0 0 0 0 0 0 0 0 -4.883946973e-07 
3.218615972e-07 0 0 0 1.912358731e-07 0 0 0 3.029644473e-07 
3.797767546e-07 0 0 0 2.304759578e-07 0 0 0 -2.542085708e-07 
-7.285707702e-07 1.475832154e-07 0 1.475832154e-07 -3.759230355e-07 0 0 0 -3.16158395e-07 
1.704707784e-07 0 0 0 0 0 0 0 0 
3.508191759e-07 0 0 0 2.108559155e-07 0 0 0 0 
1.994283571e-07 0 0 0 0 0 0 0 -3.713016341e-07 
-3.547454053e-07 0 0 0 -2.123611036e-07 0 0 0 -4.022765462e-07 
-2.033545865e-07 0 0 0 0 0 0 0 0 
-1.743970078e-07 0 0 0 0 0 0 0 -2.851834829e-07 
-7.231876941e-07 0 0 0 -3.700852097e-07 0 0 0 -1.630043215e-07 
3.168474092e-07 0 0 0 0 0 0 0 -4.253042284e-07 
-1.387116343e-07 0 0 0 -1.360287178e-07 0 0 0 -5.255937821e-07 
3.751544186e-07 0 0 0 2.188548311e-07 0 0 0 -2.276758871e-07 
-2.031701424e-07 0 0 0 -1.262738744e-07 0 0 0 -2.94154275e-07 
0 0 0 0 0 0 0 0 -4.754490052e-07 
-4.309496642e-07 0 0 0 -2.530569638e-07 0 0 0 -3.442990518e-07 
-1.740166378e-07 0 0 0 0 0 0 0 -1.953401043e-07 
3.460009139e-07 0 0 0 1.68196146e-07 0 0 0 -3.264900578e-07 
0 0 0 0 0 0 0 0 -3.766348346e-07 
1.759155315e-07 0 0 0 2.515745973e-07 0 0 0 3.40089835e-07 
-1.693194941e-07 0 0 0 -3.199990622e-07 0 0 0 0 
0 0 0 0 1.460962025e-07 0 0 0 2.017839808e-07 
0 0 0 0 0 0 0 0 3.169647908e-07 
0 0 0 0 0 0 0 0 2.16795261e-07 
0 0 0 0 0 0 0 0 1.476423339e-07 
1.289459498e-07 0 0 0 1.988353999e-07 0 0 0 2.709369079e-07 
1.233014763e-07 0 0 0 1.535265695e-07 0 0 0 3.285273129e-07 
0 0 0 0 -1.322602602e-07 0 0 0 2.052327389e-07 
0 0 0 0 0 0 0 0 2.593743858e-07 
1.946779449e-07 0 0 0 1.918640185e-07 0 0 0 0 
-1.331672654e-07 0 0 0 0 0 0 0 0 
0 0 0 0 0 0 0 0 1.855521825e-07 
1.299333082e-07 0 0 0 0 0 0 0 2.154261336e-07 
0 0 0 0 0 0 0 0 0 
0 0 0 0 0 0 0 0 0 
1.565965813e-07 0 0 0 0 0 0 0 0 
1.623056266e-07 0 0 0 0 0 0 0 0 
0 0 0 0 0 0 0 0 1.274032785e-07 
1.242242629e-07 0 0 0 0 0 0 0 2.004891581e-07 
0 0 0 0 0 0 0 0 1.930863208e-07 
0 0 0 0 0 0 0 0 0 
0 0 0 0 -1.437532812e-07 0 0 0 0 
0 0 0 0 0 0 0 0 3.768953148e-07 
0 0 0 0 0 0 0 0 1.390220371e-07 
0 0 0 0 0 0 0 0 0 
0 0 0 0 0 0 0 0 1.440341992e-07 
0 0 0 0 0 0 0 0 2.849908178e-07 
0 0 0 0 0 0 0 0 2.309265341e-07 
0 0 0 0 0 0 0 0 2.359386962e-07 
0 0 0 0 1.650562788e-07 0 0 0 3.158652179e-07 
0 0 0 0 0 0 0 0 0 
0 0 0 0 0 0 0 0 0 
0 0 0 0 0 0 0 0 0 
0 0 0 0 0 0 0 0 1.912997861e-07 
0 0 0 0 0 0 0 0 0 
0 0 0 0 0 0 0 0 2.168382972e-07 
0 0 0 0 0 0 0 0 1.88687643e-07 
0 0 0 0 0 0 0 0 0 
0 0 0 0 0 0 0 0 0 
0 0 0 0 0 0 0 0 -1.428372935e-07 
0 0 0 0 0 0 0 0 -1.394766087e-07 
-1.411644598e-07 0 0 0 -1.359633434e-07 0 0 0 -2.448277489e-07 
1.499407461e-07 0 0 0 0 0 0 0 2.283331137e-07 
0 0 0 0 0 0 0 0 -1.411569511e-07 
0 0 0 0 0 0 0 0 -1.921521788e-07 
0 0 0 0 0 0 0 0 -1.938325212e-07 
1.287230791e-07 0 0 0 0 0 0 0 0 
1.253959643e-07 0 0 0 0 0 0 0 0 
0 0 0 0 0 0 0 0 0 
0 0 0 0 0 0 0 0 1.620822048e-07 
0 0 0 0 0 0 0 0 0 
0 0 0 0 -1.550111956e-07 0 0 0 0 
0 0 0 0 0 0 0 0 3.128812858e-07 
0 0 0 0 0 0 0 0 1.264559335e-07 
0 0 0 0 0 0 0 0 0 
0 0 0 0 0 0 0 0 0 
0 0 0 0 0 0 0 0 2.374817453e-07 
0 0 0 0 0 0 0 0 2.01855474e-07 
0 0 0 0 0 0 0 0 1.919634763e-07 
9.003307102e-07 0 0 0 2.263409666e-07 0 0 0 0 
2.333794301e-07 0 0 0 0 0 0 0 7.111021451e-07 
-6.282803371e-07 0 0 0 -3.508757706e-07 -1.228232694e-07 0 -1.228232694e-07 3.790860362e-07 
-3.284181519e-07 0 0 0 0 0 0 0 4.428161971e-07 
5.668550702e-07 0 0 0 1.41810737e-07 0 0 0 3.997947145e-07 
-1.974504535e-07 0 0 0 -1.467976315e-07 0 0 0 5.450940906e-07 
1.360251866e-07 0 0 0 0 -1.203818757e-07 0 -1.203818757e-07 2.337866601e-07 
2.859562792e-07 0 0 0 0 0 0 0 2.656517406e-07 
0 0 0 0 0 0 0 0 5.769591711e-07 
-4.783492445e-07 0 0 0 -1.970806345e-07 0 0 0 4.109511166e-07 
1.611590489e-07 0 -1.237088114e-07 0 0 1.392118259e-07 -1.237088114e-07 1.392118259e-07 4.687152288e-07 
1.516440269e-07 0 0 0 1.465585586e-07 0 0 0 2.862382438e-07 
0 1.303278172e-07 0 1.303278172e-07 -2.876647502e-07 0 0 0 0 
0 0 0 0 0 -1.544480982e-07 0 -1.544480982e-07 3.85587751e-07 
1.564015379e-07 0 0 0 0 0 0 0 3.774767363e-07 
0 0 0 0 0 0 0 0 1.78495429e-07 
0 0 0 0 0 0 0 0 2.697339215e-07 
0 0 0 0 0 0 0 0 4.271514899e-07 
0 0 0 0 1.328402333e-07 -1.293611917e-07 0 -1.293611917e-07 3.359129974e-07 
0 0 0 0 0 0 0 0 2.281701826e-07 
-9.940714906e-07 1.432546175e-07 0 1.432546175e-07 -4.655501573e-07 0 0 0 -4.159138147e-07 
0 0 0 0 0 0 0 0 -5.842899878e-07 
2.07300796e-07 0 0 0 0 0 0 0 -5.937108189e-07 
5.219952707e-07 0 0 0 2.889645321e-07 0 0 0 -3.32749622e-07 
-4.429017715e-07 0 0 0 -2.235343566e-07 0 0 0 -5.001019013e-07 
1.577843718e-07 0 0 0 0 0 0 0 -5.890004033e-07 
-3.933853473e-07 0 0 0 -2.292742578e-07 0 0 0 -5.048123168e-07 
-2.360381099e-07 0 0 0 0 0 0 0 -3.743317184e-07 
3.151316092e-07 0 0 0 1.537229881e-07 0 0 0 -4.585198049e-07 
3.646480334e-07 0 0 0 1.479830868e-07 0 0 0 -4.632302204e-07 
-2.484130293e-07 0 1.28681144e-07 0 0 0 1.28681144e-07 0 0 
-9.203898241e-07 1.710788894e-07 1.575461013e-07 1.710788894e-07 -4.893250367e-07 1.426131847e-07 1.575461013e-07 1.426131847e-07 -2.725975162e-07 
6.390084616e-07 -1.59836007e-07 -2.630203086e-07 -1.59836007e-07 3.446345379e-07 0 -2.630203086e-07 0 3.180074814e-07 
1.055926679e-06 -1.493675339e-07 0 -1.493675339e-07 4.134177481e-07 0 0 0 -2.707338522e-07 
-5.844014267e-07 0 1.431136226e-07 0 -2.550940547e-07 0 1.431136226e-07 0 0 
-1.406906812e-07 0 0 0 0 0 0 0 0 
1.952977162e-07 0 0 0 1.618857326e-07 0 0 0 2.111338099e-07 
4.037568247e-07 0 0 0 1.962773377e-07 0 0 0 0 
0 0 0 0 0 1.294273789e-07 0 1.294273789e-07 -2.716656842e-07 
8.474675701e-07 -1.546017704e-07 -1.261850786e-07 -1.546017704e-07 3.79026143e-07 0 -1.261850786e-07 0 0 
6.404945063e-07 0 -2.148037929e-07 0 2.42050342e-07 0 -2.148037929e-07 0 2.756709616e-07 
0 0 0 0 0 0 0 0 2.312544319e-07 
-1.366240088e-06 1.427763496e-07 -1.197249474e-07 1.427763496e-07 -5.908596733e-07 0 -1.197249474e-07 0 -1.216278519e-06 
0 0 1.856868841e-07 0 0 0 1.856868841e-07 0 2.948119309e-07 
3.639105376e-07 0 0 0 1.432331214e-07 0 0 0 2.534626967e-07 
-6.394567593e-07 0 0 0 -2.732218863e-07 0 0 0 -4.925120436e-07 
-3.628727906e-07 0 -1.672643701e-07 0 -1.744046656e-07 0 -1.672643701e-07 0 -4.703037787e-07 
3.627744137e-07 0 0 0 1.736256525e-07 0 0 0 2.852414462e-07 
0 0 1.415375199e-07 0 0 0 1.415375199e-07 0 2.630331814e-07 
-6.405928833e-07 0 0 0 -2.428293551e-07 0 0 0 -4.607332941e-07 
-6.194084405e-07 0 0 0 -2.275110129e-07 0 0 0 -6.304374909e-07 
0 0 0 0 0 0 0 0 2.019955906e-07 
0 0 0 0 0 0 0 0 1.272816978e-07 
0 0 0 0 0 0 0 0 2.614793471e-07 
-2.784377712e-07 0 0 0 0 0 0 0 -2.142209501e-07 
0 0 0 0 0 0 0 0 1.646386442e-07 
-2.871260726e-07 0 0 0 -1.423604278e-07 0 0 0 -2.515778965e-07 
-2.597658247e-07 0 0 0 0 0 0 0 -1.844790719e-07 
0 0 0 0 0 0 0 0 2.317374689e-07 
0 0 0 0 0 0 0 0 1.943805225e-07 
0 0 0 0 0 0 0 0 3.209752116e-07 
0 0 0 0 0 0 0 0 2.811379728e-07 
1.984452687e-07 0 0 0 0 0 0 0 4.272379525e-07 
0 0 0 0 0 0 0 0 2.068698612e-07 
0 0 0 0 0 0 0 0 3.010565922e-07 
0 0 0 0 0 0 0 0 3.541879626e-07 
0 0 0 0 0 0 0 0 3.74106582e-07 
0 0 0 0 0 0 0 0 2.639225364e-07 
0 0 0 0 0 0 0 0 2.44003917e-07 
0 0 0 0 0 0 0 0 3.170539068e-07 
0 0 0 0 0 0 0 0 1.216759154e-07 
0 0 0 0 0 0 0 0 0 
0 0 0 0 -1.491230497e-07 0 0 0 0 
0 0 0 0 1.790681632e-07 0 0 0 3.718998041e-07 
0 0 0 0 0 0 0 0 0 
0 0 0 0 0 0 0 0 0 
0 0 0 0 0 0 0 0 0 
0 0 0 0 0 0 0 0 2.467878597e-07 
0 0 0 0 0 0 0 0 2.337653245e-07 
0 0 0 0 0 0 0 0 2.148629454e-07 
1.720811071e-07 0 0 0 0 0 0 0 2.353025014e-07 
0 0 0 0 0 0 0 0 3.941923394e-07 
0 0 0 0 0 0 0 0 3.299521533e-07 
0 0 0 0 0 0 0 0 2.481926477e-07 
1.331881929e-07 0 0 0 0 0 0 0 3.147474204e-07 
0 0 0 0 0 0 0 0 3.620722464e-07 
0 0 0 0 0 0 0 0 2.826273274e-07 
0 0 0 0 0 0 0 0 2.417475745e-07 
0 0 0 0 0 0 0 0 3.211924936e-07 
0 0 0 0 0 0 0 0 2.890724005e-07 
0 0 0 0 0 0 0 0 1.560772511e-07 
0 0 0 0 0 0 0 0 3.752395039e-07 
0 0 0 0 0 0 0 0 3.709666994e-07 
0 0 0 0 1.44111261e-07 0 0 0 3.50516444e-07 
0 0 0 0 0 0 0 0 2.656583775e-07 
0 0 0 0 0 0 0 0 3.731031017e-07 
0 0 0 0 0 0 0 0 2.635219753e-07 
0 0 0 0 0 0 0 0 2.532968476e-07 
0 0 0 0 0 0 0 0 3.628779739e-07 
0 0 0 0 0 0 0 0 3.607415717e-07 
1.439108615e-07 0 0 0 0 0 0 0 1.91231208e-07 
0 0 0 0 0 0 0 0 1.89991871e-07 
0 0 0 0 0 0 0 0 0 
0 0 0 0 0 0 0 0 3.654752343e-07 
0 0 0 0 0 0 0 0 1.906115395e-07 
0 0 0 0 0 0 0 0 1.248899295e-07 
0 0 0 0 0 0 0 0 1.25509598e-07 
0 0 0 0 0 0 0 0 2.783532211e-07 
0 0 0 0 0 0 0 0 2.777335527e-07 
0 0 0 0 0 0 0 0 2.126316112e-07 
0 0 0 0 -2.953740006e-07 0 0 0 0 
0 0 0 0 0 0 0 0 3.965021284e-07 
0 0 0 0 0 0 0 0 2.188062088e-07 
0 0 0 0 1.556509554e-07 0 0 0 3.822487066e-07 
0 0 0 0 -1.372734824e-07 0 0 0 2.079324492e-07 
0 0 0 0 0 0 0 0 3.076541686e-07 
0 0 0 0 0 0 0 0 0 
0 0 0 0 0 0 0 0 2.008057383e-07 
0 0 0 0 0 0 0 0 3.893754175e-07 
0 0 0 0 0 0 0 0 3.005274577e-07 
-1.476158931e-07 0 0 0 0 0 0 0 2.146718887e-07 
2.597078754e-07 -1.324656694e-07 0 -1.324656694e-07 1.789252292e-07 0 0 0 1.420832474e-07 
-6.676781005e-07 2.513352634e-07 0 2.513352634e-07 -4.395388936e-07 0 0 0 -1.758437237e-07 
9.970348125e-07 -1.507664052e-07 0 -1.507664052e-07 3.871462469e-07 0 0 0 -2.387872892e-07 
0 -1.23501217e-07 0 -1.23501217e-07 1.25462337e-07 0 0 0 1.78377568e-07 
-2.039851126e-07 0 0 0 -1.303068322e-07 0 0 0 0 
-4.076469968e-07 0 0 0 -1.837697244e-07 0 0 0 0 
4.247094597e-07 -1.326515849e-07 0 -1.326515849e-07 2.295728459e-07 0 0 0 0 
6.283713439e-07 -1.416160373e-07 0 -1.416160373e-07 2.830357381e-07 0 0 0 0 
1.64678356e-07 0 0 0 0 0 0 0 -2.073155064e-07 
2.398141538e-07 0 0 0 2.647788231e-07 0 0 0 2.630775955e-07 
0 0 0 0 0 0 0 0 3.373337438e-07 
0 0 0 0 0 0 0 0 2.847348285e-07 
0 0 0 0 -1.243754514e-07 0 0 0 1.814320987e-07 
1.666994206e-07 0 0 0 1.679415199e-07 0 0 0 3.002056696e-07 
0 0 0 0 0 0 0 0 3.110342861e-07 
0 0 0 0 0 0 0 0 2.73906212e-07 
0 0 0 0 0 0 0 0 2.222548471e-07 
0 0 0 0 0 0 0 0 2.593829212e-07 
0 0 0 0 0 0 0 0 2.330834636e-07 
0 0 0 0 0 0 0 0 2.359154668e-07 
0 0 0 0 -1.316805686e-07 0 0 0 1.413141076e-07 
2.395072268e-07 0 0 0 3.001628804e-07 0 0 0 2.460862685e-07 
0 0 0 0 0 0 0 0 2.700381739e-07 
0 0 0 0 0 0 0 0 1.886147872e-07 
0 0 0 0 0 0 0 0 1.93700188e-07 
0 0 0 0 1.367555749e-07 0 0 0 2.410008677e-07 
0 0 0 0 0 0 0 0 2.529768204e-07 
0 0 0 0 0 0 0 0 2.056761408e-07 
1.57773035e-07 0 0 0 1.753518465e-07 0 0 0 2.580622212e-07 
0 0 0 0 1.710969003e-07 0 0 0 1.622174333e-07 
0 0 0 0 0 0 0 0 3.011017788e-07 
-5.573784675e-07 2.962058419e-07 0 2.962058419e-07 -7.06247006e-07 -1.345148134e-07 0 -1.345148134e-07 0 
2.843181009e-07 -1.980497747e-07 0 -1.980497747e-07 3.529653618e-07 0 0 0 4.284831625e-07 
0 0 0 0 0 0 0 0 2.316596061e-07 
-2.778309806e-07 1.663625263e-07 0 1.663625263e-07 -3.404355688e-07 0 0 0 0 
-2.237213078e-07 0 0 0 -2.675750529e-07 0 0 0 0 
1.971269764e-07 -1.318067132e-07 0 -1.318067132e-07 2.620311311e-07 0 0 0 2.953502979e-07 
1.430173035e-07 0 0 0 1.891706151e-07 0 0 0 3.647924707e-07 
-1.365301833e-07 0 0 0 -1.766408221e-07 0 0 0 1.609497746e-07 
0 0 0 0 1.322262552e-07 0 0 0 2.277951341e-07 
0 0 0 0 0 0 0 0 3.375502798e-07 
0 0 0 0 -1.399626996e-07 0 0 0 0 
1.591746008e-07 0 0 0 0 0 0 0 2.731010007e-07 
0 0 0 0 0 0 0 0 2.82672707e-07 
0 0 0 0 0 0 0 0 2.168164675e-07 
0 0 0 0 0 0 0 0 1.619388947e-07 
0 0 0 0 0 0 0 0 2.504480674e-07 
1.262832883e-07 0 0 0 0 0 0 0 3.053256403e-07 
0 0 0 0 0 0 0 0 1.84591828e-07 
0 0 0 0 -1.997657827e-07 0 0 0 0 
1.701572222e-07 0 0 0 1.72102405e-07 0 0 0 4.325418702e-07 
1.858591202e-07 0 0 0 0 0 0 0 3.122562778e-07 
0 0 0 0 0 0 0 0 2.623295758e-07 
0 0 0 0 0 0 0 0 2.615705681e-07 
1.780081712e-07 0 0 0 1.43650015e-07 0 0 0 3.72399074e-07 
0 0 0 0 0 0 0 0 2.014277719e-07 
0 0 0 0 0 0 0 0 1.764644209e-07 
1.317647783e-07 0 0 0 1.447017816e-07 0 0 0 3.47435723e-07 
1.396157273e-07 0 0 0 0 0 0 0 2.872929268e-07 
0 0 1.291887994e-07 0 0 0 1.291887994e-07 0 0 
0 0 0 0 0 0 0 0 2.213395885e-07 
0 0 0 0 0 0 0 0 0 
0 0 0 0 0 0 0 0 1.536046307e-07 
0 0 0 0 0 0 0 0 0 
0 0 0 0 0 0 0 0 1.691388278e-07 
0 0 0 0 0 0 0 0 0 
0 0 0 0 0 0 0 0 0 
0 0 0 0 0 0 0 0 1.874721096e-07 
0 0 0 0 0 0 0 0 1.352713489e-07 
0 0 0 0 0 0 0 0 2.717851729e-07 
0 0 0 0 0 0 0 0 1.668002335e-07 
0 0 0 0 0 0 0 0 1.304070225e-07 
0 0 0 0 1.38122463e-07 0 0 0 2.00599745e-07 
0 0 0 0 0 0 0 0 2.192927032e-07 
0 0 0 0 0 0 0 0 1.48603628e-07 
0 0 0 0 0 0 0 0 2.010960977e-07 
0 0 0 0 0 0 0 0 2.36192459e-07 
0 0 0 0 0 0 0 0 1.836999893e-07 
0 0 0 0 0 0 0 0 1.655033838e-07 
1.514000145e-07 0 0 0 0 0 0 0 2.878843867e-07 
0 0 0 0 0 0 0 0 2.257476658e-07 
0 0 0 0 0 0 0 0 1.648344117e-07 
0 0 0 0 0 0 0 0 1.304137355e-07 
0 0 0 0 0 0 0 0 2.568160263e-07 
0 0 0 0 0 0 0 0 1.952910388e-07 
0 0 0 0 0 0 0 0 2.263593992e-07 
0 0 0 0 0 0 0 0 2.091490611e-07 
0 0 0 0 0 0 0 0 1.780807007e-07 
0 0 0 0 0 0 0 0 1.476240736e-07 
7.466067502e-07 0 0 0 1.702098365e-07 0 0 0 0 
-1.793203501e-07 0 0 0 -1.344544852e-07 0 0 0 4.509695455e-07 
-1.631620965e-07 0 0 0 -1.426692422e-07 0 0 0 5.263575181e-07 
-2.53631583e-07 0 0 0 0 0 0 0 4.102807501e-07 
2.836432e-07 0 0 0 0 0 0 0 2.410937396e-07 
-1.712412233e-07 0 0 0 -1.385618637e-07 0 0 0 4.886635318e-07 
2.917223269e-07 0 0 0 0 0 0 0 2.787877259e-07 
2.464875836e-07 0 0 0 0 0 0 0 2.207493419e-07 
-2.164759665e-07 0 0 0 0 0 0 0 4.306251478e-07 
-2.083968397e-07 0 0 0 0 0 0 0 4.683191341e-07 
-2.095601951e-07 0 0 0 0 0 0 0 1.973875783e-07 
4.202585481e-07 -1.558668648e-07 0 -1.558668648e-07 2.571834751e-07 0 0 0 2.012770214e-07 
-7.965613747e-07 2.447626051e-07 0 2.447626051e-07 -4.733120663e-07 0 0 0 -2.210644136e-07 
1.093384083e-06 -1.620758585e-07 0 -1.620758585e-07 4.305770891e-07 1.20512968e-07 0 1.20512968e-07 -2.488511583e-07 
0 -1.220100375e-07 0 -1.220100375e-07 1.486120378e-07 0 0 0 1.993322998e-07 
-1.881514133e-07 0 0 0 0 0 0 0 0 
-5.030607849e-07 0 0 0 -2.166357329e-07 0 0 0 0 
4.41911944e-07 -1.251145344e-07 0 -1.251145344e-07 2.353088448e-07 0 0 0 0 
7.568213156e-07 -1.589713616e-07 0 -1.589713616e-07 3.438802821e-07 0 0 0 0 
1.484113542e-07 0 0 0 0 0 0 0 -2.349577859e-07 
0 0 0 0 -1.41061428e-07 0 0 0 2.420574115e-07 
-2.012097429e-07 0 2.154283635e-07 0 0 0 2.154283635e-07 0 0 
0 0 0 0 -2.817120188e-07 0 0 0 0 
1.214182871e-07 0 0 0 2.118226757e-07 0 0 0 3.067716414e-07 
-1.407862073e-07 0 0 0 0 0 0 0 1.342596857e-07 
-1.386968999e-07 0 0 0 -1.243882502e-07 0 0 0 0 
0 0 0 0 -2.113867234e-07 0 0 0 1.376473607e-07 
0 0 0 0 0 0 0 0 2.744145264e-07 
0 0 0 0 1.223790971e-07 0 0 0 1.666168006e-07 
0 0 0 0 0 0 0 0 1.700044756e-07 
0 0 0 0 0 0 0 0 -4.888757954e-07 
0 0 0 0 0 0 0 0 -3.954150966e-07 
-2.29979812e-07 0 0 0 0 0 0 0 -5.228703446e-07 
4.177369536e-07 0 0 0 2.248769316e-07 0 0 0 3.413475128e-07 
0 0 0 0 0 0 0 0 -4.42145446e-07 
-1.247804345e-07 0 0 0 0 0 0 0 -4.591427206e-07 
0 0 0 0 0 0 0 0 -5.0587307e-07 
2.056187451e-07 0 0 0 0 0 0 0 0 
1.990779483e-07 0 0 0 1.280341213e-07 0 0 0 0 
0 0 0 0 0 0 0 0 0 
-2.412764827e-07 0 0 0 0 0 0 0 -4.874988067e-07 
-2.893498203e-07 0 0 0 -1.981419284e-07 0 0 0 -7.076842934e-07 
0 0 0 0 0 0 0 0 -5.213181648e-07 
6.461232247e-07 0 0 0 3.532110551e-07 0 0 0 4.878458334e-07 
-2.653131515e-07 0 0 0 0 0 0 0 -5.975915501e-07 
-1.294389837e-07 0 0 0 0 0 0 0 -6.145012291e-07 
0 0 0 0 0 0 0 0 -5.044084858e-07 
2.02423371e-07 0 0 0 1.588098647e-07 0 0 0 0 
1.783867022e-07 0 0 0 0 0 0 0 0 
3.382975388e-07 0 0 0 1.865752796e-07 0 0 0 0 
9.781712332e-07 0 0 0 4.163010552e-07 0 0 0 4.291215927e-07 
-1.806035228e-07 0 0 0 0 0 0 0 0 
-1.455375728e-06 2.032381715e-07 -1.572470783e-07 2.032381715e-07 -6.586832329e-07 0 -1.572470783e-07 0 -1.207816173e-06 
2.258050825e-07 0 1.794027576e-07 0 1.794183369e-07 0 1.794027576e-07 0 3.479201295e-07 
3.987838552e-07 0 0 0 1.709242501e-07 0 0 0 2.687424141e-07 
-8.179896252e-07 1.324070346e-07 0 1.324070346e-07 -3.66567894e-07 0 0 0 -5.497264686e-07 
-2.386022472e-07 0 0 0 -1.211910889e-07 0 0 0 -3.8934729e-07 
6.019881578e-07 0 0 0 2.978596961e-07 0 0 0 3.885208611e-07 
0 0 0 0 0 0 0 0 2.281416825e-07 
-6.147853226e-07 0 0 0 -2.39632448e-07 0 0 0 -4.299480216e-07 
-1.067969111e-06 1.317712418e-07 0 1.317712418e-07 -4.993651861e-07 1.192238427e-07 0 1.192238427e-07 -2.827827326e-07 
3.248500544e-07 0 0 0 0 1.284518393e-07 0 1.284518393e-07 -5.381557805e-07 
0 0 0 0 0 0 0 0 -6.276228062e-07 
5.747545439e-07 0 0 0 2.930125864e-07 0 0 0 -2.839890189e-07 
-3.715595282e-07 0 0 0 -2.022718236e-07 1.23837841e-07 0 1.23837841e-07 -4.104692566e-07 
1.53517397e-07 0 0 0 0 0 0 0 -5.828892933e-07 
-5.428921856e-07 0 0 0 -2.845262594e-07 0 0 0 -4.552027694e-07 
-2.466072835e-07 0 0 0 0 0 0 0 -2.833858757e-07 
4.498022991e-07 0 0 0 1.939170626e-07 0 0 0 -4.110723997e-07 
2.784696418e-07 0 0 0 0 0 0 0 -4.558059125e-07 
1.293591614e-07 0 0 0 0 0 0 0 1.510963178e-07 
0 0 0 0 0 0 0 0 1.728148035e-07 
-5.186659679e-07 0 0 0 -1.97944658e-07 0 0 0 -5.26067787e-07 
0 0 0 0 0 0 0 0 1.815877626e-07 
0 0 0 0 0 0 0 0 1.619555606e-07 
-2.654542832e-07 0 0 0 0 0 0 0 -1.766264918e-07 
-1.946534032e-07 0 0 0 0 0 0 0 -1.874857346e-07 
0 0 0 0 0 0 0 0 1.663420402e-07 
0 0 0 0 0 0 0 0 1.77201283e-07 
-2.135378412e-07 0 0 0 0 0 0 0 -1.722400122e-07 
0 0 0 0 0 0 0 0 0 
0 0 0 0 0 0 0 0 1.694404991e-07 
0 0 0 0 0 0 0 0 0 
0 0 0 0 0 0 0 0 0 
0 0 0 0 0 0 0 0 0 
0 0 0 0 0 0 0 0 1.35543657e-07 
0 0 0 0 0 0 0 0 0 
0 0 0 0 0 0 0 0 0 
0 0 0 0 0 0 0 0 1.377803466e-07 
0 0 0 0 0 0 0 0 0 
0 0 0 0 0 0 0 0 1.414383691e-07 
-3.968064351e-07 0 0 0 -1.577222743e-07 0 0 0 -5.346179487e-07 
3.940567714e-07 0 0 0 2.204402606e-07 0 0 0 3.139014708e-07 
-1.3329228e-07 0 0 0 0 0 0 0 0 
-2.134472798e-07 0 0 0 0 0 0 0 -1.965897898e-07 
0 0 0 0 0 0 0 0 0 
1.819843234e-07 0 0 0 0 0 0 0 2.276699199e-07 
0 0 0 0 0 0 0 0 0 
-2.650493575e-07 0 0 0 -1.2688384e-07 0 0 0 -2.947867325e-07 
1.303822457e-07 0 0 0 0 0 0 0 1.294729773e-07 
0 0 0 0 0 0 0 0 1.684766712e-07 
0 0 0 0 0 0 0 0 0 
0 0 0 0 -1.517687531e-07 0 0 0 0 
0 0 0 0 1.558598677e-07 0 0 0 2.07912895e-07 
0 0 0 0 0 0 0 0 0 
0 0 0 0 0 0 0 0 0 
0 0 0 0 0 0 0 0 0 
0 0 0 0 0 0 0 0 1.881947831e-07 
0 0 0 0 0 0 0 0 0 
0 0 0 0 0 0 0 0 1.215222063e-07 
0 0 0 0 0 0 0 0 1.62016663e-07 
-6.690086507e-07 0 0 0 -2.843840122e-07 0 0 0 -7.34503705e-07 
4.15490497e-07 0 0 0 2.268574025e-07 0 0 0 3.467153553e-07 
0 0 0 0 0 0 0 0 0 
-3.669210345e-07 0 0 0 -1.367544055e-07 0 0 0 -2.86243521e-07 
-1.267590769e-07 0 0 0 0 0 0 0 -1.938941749e-07 
1.753285394e-07 0 0 0 0 0 0 0 2.543660091e-07 
0 0 0 0 0 0 0 0 0 
-3.083651682e-07 0 0 0 -1.467373664e-07 0 0 0 -3.532965232e-07 
2.338844056e-07 0 0 0 0 0 0 0 1.87313007e-07 
0 0 0 0 0 0 0 0 1.872675216e-07 
0 0 0 0 0 0 0 0 0 
0 0 0 0 -2.048163337e-07 0 0 0 0 
0 0 0 0 1.929634211e-07 0 0 0 2.533897754e-07 
0 0 0 0 0 0 0 0 0 
0 0 0 0 0 0 0 0 0 
0 0 0 0 -1.369733769e-07 0 0 0 0 
0 0 0 0 0 0 0 0 2.203286485e-07 
0 0 0 0 0 0 0 0 1.397248624e-07 
0 0 0 0 0 0 0 0 1.483334511e-07 
-7.457441547e-07 0 0 0 -3.524577305e-07 0 0 0 -3.135449003e-07 
0 0 0 0 0 0 0 0 -5.223856146e-07 
1.269181285e-07 0 0 0 0 0 0 0 -5.58904639e-07 
3.934761477e-07 0 0 0 2.3567552e-07 0 0 0 -3.28067011e-07 
-3.198497471e-07 0 0 0 -1.673671096e-07 0 0 0 -4.179652574e-07 
0 0 0 0 0 0 0 0 -5.406451268e-07 
-3.094130131e-07 0 0 0 -1.897270463e-07 0 0 0 -4.362247696e-07 
-1.761340035e-07 0 0 0 0 0 0 0 -3.208059556e-07 
2.497604041e-07 0 0 0 1.266995156e-07 0 0 0 -4.252263128e-07 
2.601971381e-07 0 0 0 0 0 0 0 -4.43485825e-07 
3.412030803e-07 0 0 0 0 0 0 0 0 
0 0 0 0 0 0 0 0 3.676362171e-07 
0 0 0 0 0 0 0 0 3.775096883e-07 
-1.485124659e-07 0 0 0 0 0 0 0 3.087080525e-07 
1.623769419e-07 0 0 0 0 0 0 0 1.643866509e-07 
0 0 0 0 0 0 0 0 3.725729527e-07 
0 0 0 0 0 0 0 0 1.693233865e-07 
0 0 0 0 0 0 0 0 1.349225686e-07 
0 0 0 0 0 0 0 0 3.381721348e-07 
-1.320218585e-07 0 0 0 0 0 0 0 3.431088704e-07 
0 0 0 0 -1.217291565e-07 0 0 0 2.052593011e-07 
-1.530782559e-07 0 1.573609487e-07 0 0 0 1.573609487e-07 0 0 
0 0 0 0 -2.779051572e-07 0 0 0 0 
1.437648703e-07 0 0 0 2.369702581e-07 0 0 0 3.047177798e-07 
0 0 0 0 0 0 0 0 0 
-1.214821361e-07 0 0 0 -1.264506145e-07 0 0 0 0 
0 0 0 0 -1.998171569e-07 0 0 0 0 
0 0 0 0 0 0 0 0 2.549885404e-07 
0 0 0 0 1.309870932e-07 0 0 0 1.634100552e-07 
0 0 0 0 0 0 0 0 1.638087848e-07 
5.204076159e-07 0 0 0 0 0 0 0 0 
0 0 0 0 0 0 0 0 3.987302721e-07 
-1.331471178e-07 0 0 0 -1.270138062e-07 0 0 0 4.433282453e-07 
-1.937446006e-07 0 0 0 0 0 0 0 3.531096524e-07 
2.122049442e-07 0 0 0 0 0 0 0 1.963678041e-07 
0 0 0 0 0 0 0 0 4.210292587e-07 
1.93630249e-07 0 0 0 0 0 0 0 2.186667907e-07 
1.633315076e-07 0 0 0 0 0 0 0 1.735574943e-07 
-1.448711641e-07 0 0 0 0 0 0 0 3.759199623e-07 
-1.634458592e-07 0 0 0 0 0 0 0 3.982189489e-07 
-2.907128717e-07 0 0 0 -2.156333262e-07 1.201465464e-07 0 1.201465464e-07 -8.364368071e-07 
-1.258521335e-07 0 0 0 0 -1.266627389e-07 0 -1.266627389e-07 -6.254657747e-07 
-2.857678278e-07 0 0 0 0 0 0 0 -7.435393029e-07 
9.144322713e-07 -1.327501695e-07 0 -1.327501695e-07 4.874184356e-07 0 0 0 6.110119838e-07 
-2.082825026e-07 0 0 0 0 0 0 0 -7.309512909e-07 
-2.058099807e-07 0 0 0 0 0 0 0 -6.845025388e-07 
-2.882403498e-07 0 0 0 -1.623976787e-07 0 0 0 -7.89988055e-07 
3.118596998e-07 0 0 0 1.358925547e-07 0 0 0 0 
3.942900689e-07 0 0 0 2.413715845e-07 0 0 0 0 
3.143322218e-07 0 0 0 1.891282022e-07 0 0 0 0 
4.722161221e-07 0 0 0 1.219729155e-07 0 0 0 -5.280621741e-07 
-6.655364903e-07 0 0 0 -3.103161858e-07 0 0 0 -2.954075643e-07 
0 0 0 0 0 0 0 0 -6.586502825e-07 
3.071276831e-07 0 0 0 2.503567791e-07 0 0 0 4.1456862e-07 
0 0 0 0 0 0 0 0 -4.117348692e-07 
-3.5870155e-07 0 0 0 -1.589039457e-07 0 0 0 -4.770289234e-07 
2.101747562e-07 0 0 0 0 0 0 0 -5.933562283e-07 
3.896719026e-07 0 0 0 1.861648473e-07 0 0 0 0 
-1.792044036e-07 0 0 0 0 0 0 0 0 
1.276305367e-07 0 0 0 1.214325368e-07 0 0 0 -1.220408312e-07 
-3.264373656e-07 0 2.77195034e-07 0 0 0 2.77195034e-07 0 -2.067262001e-07 
-1.226987603e-07 0 0 0 -2.021752958e-07 0 0 0 3.149908479e-07 
0 0 0 0 -1.195792877e-07 1.447748705e-07 0 1.447748705e-07 1.417797001e-07 
0 0 0 0 1.589930411e-07 0 0 0 3.102521334e-07 
-2.245680629e-07 0 1.487612695e-07 0 -1.431818336e-07 0 1.487612695e-07 0 0 
0 0 0 0 -1.608772918e-07 1.206615701e-07 0 1.206615701e-07 2.28385274e-07 
-1.654643537e-07 0 1.370496103e-07 0 0 0 1.370496103e-07 0 0 
0 0 0 0 0 0 0 0 0 
0 0 0 0 0 0 0 0 3.126214907e-07 
0 0 0 0 0 0 0 0 2.260159168e-07 
1.429462644e-07 0 0 0 0 0 0 0 -5.426082582e-07 
-7.953274631e-07 1.661222437e-07 0 1.661222437e-07 -3.947596468e-07 0 0 0 -3.271406858e-07 
2.667007541e-07 0 0 0 0 0 0 0 -6.205018004e-07 
4.765904585e-07 -1.259002728e-07 0 -1.259002728e-07 3.038394526e-07 0 0 0 4.147641538e-07 
-3.261905994e-07 0 0 0 -1.401551189e-07 0 0 0 -4.34874472e-07 
-2.643133545e-07 0 0 0 -1.832062788e-07 0 0 0 -4.738212431e-07 
2.048235092e-07 0 0 0 0 0 0 0 -5.815550293e-07 
3.097683615e-07 0 0 0 2.091444308e-07 0 0 0 0 
-1.593685023e-07 0 0 0 0 0 0 0 0 
3.716456063e-07 0 0 0 1.660932709e-07 0 0 0 0 
-7.020670064e-07 0 0 0 -2.60554752e-07 0 0 0 -7.42281517e-07 
0 0 0 0 0 0 0 0 1.413285296e-07 
0 0 0 0 0 0 0 0 2.873973753e-07 
0 0 0 0 0 0 0 0 2.321743715e-07 
-3.279580888e-07 0 0 0 -1.631352498e-07 0 0 0 -3.004764937e-07 
0 0 0 0 0 0 0 0 2.143629525e-07 
-2.998509322e-07 0 0 0 0 0 0 0 -2.274420709e-07 
-3.264460839e-07 0 0 0 0 0 0 0 -2.550535728e-07 
0 0 0 0 0 0 0 0 1.867514506e-07 
0 0 0 0 0 0 0 0 2.597858734e-07 
7.106590792e-07 0 0 0 2.956722131e-07 0 0 0 3.137888651e-07 
-1.22310236e-06 1.820454387e-07 -1.324713192e-07 1.820454387e-07 -5.542872432e-07 0 -1.324713192e-07 0 -1.053047158e-06 
1.235954713e-07 0 1.328830075e-07 0 1.242526312e-07 0 1.328830075e-07 0 2.822189029e-07 
0 0 0 0 0 0 0 0 2.057434377e-07 
-2.562216402e-07 0 0 0 -1.29307515e-07 0 0 0 -3.696291465e-07 
-5.497534441e-07 0 0 0 -2.15017306e-07 0 0 0 -3.854141277e-07 
4.171272752e-07 0 0 0 2.099624222e-07 0 0 0 2.98003884e-07 
3.851252373e-07 0 0 0 1.736067409e-07 0 0 0 2.597661514e-07 
-5.817554821e-07 0 0 0 -2.513729873e-07 0 0 0 -4.236518603e-07 
0 0 0 0 0 0 0 0 2.439811703e-07 
0 0 0 0 1.237239575e-07 0 0 0 2.985876885e-07 
0 0 0 0 0 0 0 0 2.447198275e-07 
-7.61580634e-07 0 0 0 -2.833364435e-07 0 0 0 -8.259707028e-07 
0 0 0 0 0 0 0 0 1.482115015e-07 
0 0 0 0 0 0 0 0 2.71653758e-07 
-3.708689079e-07 0 0 0 0 0 0 0 -2.906254376e-07 
-3.222635843e-07 0 0 0 0 0 0 0 -2.636915071e-07 
0 0 0 0 0 0 0 0 2.23399595e-07 
0 0 0 0 0 0 0 0 1.964656645e-07 
-3.583142347e-07 0 0 0 -1.736795949e-07 0 0 0 -3.388796006e-07 
2.653980305e-07 0 0 0 2.81526041e-07 0 0 0 5.364370186e-07 
0 0 0 0 0 0 0 0 2.792704358e-07 
1.992694774e-07 0 0 0 1.395691639e-07 0 0 0 3.283784201e-07 
0 0 0 0 -2.438051253e-07 0 0 0 0 
1.817206156e-07 0 0 0 1.874254172e-07 0 0 0 4.078537272e-07 
1.48656339e-07 0 0 0 0 0 0 0 3.038244279e-07 
2.32333754e-07 0 0 0 2.105476025e-07 0 0 0 4.324077193e-07 
1.30720072e-07 0 0 0 0 0 0 0 3.081790626e-07 
0 0 0 0 0 0 0 0 1.795957712e-07 
0 0 0 0 0 0 0 0 2.041497633e-07 
1.205431676e-07 0 0 0 0 0 0 0 2.971709174e-07 
0 0 0 0 -2.365610809e-07 0 0 0 0 
1.641462266e-07 0 0 0 0 -1.434409806e-07 0 -1.434409806e-07 3.201749024e-07 
3.015825748e-07 0 -1.305752278e-07 0 3.301466393e-07 -1.297648737e-07 -1.305752278e-07 -1.297648737e-07 6.038500228e-07 
0 0 0 0 0 0 0 0 1.974168111e-07 
0 0 0 0 0 0 0 0 2.089188036e-07 
1.423446971e-07 0 0 0 0 -1.242408207e-07 0 -1.242408207e-07 3.086729099e-07 
2.110628712e-07 0 0 0 2.182670716e-07 0 0 0 4.505104701e-07 
1.677607395e-07 0 0 0 0 0 0 0 3.507563638e-07 
2.328644007e-07 0 0 0 2.186073613e-07 -1.366029271e-07 0 -1.366029271e-07 4.620124626e-07 
0 0 0 0 0 0 0 0 2.056943339e-07 
2.268767331e-07 0 -1.689595238e-07 0 1.418703777e-07 1.936594628e-07 -1.689595238e-07 1.936594628e-07 5.568904693e-07 
0 0 0 0 0 -1.275863966e-07 0 -1.275863966e-07 2.039007047e-07 
0 0 0 0 0 -1.952038582e-07 0 -1.952038582e-07 4.125744075e-07 
0 0 -1.395251026e-07 0 0 0 -1.395251026e-07 0 3.812924016e-07 
1.304801162e-07 0 -1.278602614e-07 0 0 0 -1.278602614e-07 0 3.80395587e-07 
0 0 0 0 0 0 0 0 2.047975193e-07 
0 0 0 0 0 -1.268070591e-07 0 -1.268070591e-07 3.091343707e-07 
0 0 0 0 1.197368595e-07 0 0 0 4.847324384e-07 
0 0 0 0 0 -1.613951274e-07 0 -1.613951274e-07 3.082375561e-07 
0 0 0 0 1.204514913e-07 0 0 0 3.02454806e-07 
3.278771576e-07 -1.905124717e-07 0 -1.905124717e-07 4.52394897e-07 0 0 0 4.302064817e-07 
-5.801510461e-07 2.90113554e-07 0 2.90113554e-07 -7.766722102e-07 0 0 0 -1.769605932e-07 
0 0 0 0 0 0 0 0 0 
1.928053314e-07 0 0 0 2.864231942e-07 0 0 0 3.663306439e-07 
-1.261369443e-07 0 0 0 -1.621386566e-07 0 0 0 1.266229442e-07 
-2.612087705e-07 1.445732858e-07 0 1.445732858e-07 -3.281103594e-07 0 0 0 0 
0 0 0 0 0 0 0 0 1.884962778e-07 
1.718440763e-07 0 0 0 2.313625557e-07 0 0 0 2.523721156e-07 
-2.821700255e-07 1.353493255e-07 0 1.353493255e-07 -3.831709979e-07 0 0 0 0 
-3.325777859e-07 0 0 0 -1.554209922e-07 0 0 0 -1.41045338e-07 
0 0 0 0 0 0 0 0 -3.949500883e-07 
0 0 0 0 0 0 0 0 -4.27848207e-07 
2.748812337e-07 0 0 0 1.697266856e-07 0 0 0 -2.298814005e-07 
-1.557054593e-07 0 0 0 0 0 0 0 -2.679977131e-07 
0 0 0 0 0 0 0 0 -4.113991477e-07 
-1.596686654e-07 0 0 0 0 0 0 0 -2.844467725e-07 
0 0 0 0 0 0 0 0 -1.854633693e-07 
1.480240504e-07 0 0 0 0 0 0 0 -3.124157444e-07 
1.440608443e-07 0 0 0 0 0 0 0 -3.288648038e-07 
0 0 0 0 0 0 0 0 1.368317936e-07 
-1.678951222e-07 0 0 0 -1.307757378e-07 0 0 0 0 
0 0 0 0 1.238551633e-07 0 0 0 1.401839348e-07 
0 0 0 0 0 0 0 0 2.769278878e-07 
0 0 0 0 0 0 0 0 0 
0 0 0 0 0 0 0 0 0 
0 0 0 0 0 0 0 0 1.385078642e-07 
0 0 0 0 0 0 0 0 2.068798407e-07 
0 0 0 0 0 0 0 0 1.600806328e-07 
0 0 0 0 0 0 0 0 2.085559113e-07 
-2.300430875e-07 0 1.951683549e-07 0 0 1.390420358e-07 1.951683549e-07 1.390420358e-07 -2.087816391e-07 
3.2879642e-07 0 0 0 0 0 0 0 0 
0 0 0 0 0 -1.468895632e-07 0 -1.468895632e-07 -1.961101805e-07 
-6.331094089e-07 0 0 0 -3.390701673e-07 0 0 0 2.985123454e-07 
0 0 0 0 0 0 0 0 -1.492600297e-07 
2.196422074e-07 0 0 0 0 -1.314712639e-07 0 -1.314712639e-07 -1.429243004e-07 
0 0 0 0 0 0 0 0 -2.024459098e-07 
-4.315762482e-07 0 0 0 -1.33368858e-07 0 0 0 0 
-1.521564944e-07 0 0 0 -1.651337879e-07 0 0 0 0 
-2.613107071e-07 0 0 0 -2.196559611e-07 0 0 0 0 
0 -1.772262329e-07 0 -1.772262329e-07 -1.463513604e-07 0 0 0 -3.439722757e-07 
-1.312140906e-07 0 0 0 -3.222338639e-07 0 0 0 -3.352433079e-07 
2.617746176e-07 1.874517437e-07 0 1.874517437e-07 2.106495004e-07 0 0 0 0 
2.930071985e-07 1.701235769e-07 0 1.701235769e-07 2.978993731e-07 0 0 0 -2.529258059e-07 
0 0 0 0 -2.342926121e-07 0 0 0 -3.396077918e-07 
0 0 0 0 0 0 0 0 -1.995236656e-07 
0 0 0 0 0 0 0 0 -2.038881496e-07 
0 0 0 0 0 0 0 0 -2.984490408e-07 
0 0 0 0 0 0 0 0 -2.940845569e-07 
2.773909081e-07 1.787876603e-07 0 1.787876603e-07 2.542744368e-07 0 0 0 -1.583649146e-07 
2.664908369e-07 0 1.199081608e-07 0 6.421841433e-07 2.437839198e-07 1.199081608e-07 2.437839198e-07 -2.160163439e-07 
4.151026326e-07 1.832014243e-07 1.560053469e-07 1.832014243e-07 2.667579521e-07 0 1.560053469e-07 0 0 
-8.586435655e-07 -1.643577178e-07 1.816475056e-07 -1.643577178e-07 -4.868383664e-07 0 1.816475056e-07 0 -6.535596911e-07 
6.00629903e-07 0 -5.034667176e-07 0 -4.212613911e-07 -4.143669882e-07 -5.034667176e-07 -4.143669882e-07 -1.484407439e-07 
3.407967347e-07 1.46897852e-07 1.379567539e-07 1.46897852e-07 4.544710477e-07 1.360515546e-07 1.379567539e-07 1.360515546e-07 0 
-2.217704665e-07 0 1.688264263e-07 0 0 0 1.688264263e-07 0 -3.358057018e-07 
-2.960763643e-07 0 1.507778332e-07 0 0 1.564313591e-07 1.507778332e-07 1.564313591e-07 -4.347880175e-07 
4.335603699e-07 0 -1.917792784e-07 0 0 0 -1.917792784e-07 0 -1.822285439e-07 
5.078662678e-07 0 -1.737306854e-07 0 0 -1.930238994e-07 -1.737306854e-07 -1.930238994e-07 0 
-1.290068313e-07 -1.334823612e-07 -1.60909606e-07 -1.334823612e-07 -4.540498788e-07 -1.726440949e-07 -1.60909606e-07 -1.726440949e-07 -4.010002175e-07 
0 0 0 0 0 0 0 0 0 
0 0 0 0 0 0 0 0 -1.431315589e-07 
0 0 0 0 0 0 0 0 0 
0 0 0 0 0 0 0 0 -2.404474835e-07 
0 0 0 0 0 0 0 0 0 
0 0 0 0 0 0 0 0 0 
0 0 0 0 0 0 0 0 0 
0 0 0 0 0 0 0 0 -1.595416489e-07 
0 0 0 0 0 0 0 0 -1.917895212e-07 
0 0 0 0 0 0 0 0 -1.599408149e-07 
0 0 0 0 0 0 0 0 -2.618817307e-07 
0 0 0 0 0 0 0 0 -2.440520541e-07 
0 0 0 0 0 0 0 0 -2.58266408e-07 
0 0 0 0 0 0 0 0 0 
0 0 0 0 0 0 0 0 -2.529668924e-07 
0 0 0 0 0 0 0 0 -2.51159231e-07 
0 0 0 0 0 0 0 0 -2.600740694e-07 
0 0 0 0 0 0 0 0 -1.892927761e-07 
0 0 0 0 0 0 0 0 -1.803779377e-07 
0 0 0 0 0 0 0 0 -1.874851147e-07 
-1.890791778e-07 0 1.302024392e-07 0 0 0 1.302024392e-07 0 -1.726481548e-07 
2.903716507e-07 0 0 0 0 0 0 0 0 
0 0 0 0 -1.214925004e-07 0 0 0 -1.939470231e-07 
-4.270656532e-07 0 0 0 -2.50017845e-07 0 0 0 2.820405568e-07 
0 0 0 0 0 0 0 0 -1.254869247e-07 
1.587996255e-07 0 0 0 0 0 0 0 -1.361363589e-07 
0 0 0 0 0 0 0 0 -1.832975889e-07 
-3.080724155e-07 0 0 0 0 0 0 0 0 
0 0 0 0 -1.22639734e-07 0 0 0 0 
-1.999190264e-07 0 0 0 -1.857551727e-07 0 0 0 0 
0 0 0 0 0 0 0 0 0 
1.668872857e-07 0 0 0 0 0 0 0 0 
0 0 0 0 -1.197280043e-07 0 0 0 -1.651862733e-07 
-2.301382065e-07 0 0 0 -1.634383148e-07 0 0 0 2.171839274e-07 
0 0 0 0 0 0 0 0 0 
0 0 0 0 0 0 0 0 -1.274461088e-07 
0 0 0 0 0 0 0 0 -1.248659241e-07 
-1.368156101e-07 0 0 0 0 0 0 0 0 
0 0 0 0 0 0 0 0 0 
-1.378154532e-07 0 0 0 -1.415831595e-07 0 0 0 0 
6.199737854e-07 0 0 0 1.210307314e-07 0 0 0 0 
2.293557346e-07 0 0 0 0 0 0 0 6.062973713e-07 
-4.833200506e-07 0 0 0 -2.898225545e-07 0 0 0 3.253908068e-07 
-2.22956701e-07 0 0 0 0 0 0 0 3.935052862e-07 
4.2466476e-07 0 0 0 0 0 0 0 3.123960136e-07 
-1.26982158e-07 0 0 0 0 0 0 0 4.65844089e-07 
0 0 0 0 0 0 0 0 1.719427314e-07 
1.985085422e-07 0 0 0 0 0 0 0 2.059999711e-07 
0 0 0 0 0 0 0 0 4.999013287e-07 
-3.531383758e-07 0 0 0 -1.471511571e-07 0 0 0 3.594480465e-07 
0 0 0 0 0 0 0 0 -1.511585946e-07 
0 0 0 0 0 0 0 0 -1.392982148e-07 
0 0 0 0 0 0 0 0 -1.322495275e-07 
0 0 0 0 2.979523696e-07 0 0 0 1.941727082e-07 
0 0 0 0 0 0 0 0 -1.452284047e-07 
0 0 0 0 0 0 0 0 -1.357738711e-07 
0 0 0 0 0 0 0 0 -1.41704061e-07 
0 0 0 0 0 0 0 0 0 
0 0 0 0 1.347997317e-07 0 0 0 0 
0 0 0 0 1.248897105e-07 0 0 0 0 
0 0 0 0 0 0 0 0 0 
-1.321034196e-07 0 0 0 -1.342473334e-07 0 0 0 0 
0 0 0 0 0 0 0 0 0 
0 0 0 0 0 0 0 0 2.864427504e-07 
0 0 0 0 0 0 0 0 0 
0 0 0 0 0 0 0 0 0 
0 0 0 0 0 0 0 0 0 
0 0 0 0 0 0 0 0 1.976589316e-07 
0 0 0 0 0 0 0 0 1.627161393e-07 
0 0 0 0 0 0 0 0 1.912864281e-07 
0 0 0 0 0 0 0 0 0 
0 0 0 0 0 0 0 0 -1.334470701e-07 
0 0 0 0 0 0 0 0 0 
0 0 0 0 1.668043531e-07 0 0 0 1.527801181e-07 
0 0 0 0 0 0 0 0 -1.220205874e-07 
0 0 0 0 0 0 0 0 -1.239047416e-07 
0 0 0 0 0 0 0 0 0 
0 0 0 0 0 0 0 0 0 
0 0 0 0 0 0 0 0 0 
0 0 0 0 0 0 0 0 0 
0 0 0 0 0 0 0 0 -1.361132002e-07 
0 0 0 0 0 0 0 0 -1.772284755e-07 
0 0 0 0 0 0 0 0 -1.326936974e-07 
0 0 0 0 1.382343603e-07 0 0 0 1.581375154e-07 
0 0 0 0 0 0 0 0 -1.566708379e-07 
0 0 0 0 0 0 0 0 -1.549610865e-07 
0 0 0 0 0 0 0 0 -1.344034488e-07 
0 0 0 0 0 0 0 0 0 
0 0 0 0 0 0 0 0 0 
0 0 0 0 0 0 0 0 0 
-3.23847211e-07 0 0 0 -2.073027789e-07 0 0 0 2.217678405e-07 
0 0 0 0 0 0 0 0 -1.779290575e-07 
0 0 0 0 0 0 0 0 0 
1.226955167e-07 0 0 0 0 0 0 0 0 
-1.893332033e-07 0 0 0 -1.517552379e-07 0 0 0 0 
0 0 0 0 0 0 0 0 -1.342319866e-07 
0 0 0 0 0 0 0 0 0 
0 0 0 0 0 0 0 0 0 
0 0 0 0 0 0 0 0 -1.388059277e-07 
0 0 0 0 0 0 0 0 0 
1.249489474e-07 0 0 0 1.266409808e-07 0 0 0 0 
1.806854871e-07 0 0 0 0 0 0 0 -1.280166675e-07 
1.452877781e-07 0 0 0 0 0 0 0 -1.375355328e-07 
-5.384618701e-07 -1.230746862e-07 0 -1.230746862e-07 -3.445535167e-07 0 0 0 -3.7175803e-07 
1.528172173e-07 0 0 0 0 0 0 0 0 
1.629866326e-07 0 0 0 0 0 0 0 -1.327761002e-07 
1.351183628e-07 0 0 0 0 0 0 0 0 
-2.067564613e-07 0 0 0 0 0 0 0 -2.153667397e-07 
-1.788881915e-07 0 0 0 -1.429211957e-07 0 0 0 -2.498873488e-07 
-1.96587046e-07 0 0 0 0 0 0 0 -2.546467814e-07 
-1.023121766e-06 1.343178009e-07 0 1.343178009e-07 -5.020533098e-07 0 0 0 -2.784984382e-07 
3.590829214e-07 0 0 0 1.217099291e-07 0 0 0 -4.744089018e-07 
0 0 0 0 0 0 0 0 -5.94850791e-07 
5.699580816e-07 0 0 0 3.033596415e-07 0 0 0 -2.213531036e-07 
-3.320194224e-07 0 0 0 -1.901716904e-07 0 0 0 -3.7645367e-07 
1.308223098e-07 0 0 0 0 0 0 0 -5.346298464e-07 
-5.602800339e-07 0 0 0 -3.083373338e-07 0 0 0 -4.366746146e-07 
-2.265818423e-07 0 0 0 0 0 0 0 -2.499257709e-07 
4.645205015e-07 0 0 0 2.125347853e-07 0 0 0 -3.478810027e-07 
2.3625989e-07 0 0 0 0 0 0 0 -4.081019473e-07 
-1.696845984e-07 0 0 0 -1.59406831e-07 0 0 0 -2.316258144e-07 
1.418036936e-07 0 0 0 0 0 0 0 -2.085413158e-07 
0 0 0 0 0 0 0 0 -1.618109843e-07 
0 0 0 0 1.713358661e-07 0 0 0 -1.931362802e-07 
0 0 0 0 0 0 0 0 -2.200835651e-07 
0 0 0 0 0 0 0 0 -1.851761501e-07 
-1.241339075e-07 0 0 0 0 0 0 0 -1.967183994e-07 
0 0 0 0 0 0 0 0 -2.123810473e-07 
0 0 0 0 0 0 0 0 -2.00838798e-07 
0 0 0 0 0 0 0 0 -1.774736323e-07 
2.703049869e-07 0 0 0 2.067799184e-07 0 0 0 0 
-1.66205861e-07 0 0 0 0 0 0 0 -1.998897271e-07 
0 0 0 0 0 0 0 0 -1.352226405e-07 
0 0 0 0 0 0 0 0 -1.731270776e-07 
0 0 0 0 0 0 0 0 -1.491495908e-07 
0 0 0 0 0 0 0 0 -1.675561838e-07 
0 0 0 0 0 0 0 0 0 
1.457524477e-07 0 0 0 0 0 0 0 -1.35768266e-07 
0 0 0 0 0 0 0 0 -1.865084023e-07 
0 0 0 0 0 0 0 0 -1.541748591e-07 
0 -1.457210492e-07 0 -1.457210492e-07 -3.703894119e-07 0 0 0 -4.107591309e-07 
0 0 0 0 1.35030657e-07 0 0 0 0 
2.388979491e-07 0 0 0 3.093913321e-07 0 0 0 -1.724766107e-07 
-1.928719817e-07 0 0 0 0 0 0 0 -3.477822079e-07 
0 0 0 0 0 0 0 0 -2.428241701e-07 
1.422500106e-07 0 0 0 2.222109945e-07 0 0 0 -1.236829101e-07 
0 0 0 0 0 0 0 0 -2.916178708e-07 
-1.519222551e-07 0 0 0 -2.290919881e-07 0 0 0 -3.792706694e-07 
0 0 0 0 0 0 0 0 -2.113357087e-07 
0 0 0 0 0 0 0 0 -2.601294093e-07 
0 0 0 0 2.916726379e-07 0 0 0 0 
0 0 0 0 -1.24670158e-07 0 0 0 -2.854584664e-07 
0 0 0 0 -2.14153957e-07 0 0 0 -4.258963554e-07 
0 0 0 0 0 0 0 0 -1.206378999e-07 
0 0 0 0 0 0 0 0 -1.526952569e-07 
0 0 0 0 -1.694120575e-07 0 0 0 -3.556774109e-07 
0 0 0 0 0 0 0 0 -2.229142014e-07 
0 0 0 0 1.466704833e-07 0 0 0 0 
0 0 0 0 0 0 0 0 -2.030481831e-07 
0 0 0 0 0 0 0 0 -2.732671277e-07 
0 0 0 0 0 0 0 0 1.503762596e-07 
0 0 0 0 0 0 0 0 2.319134392e-07 
0 0 0 0 -1.234757506e-07 0 0 0 0 
0 0 0 0 0 0 0 0 0 
0 0 0 0 0 0 0 0 1.911448494e-07 
0 0 0 0 0 0 0 0 1.22922362e-07 
0 0 0 0 0 0 0 0 0 
0 0 0 0 0 0 0 0 1.244480121e-07 
0 0 0 0 0 0 0 0 1.652166019e-07 
0 0 0 0 0 0 0 0 0 
0 0 0 0 -1.280779866e-07 0 0 0 0 
0 0 0 0 0 0 0 0 2.275231281e-07 
0 0 0 0 -1.488329803e-07 0 0 0 0 
2.24376531e-07 0 0 0 3.615300848e-07 0 0 0 4.102526728e-07 
0 0 0 0 0 0 0 0 1.198135356e-07 
0 0 0 0 0 0 0 0 1.430204958e-07 
0 0 0 0 -1.384554835e-07 0 0 0 0 
0 0 0 0 0 0 0 0 2.11178308e-07 
0 0 0 0 1.530930305e-07 0 0 0 3.188879004e-07 
0 0 0 0 0 0 0 0 2.343852681e-07 
-1.611655699e-07 0 0 0 -1.700320137e-07 0 0 0 -2.145374627e-07 
1.26897439e-07 0 0 0 0 0 0 0 -1.704585484e-07 
0 0 0 0 0 0 0 0 -1.34645007e-07 
0 0 0 0 1.414581315e-07 0 0 0 -1.687802497e-07 
0 0 0 0 0 0 0 0 -1.924980056e-07 
0 0 0 0 0 0 0 0 -1.525517777e-07 
0 0 0 0 0 0 0 0 -1.745912348e-07 
0 0 0 0 0 0 0 0 -1.916588562e-07 
0 0 0 0 0 0 0 0 -1.696193991e-07 
0 0 0 0 0 0 0 0 -1.517126283e-07 
2.587223205e-07 0 0 0 2.227418767e-07 0 0 0 0 
-1.575908171e-07 0 0 0 0 0 0 0 -1.859438144e-07 
0 0 0 0 0 0 0 0 0 
0 0 0 0 0 0 0 0 -1.458025642e-07 
0 0 0 0 0 0 0 0 -1.234129018e-07 
0 0 0 0 0 0 0 0 -1.524668617e-07 
0 0 0 0 0 0 0 0 0 
1.410321327e-07 0 0 0 0 0 0 0 0 
0 0 0 0 0 0 0 0 -1.658731893e-07 
0 0 0 0 0 0 0 0 -1.323962366e-07 
0 -1.418196419e-07 0 -1.418196419e-07 -3.493137424e-07 0 0 0 -3.60131858e-07 
0 0 0 0 1.349761286e-07 0 0 0 0 
2.034585252e-07 0 0 0 2.624025708e-07 0 0 0 -1.411339019e-07 
-1.42108427e-07 0 0 0 0 0 0 0 -2.75804794e-07 
0 0 0 0 0 0 0 0 -2.109335517e-07 
1.240436036e-07 0 0 0 1.986893497e-07 0 0 0 0 
0 0 0 0 0 0 0 0 -2.506328799e-07 
-1.304258094e-07 0 0 0 -2.018927417e-07 0 0 0 -3.17968326e-07 
0 0 0 0 0 0 0 0 -1.687700197e-07 
0 0 0 0 0 0 0 0 -2.084693479e-07 
0 0 0 0 3.457194603e-07 0 0 0 0 
0 0 0 0 -1.574182732e-07 0 0 0 -2.645899604e-07 
0 0 0 0 -2.142040077e-07 0 0 0 -3.702146787e-07 
0 0 0 0 0 0 0 0 -1.227851488e-07 
0 0 0 0 0 0 0 0 -1.226050926e-07 
0 0 0 0 -1.858111405e-07 0 0 0 -3.174023195e-07 
0 0 0 0 0 0 0 0 -1.754174517e-07 
0 0 0 0 1.499408783e-07 0 0 0 0 
0 0 0 0 0 0 0 0 -1.936875546e-07 
0 0 0 0 -1.300208557e-07 0 0 0 -2.464999137e-07 
0 0 0 0 0 0 0 0 1.8153116e-07 
0 0 0 0 0 0 0 0 1.551033418e-07 
-1.309642859e-07 0 0 0 -1.469492262e-07 0 0 0 1.415475453e-07 
2.70159795e-07 0 0 0 2.139858731e-07 0 0 0 4.280997603e-07 
0 0 0 0 0 0 0 0 1.683172509e-07 
0 0 0 0 0 0 0 0 1.483254435e-07 
0 0 0 0 0 0 0 0 1.615393526e-07 
1.322031073e-07 0 0 0 1.560099429e-07 0 0 0 3.048154602e-07 
0 0 0 0 0 0 0 0 2.916015511e-07 
0 0 0 0 0 0 0 0 2.848236528e-07 
1.439350245e-07 0 0 0 0 0 0 0 2.711756489e-07 
1.509319275e-07 0 0 0 0 0 0 0 2.582527071e-07 
0 0 0 0 0 0 0 0 1.401689691e-07 
-1.78942942e-07 0 1.659625362e-07 0 0 0 1.659625362e-07 0 0 
1.47433476e-07 0 0 0 0 0 0 0 2.64714178e-07 
0 0 0 0 0 0 0 0 1.992108381e-07 
0 0 0 0 0 0 0 0 2.05672309e-07 
0 0 0 0 0 0 0 0 0 
0 0 0 0 0 0 0 0 0 
0 0 0 0 0 0 0 0 0 
-1.348934658e-07 0 1.212856575e-07 0 0 0 1.212856575e-07 0 3.312354202e-07 
0 0 0 0 0 -1.58970187e-07 0 -1.58970187e-07 3.70783123e-07 
7.24732328e-07 -2.139547558e-07 0 -2.139547558e-07 3.702439524e-07 0 0 0 4.891353718e-07 
-4.460418845e-07 2.168558206e-07 -1.407329081e-07 2.168558206e-07 -2.783864304e-07 0 -1.407329081e-07 0 0 
-1.223642204e-07 0 0 0 0 0 0 0 3.510092716e-07 
3.074486765e-07 0 0 0 1.820114965e-07 0 0 0 4.299592474e-07 
2.949194311e-07 0 0 0 1.744972894e-07 0 0 0 4.10185396e-07 
-2.904676752e-07 0 0 0 -1.49817902e-07 0 0 0 1.819505291e-07 
-2.779384298e-07 1.401346931e-07 0 1.401346931e-07 -1.423036949e-07 0 0 0 2.017243805e-07 
1.393452217e-07 0 0 0 0 0 0 0 2.609005049e-07 
0 0 1.270233573e-07 0 0 0 1.270233573e-07 0 1.48832614e-07 
0 0 0 0 0 -2.133006417e-07 0 -2.133006417e-07 4.091605699e-07 
-1.577596187e-07 0 0 0 0 0 0 0 2.953808434e-07 
0 -1.474959207e-07 0 -1.474959207e-07 0 3.930551359e-07 0 3.930551359e-07 3.285035995e-07 
0 0 0 0 0 0 0 0 2.789965919e-07 
0 0 0 0 0 0 0 0 3.522707066e-07 
0 0 0 0 0 0 0 0 2.221067287e-07 
0 0 0 0 0 2.069571318e-07 0 2.069571318e-07 2.386681068e-07 
0 0 0 0 0 0 0 0 3.688320847e-07 
0 0 0 0 0 2.130928262e-07 0 2.130928262e-07 3.119422214e-07 
-1.651058747e-07 0 0 0 0 0 0 0 3.438662899e-07 
7.294030824e-07 -2.351341135e-07 0 -2.351341135e-07 4.028549557e-07 1.326715937e-07 0 1.326715937e-07 4.649501946e-07 
0 0 0 0 1.202470059e-07 -2.212379341e-07 0 -2.212379341e-07 4.84412174e-07 
-5.314496442e-07 2.562463996e-07 -1.945665114e-07 2.562463996e-07 -4.087064109e-07 0 -1.945665114e-07 0 0 
2.821486038e-07 0 0 0 1.606940187e-07 0 0 0 4.044082422e-07 
3.505719797e-07 0 0 0 2.615509808e-07 0 0 0 4.746811843e-07 
0 0 0 0 0 0 0 0 4.141392319e-07 
-3.482777595e-07 1.292026595e-07 0 1.292026595e-07 -2.450866647e-07 0 0 0 1.353054848e-07 
0 0 0 0 0 0 0 0 1.958474371e-07 
-2.798543836e-07 1.403349089e-07 0 1.403349089e-07 -1.442297025e-07 -1.421270874e-07 0 -1.421270874e-07 2.055784268e-07 
0 0 1.884791792e-07 0 0 0 1.884791792e-07 0 0 
-1.345726274e-07 0 1.445861857e-07 0 0 0 1.445861857e-07 0 3.491676764e-07 
0 0 0 0 0 -2.056878175e-07 0 -2.056878175e-07 4.67920597e-07 
1.989803557e-07 -1.476073149e-07 -1.357947789e-07 -1.476073149e-07 0 4.200350368e-07 -1.357947789e-07 4.200350368e-07 5.520505281e-07 
-1.205771066e-07 0 1.665326825e-07 0 0 0 1.665326825e-07 0 1.918724476e-07 
0 0 0 0 0 0 0 0 4.085441367e-07 
0 0 0 0 0 0 0 0 2.512489079e-07 
0 0 0 0 0 1.97977588e-07 0 1.97977588e-07 2.933138735e-07 
0 0 0 0 0 2.091129422e-07 0 2.091129422e-07 4.506091022e-07 
0 0 0 0 0 0 0 0 5.099855625e-07 
2.937179805e-07 0 0 0 0 1.532597786e-07 0 1.532597786e-07 4.676335457e-07 
2.276244995e-07 0 -1.593770228e-07 0 1.562476565e-07 0 -1.593770228e-07 0 3.525775757e-07 
0 0 -1.699063729e-07 0 0 0 -1.699063729e-07 0 2.387803584e-07 
-4.30831754e-07 0 4.312853117e-07 0 -1.849037041e-07 0 4.312853117e-07 0 -1.732149859e-07 
2.6067124e-07 0 0 0 0 0 0 0 4.101055607e-07 
1.688366737e-07 0 -1.646416979e-07 0 0 0 -1.646416979e-07 0 2.956789671e-07 
2.018834142e-07 0 0 0 0 0 0 0 3.53206952e-07 
0 0 1.908137484e-07 0 0 0 1.908137484e-07 0 1.472092799e-07 
0 0 1.359541444e-07 0 0 0 1.359541444e-07 0 0 
-1.60391453e-07 0 1.306894694e-07 0 0 0 1.306894694e-07 0 0 
0 0 0 0 0 0 0 0 2.201069913e-07 
0 0 0 0 0 0 0 0 2.643443671e-07 
0 0 0 0 0 0 0 0 3.328388051e-07 
0 0 0 0 0 0 0 0 4.720020439e-07 
0 0 0 0 0 0 0 0 2.422256792e-07 
0 0 0 0 0 0 0 0 2.985915861e-07 
0 0 0 0 0 0 0 0 2.764728982e-07 
0 0 0 0 0 0 0 0 3.460545176e-07 
0 0 0 0 0 0 0 0 3.681732055e-07 
0 0 0 0 0 0 0 0 4.024204245e-07 
1.969985966e-07 0 0 0 0 1.22407063e-07 0 1.22407063e-07 3.788923932e-07 
2.487569233e-07 0 -1.230937117e-07 0 1.733756151e-07 0 -1.230937117e-07 0 3.525589044e-07 
0 0 -1.3565535e-07 0 0 0 -1.3565535e-07 0 1.890782515e-07 
-2.964977682e-07 0 3.503761233e-07 0 0 0 3.503761233e-07 0 0 
2.228777599e-07 0 0 0 0 0 0 0 3.657256488e-07 
1.303017947e-07 0 -1.293745309e-07 0 0 0 -1.293745309e-07 0 2.70818578e-07 
0 0 0 0 0 0 0 0 2.839853223e-07 
0 0 1.543642651e-07 0 0 0 1.543642651e-07 0 1.33566625e-07 
0 0 0 0 0 0 0 0 1.203998806e-07 
-1.423255511e-07 0 0 0 0 0 0 0 0 
0 0 0 0 1.300795493e-07 0 0 0 2.357024715e-07 
0 0 0 0 0 0 0 0 2.070990751e-07 
0 0 0 0 0 0 0 0 2.816662513e-07 
1.3907276e-07 0 0 0 0 0 0 0 4.591991416e-07 
0 0 0 0 0 0 0 0 2.214007733e-07 
0 0 0 0 0 0 0 0 2.443826632e-07 
0 0 0 0 0 0 0 0 2.586843614e-07 
0 0 0 0 0 0 0 0 3.474508065e-07 
0 0 0 0 0 0 0 0 3.331491084e-07 
0 0 0 0 0 0 0 0 3.704326965e-07 
0 0 0 0 0 -1.499243724e-07 0 -1.499243724e-07 3.356818498e-07 
-1.870675362e-07 0 1.287470617e-07 0 -1.43563879e-07 0 1.287470617e-07 0 0 
0 0 0 0 0 0 0 0 3.622379308e-07 
1.585735392e-07 0 0 0 0 2.544542446e-07 0 2.544542446e-07 3.73715043e-07 
0 0 0 0 0 0 0 0 1.765904287e-07 
0 0 0 0 0 0 0 0 1.898684692e-07 
0 0 0 0 0 0 0 0 3.489598903e-07 
0 0 0 0 0 0 0 0 3.546984464e-07 
0 0 0 0 0 0 0 0 1.956070253e-07 
0 0 0 0 0 1.413955238e-07 0 1.413955238e-07 3.679764869e-07 
-1.465696456e-07 0 0 0 -1.239120389e-07 0 0 0 2.72056201e-07 
8.008342162e-07 -2.625944023e-07 0 -2.625944023e-07 5.000421552e-07 0 0 0 5.219788867e-07 
0 0 0 0 2.124529851e-07 0 0 0 4.188940946e-07 
-7.39137385e-07 3.055211111e-07 -1.266417621e-07 3.055211111e-07 -5.739846457e-07 0 -1.266417621e-07 0 -1.962091269e-07 
3.271322853e-07 -1.200093021e-07 0 -1.200093021e-07 1.880650582e-07 0 0 0 3.970175439e-07 
4.380084991e-07 -1.46977608e-07 0 -1.46977608e-07 3.562475702e-07 0 0 0 4.704364907e-07 
0 0 0 0 0 0 0 0 3.454751478e-07 
-4.428535153e-07 1.640484546e-07 0 1.640484546e-07 -3.489483423e-07 0 0 0 0 
0 0 0 0 0 0 0 0 1.628848799e-07 
-3.319773016e-07 1.370801487e-07 0 1.370801487e-07 -1.807658303e-07 0 0 0 0 
0 0 0 0 -1.417895098e-07 0 0 0 2.889296014e-07 
0 0 0 0 0 0 0 0 3.54327167e-07 
0 0 0 0 0 0 0 0 3.887959908e-07 
0 0 0 0 0 0 0 0 3.126514092e-07 
0 0 0 0 0 0 0 0 3.216283842e-07 
0 0 0 0 0 0 0 0 3.715615789e-07 
0 0 0 0 0 0 0 0 3.388627961e-07 
0 0 0 0 0 0 0 0 3.007905053e-07 
0 0 0 0 0 0 0 0 3.334892881e-07 
0 0 0 0 0 0 0 0 3.507237e-07 
0 0 0 0 0 0 0 0 3.610443172e-07 
0 0 0 0 0 0 0 0 3.518859703e-07 
0 0 0 0 0 0 0 0 3.185797509e-07 
1.56507813e-07 0 0 0 1.39785113e-07 0 0 0 2.784670725e-07 
0 0 0 0 0 0 0 0 3.564651438e-07 
0 0 0 0 0 0 0 0 3.352328606e-07 
0 0 0 0 0 0 0 0 3.398120341e-07 
0 0 0 0 0 0 0 0 3.197556949e-07 
0 0 0 0 0 0 0 0 3.151765214e-07 
0 0 0 0 0 0 0 0 2.985234117e-07 
2.122255042e-07 0 0 0 0 0 0 0 3.783371141e-07 
-2.340582939e-07 0 0 0 0 0 0 0 -1.640365182e-07 
0 0 0 0 0 0 0 0 3.328432804e-07 
0 0 0 0 0 0 0 0 -1.196697752e-07 
0 0 0 0 0 0 0 0 0 
0 0 0 0 0 0 0 0 0 
1.296024207e-07 0 0 0 0 0 0 0 3.555901973e-07 
1.463961511e-07 0 0 0 0 0 0 0 1.293336694e-07 
0 0 0 0 0 0 0 0 -1.418531467e-07 
0 0 0 0 0 0 0 0 0 
-2.440341248e-07 0 0 0 0 0 0 0 -1.748176219e-07 
2.137352142e-07 0 0 0 0 0 0 0 3.806682153e-07 
0 0 0 0 0 0 0 0 2.778433429e-07 
0 0 0 0 0 0 0 0 2.75806936e-07 
0 0 0 0 0 0 0 0 0 
0 0 0 0 0 0 0 0 3.292557791e-07 
-1.61567227e-07 0 0 0 0 0 0 0 0 
-1.352145431e-07 0 0 0 0 0 0 0 0 
0 0 0 0 0 0 0 0 3.282375756e-07 
0 0 0 0 0 0 0 0 2.768251394e-07 
1.7365867e-07 0 0 0 2.257942342e-07 0 0 0 0 
-1.280339601e-07 0 0 0 0 0 0 0 2.375770328e-07 
0 0 0 0 0 0 0 0 -1.660300356e-07 
0 0 0 0 0 0 0 0 -1.265155263e-07 
0 0 0 0 0 0 0 0 1.244957928e-07 
0 0 0 0 0 0 0 0 0 
0 0 0 0 0 0 0 0 0 
0 0 0 0 0 0 0 0 0 
0 0 0 0 0 0 0 0 0 
0 0 0 0 0 0 0 0 -1.46272781e-07 
-2.424303625e-07 0 0 0 -1.568256839e-07 0 0 0 1.882128637e-07 
2.950979845e-07 0 0 0 2.419714276e-07 0 0 0 0 
0 0 0 0 0 0 0 0 0 
0 0 0 0 0 0 0 0 2.959834956e-07 
0 0 0 0 0 0 0 0 1.235541707e-07 
1.897366822e-07 0 0 0 1.651495367e-07 0 0 0 0 
0 0 0 0 0 0 0 0 0 
0 0 0 0 0 0 0 0 2.420981797e-07 
1.595185164e-07 0 0 0 1.558298607e-07 0 0 0 1.774394866e-07 
0 0 0 0 0 0 0 0 0 
-1.563059654e-07 1.30513772e-07 0 1.30513772e-07 -1.846362171e-07 0 0 0 0 
0 0 0 0 0 0 0 0 0 
0 0 0 0 0 0 0 0 -4.18076169e-07 
0 0 0 0 0 0 0 0 1.984398294e-07 
0 0 0 0 0 0 0 0 0 
0 0 0 0 0 0 0 0 -1.918877858e-07 
0 0 0 0 0 0 0 0 -2.002789248e-07 
0 0 0 0 0 0 0 0 0 
0 0 0 0 0 0 0 0 0 
0 0 0 0 0 0 0 0 0 
-2.379115805e-07 0 0 0 0 0 0 0 -5.540659034e-07 
-1.729438667e-07 0 0 0 0 0 0 0 0 
4.279615826e-07 0 0 0 1.65261509e-07 0 0 0 2.977246859e-07 
3.268657708e-07 0 0 0 0 0 0 0 -3.611451585e-07 
-2.054277236e-07 0 0 0 0 0 0 0 -3.062627387e-07 
1.27508858e-07 0 0 0 0 0 0 0 1.196325559e-07 
0 0 0 0 0 0 0 0 -1.281706088e-07 
0 0 0 0 0 0 0 0 -4.57605531e-07 
0 0 0 0 0 0 0 0 -2.098023663e-07 
3.774136767e-07 0 0 0 1.343070472e-07 0 0 0 0 
3.211182176e-07 0 0 0 1.667190968e-07 0 0 0 -3.092087233e-07 
0 0 0 0 0 0 0 0 -2.844383803e-07 
-5.991737146e-07 1.442723972e-07 0 1.442723972e-07 -3.690980226e-07 0 0 0 -1.603875912e-07 
5.033529567e-07 -1.244769857e-07 0 -1.244769857e-07 3.403116994e-07 0 0 0 4.178129107e-07 
1.898275556e-07 0 0 0 1.239917572e-07 0 0 0 -2.968235518e-07 
-2.703184105e-07 0 0 0 -1.439168025e-07 0 0 0 -2.224129858e-07 
-1.390277485e-07 0 0 0 0 0 0 0 -2.347981573e-07 
4.122355871e-07 0 0 0 2.535153981e-07 0 0 0 0 
2.809449251e-07 0 0 0 2.107880585e-07 0 0 0 0 
0 0 0 0 0 0 0 0 1.287126597e-07 
0 0 0 0 0 0 0 0 0 
1.317719318e-07 0 0 0 1.25880614e-07 0 0 0 -2.490830099e-07 
0 0 0 0 0 0 0 0 -4.275346613e-07 
-3.183619567e-07 0 0 0 -1.800900688e-07 0 0 0 -6.23852366e-07 
0 0 0 0 0 0 0 0 0 
0 0 0 0 0 0 0 0 -3.383088356e-07 
0 0 0 0 0 0 0 0 -1.70987456e-07 
-2.034914045e-07 0 0 0 -1.199582429e-07 0 0 0 -2.691463084e-07 
0 0 0 0 0 0 0 0 -4.36467688e-07 
-1.282009877e-07 0 0 0 0 0 0 0 -5.256935136e-07 
1.669365043e-07 0 0 0 0 0 0 0 3.228344253e-07 
1.830625135e-07 0 0 0 1.39269439e-07 0 0 0 3.042587914e-07 
0 0 0 0 0 0 0 0 1.567179136e-07 
-2.079106289e-07 0 2.63299473e-07 0 0 0 2.63299473e-07 0 0 
1.749995089e-07 0 0 0 0 0 0 0 3.135466084e-07 
0 0 0 0 0 0 0 0 2.304883525e-07 
0 0 0 0 0 0 0 0 2.397761695e-07 
0 0 0 0 0 0 0 0 1.245994727e-07 
0 0 0 0 0 0 0 0 0 
-1.220338697e-07 0 0 0 0 0 0 0 0 
0 0 0 0 0 0 0 0 1.578440773e-07 
0 0 0 0 0 0 0 0 2.216422728e-07 
0 0 0 0 1.24906971e-07 0 0 0 2.179289709e-07 
2.252251685e-07 0 0 0 1.517702938e-07 0 0 0 4.496894267e-07 
0 0 0 0 0 0 0 0 1.89743175e-07 
0 0 0 0 0 0 0 0 2.197856218e-07 
0 0 0 0 0 0 0 0 1.878865241e-07 
0 0 0 0 0 0 0 0 3.03766752e-07 
0 0 0 0 0 0 0 0 3.356658498e-07 
1.265488123e-07 0 0 0 1.383386324e-07 0 0 0 3.338091988e-07 
2.753412749e-07 0 0 0 0 0 0 0 4.648095641e-07 
-3.29116179e-07 0 0 0 0 0 0 0 -2.095863319e-07 
0 0 0 0 0 0 0 0 4.105805687e-07 
1.276025236e-07 0 0 0 0 0 0 0 0 
0 0 0 0 0 0 0 0 1.276116161e-07 
-1.32963381e-07 0 0 0 0 0 0 0 0 
1.692653459e-07 0 0 0 0 0 0 0 4.376950664e-07 
2.014718993e-07 0 0 0 0 0 0 0 1.736263187e-07 
0 0 0 0 0 0 0 0 -1.635716293e-07 
0 0 0 0 0 0 0 0 1.46511821e-07 
-3.142183561e-07 0 0 0 0 0 0 0 -2.09003633e-07 
2.913751838e-07 0 0 0 0 0 0 0 4.735684961e-07 
-1.295290553e-07 0 0 0 -1.199608009e-07 0 0 0 3.254322843e-07 
0 0 0 0 0 0 0 0 3.328488383e-07 
0 0 0 0 0 0 0 0 1.322824316e-07 
0 0 0 0 0 0 0 0 3.995003902e-07 
-2.218737057e-07 0 0 0 0 0 0 0 0 
-1.767079296e-07 0 0 0 0 0 0 0 0 
1.260888404e-07 0 0 0 0 0 0 0 4.032086672e-07 
0 0 0 0 0 0 0 0 3.291405613e-07 
1.608893857e-07 0 0 0 2.25071594e-07 0 0 0 0 
-1.234772029e-07 0 0 0 0 0 0 0 3.009550332e-07 
0 0 0 0 0 0 0 0 -2.030978935e-07 
0 0 0 0 0 0 0 0 -1.329182082e-07 
0 0 0 0 0 0 0 0 1.493345035e-07 
0 0 0 0 0 0 0 0 0 
0 0 0 0 0 0 0 0 0 
0 0 0 0 0 0 0 0 0 
0 0 0 0 0 0 0 0 0 
0 0 0 0 0 0 0 0 -1.680080509e-07 
-2.717506326e-07 0 0 0 -1.707750601e-07 0 0 0 2.370476332e-07 
3.89995317e-07 0 0 0 2.915077481e-07 0 0 0 0 
0 0 0 0 0 0 0 0 -1.236678138e-07 
0 0 0 0 0 0 0 0 3.53565194e-07 
0 0 0 0 0 0 0 0 1.666988e-07 
2.246060346e-07 0 0 0 1.829527869e-07 0 0 0 0 
0 0 0 0 0 0 0 0 0 
-1.225679758e-07 0 0 0 0 0 0 0 2.953064136e-07 
2.083049989e-07 0 0 0 1.81345906e-07 0 0 0 2.249575804e-07 
0 0 0 0 0 0 0 0 0 
-1.661821935e-07 0 0 0 0 0 0 0 3.126135279e-07 
8.351507594e-07 -2.663461937e-07 0 -2.663461937e-07 4.854349147e-07 0 0 0 5.210336353e-07 
0 0 0 0 1.459143784e-07 -1.602036861e-07 0 -1.602036861e-07 4.397027235e-07 
-6.712408024e-07 2.897166688e-07 -1.483307444e-07 2.897166688e-07 -5.044547571e-07 0 -1.483307444e-07 0 -1.507413429e-07 
3.34484283e-07 -1.287832798e-07 0 -1.287832798e-07 1.923599712e-07 0 0 0 4.168235816e-07 
4.204155547e-07 -1.297399923e-07 0 -1.297399923e-07 3.156746465e-07 0 0 0 4.803681794e-07 
0 0 0 0 0 0 0 0 3.761581257e-07 
-4.18711498e-07 1.492481515e-07 0 1.492481515e-07 -3.025848647e-07 0 0 0 0 
0 0 0 0 0 0 0 0 1.851461462e-07 
-3.327802262e-07 1.48291439e-07 0 1.48291439e-07 -1.792701894e-07 0 0 0 1.444806903e-07 
0 0 0 0 0 -1.784150011e-07 0 -1.784150011e-07 4.049946302e-07 
-1.586330072e-07 0 1.675587996e-07 0 -1.248582522e-07 0 1.675587996e-07 0 0 
0 0 0 0 0 0 0 0 3.688595492e-07 
1.863107251e-07 -1.376636612e-07 0 -1.376636612e-07 0 3.434509574e-07 0 3.434509574e-07 4.581886105e-07 
0 0 0 0 0 0 0 0 2.105051978e-07 
0 0 1.241399473e-07 0 0 0 1.241399473e-07 0 1.924376573e-07 
0 0 0 0 0 0 0 0 3.869270897e-07 
0 0 0 0 0 0 0 0 4.315916204e-07 
0 0 0 0 0 1.578559844e-07 0 1.578559844e-07 2.371021879e-07 
0 0 0 0 0 1.82591773e-07 0 1.82591773e-07 4.135240799e-07 
0 0 0 0 0 0 0 0 0 
0 0 0 0 0 0 0 0 0 
0 0 0 0 0 0 0 0 -3.724005706e-07 
0 0 0 0 0 0 0 0 1.868951675e-07 
0 0 0 0 0 0 0 0 0 
0 0 0 0 0 0 0 0 -1.781846605e-07 
0 0 0 0 0 0 0 0 -1.669144988e-07 
0 0 0 0 0 0 0 0 0 
0 0 0 0 0 0 0 0 0 
0 0 0 0 0 0 0 0 0 
-1.784515958e-07 0 0 0 0 0 0 0 -4.42445668e-07 
0 0 0 0 0 0 0 0 0 
2.833503085e-07 0 0 0 0 0 0 0 2.139955952e-07 
1.689742802e-07 0 0 0 0 0 0 0 -3.39319851e-07 
-1.27675695e-07 0 0 0 0 0 0 0 -2.306942593e-07 
0 0 0 0 0 0 0 0 0 
0 0 0 0 0 0 0 0 0 
0 0 0 0 0 0 0 0 -3.908827595e-07 
0 0 0 0 0 0 0 0 -1.791313508e-07 
2.261622944e-07 0 0 0 0 0 0 0 0 
-1.93195187e-07 0 0 0 -2.005701786e-07 0 0 0 0 
0 0 0 0 0 0 0 0 1.386826191e-07 
0 0 0 0 0 0 0 0 1.487003669e-07 
2.821100905e-07 0 0 0 2.506122676e-07 0 0 0 3.920352516e-07 
0 0 0 0 0 0 0 0 0 
0 0 0 0 0 0 0 0 1.43691493e-07 
0 0 0 0 0 0 0 0 0 
0 0 0 0 0 0 0 0 2.282416079e-07 
1.257954284e-07 0 0 0 1.558509649e-07 0 0 0 2.653589354e-07 
1.493311959e-07 0 0 0 1.216308665e-07 0 0 0 2.703678093e-07 
0 0 0 0 0 0 0 0 1.824448458e-07 
0 0 0 0 0 0 0 0 0 
0 0 0 0 0 0 0 0 2.240498727e-07 
0 0 0 0 0 0 0 0 0 
0 0 0 0 0 0 0 0 1.498876562e-07 
0 0 0 0 0 0 0 0 1.706901696e-07 
0 0 0 0 0 0 0 0 2.032473592e-07 
0 0 0 0 0 0 0 0 0 
0 0 0 0 0 0 0 0 0 
0 0 0 0 0 0 0 0 0 
1.52096117e-06 3.902801283e-07 0 3.902801283e-07 1.237424095e-06 1.78940746e-07 0 1.78940746e-07 5.135733395e-07 
-2.937517968e-07 0 0 0 -4.643091257e-07 -1.349825038e-07 0 -1.349825038e-07 -7.276121247e-07 
-1.091609871e-06 -2.002464109e-07 0 -2.002464109e-07 -5.623577425e-07 0 0 0 -7.184710224e-07 
-1.904281478e-07 0 0 0 -3.092816522e-07 0 0 0 -6.776815512e-07 
6.136046868e-07 1.524207737e-07 0 1.524207737e-07 3.865574846e-07 0 0 0 0 
-6.926808337e-07 -1.428424959e-07 0 -1.428424959e-07 -5.133334341e-07 0 0 0 -7.230415736e-07 
2.146756499e-07 0 0 0 3.375331762e-07 0 0 0 0 
6.652665113e-07 1.773094286e-07 0 1.773094286e-07 4.640712213e-07 0 0 0 0 
-2.420899723e-07 0 0 0 -3.867953889e-07 0 0 0 -7.026468379e-07 
-6.410190092e-07 0 0 0 -4.358196974e-07 0 0 0 -6.980762868e-07 
0 0 0 0 -1.203873406e-07 0 0 0 -5.15774647e-07 
-1.688559208e-07 -2.64881274e-07 -2.152603487e-07 -2.64881274e-07 -3.545041788e-07 0 -2.152603487e-07 0 -4.709265109e-07 
-2.089181404e-07 0 4.19686034e-07 0 3.541492966e-07 3.465877566e-07 4.19686034e-07 3.465877566e-07 -5.45213111e-07 
0 0 0 0 1.261679379e-07 -1.334314968e-07 0 -1.334314968e-07 -4.628415856e-07 
0 0 0 0 -2.374457597e-07 0 0 0 -4.933505789e-07 
-1.888870306e-07 0 0 0 0 1.640177786e-07 0 1.640177786e-07 -5.080698109e-07 
0 0 2.012034167e-07 0 0 0 2.012034167e-07 0 -5.30493879e-07 
0 0 0 0 0 -1.253194196e-07 0 -1.253194196e-07 -4.893081163e-07 
0 0 -1.455708695e-07 0 0 0 -1.455708695e-07 0 -4.668840482e-07 
0 0 1.719023218e-07 0 2.401586173e-07 0 1.719023218e-07 0 -5.040273483e-07 
0 0 0 0 -1.33308815e-07 0 0 0 0 
0 0 0 0 -1.750884999e-07 0 0 0 0 
0 0 0 0 0 0 0 0 2.925798897e-07 
1.931417133e-07 0 0 0 3.104662435e-07 0 0 0 4.315818814e-07 
0 0 0 0 -1.541986574e-07 0 0 0 0 
0 0 0 0 0 0 0 0 1.454681195e-07 
0 0 0 0 0 0 0 0 1.948031595e-07 
0 0 0 0 0 0 0 0 2.643041553e-07 
0 0 0 0 0 0 0 0 2.149691154e-07 
0 0 0 0 1.41302714e-07 0 0 0 3.620808855e-07 
0 0 0 0 -1.35572421e-07 0 0 0 0 
0 0 0 0 0 0 0 0 1.72182911e-07 
0 0 0 0 0 0 0 0 3.091347237e-07 
0 0 0 0 0 0 0 0 1.392483834e-07 
0 0 0 0 0 0 0 0 0 
0 0 0 0 0 0 0 0 2.406588174e-07 
0 0 0 0 0 0 0 0 1.64960976e-07 
0 0 0 0 0 0 0 0 0 
0 0 0 0 0 0 0 0 1.557156472e-07 
0 0 0 0 0 0 0 0 2.241915536e-07 
9.255866619e-07 2.181348622e-07 0 2.181348622e-07 7.822349194e-07 1.409293688e-07 0 1.409293688e-07 2.005385579e-07 
-1.641398099e-06 -3.86269249e-07 0 -3.86269249e-07 -9.6761569e-07 0 0 0 -1.008317481e-06 
2.443308968e-07 0 0 0 0 0 0 0 -2.561667141e-07 
4.200064707e-07 1.316806162e-07 0 1.316806162e-07 1.204187132e-07 0 0 0 -2.223355308e-07 
-3.579057185e-07 0 0 0 0 0 0 0 -4.038894615e-07 
-6.985336011e-07 -1.473404147e-07 0 -1.473404147e-07 -4.864294346e-07 0 0 0 -6.322420975e-07 
5.849587793e-07 1.548616409e-07 0 1.548616409e-07 3.884958701e-07 0 0 0 0 
6.727965663e-07 1.749077392e-07 0 1.749077392e-07 4.513268163e-07 0 0 0 0 
-6.106958141e-07 -1.272943164e-07 0 -1.272943164e-07 -4.235984884e-07 0 0 0 -6.153265058e-07 
3.321686837e-07 0 0 0 0 0 0 0 -2.392511225e-07 
0 0 0 0 0 0 0 0 -4.00364027e-07 
-4.76156936e-07 0 0 0 -2.660389149e-07 0 0 0 -4.451847269e-07 
3.988189127e-07 0 0 0 3.967322654e-07 0 0 0 0 
0 0 0 0 0 0 0 0 -3.47537101e-07 
-2.789041319e-07 0 0 0 -1.916439161e-07 0 0 0 -4.22774377e-07 
0 0 0 0 0 0 0 0 -2.459361455e-07 
1.585837924e-07 0 0 0 1.39741674e-07 0 0 0 -2.235257956e-07 
0 0 0 0 0 0 0 0 -3.73950564e-07 
-1.809498891e-07 0 0 0 0 0 0 0 -3.96360914e-07 
2.565380352e-07 0 0 0 2.436958183e-07 0 0 0 -1.971123326e-07 
0 0 0 0 0 0 0 0 -2.899347959e-07 
0 0 3.113900984e-07 0 3.79139437e-07 2.870645256e-07 3.113900984e-07 2.870645256e-07 -3.197092383e-07 
0 -1.70205518e-07 -1.966940508e-07 -1.70205518e-07 -1.91194694e-07 0 -1.966940508e-07 0 -3.755233736e-07 
0 0 0 0 0 0 0 0 -4.019371784e-07 
0 0 1.237258333e-07 0 2.121989585e-07 0 1.237258333e-07 0 -3.048220171e-07 
0 0 0 0 0 0 0 0 -3.476163059e-07 
0 0 -1.303162413e-07 0 0 0 -1.303162413e-07 0 -3.327290847e-07 
0 0 0 0 0 0 0 0 -3.459359871e-07 
0 0 1.257901196e-07 0 1.570710716e-07 0 1.257901196e-07 0 -3.608232083e-07 
0 0 -1.28251955e-07 0 -1.280959939e-07 0 -1.28251955e-07 0 -3.88730276e-07 
3.512608338e-07 0 0 0 3.115069967e-07 0 0 0 0 
0 0 0 0 0 0 0 0 -4.456834246e-07 
0 0 0 0 0 0 0 0 -3.822298035e-07 
1.236301701e-07 -1.330683343e-07 0 -1.330683343e-07 0 0 0 0 -3.157610219e-07 
1.431729896e-07 0 0 0 0 0 0 0 -2.819808184e-07 
0 0 0 0 0 0 0 0 -4.13956614e-07 
1.400953026e-07 0 0 0 0 0 0 0 -2.502540078e-07 
2.37445502e-07 0 0 0 2.024895495e-07 0 0 0 -2.17019617e-07 
0 0 0 0 0 0 0 0 -3.807222232e-07 
0 0 0 0 0 0 0 0 -3.489954127e-07 
0 0 0 0 0 0 0 0 1.216049699e-07 
0 0 0 0 0 0 0 0 2.703826047e-07 
-1.605673792e-07 0 0 0 0 0 0 0 2.069403349e-07 
0 0 0 0 0 0 0 0 2.401826994e-07 
0 0 0 0 0 0 0 0 1.959937873e-07 
0 0 0 0 0 0 0 0 2.386614698e-07 
0 0 0 0 0 0 0 0 1.642726524e-07 
0 0 0 0 0 0 0 0 1.808938347e-07 
0 0 0 0 0 0 0 0 2.552826521e-07 
0 0 0 0 0 0 0 0 2.235615172e-07 
-1.529747427e-07 0 0 0 0 0 0 0 2.115469404e-07 
-1.363841084e-07 0 0 0 -1.309922771e-07 0 0 0 1.638506258e-07 
2.858413802e-07 0 0 0 1.605442313e-07 0 0 0 2.453272052e-07 
0 0 0 0 0 0 0 0 1.675205117e-07 
-1.446794255e-07 0 0 0 0 0 0 0 1.876987831e-07 
0 0 0 0 0 0 0 0 2.045889155e-07 
0 0 0 0 0 0 0 0 2.284370728e-07 
0 0 0 0 0 0 0 0 1.89533726e-07 
0 0 0 0 0 0 0 0 1.656855687e-07 
1.362861817e-07 0 0 0 0 0 0 0 2.064238584e-07 
0 0 0 0 0 0 0 0 2.847846338e-07 
0 0 0 0 0 0 0 0 2.291115778e-07 
-1.244736315e-07 0 0 0 0 0 0 0 0 
0 0 0 0 0 0 0 0 2.583044973e-07 
0 0 0 0 0 0 0 0 2.569481058e-07 
0 0 0 0 0 0 0 0 1.39916579e-07 
0 0 0 0 0 0 0 0 1.67753107e-07 
0 0 0 0 0 0 0 0 2.715445655e-07 
0 0 0 0 0 0 0 0 2.437080376e-07 
0 0 0 0 0 0 0 0 1.545130387e-07 
5.415075835e-07 -1.741994814e-07 0 -1.741994814e-07 3.535347853e-07 0 0 0 3.89638199e-07 
0 0 0 0 1.582290342e-07 0 0 0 3.156814251e-07 
0 0 0 0 0 0 0 0 2.614555177e-07 
-6.146279555e-07 2.263115082e-07 0 2.263115082e-07 -4.596194539e-07 0 0 0 -1.635802399e-07 
3.169802963e-07 0 0 0 2.558819098e-07 0 0 0 3.52659812e-07 
0 0 0 0 0 0 0 0 2.885684714e-07 
2.516787246e-07 0 0 0 1.661490022e-07 0 0 0 3.255468584e-07 
0 0 0 0 0 0 0 0 0 
-2.610874732e-07 0 0 0 -1.506952099e-07 0 0 0 0 
-3.263890449e-07 1.295967212e-07 0 1.295967212e-07 -2.404281174e-07 0 0 0 0 
0 0 0 0 0 0 0 0 4.041146858e-07 
0 0 0 0 0 0 0 0 3.380376462e-07 
1.226238324e-07 0 -1.238985099e-07 0 0 0 -1.238985099e-07 0 3.116648744e-07 
0 0 0 0 0 0 0 0 4.632396659e-07 
0 0 0 0 0 0 0 0 3.71076166e-07 
0 0 0 0 0 0 0 0 3.248512603e-07 
0 0 0 0 0 0 0 0 3.578897801e-07 
0 0 0 0 0 0 0 0 4.336771758e-07 
0 0 0 0 0 0 0 0 4.006386561e-07 
0 0 0 0 0 0 0 0 3.874522702e-07 
1.573725946e-07 0 -1.415579543e-07 0 1.329897458e-07 0 -1.415579543e-07 0 3.522686095e-07 
0 -1.490842446e-07 0 -1.490842446e-07 0 0 0 0 3.905311687e-07 
0 0 0 0 0 0 0 0 3.937324649e-07 
-2.12287341e-07 0 1.243607643e-07 0 -1.822394566e-07 -2.363581007e-07 1.243607643e-07 -2.363581007e-07 2.578398504e-07 
0 0 0 0 0 0 0 0 3.713998891e-07 
0 0 0 0 0 0 0 0 3.921318168e-07 
0 0 -1.221529696e-07 0 0 0 -1.221529696e-07 0 3.730005372e-07 
0 0 0 0 0 0 0 0 3.050542299e-07 
0 0 0 0 0 0 0 0 3.241855096e-07 
0 0 0 0 0 0 0 0 3.257861577e-07 
0 0 0 0 0 0 0 0 4.997833361e-07 
0 0 0 0 0 0 0 0 2.107732563e-07 
0 0 1.324875247e-07 0 0 0 1.324875247e-07 0 4.018470396e-07 
0 0 0 0 0 0 0 0 5.204644841e-07 
0 0 0 0 0 0 0 0 3.552782962e-07 
0 0 0 0 0 0 0 0 3.063101479e-07 
0 0 0 0 0 0 0 0 4.508151879e-07 
0 0 0 0 0 0 0 0 5.101239101e-07 
0 0 0 0 0 0 0 0 3.656188702e-07 
0 0 0 0 0 0 0 0 4.611557618e-07 
1.317930767e-07 0 0 0 0 0 0 0 2.467990424e-07 
1.197614465e-07 0 -1.432998684e-07 0 0 0 -1.432998684e-07 0 5.471984312e-07 
0 0 0 0 0 1.692934513e-07 0 1.692934513e-07 4.535063727e-07 
-2.004314807e-07 0 0 0 -1.611998051e-07 -1.614659195e-07 0 -1.614659195e-07 2.706928059e-07 
1.257772616e-07 0 -1.240302506e-07 0 0 0 -1.240302506e-07 0 3.969987368e-07 
0 0 0 0 0 1.272757506e-07 0 1.272757506e-07 5.00352402e-07 
0 0 0 0 0 0 0 0 3.501527075e-07 
0 0 0 0 0 0 0 0 2.587459241e-07 
0 0 0 0 0 0 0 0 4.089456186e-07 
0 0 0 0 0 0 0 0 3.620995893e-07 
3.388988145e-07 0 0 0 4.050972329e-07 0 0 0 3.709311303e-07 
-3.880684197e-07 2.127387114e-07 0 2.127387114e-07 -4.393290437e-07 -1.542876929e-07 0 -1.542876929e-07 0 
1.401576396e-07 -1.486671552e-07 0 -1.486671552e-07 1.214804851e-07 0 0 0 3.598200011e-07 
0 0 0 0 0 0 0 0 2.894575636e-07 
0 0 0 0 0 0 0 0 2.147097178e-07 
-1.239553901e-07 0 0 0 -1.589242793e-07 0 0 0 2.091541531e-07 
2.39528227e-07 0 0 0 2.63288859e-07 0 0 0 3.653755657e-07 
1.399207464e-07 0 0 0 1.567941852e-07 0 0 0 3.30194347e-07 
-2.235628707e-07 1.441303044e-07 0 1.441303044e-07 -2.654189531e-07 0 0 0 1.739729344e-07 
0 0 0 0 0 0 0 0 3.246387823e-07 
-1.693084947e-07 0 0 0 -1.70830478e-07 0 0 0 1.826926049e-07 
0 0 0 0 0 0 0 0 2.85573752e-07 
2.167253254e-07 0 0 0 1.703331624e-07 0 0 0 2.641828282e-07 
0 0 0 0 0 0 0 0 0 
0 0 0 0 0 0 0 0 2.341331785e-07 
0 0 0 0 0 0 0 0 2.748782901e-07 
0 0 0 0 0 0 0 0 2.234377166e-07 
-1.244812573e-07 0 0 0 0 0 0 0 1.22537972e-07 
0 0 0 0 0 0 0 0 1.739785456e-07 
0 0 0 0 0 0 0 0 1.632830837e-07 
-1.699626205e-07 0 0 0 -1.324573283e-07 0 0 0 0 
0 0 0 0 0 0 0 0 3.702872778e-07 
0 0 0 0 0 0 0 0 2.796072872e-07 
0 0 0 0 0 1.646495903e-07 0 1.646495903e-07 2.88720961e-07 
0 0 0 0 0 0 0 0 2.071536446e-07 
0 0 0 0 0 0 0 0 3.249472825e-07 
0 0 0 0 0 0 0 0 1.618136493e-07 
0 0 0 0 0 0 0 0 1.663704862e-07 
0 0 0 0 0 0 0 0 3.295041194e-07 
0 0 0 0 0 0 0 0 2.841641241e-07 
0 0 0 0 0 0 0 0 3.06324204e-07 
7.634818967e-07 -2.453266919e-07 0 -2.453266919e-07 4.966790525e-07 0 0 0 5.128889992e-07 
1.370075498e-07 0 0 0 2.380060569e-07 0 0 0 3.937547954e-07 
-8.203207842e-07 3.174984872e-07 0 3.174984872e-07 -6.348919656e-07 0 0 0 -2.510209241e-07 
3.461446656e-07 0 0 0 2.300381195e-07 0 0 0 4.096066016e-07 
4.502447233e-07 -1.529755576e-07 0 -1.529755576e-07 3.673425547e-07 0 0 0 4.533218973e-07 
0 0 0 0 0 0 0 0 3.500394997e-07 
-4.457566748e-07 1.831839984e-07 0 1.831839984e-07 -3.357473896e-07 0 0 0 0 
0 0 0 0 0 0 0 0 1.309340375e-07 
-3.416566172e-07 1.28437032e-07 0 1.28437032e-07 -1.984429544e-07 0 0 0 0 
-1.58475311e-07 0 0 0 0 0 0 0 2.634231984e-07 
0 0 0 0 0 0 0 0 1.464704509e-07 
0 0 0 0 0 0 0 0 2.945158788e-07 
0 0 0 0 0 0 0 0 2.900076558e-07 
0 0 0 0 0 0 0 0 2.049468247e-07 
0 0 0 0 0 0 0 0 2.204931649e-07 
0 0 0 0 0 0 0 0 2.789695386e-07 
0 0 0 0 0 0 0 0 2.767154271e-07 
0 0 0 0 0 0 0 0 2.182390533e-07 
0 0 0 0 0 0 0 0 2.922617673e-07 
3.689983955e-07 0 0 0 1.914407488e-07 0 0 0 2.96912389e-07 
-1.755653445e-07 0 0 0 0 0 0 0 2.535973408e-07 
-1.214805341e-07 0 0 0 -1.213486088e-07 0 0 0 2.191068741e-07 
0 0 0 0 0 0 0 0 1.73550094e-07 
0 0 0 0 0 0 0 0 2.752548649e-07 
-1.485229393e-07 0 0 0 0 0 0 0 2.363521074e-07 
1.237589307e-07 0 0 0 0 0 0 0 2.580096315e-07 
1.580026218e-07 0 0 0 0 0 0 0 2.352312415e-07 
0 0 0 0 0 0 0 0 2.135737174e-07 
0 0 0 0 0 0 0 0 1.96328484e-07 
1.424790349e-07 0 0 0 2.104408377e-07 0 0 0 0 
0 0 0 0 0 0 0 0 0 
-1.249029037e-07 0 0 0 -1.829676589e-07 0 0 0 0 
0 0 0 0 0 0 0 0 -1.411229937e-07 
0 0 0 0 0 0 0 0 0 
0 0 0 0 -1.231225462e-07 0 0 0 0 
0 0 0 0 0 0 0 0 0 
0 0 0 0 0 0 0 0 0 
0 0 0 0 0 0 0 0 0 
0 0 0 0 -1.20258989e-07 0 0 0 0 
0 0 0 0 1.596821103e-07 0 0 0 1.381294735e-07 
0 0 0 0 0 0 0 0 0 
0 0 0 0 -1.216588299e-07 0 0 0 -1.444534844e-07 
0 0 0 0 0 0 0 0 -1.311036191e-07 
0 0 0 0 0 0 0 0 0 
0 0 0 0 0 0 0 0 -1.264261299e-07 
0 0 0 0 0 0 0 0 0 
0 0 0 0 0 0 0 0 0 
0 0 0 0 0 0 0 0 -1.197511972e-07 
0 0 0 0 0 0 0 0 -1.377785518e-07 
0 0 0 0 -1.917965845e-07 0 0 0 -1.758959719e-07 
0 0 0 0 -1.785467378e-07 0 0 0 -1.834635731e-07 
0 0 0 0 3.395303058e-07 0 0 0 2.18283675e-07 
0 0 0 0 0 0 0 0 0 
0 0 0 0 -1.851716612e-07 0 0 0 -1.796797725e-07 
0 0 0 0 0 0 0 0 0 
0 0 0 0 0 0 0 0 0 
0 0 0 0 -1.46011942e-07 0 0 0 0 
0 0 0 0 -1.393870187e-07 0 0 0 0 
0 0 0 0 1.196515032e-07 0 0 0 1.346798192e-07 
1.931488822e-07 0 0 0 3.117594656e-07 0 0 0 0 
0 0 0 0 -1.415799131e-07 0 0 0 0 
-1.30261519e-07 0 0 0 -1.977282275e-07 0 0 0 0 
0 0 0 0 0 0 0 0 -1.826933808e-07 
0 0 0 0 0 0 0 0 0 
-1.193555563e-07 0 0 0 -1.696540703e-07 0 0 0 0 
0 0 0 0 0 0 0 0 0 
0 0 0 0 0 0 0 0 0 
0 0 0 0 -1.240578438e-07 0 0 0 0 
0 0 0 0 -1.521320009e-07 0 0 0 0 
-1.26170072e-07 0 0 0 -2.012677547e-07 0 0 0 0 
0 0 0 0 0 0 0 0 0 
1.346704942e-07 0 0 0 1.882568105e-07 0 0 0 0 
0 0 0 0 0 0 0 0 1.302061635e-07 
0 0 0 0 0 0 0 0 0 
0 0 0 0 0 0 0 0 0 
0 0 0 0 0 0 0 0 0 
0 0 0 0 0 0 0 0 0 
0 0 0 0 0 0 0 0 0 
0 0 0 0 0 0 0 0 0 
0 0 0 0 2.15529526e-07 0 0 0 1.918740923e-07 
0 0 0 0 0 0 0 0 -1.37860677e-07 
0 0 0 0 0 0 0 0 -1.339128192e-07 
0 0 0 0 0 0 0 0 -1.69027965e-07 
0 0 0 0 0 0 0 0 0 
0 0 0 0 0 0 0 0 -1.358867481e-07 
0 0 0 0 0 0 0 0 0 
0 0 0 0 0 0 0 0 0 
0 0 0 0 0 0 0 0 -1.53444321e-07 
0 0 0 0 0 0 0 0 -1.514703921e-07 
0 0 0 0 -2.378503447e-07 0 0 0 -2.081356185e-07 
0 0 0 0 0 0 0 0 -1.732643176e-07 
0 0 0 0 2.620400084e-07 0 0 0 2.136534652e-07 
0 0 0 0 0 0 0 0 1.560773987e-07 
0 0 0 0 -1.783962055e-07 0 0 0 -1.90699968e-07 
0 0 0 0 0 0 0 0 0 
0 0 0 0 0 0 0 0 0 
0 0 0 0 0 0 0 0 0 
0 0 0 0 0 0 0 0 0 
0 0 0 0 1.569109474e-07 0 0 0 1.84865432e-07 
1.413734806e-07 0 0 0 2.178611321e-07 0 0 0 0 
0 0 0 0 0 0 0 0 0 
0 0 0 0 0 0 0 0 0 
0 0 0 0 -1.311122931e-07 0 0 0 0 
0 0 0 0 0 0 0 0 0 
0 0 0 0 0 0 0 0 0 
0 0 0 0 0 0 0 0 0 
0 0 0 0 0 0 0 0 0 
0 0 0 0 0 0 0 0 0 
0 0 0 0 0 0 0 0 0 
-1.44788744e-07 0 0 0 -2.004501165e-07 0 0 0 0 
1.488155865e-07 0 0 0 2.226265745e-07 0 0 0 0 
0 0 0 0 -1.2317926e-07 0 0 0 0 
0 0 0 0 0 0 0 0 0 
0 0 0 0 0 0 0 0 0 
0 0 0 0 0 0 0 0 0 
-1.260879547e-07 0 0 0 -1.618146882e-07 0 0 0 0 
0 0 0 0 0 0 0 0 0 
0 0 0 0 1.455918259e-07 0 0 0 0 
0 0 0 0 0 0 0 0 0 
1.212453727e-07 0 0 0 3.724949239e-07 0 0 0 2.53013602e-07 
0 0 0 0 -1.844185664e-07 0 0 0 -2.008524338e-07 
0 0 0 0 -2.721859088e-07 0 0 0 -2.432524757e-07 
0 0 0 0 0 0 0 0 0 
0 0 0 0 0 0 0 0 0 
0 0 0 0 -2.283022376e-07 0 0 0 -2.220524548e-07 
0 0 0 0 0 0 0 0 0 
0 0 0 0 1.893717814e-07 0 0 0 1.841759607e-07 
0 0 0 0 0 0 0 0 0 
0 0 0 0 -1.32968635e-07 0 0 0 0 
0 0 0 0 -1.467239192e-07 0 0 0 -1.831373366e-07 
0 0 0 0 1.920890338e-07 0 0 0 1.726382791e-07 
0 0 0 0 0 0 0 0 0 
0 0 0 0 0 0 0 0 -1.681130362e-07 
0 0 0 0 0 0 0 0 0 
0 0 0 0 0 0 0 0 0 
0 0 0 0 0 0 0 0 -1.510762256e-07 
0 0 0 0 0 0 0 0 -1.756251864e-07 
0 0 0 0 0 0 0 0 0 
0 0 0 0 0 0 0 0 -1.435640755e-07 
0 0 0 0 0 0 0 0 0 
2.509736418e-07 0 0 0 3.376005861e-07 0 0 0 -2.188900427e-07 
0 -1.283015337e-07 -1.668969977e-07 -1.283015337e-07 -3.4134333e-07 0 -1.668969977e-07 0 -4.362380174e-07 
-2.400141369e-07 0 0 0 0 0 0 0 -4.198414421e-07 
1.4161971e-07 0 0 0 2.215598751e-07 0 0 0 -1.55577309e-07 
0 0 0 0 0 0 0 0 -3.275640301e-07 
0 0 0 0 0 0 0 0 -2.642512963e-07 
0 0 0 0 0 0 0 0 -2.560530086e-07 
0 0 0 0 0 0 0 0 -3.193657424e-07 
-1.480433025e-07 0 0 0 -2.225497809e-07 0 0 0 -4.280397297e-07 
0 0 0 0 0 0 0 0 -2.947062624e-07 
0 0 0 0 -1.29069987e-07 0 0 0 -4.478032264e-07 
0 0 0 0 1.844944671e-07 0 0 0 0 
1.362621353e-07 0 0 0 0 0 0 0 -1.256638822e-07 
0 0 0 0 0 0 0 0 -3.712547444e-07 
0 0 0 0 0 0 0 0 -2.604411396e-07 
0 0 0 0 0 0 0 0 -1.838926576e-07 
0 0 0 0 0 0 0 0 -2.101850723e-07 
0 0 0 0 0 0 0 0 -2.867335543e-07 
0 0 0 0 0 0 0 0 0 
1.640354753e-07 0 -1.230147712e-07 0 0 0 -1.230147712e-07 0 -2.457238614e-07 
0 0 0 0 0 0 0 0 -1.815846775e-07 
-1.728959685e-07 0 0 0 -1.386635095e-07 0 0 0 -2.411149281e-07 
0 0 0 0 1.727279198e-07 0 0 0 -2.308923262e-07 
0 0 0 0 0 0 0 0 -2.136542694e-07 
-1.286425381e-07 0 0 0 0 0 0 0 -2.113498028e-07 
0 0 0 0 0 0 0 0 -2.434193948e-07 
0 0 0 0 0 0 0 0 -2.383080938e-07 
0 0 0 0 0 0 0 0 -2.062385018e-07 
-1.228480075e-07 0 0 0 0 0 0 0 -2.360036272e-07 
-1.707875708e-07 0 0 0 0 0 0 0 -2.128756978e-07 
0 0 0 0 0 0 0 0 -1.522929072e-07 
2.615431435e-07 0 0 0 1.617263228e-07 0 0 0 -1.499381168e-07 
0 0 0 0 -1.202165241e-07 0 0 0 -1.989196125e-07 
0 0 0 0 0 0 0 0 -1.825843025e-07 
0 0 0 0 0 0 0 0 -1.51115512e-07 
0 0 0 0 0 0 0 0 -1.814069073e-07 
0 0 0 0 0 0 0 0 -2.058976552e-07 
0 0 0 0 0 0 0 0 -1.756062599e-07 
1.457699214e-07 0 0 0 0 0 0 0 -1.744288647e-07 
-1.851868545e-07 0 0 0 -2.500103194e-07 0 0 0 1.294396242e-07 
1.266974156e-07 0 0 0 1.935456493e-07 0 0 0 2.283440705e-07 
0 0 0 0 0 0 0 0 2.104014551e-07 
0 0 0 0 0 0 0 0 0 
0 0 0 0 0 0 0 0 1.788918474e-07 
0 0 0 0 0 0 0 0 2.193727628e-07 
0 0 0 0 -1.250921431e-07 0 0 0 1.699205397e-07 
0 0 0 0 -1.372626869e-07 0 0 0 0 
0 0 0 0 0 0 0 0 1.589762256e-07 
0 0 0 0 0 0 0 0 1.500049179e-07 
0 0 0 0 1.604438171e-07 0 0 0 2.060194276e-07 
0 0 0 0 0 0 0 0 2.469894034e-07 
0 0 0 0 0 0 0 0 2.248677692e-07 
-1.359717014e-07 0 0 0 0 0 0 0 2.18524566e-07 
0 0 0 0 0 0 0 0 2.265044155e-07 
0 0 0 0 0 0 0 0 2.359285863e-07 
0 0 0 0 0 0 0 0 2.154435984e-07 
0 0 0 0 0 0 0 0 2.122719968e-07 
0 0 0 0 0 0 0 0 2.327569847e-07 
0 0 0 0 0 0 0 0 2.216961676e-07 
0 0 0 0 -1.292592195e-07 0 0 0 0 
0 0 0 0 1.548861153e-07 0 0 0 3.049302259e-07 
0 0 0 0 0 0 0 0 0 
0 0 0 0 0 0 0 0 0 
0 0 0 0 0 0 0 0 1.892807602e-07 
0 0 0 0 0 0 0 0 2.052986238e-07 
0 0 0 0 0 0 0 0 0 
0 0 0 0 0 0 0 0 0 
0 0 0 0 0 0 0 0 1.994069405e-07 
0 0 0 0 0 0 0 0 0 
2.193086182e-07 -1.43161738e-07 0 -1.43161738e-07 3.377436373e-07 0 0 0 4.146876474e-07 
0 0 0 0 -1.677952046e-07 0 0 0 0 
-1.275657648e-07 0 0 0 -2.162002777e-07 0 0 0 0 
0 0 0 0 0 0 0 0 2.14998994e-07 
0 0 0 0 0 0 0 0 2.326796268e-07 
0 0 0 0 -1.919977412e-07 0 0 0 0 
0 0 0 0 0 0 0 0 2.047575303e-07 
0 0 0 0 1.419278091e-07 0 0 0 3.148433207e-07 
0 0 0 0 0 0 0 0 1.328353001e-07 
0 0 0 0 -1.350441484e-07 0 0 0 0 
0 0 0 0 -1.311503473e-07 0 0 0 -2.242022635e-07 
1.775709987e-07 0 0 0 2.593645152e-07 0 0 0 -1.932400887e-07 
-1.786094416e-07 0 0 0 -1.713614398e-07 0 0 0 -2.513974886e-07 
0 0 0 0 0 0 0 0 -3.621108381e-07 
0 0 0 0 0 0 0 0 -2.087211761e-07 
0 0 0 0 0 0 0 0 -2.223187886e-07 
-1.487299434e-07 0 0 0 -1.512558936e-07 0 0 0 -2.37799876e-07 
0 0 0 0 0 0 0 0 -2.931565508e-07 
0 0 0 0 0 0 0 0 -2.776754634e-07 
-1.35687886e-07 0 0 0 -1.298370091e-07 0 0 0 -3.067541634e-07 
1.524631033e-07 0 0 0 0 0 0 0 -2.48809024e-07 
-1.765703501e-07 0 0 0 0 0 0 0 -2.346683496e-07 
0 0 0 0 0 0 0 0 -1.64353074e-07 
0 0 0 0 0 0 0 0 -1.478879058e-07 
0 0 0 0 0 0 0 0 -2.417386868e-07 
-1.251287455e-07 0 0 0 0 0 0 0 -1.995107118e-07 
0 0 0 0 0 0 0 0 -2.06581049e-07 
0 0 0 0 0 0 0 0 -1.983484649e-07 
0 0 0 0 0 0 0 0 -1.912781277e-07 
0 0 0 0 0 0 0 0 -1.561204899e-07 
0 0 0 0 1.526276187e-07 0 0 0 -1.206871048e-07 
0 0 0 0 -1.212928077e-07 0 0 0 -3.076227764e-07 
0 0 0 0 0 0 0 0 -3.477049173e-07 
1.480737517e-07 0 0 0 0 0 0 0 0 
0 0 0 0 0 0 0 0 -2.141549406e-07 
0 0 0 0 0 0 0 0 -3.276638468e-07 
0 0 0 0 0 0 0 0 -2.341960111e-07 
0 0 0 0 1.303384414e-07 0 0 0 0 
0 0 0 0 0 0 0 0 -2.058936507e-07 
0 0 0 0 0 0 0 0 -2.259347211e-07 
-3.462676806e-07 0 0 0 -1.30585842e-07 0 0 0 -3.043517195e-07 
0 0 0 0 0 0 0 0 3.798114581e-07 
2.046688e-07 0 0 0 0 0 0 0 3.950074816e-07 
2.351272966e-07 0 0 0 0 0 0 0 0 
-1.516547819e-07 0 0 0 0 0 0 0 0 
1.238134584e-07 0 0 0 0 0 0 0 3.874094699e-07 
0 0 0 0 0 0 0 0 0 
0 0 0 0 0 0 0 0 -1.676887326e-07 
1.390427068e-07 0 0 0 0 0 0 0 1.743928562e-07 
2.198980483e-07 0 0 0 0 0 0 0 1.819908679e-07 
0 0 0 0 0 0 0 0 3.259816832e-07 
0 0 0 0 0 0 0 0 3.579316142e-07 
0 0 0 0 0 0 0 0 -1.533277942e-07 
0 0 0 0 0 0 0 0 2.830321241e-07 
0 0 0 0 0 0 0 0 3.419566487e-07 
0 0 0 0 0 0 0 0 0 
0 0 0 0 0 0 0 0 0 
0 0 0 0 0 0 0 0 3.045069037e-07 
0 0 0 0 0 0 0 0 3.204818692e-07 
0 0 0 0 0 0 0 0 0 
0 0 0 0 0 0 0 0 2.653151215e-07 
0 0 0 0 0 0 0 0 0 
0 0 0 0 0 0 0 0 -1.509949035e-07 
0 0 0 0 0 0 0 0 0 
0 0 0 0 0 0 0 0 0 
0 0 0 0 0 0 0 0 0 
0 0 0 0 0 0 0 0 0 
0 0 0 0 0 0 0 0 0 
0 0 0 0 0 0 0 0 0 
0 0 0 0 0 0 0 0 -1.272253334e-07 
2.413228611e-07 0 0 0 1.45012915e-07 0 0 0 0 
0 0 0 0 1.269562248e-07 0 0 0 0 
-2.219777434e-07 0 0 0 -1.54199463e-07 0 0 0 2.139103013e-07 
0 0 0 0 0 0 0 0 3.180284716e-07 
1.48643941e-07 0 0 0 1.359845699e-07 0 0 0 0 
0 0 0 0 0 0 0 0 0 
0 0 0 0 0 0 0 0 0 
1.304838625e-07 0 0 0 0 0 0 0 1.379560501e-07 
0 0 0 0 0 0 0 0 1.304786143e-07 
0 0 0 0 0 0 0 0 2.659693864e-07 
-1.40271128e-07 0 0 0 0 0 0 0 -1.976229765e-07 
0 0 0 0 0 0 0 0 -1.441679539e-07 
0 0 0 0 0 0 0 0 -2.093327404e-07 
0 0 0 0 0 0 0 0 -1.212919619e-07 
0 0 0 0 0 0 0 0 -1.708954652e-07 
0 0 0 0 0 0 0 0 -1.767503471e-07 
0 0 0 0 0 0 0 0 -2.034778585e-07 
0 0 0 0 0 0 0 0 -1.594574692e-07 
0 0 0 0 0 0 0 0 -1.327299579e-07 
0 0 0 0 0 0 0 0 -1.653123512e-07 
1.797897737e-07 0 0 0 2.697336346e-07 0 0 0 -1.378572851e-07 
-1.487770543e-07 0 0 0 -1.343490292e-07 0 0 0 -2.088124871e-07 
0 0 0 0 -1.549890394e-07 0 0 0 -2.073319224e-07 
0 0 0 0 0 0 0 0 -3.240180932e-07 
0 0 0 0 0 0 0 0 -1.733348861e-07 
-1.334525277e-07 0 0 0 -1.446690343e-07 0 0 0 -2.080722048e-07 
0 0 0 0 0 0 0 0 -1.725946038e-07 
0 0 0 0 0 0 0 0 -2.309376892e-07 
-1.304498444e-07 0 0 0 -1.25041683e-07 0 0 0 -2.664152902e-07 
0 0 0 0 -1.353616881e-07 0 0 0 -2.656750078e-07 
0 0 0 0 0 0 0 0 -2.850515231e-07 
0 0 0 0 -1.303973963e-07 0 0 0 -3.211898251e-07 
0 0 0 0 1.889964778e-07 0 0 0 0 
1.211897723e-07 0 0 0 0 0 0 0 0 
0 0 0 0 -1.247839791e-07 0 0 0 -3.031206741e-07 
0 0 0 0 0 0 0 0 -1.932613181e-07 
0 0 0 0 0 0 0 0 -1.75192167e-07 
0 0 0 0 0 0 0 0 -1.840434031e-07 
0 0 0 0 0 0 0 0 -2.021125541e-07 
0 0 0 0 1.322154877e-07 0 0 0 0 
0 0 0 0 0 0 0 0 0 
0 0 0 0 0 0 0 0 -2.622709545e-07 
0 0 0 0 0 0 0 0 -2.180228807e-07 
-1.272815108e-07 0 0 0 0 0 0 0 -2.853006237e-07 
0 0 0 0 0 0 0 0 -1.735899631e-07 
0 0 0 0 0 0 0 0 -2.401469176e-07 
0 0 0 0 0 0 0 0 -1.514659262e-07 
0 0 0 0 0 0 0 0 -1.851047977e-07 
0 0 0 0 0 0 0 0 -2.737857891e-07 
0 0 0 0 0 0 0 0 -2.516617522e-07 
0 0 0 0 0 0 0 0 -1.383278859e-07 
0 0 0 0 0 0 0 0 2.81057938e-07 
0 0 0 0 0 0 0 0 3.047685633e-07 
0 0 0 0 0 0 0 0 2.394866483e-07 
0 0 0 0 0 0 0 0 0 
0 0 0 0 0 0 0 0 2.929132507e-07 
0 0 0 0 0 0 0 0 0 
0 0 0 0 0 0 0 0 0 
0 0 0 0 0 0 0 0 2.602722932e-07 
0 0 0 0 0 0 0 0 2.721276058e-07 
1.399255645e-07 0 0 0 0 0 0 0 3.197392487e-07 
-2.658977521e-07 0 0 0 0 0 0 0 -2.445537723e-07 
0 0 0 0 0 0 0 0 3.350735961e-07 
1.540481641e-07 0 0 0 0 0 0 0 0 
0 0 0 0 0 0 0 0 0 
0 0 0 0 0 0 0 0 0 
0 0 0 0 0 0 0 0 3.274064224e-07 
1.469868643e-07 0 0 0 0 0 0 0 1.372700545e-07 
0 0 0 0 0 0 0 0 -1.44876456e-07 
0 0 0 0 0 0 0 0 1.449372282e-07 
0 0 0 0 0 0 0 0 0 
0 0 0 0 0 0 0 0 -2.241751564e-07 
0 0 0 0 0 0 0 0 -1.811469799e-07 
0 0 0 0 0 0 0 0 -2.392514082e-07 
0 0 0 0 0 0 0 0 -1.423579875e-07 
0 0 0 0 0 0 0 0 -2.026610682e-07 
0 0 0 0 0 0 0 0 -1.208438993e-07 
0 0 0 0 0 0 0 0 -1.498961134e-07 
0 0 0 0 0 0 0 0 -2.317132823e-07 
0 0 0 0 0 0 0 0 -2.101991941e-07 
0 0 0 0 0 0 0 0 -2.554017872e-07 
0 0 0 0 -1.497756467e-07 0 0 0 -2.768237124e-07 
0 0 0 0 2.165831501e-07 0 0 0 0 
0 0 0 0 0 0 0 0 0 
0 0 0 0 -1.302772784e-07 0 0 0 -2.661127498e-07 
0 0 0 0 0 0 0 0 -1.485274816e-07 
0 0 0 0 0 0 0 0 -1.37816519e-07 
0 0 0 0 0 0 0 0 -1.673926413e-07 
0 0 0 0 0 0 0 0 -1.781036039e-07 
0 0 0 0 0 0 0 0 0 
1.754177569e-07 0 0 0 2.598067557e-07 0 0 0 0 
0 0 0 0 0 0 0 0 -1.565808542e-07 
-1.196565442e-07 0 0 0 -1.703199924e-07 0 0 0 -1.882036024e-07 
-1.366951004e-07 0 0 0 -1.446635409e-07 0 0 0 -2.937985398e-07 
0 0 0 0 0 0 0 0 -1.257334883e-07 
0 0 0 0 -1.258599627e-07 0 0 0 -1.723922283e-07 
0 0 0 0 0 0 0 0 -1.415448624e-07 
0 0 0 0 0 0 0 0 -1.943423311e-07 
-1.229534669e-07 0 0 0 0 0 0 0 -2.25189697e-07 
-1.281758223e-07 0 0 0 -1.574917667e-07 0 0 0 -2.410010711e-07 
0 0 0 0 0 0 0 0 -1.552700462e-07 
0 0 0 0 0 0 0 0 -1.226241404e-07 
0 0 0 0 0 0 0 0 -1.776938056e-07 
0 0 0 0 0 0 0 0 0 
0 0 0 0 0 0 0 0 -1.389470933e-07 
0 0 0 0 0 0 0 0 -1.50158973e-07 
0 0 0 0 0 0 0 0 -1.664819259e-07 
0 0 0 0 0 0 0 0 -1.245635094e-07 
0 0 0 0 0 0 0 0 0 
0 0 0 0 0 0 0 0 -1.357753891e-07 
0 0 0 0 0 0 0 0 0 
0 0 0 0 0 0 0 0 -4.68905978e-07 
0 0 0 0 0 0 0 0 -4.982062936e-07 
-2.751239041e-07 0 0 0 -1.749176816e-07 0 0 0 -6.836946669e-07 
0 0 0 0 0 0 0 0 -2.519627698e-07 
0 0 0 0 0 0 0 0 -4.835561358e-07 
0 0 0 0 0 0 0 0 -2.666129276e-07 
-1.727704786e-07 0 0 0 0 0 0 0 -3.593571142e-07 
-1.219781258e-07 0 0 0 0 0 0 0 -5.763003225e-07 
-1.837217675e-07 0 0 0 0 0 0 0 -5.909504803e-07 
6.211689166e-07 0 0 0 3.378070497e-07 0 0 0 -1.833374424e-07 
1.887167038e-07 0 0 0 1.417176055e-07 0 0 0 -4.030618205e-07 
-8.731269761e-07 2.14148842e-07 -1.278739601e-07 2.14148842e-07 -4.856200546e-07 0 -1.278739601e-07 0 -4.057887393e-07 
4.581015352e-07 -1.355094721e-07 0 -1.355094721e-07 3.074224315e-07 0 0 0 4.087107029e-07 
4.049428102e-07 0 0 0 2.397623276e-07 0 0 0 -2.931996315e-07 
-3.422051361e-07 0 0 0 -1.719512246e-07 0 0 0 -4.044252799e-07 
-1.259790298e-07 0 0 0 0 0 0 0 -2.945630909e-07 
5.396352259e-07 0 0 0 3.226147406e-07 0 0 0 0 
3.234091195e-07 0 0 0 2.245700185e-07 0 0 0 0 
-2.075127205e-07 0 0 0 0 0 0 0 0 
-2.424483706e-07 0 0 0 0 0 0 0 -5.597645825e-07 
0 0 0 0 0 0 0 0 1.510679591e-07 
4.862871914e-07 0 0 0 2.078626427e-07 0 0 0 2.030867499e-07 
2.50558607e-07 0 0 0 0 0 0 0 -4.605443752e-07 
-1.208843375e-07 0 0 0 0 0 0 0 -2.043483117e-07 
2.434834434e-07 0 0 0 0 0 0 0 1.770773545e-07 
1.219194104e-07 0 0 0 0 0 0 0 -1.783389163e-07 
0 0 0 0 0 0 0 0 -5.101544788e-07 
1.256191512e-07 0 0 0 0 0 0 0 -1.54738208e-07 
3.684228992e-07 0 0 0 1.372193074e-07 0 0 0 -1.287288126e-07 
9.478186011e-07 -1.795522191e-07 0 -1.795522191e-07 4.687819656e-07 0 0 0 4.268650683e-07 
-7.666601787e-07 1.25348958e-07 0 1.25348958e-07 -4.114784164e-07 0 0 0 -1.95142271e-07 
0 0 0 0 0 0 0 0 -4.871805106e-07 
0 0 0 0 0 0 0 0 1.530224637e-07 
0 0 0 0 0 0 0 0 0 
-4.16594397e-07 0 0 0 -2.035420973e-07 0 0 0 -3.411613908e-07 
4.40644993e-07 0 0 0 2.365880937e-07 0 0 0 0 
4.205742179e-07 0 0 0 2.451908475e-07 0 0 0 2.89943766e-07 
-4.36665172e-07 0 0 0 -1.949393435e-07 0 0 0 0 
0 0 0 0 0 0 0 0 -1.670790234e-07 
9.150867269e-07 -1.884972742e-07 -1.516885873e-07 -1.884972742e-07 4.666950182e-07 0 -1.516885873e-07 0 4.168802711e-07 
-8.937919346e-07 1.605725598e-07 0 1.605725598e-07 -4.687303938e-07 1.242490114e-07 0 1.242490114e-07 -2.386958573e-07 
0 0 0 0 0 0 0 0 -4.783613264e-07 
-1.221730775e-07 0 0 0 0 0 0 0 1.663699411e-07 
0 0 0 0 0 0 0 0 0 
-3.965149943e-07 0 0 0 -1.951932328e-07 0 0 0 -3.585285918e-07 
5.079243365e-07 0 0 0 2.725194732e-07 0 0 0 0 
3.964568247e-07 0 0 0 2.497263136e-07 0 0 0 2.916251061e-07 
-5.079825061e-07 0 0 0 -2.179863924e-07 0 0 0 0 
0 0 0 0 0 0 0 0 -1.559956927e-07 
-1.663718943e-07 0 0 0 0 0 0 0 -5.892801413e-07 
0 0 0 0 0 1.326430267e-07 0 1.326430267e-07 0 
5.81396046e-07 0 0 0 2.576884503e-07 0 0 0 2.454005748e-07 
2.340946475e-07 0 0 0 0 0 0 0 -5.394777127e-07 
-1.406693012e-07 0 0 0 0 0 0 0 -2.374060901e-07 
2.33214669e-07 0 0 0 0 0 0 0 1.79934268e-07 
2.075120758e-07 0 0 0 0 0 0 0 -1.719397833e-07 
0 0 0 0 0 0 0 0 -5.64378927e-07 
0 0 0 0 0 0 0 0 -2.125048758e-07 
4.077453468e-07 0 0 0 1.549593293e-07 0 0 0 -1.47038569e-07 
6.528715589e-07 0 0 0 3.444501777e-07 0 0 0 -2.361474429e-07 
0 0 0 0 0 0 0 0 -4.994391128e-07 
-8.778792663e-07 2.213850684e-07 -1.470361388e-07 2.213850684e-07 -4.860660522e-07 0 -1.470361388e-07 0 -4.051379203e-07 
6.023959152e-07 -1.825653899e-07 0 -1.825653899e-07 4.069604575e-07 0 0 0 4.968949421e-07 
3.759654189e-07 0 0 0 2.153190097e-07 0 0 0 -3.677932779e-07 
-3.894099938e-07 0 0 0 -1.999391053e-07 0 0 0 -4.522885166e-07 
0 0 0 0 0 0 0 0 -3.206426816e-07 
6.276337371e-07 -1.22705484e-07 0 -1.22705484e-07 3.757053176e-07 0 0 0 1.303737496e-07 
3.50727597e-07 0 0 0 2.465741496e-07 0 0 0 0 
-1.377416755e-07 0 0 0 0 0 0 0 0 
0 0 0 0 0 0 0 0 0 
0 0 0 0 0 0 0 0 -5.71383574e-07 
0 0 0 0 0 0 0 0 -5.499212079e-07 
-3.236898581e-07 0 0 0 -2.081797597e-07 0 0 0 -7.727253335e-07 
0 0 0 0 0 0 0 0 -2.822003757e-07 
0 0 0 0 0 0 0 0 -5.606523909e-07 
0 0 0 0 0 0 0 0 -2.714691927e-07 
-1.519978594e-07 0 0 0 0 0 0 0 -3.828712555e-07 
-2.028706552e-07 0 0 0 0 0 0 0 -6.720544537e-07 
-1.944610134e-07 0 0 0 0 0 0 0 -6.613232707e-07 
1.543078862e-07 0 0 0 0 0 0 0 -2.336526285e-07 
0 1.811683624e-07 2.803981893e-07 1.811683624e-07 5.742873749e-07 2.466896519e-07 2.803981893e-07 2.466896519e-07 -1.779441836e-07 
-2.758781665e-07 -2.553875179e-07 -1.552731321e-07 -2.553875179e-07 -4.174592391e-07 0 -1.552731321e-07 0 -4.548330937e-07 
0 0 0 0 0 0 0 0 -3.875594494e-07 
0 1.272362951e-07 0 1.272362951e-07 3.036479708e-07 0 0 0 -2.057984061e-07 
0 0 0 0 0 0 0 0 -3.163886387e-07 
0 0 0 0 -1.922253361e-07 0 0 0 -3.442428611e-07 
0 0 0 0 0 0 0 0 -3.106060389e-07 
0 0 1.242483507e-07 0 2.420986714e-07 0 1.242483507e-07 0 -2.827518165e-07 
-1.671456329e-07 -1.210796386e-07 0 -1.210796386e-07 -2.537746356e-07 0 0 0 -4.211962715e-07 
2.954308917e-07 0 0 0 2.62649582e-07 0 0 0 0 
0 0 0 0 0 0 0 0 -3.749021498e-07 
-1.262675966e-07 0 0 0 -1.217214134e-07 0 0 0 -3.678802045e-07 
0 -1.270086704e-07 0 -1.270086704e-07 0 0 0 0 -2.868579801e-07 
1.408470984e-07 0 0 0 0 0 0 0 -2.291445985e-07 
0 0 0 0 0 0 0 0 -3.713911771e-07 
0 0 0 0 0 0 0 0 -2.256336258e-07 
1.806490836e-07 0 0 0 1.664965853e-07 0 0 0 -1.851225136e-07 
0 0 0 0 0 0 0 0 -3.30880065e-07 
0 0 0 0 0 0 0 0 -3.273690923e-07 
6.85373901e-07 1.482819943e-07 0 1.482819943e-07 6.069605656e-07 0 0 0 1.408533426e-07 
-1.361030628e-06 -3.372129843e-07 0 -3.372129843e-07 -8.462747567e-07 0 0 0 -8.463494026e-07 
2.377352045e-07 0 0 0 0 0 0 0 -2.198502632e-07 
3.737417922e-07 1.47271648e-07 0 1.47271648e-07 1.885264756e-07 0 0 0 -1.743262423e-07 
-3.378283634e-07 0 0 0 -1.196570956e-07 0 0 0 -3.5274803e-07 
-5.616477116e-07 -1.309020385e-07 0 -1.309020385e-07 -4.253326545e-07 0 0 0 -5.330998329e-07 
4.615545528e-07 0 0 0 3.012850067e-07 0 0 0 0 
5.295578466e-07 1.477768211e-07 0 1.477768211e-07 3.977435206e-07 0 0 0 0 
-4.936444178e-07 0 0 0 -3.288741405e-07 0 0 0 -5.103378224e-07 
3.057384983e-07 0 0 0 0 0 0 0 -1.970882527e-07 
0 0 0 0 -1.278642611e-07 0 0 0 -3.711948938e-07 
-3.615846473e-07 0 0 0 -1.818400216e-07 0 0 0 -3.470965537e-07 
3.685329627e-07 0 0 0 3.623061741e-07 0 0 0 0 
0 0 0 0 0 0 0 0 -3.125574159e-07 
-2.336899778e-07 0 0 0 -1.548521414e-07 0 0 0 -3.591457238e-07 
0 0 0 0 0 0 0 0 -1.795723909e-07 
1.313688273e-07 0 0 0 0 0 0 0 -1.91621561e-07 
0 0 0 0 0 0 0 0 -3.418761548e-07 
-1.322995116e-07 0 0 0 0 0 0 0 -3.298269848e-07 
2.327592934e-07 0 0 0 2.069810462e-07 0 0 0 -1.62302822e-07 
-2.602015553e-07 0 0 0 -1.20170853e-07 0 0 0 -2.682023347e-07 
3.092203752e-07 0 0 0 3.008935509e-07 0 0 0 0 
0 0 0 0 0 0 0 0 -3.340672118e-07 
0 0 0 0 0 0 0 0 -2.826411068e-07 
0 0 0 0 0 0 0 0 -1.385611831e-07 
0 0 0 0 0 0 0 0 -1.714936217e-07 
-1.841723594e-07 0 0 0 0 0 0 0 -3.011347733e-07 
0 0 0 0 0 0 0 0 -2.754217208e-07 
1.965116793e-07 0 0 0 1.624964723e-07 0 0 0 -1.457805691e-07 
0 0 0 0 0 0 0 0 -3.083541593e-07 
4.274721865e-07 0 0 0 4.002556735e-07 0 0 0 0 
-1.092462407e-06 -2.73045303e-07 0 -2.73045303e-07 -6.858286416e-07 0 0 0 -6.851182259e-07 
2.531125866e-07 0 0 0 0 0 0 0 -1.757365317e-07 
3.265076766e-07 1.402790943e-07 0 1.402790943e-07 2.025409024e-07 0 0 0 -1.434006796e-07 
-3.324951101e-07 0 0 0 -1.427864841e-07 0 0 0 -3.170097699e-07 
-4.1967491e-07 0 0 0 -3.279736222e-07 0 0 0 -4.304273788e-07 
3.402923865e-07 0 0 0 2.150685354e-07 0 0 0 0 
3.769899315e-07 0 0 0 3.013982879e-07 0 0 0 0 
-3.82977365e-07 0 0 0 -2.416438696e-07 0 0 0 -4.142594528e-07 
2.898101316e-07 0 0 0 0 0 0 0 -1.595686056e-07 
-1.502485762e-07 0 0 0 -1.338568309e-07 0 0 0 -3.259574253e-07 
1.361783796e-07 0 0 0 0 0 0 0 -2.96762099e-07 
0 0 0 0 0 0 0 0 -1.199840267e-07 
0 0 0 0 0 0 0 0 -2.536671068e-07 
0 0 0 0 0 0 0 0 -3.113597621e-07 
0 0 0 0 0 0 0 0 -2.083730629e-07 
0 0 0 0 0 0 0 0 -2.22970726e-07 
0 0 0 0 0 0 0 0 -2.89812266e-07 
0 0 0 0 0 0 0 0 -2.752146029e-07 
0 0 0 0 0 0 0 0 -1.868255668e-07 
1.316845592e-07 0 -1.212507006e-07 0 0 0 -1.212507006e-07 0 -3.183737068e-07 
0 0 0 0 0 0 0 0 -2.765645655e-07 
0 0 0 0 0 0 0 0 -1.953061342e-07 
0 0 0 0 0 0 0 0 -2.983242274e-07 
0 0 0 0 0 0 0 0 -2.974691361e-07 
0 0 0 0 0 0 0 0 -2.359353498e-07 
0 0 0 0 0 0 0 0 -2.568399205e-07 
0 0 0 0 0 0 0 0 -3.083489671e-07 
0 0 0 0 0 0 0 0 -2.874443964e-07 
0 0 0 0 0 0 0 0 -2.468151808e-07 
-1.750041835e-07 0 0 0 -1.304286123e-07 0 0 0 -3.550725577e-07 
2.524954134e-07 0 0 0 2.258046911e-07 0 0 0 0 
0 0 0 0 0 0 0 0 -3.247228032e-07 
0 0 0 0 0 0 0 0 -2.608893666e-07 
0 0 0 0 0 0 0 0 -2.058299207e-07 
1.325590549e-07 0 0 0 0 0 0 0 -1.906550435e-07 
0 0 0 0 0 0 0 0 -3.398976805e-07 
0 0 0 0 0 0 0 0 -3.079809622e-07 
1.452332869e-07 0 0 0 1.423455093e-07 0 0 0 -1.587383252e-07 
0 0 0 0 0 0 0 0 -2.928060849e-07 
-2.481116911e-07 -2.337559446e-07 0 -2.337559446e-07 -4.027629899e-07 0 0 0 -3.924727295e-07 
1.430784777e-07 0 0 0 0 0 0 0 -2.180741137e-07 
1.38343084e-07 2.201911024e-07 2.19905911e-07 2.201911024e-07 6.637764856e-07 1.915992163e-07 2.19905911e-07 1.915992163e-07 0 
-1.910607856e-07 0 0 0 -2.393207833e-07 0 0 0 -4.312295842e-07 
0 0 0 0 -2.019953754e-07 0 0 0 -3.052734216e-07 
1.407107809e-07 1.371924671e-07 0 1.371924671e-07 3.312743623e-07 0 0 0 -1.505141461e-07 
0 0 0 0 1.305067479e-07 0 0 0 -2.37713454e-07 
-2.195862383e-07 -1.411102177e-07 0 -1.411102177e-07 -3.210418866e-07 0 0 0 -4.118511568e-07 
0 0 0 0 -1.202742721e-07 0 0 0 -3.246518489e-07 
0 0 0 0 2.122278512e-07 0 0 0 -2.570918814e-07 
0 0 0 0 0 0 0 0 -3.771036245e-07 
-1.731242879e-07 0 0 0 0 0 0 0 -4.229373844e-07 
2.408078018e-07 0 0 0 1.340370455e-07 0 0 0 2.365125861e-07 
0 0 0 0 0 0 0 0 -3.122552797e-07 
0 0 0 0 0 0 0 0 -4.000205045e-07 
0 0 0 0 0 0 0 0 0 
1.410175317e-07 0 0 0 0 0 0 0 0 
0 0 0 0 0 0 0 0 -3.446794521e-07 
0 0 0 0 0 0 0 0 -3.67596332e-07 
1.266216879e-07 0 0 0 0 0 0 0 0 
1.922791456e-07 0 0 0 1.212951301e-07 0 0 0 2.199708278e-07 
2.838449733e-07 0 0 0 1.77855101e-07 0 0 0 -2.22195313e-07 
0 0 0 0 0 0 0 0 -3.929449225e-07 
-5.213362331e-07 0 0 0 -2.741726016e-07 0 0 0 -2.283967129e-07 
2.380620594e-07 0 0 0 1.495751156e-07 0 0 0 0 
1.522519018e-07 0 0 0 0 0 0 0 -3.075701178e-07 
0 0 0 0 0 0 0 0 0 
-1.645285438e-07 0 0 0 0 0 0 0 0 
0 0 0 0 0 0 0 0 -2.252960129e-07 
-2.503387014e-07 0 0 0 -1.565418301e-07 0 0 0 -3.106708177e-07 
1.305599235e-07 0 0 0 0 0 0 0 1.929149784e-07 
1.356113607e-07 0 0 0 0 0 0 0 1.678383776e-07 
1.215785383e-07 0 0 0 0 0 0 0 -3.342534862e-07 
-3.706703274e-07 0 0 0 -1.445610289e-07 0 0 0 -4.698999128e-07 
1.330856421e-07 0 0 0 0 0 0 0 1.80376678e-07 
1.285949495e-07 0 0 0 0 0 0 0 0 
1.260692309e-07 0 0 0 0 0 0 0 0 
-1.20055202e-07 0 0 0 0 0 0 0 -1.384924672e-07 
0 0 0 0 0 0 0 0 -1.510307676e-07 
-1.245458946e-07 0 0 0 0 0 0 0 -4.020766995e-07 
2.233654654e-07 0 0 0 0 0 0 0 -3.025722295e-07 
-6.425050982e-07 0 0 0 -3.431493621e-07 0 0 0 -1.824314495e-07 
0 0 0 0 0 0 0 0 0 
7.922823281e-07 -1.538702807e-07 0 -1.538702807e-07 3.85297742e-07 0 0 0 3.624452138e-07 
-2.095698164e-07 0 0 0 -1.459531844e-07 0 0 0 -2.425018395e-07 
-3.741799381e-07 0 0 0 -1.765682767e-07 0 0 0 0 
0 0 0 0 0 0 0 0 0 
5.078238967e-07 0 0 0 2.182703677e-07 0 0 0 0 
0 0 0 0 0 0 0 0 0 
3.43213775e-07 0 0 0 1.876552754e-07 0 0 0 2.274033279e-07 
0 0 0 0 0 0 0 0 2.230227018e-07 
0 0 0 0 0 0 0 0 1.780817799e-07 
0 0 0 0 0 -1.290522908e-07 0 -1.290522908e-07 3.725315075e-07 
0 0 0 0 0 2.215263844e-07 0 2.215263844e-07 2.252323077e-07 
0 0 0 0 0 0 0 0 2.005522408e-07 
0 0 0 0 0 0 0 0 2.753066437e-07 
0 0 0 0 0 0 0 0 2.977771047e-07 
0 0 0 0 0 1.23270582e-07 0 1.23270582e-07 2.241275047e-07 
0 0 0 0 0 1.238557949e-07 0 1.238557949e-07 2.016570438e-07 
0 0 0 0 0 0 0 0 2.988819076e-07 
5.41889348e-07 -1.615649794e-07 0 -1.615649794e-07 2.728817339e-07 0 0 0 3.811230335e-07 
-2.533246115e-07 0 0 0 -1.430017306e-07 0 0 0 1.744411388e-07 
0 0 0 0 0 0 0 0 3.85704881e-07 
-2.973208606e-07 1.523958922e-07 0 1.523958922e-07 -1.796991097e-07 0 0 0 0 
1.442823683e-07 0 0 0 0 0 0 0 2.777820861e-07 
0 0 0 0 0 0 0 0 2.800730099e-07 
2.898215546e-07 0 0 0 1.939488177e-07 0 0 0 3.834139572e-07 
1.222842437e-07 0 0 0 0 0 0 0 2.248883372e-07 
-2.75322736e-07 0 0 0 -1.613504202e-07 0 0 0 1.215473899e-07 
-1.297835497e-07 0 0 0 0 0 0 0 2.27179261e-07 
0 0 0 0 0 0 0 0 1.650967832e-07 
0 0 0 0 0 0 0 0 3.451825047e-07 
0 0 0 0 0 0 0 0 1.985651465e-07 
0 0 0 0 0 1.456987218e-07 0 1.456987218e-07 1.910771196e-07 
0 0 0 0 0 0 0 0 2.55139644e-07 
0 0 0 0 0 0 0 0 2.718738256e-07 
0 0 0 0 0 0 0 0 1.818309649e-07 
0 0 0 0 0 0 0 0 1.780869514e-07 
0 0 0 0 0 0 0 0 2.681298122e-07 
0 0 0 0 0 0 0 0 1.948211331e-07 
-2.66805995e-07 0 0 0 -1.837024492e-07 0 0 0 0 
0 0 0 0 1.723781669e-07 0 0 0 3.856087287e-07 
4.477579154e-07 -1.313326629e-07 0 -1.313326629e-07 2.27690214e-07 0 0 0 3.189030509e-07 
-2.725493284e-07 1.246529971e-07 0 1.246529971e-07 -1.616974045e-07 0 0 0 0 
0 0 0 0 0 0 0 0 2.51179564e-07 
2.826401332e-07 0 0 0 2.000341905e-07 0 0 0 3.522558898e-07 
0 0 0 0 0 0 0 0 2.178267251e-07 
-2.696776617e-07 0 0 0 -1.726999269e-07 0 0 0 0 
0 0 0 0 0 0 0 0 2.156565435e-07 
0 0 0 0 0 0 0 0 1.823037046e-07 
-2.460547459e-07 0 0 0 -1.98397409e-07 0 0 0 0 
1.668850303e-07 0 0 0 2.015423587e-07 0 0 0 3.62296656e-07 
3.292683634e-07 0 0 0 1.846916278e-07 0 0 0 2.542841039e-07 
-2.381350001e-07 0 0 0 -1.545913244e-07 0 0 0 0 
0 0 0 0 0 0 0 0 2.191116842e-07 
2.480766968e-07 0 0 0 1.931169933e-07 0 0 0 3.082903799e-07 
0 0 0 0 0 0 0 0 1.651054082e-07 
-2.42094873e-07 0 0 0 -1.764943667e-07 0 0 0 0 
0 0 0 0 0 0 0 0 1.932463664e-07 
0 0 0 0 0 0 0 0 1.392400903e-07 
0 0 0 0 0 0 0 0 1.485107302e-07 
0 0 0 0 0 0 0 0 2.980529788e-07 
0 0 0 0 0 0 0 0 1.734110625e-07 
0 0 0 0 0 0 0 0 1.670446684e-07 
0 0 0 0 0 0 0 0 2.232818545e-07 
0 0 0 0 0 0 0 0 2.357320206e-07 
0 0 0 0 0 0 0 0 1.609608964e-07 
0 0 0 0 0 0 0 0 1.577776993e-07 
0 0 0 0 0 0 0 0 2.325488236e-07 
0 0 0 0 0 0 0 0 1.702278655e-07 
0 0 0 0 0 -1.800431684e-07 0 -1.800431684e-07 3.872339822e-07 
-1.419205668e-07 0 0 0 -1.210451705e-07 0 0 0 2.479836255e-07 
0 0 0 0 0 0 0 0 1.688337829e-07 
0 0 0 0 0 3.029662402e-07 0 3.029662402e-07 2.759802751e-07 
0 0 0 0 0 0 0 0 3.176088039e-07 
0 0 0 0 0 0 0 0 2.084087042e-07 
0 0 0 0 0 0 0 0 2.780338826e-07 
0 0 0 0 0 0 0 0 3.316071287e-07 
0 0 0 0 0 1.666810118e-07 0 1.666810118e-07 2.619819503e-07 
0 0 0 0 0 1.656192619e-07 0 1.656192619e-07 2.22407029e-07 
6.300320958e-07 -1.882299482e-07 0 -1.882299482e-07 3.239986067e-07 0 0 0 4.396086805e-07 
-1.816295577e-07 0 0 0 0 0 0 0 2.576093867e-07 
0 0 0 0 0 0 0 0 3.764578688e-07 
-3.744486852e-07 1.914472452e-07 0 1.914472452e-07 -2.320994787e-07 0 0 0 0 
2.24201269e-07 0 0 0 1.256836082e-07 0 0 0 3.486090336e-07 
0 0 0 0 0 0 0 0 3.170336278e-07 
2.93822356e-07 0 0 0 1.868872509e-07 0 0 0 4.080332746e-07 
1.277917053e-07 0 0 0 0 0 0 0 2.474068658e-07 
-2.780391215e-07 0 0 0 -1.523654345e-07 0 0 0 1.564072189e-07 
-2.084180345e-07 0 0 0 0 0 0 0 2.158314599e-07 
-3.872514576e-07 0 0 0 -1.89671536e-07 0 0 0 -1.561446183e-07 
-1.78488981e-07 0 0 0 0 -1.219715405e-07 0 -1.219715405e-07 -8.233497395e-07 
1.965117366e-07 0 0 0 1.786616666e-07 0 0 0 3.077504589e-07 
3.795691396e-07 0 0 0 0 1.674952215e-07 0 1.674952215e-07 -6.911067968e-07 
-2.828702193e-07 0 0 0 0 0 0 0 -4.897471789e-07 
0 0 0 0 0 0 0 0 -2.577996403e-07 
0 0 0 0 0 0 0 0 0 
0 0 0 0 0 0 0 0 -4.236257075e-07 
0 0 0 0 0 0 0 0 -7.572282681e-07 
2.880404381e-07 0 0 0 1.25422748e-07 0 0 0 -1.916781689e-07 
2.966528234e-07 0 -1.83584137e-07 0 0 0 -1.83584137e-07 0 0 
-1.451715251e-07 1.478815403e-07 1.585499955e-07 1.478815403e-07 0 0 1.585499955e-07 0 -6.66432553e-07 
-2.88426581e-07 0 1.853458266e-07 0 0 0 1.853458266e-07 0 -2.807778259e-07 
-3.853252589e-07 0 2.005950266e-07 0 0 0 2.005950266e-07 0 -3.1093232e-07 
0 0 0 0 0 0 0 0 -3.750806413e-07 
-2.167990531e-07 0 1.71947911e-07 0 0 0 1.71947911e-07 0 -4.736051894e-07 
0 0 0 0 0 0 0 0 -1.822532778e-07 
0 0 0 0 0 0 0 0 -1.973305248e-07 
-2.65248392e-07 0 1.79572511e-07 0 0 0 1.79572511e-07 0 -4.886824365e-07 
-3.3687592e-07 0 1.929704266e-07 0 0 0 1.929704266e-07 0 -2.958550729e-07 
3.39953386e-07 -1.550293673e-07 -2.549668208e-07 -1.550293673e-07 0 1.724454749e-07 -2.549668208e-07 1.724454749e-07 -3.783712669e-07 
-2.147686171e-07 0 1.218612998e-07 0 0 0 1.218612998e-07 0 -2.212570617e-07 
2.004051453e-07 0 -1.820379363e-07 0 0 0 -1.820379363e-07 0 -1.457966558e-07 
2.040038535e-07 0 -2.020185319e-07 0 0 0 -2.020185319e-07 0 -1.250904328e-07 
0 0 0 0 0 0 0 0 -2.998141643e-07 
0 0 0 0 0 0 0 0 -1.835268588e-07 
2.701792657e-07 0 -2.185023786e-07 0 0 0 -2.185023786e-07 0 -2.620839613e-07 
2.719786198e-07 -1.230173333e-07 -2.284926763e-07 -1.230173333e-07 0 0 -2.284926763e-07 0 -2.517308498e-07 
0 0 0 0 0 0 0 0 -1.731737472e-07 
2.022044994e-07 0 -1.920282341e-07 0 0 0 -1.920282341e-07 0 -1.354435443e-07 
-2.823687372e-07 0 1.426560531e-07 0 0 0 1.426560531e-07 0 1.923210411e-07 
2.188713428e-07 0 -1.740132345e-07 0 0 0 -1.740132345e-07 0 0 
2.863459243e-07 0 -1.685885976e-07 0 0 0 -1.685885976e-07 0 4.06768373e-07 
2.427681561e-07 0 -1.469256903e-07 0 0 0 -1.469256903e-07 0 3.186791748e-07 
0 0 0 0 0 0 0 0 0 
2.526086335e-07 0 -1.713009161e-07 0 0 0 -1.713009161e-07 0 1.486373511e-07 
0 0 0 0 0 0 0 0 2.995447071e-07 
0 0 0 0 0 0 0 0 2.55500108e-07 
2.308197495e-07 0 -1.604694624e-07 0 0 0 -1.604694624e-07 0 0 
2.645570402e-07 0 -1.57757144e-07 0 0 0 -1.57757144e-07 0 3.627237739e-07 
0 0 -1.946456342e-07 0 0 0 -1.946456342e-07 0 -1.76879567e-07 
6.952045047e-07 0 -5.156246419e-07 0 2.909799835e-07 -3.675606378e-07 -5.156246419e-07 -3.675606378e-07 -2.527562846e-07 
-5.013327549e-07 0 4.686901939e-07 0 -1.60875356e-07 1.360795622e-07 4.686901939e-07 1.360795622e-07 -6.583977964e-07 
-2.475923043e-07 0 2.591781612e-07 0 -2.030062638e-07 0 2.591781612e-07 0 -2.954671985e-07 
4.026001571e-07 0 -3.551351381e-07 0 1.736449583e-07 -1.603255915e-07 -3.551351381e-07 -1.603255915e-07 -2.148179258e-07 
0 0 0 0 0 0 0 0 -4.555770405e-07 
-1.956684727e-07 0 1.370222799e-07 0 0 0 1.370222799e-07 0 -4.176386817e-07 
0 0 0 0 0 0 0 0 -2.361733828e-07 
2.238061002e-07 0 -1.282232404e-07 0 0 -1.87318769e-07 -1.282232404e-07 -1.87318769e-07 -2.741117416e-07 
-3.744625296e-07 0 3.639341775e-07 0 -1.819408099e-07 0 3.639341775e-07 0 -4.769324975e-07 
2.677257003e-07 0 -1.642427868e-07 0 0 0 -1.642427868e-07 0 0 
2.443845384e-07 0 -1.691451658e-07 0 0 0 -1.691451658e-07 0 -1.327466356e-07 
-2.788013852e-07 0 0 0 0 0 0 0 -3.000430549e-07 
2.272877544e-07 0 -1.591537158e-07 0 0 0 -1.591537158e-07 0 3.183605025e-07 
2.560551193e-07 0 -1.666939763e-07 0 0 0 -1.666939763e-07 0 -1.237369063e-07 
0 0 0 0 0 0 0 0 -2.163948452e-07 
0 0 0 0 0 0 0 0 -2.07385116e-07 
2.475067273e-07 0 -1.616982513e-07 0 0 0 -1.616982513e-07 0 0 
2.358361464e-07 0 -1.641494408e-07 0 0 0 -1.641494408e-07 0 0 
0 0 0 0 0 0 0 0 0 
-2.947575965e-07 1.221727337e-07 1.568063104e-07 1.221727337e-07 0 0 1.568063104e-07 0 -3.112338291e-07 
-2.185282396e-07 0 1.538818827e-07 0 0 0 1.538818827e-07 0 -2.544602093e-07 
2.723093375e-07 0 -1.900814779e-07 0 0 0 -1.900814779e-07 0 0 
-2.034052354e-07 0 1.976026465e-07 0 1.664668134e-07 0 1.976026465e-07 0 2.504290692e-07 
-2.566429181e-07 0 1.553440966e-07 0 0 0 1.553440966e-07 0 -2.828470192e-07 
0 0 0 0 0 0 0 0 -1.839883773e-07 
0 0 0 0 0 0 0 0 -2.123751872e-07 
-2.49081416e-07 0 1.772044785e-07 0 0 0 1.772044785e-07 0 0 
-2.109667375e-07 0 1.757422646e-07 0 0 0 1.757422646e-07 0 0 
0 0 0 0 0 0 0 0 0 
0 0 -1.284105769e-07 0 0 0 -1.284105769e-07 0 2.391555857e-07 
0 0 0 0 0 0 0 0 5.73831955e-07 
0 0 1.611283948e-07 0 0 0 1.611283948e-07 0 4.528851711e-07 
0 0 0 0 0 0 0 0 5.634925963e-07 
0 0 0 0 0 0 0 0 4.064937704e-07 
0 0 0 0 0 0 0 0 5.133585631e-07 
0 0 0 0 0 0 0 0 3.460203784e-07 
0 0 0 0 0 0 0 0 4.01324091e-07 
0 0 0 0 0 0 0 0 5.686622756e-07 
0 0 0 0 0 0 0 0 5.081888837e-07 
-2.254434174e-07 0 1.378222023e-07 0 0 0 1.378222023e-07 0 -2.781341897e-07 
2.915665887e-07 0 -1.960912594e-07 0 0 0 -1.960912594e-07 0 4.279709516e-07 
-2.629059041e-07 0 1.879508086e-07 0 0 0 1.879508086e-07 0 1.503677322e-07 
-3.233059543e-07 0 1.465201834e-07 0 -1.51326977e-07 0 1.465201834e-07 0 1.670797985e-07 
0 0 0 0 0 0 0 0 0 
0 0 0 0 0 0 0 0 2.891693419e-07 
-2.441746608e-07 0 1.628865054e-07 0 0 0 1.628865054e-07 0 0 
-2.743746859e-07 0 1.421711929e-07 0 0 0 1.421711929e-07 0 0 
0 0 0 0 0 0 0 0 2.97525375e-07 
-2.931059292e-07 0 1.67235496e-07 0 0 0 1.67235496e-07 0 1.587237653e-07 
-2.366899472e-07 0 0 0 -2.310756209e-07 0 0 0 -6.516099879e-07 
3.302272153e-07 0 -2.082020438e-07 0 2.663245194e-07 1.354460808e-07 -2.082020438e-07 1.354460808e-07 -3.200412452e-07 
0 0 0 0 0 0 0 0 -6.048427829e-07 
1.446150203e-07 0 -1.337616048e-07 0 0 0 -1.337616048e-07 0 0 
0 0 0 0 0 0 0 0 -4.858256165e-07 
1.56849181e-07 0 -1.38161168e-07 0 0 0 -1.38161168e-07 0 -4.62442014e-07 
-1.266094003e-07 0 0 0 -1.338283549e-07 0 0 0 -6.282263854e-07 
0 0 0 0 0 0 0 0 -3.721295478e-07 
2.374211178e-07 0 -1.709818243e-07 0 1.384483363e-07 0 -1.709818243e-07 0 -2.063451764e-07 
0 0 0 0 0 0 0 0 -3.487459453e-07 
0 0 1.500844855e-07 0 1.454278488e-07 0 1.500844855e-07 0 2.503317107e-07 
-1.580047696e-07 0 1.520593984e-07 0 0 0 1.520593984e-07 0 2.464603991e-07 
0 0 -1.71280841e-07 0 0 0 -1.71280841e-07 0 3.294707342e-07 
0 0 0 0 0 0 0 0 4.848602123e-07 
0 0 1.510719419e-07 0 0 0 1.510719419e-07 0 2.483960549e-07 
0 0 0 0 0 0 0 0 2.879655666e-07 
0 0 0 0 0 0 0 0 2.899012224e-07 
0 0 0 0 0 0 0 0 3.675959615e-07 
0 0 0 0 0 0 0 0 3.656603057e-07 
0 0 0 0 0 0 0 0 4.071654732e-07 
5.379422868e-07 -2.100059245e-07 0 -2.100059245e-07 8.675180621e-07 -1.874418941e-07 0 -1.874418941e-07 6.929033924e-07 
-2.818047574e-07 1.293405153e-07 0 1.293405153e-07 -4.213642877e-07 0 0 0 1.858083475e-07 
0 0 2.610536091e-07 0 0 0 2.610536091e-07 0 2.085434843e-07 
-2.725647671e-07 0 -2.009462523e-07 0 -3.125147263e-07 0 -2.009462523e-07 0 2.083402468e-07 
1.280687647e-07 0 0 0 2.230768872e-07 0 0 0 4.3935587e-07 
-1.333936849e-07 0 1.356217639e-07 0 -2.491920232e-07 0 1.356217639e-07 0 1.971759159e-07 
2.764798372e-07 -1.285449069e-07 0 -1.285449069e-07 3.952491517e-07 0 0 0 4.507234384e-07 
1.326887599e-07 0 -1.450170022e-07 0 2.775016679e-07 0 -1.450170022e-07 0 4.506218196e-07 
-2.771847623e-07 1.227134204e-07 0 1.227134204e-07 -3.66939507e-07 0 0 0 1.970742971e-07 
-1.287736898e-07 0 0 0 -1.947672425e-07 0 0 0 2.084418655e-07 
-4.199564504e-07 0 4.240507589e-07 0 -2.535364618e-07 0 4.240507589e-07 0 -5.117246189e-07 
4.846502105e-07 1.530708786e-07 0 1.530708786e-07 5.656141343e-07 3.582056594e-07 0 3.582056594e-07 -2.256802087e-07 
-2.514868861e-07 -3.20226573e-07 -5.82069421e-07 -3.20226573e-07 -7.145215382e-07 -3.319179287e-07 -5.82069421e-07 -3.319179287e-07 -8.014189427e-07 
2.363002474e-07 0 -1.43101138e-07 0 2.321120211e-07 1.667691885e-07 -1.43101138e-07 1.667691885e-07 -1.732112848e-07 
0 0 2.189795624e-07 0 1.560388362e-07 1.736748747e-07 2.189795624e-07 1.736748747e-07 -3.687024138e-07 
0 0 -2.840805275e-07 0 0 0 -2.840805275e-07 0 -5.135495757e-07 
-3.357216682e-07 -1.86825222e-07 0 -1.86825222e-07 -4.84029e-07 -1.713869193e-07 0 -1.713869193e-07 -6.565717808e-07 
0 0 1.404748104e-07 0 0 0 1.404748104e-07 0 -3.424679518e-07 
3.60475229e-07 0 0 0 3.988630777e-07 2.624874239e-07 0 2.624874239e-07 -1.994457468e-07 
0 -1.504681157e-07 -3.625852795e-07 -1.504681157e-07 -2.412047585e-07 0 -3.625852795e-07 0 -4.873151138e-07 
2.6307397e-07 0 -1.599685351e-07 0 0 0 -1.599685351e-07 0 -1.256439576e-07 
2.911908243e-07 0 -1.49476056e-07 0 0 0 -1.49476056e-07 0 3.474971558e-07 
-2.762568037e-07 0 1.327109461e-07 0 0 0 1.327109461e-07 0 0 
3.133223613e-07 0 -1.774490171e-07 0 0 0 -1.774490171e-07 0 4.01217287e-07 
2.771323972e-07 0 -1.547222955e-07 0 0 0 -1.547222955e-07 0 0 
0 0 0 0 0 0 0 0 2.299062545e-07 
0 0 0 0 0 0 0 0 0 
2.881981656e-07 0 -1.687087761e-07 0 0 0 -1.687087761e-07 0 1.377866647e-07 
3.022565928e-07 0 -1.634625365e-07 0 0 0 -1.634625365e-07 0 3.743572214e-07 
0 0 0 0 0 0 0 0 2.567663201e-07 
0 0 0 0 0 0 0 0 -5.806393216e-07 
-2.380983536e-07 0 1.359428182e-07 0 0 0 1.359428182e-07 0 -2.604643236e-07 
2.062925431e-07 0 -1.50832846e-07 0 0 0 -1.50832846e-07 0 -1.571633905e-07 
1.940776724e-07 0 -1.544616841e-07 0 1.454853495e-07 0 -1.544616841e-07 0 -1.228482481e-07 
0 0 0 0 0 0 0 0 -4.205518226e-07 
0 0 0 0 0 0 0 0 -2.08813857e-07 
1.561478734e-07 0 -1.202879582e-07 0 0 0 -1.202879582e-07 0 -3.68901356e-07 
1.50040438e-07 0 -1.221023772e-07 0 0 0 -1.221023772e-07 0 -3.517437848e-07 
0 0 0 0 0 0 0 0 -1.916562858e-07 
2.001851077e-07 0 -1.52647265e-07 0 0 0 -1.52647265e-07 0 -1.400058193e-07 
1.399283818e-07 0 -1.222016012e-07 0 0 -1.452668336e-07 -1.222016012e-07 -1.452668336e-07 5.751787019e-07 
0 0 -1.46235827e-07 0 0 -1.433343102e-07 -1.46235827e-07 -1.433343102e-07 1.779684836e-07 
0 0 0 0 0 0 0 0 4.753312213e-07 
0 0 -1.690198459e-07 0 0 -1.301894895e-07 -1.690198459e-07 -1.301894895e-07 5.449323183e-07 
0 0 -1.342187141e-07 0 0 -1.443005719e-07 -1.342187141e-07 -1.443005719e-07 3.765735927e-07 
0 0 0 0 0 0 0 0 3.266498525e-07 
0 0 0 0 0 0 0 0 5.252549616e-07 
0 0 -1.456107236e-07 0 0 -1.377281616e-07 -1.456107236e-07 -1.377281616e-07 5.600555101e-07 
0 0 -1.576278365e-07 0 0 -1.367618999e-07 -1.576278365e-07 -1.367618999e-07 3.61450401e-07 
0 0 0 0 0 0 0 0 5.101317698e-07 
0 0 0 0 0 0 0 0 1.989819477e-07 
0 0 -1.519209589e-07 0 0 0 -1.519209589e-07 0 3.062820684e-07 
1.453645235e-07 0 -1.60101102e-07 0 0 0 -1.60101102e-07 0 2.879099908e-07 
0 0 0 0 0 0 0 0 4.514226001e-07 
0 0 0 0 0 0 0 0 2.52632008e-07 
0 0 -1.560110305e-07 0 0 0 -1.560110305e-07 0 2.970960296e-07 
0 0 0 0 0 0 0 0 2.434459693e-07 
0 0 0 0 0 0 0 0 3.252022739e-07 
0 0 0 0 0 0 0 0 3.788523342e-07 
0 0 0 0 0 0 0 0 3.696662955e-07 
-2.324116701e-07 0 1.204773524e-07 0 0 0 1.204773524e-07 0 -2.51735085e-07 
-2.950979124e-07 0 1.349892814e-07 0 0 0 1.349892814e-07 0 -2.958178718e-07 
2.034398533e-07 0 -1.776277549e-07 0 0 0 -1.776277549e-07 0 -1.762097651e-07 
-2.205840773e-07 0 1.514083876e-07 0 0 0 1.514083876e-07 0 2.579520716e-07 
-2.637547912e-07 0 1.277333169e-07 0 0 0 1.277333169e-07 0 -2.737764784e-07 
0 0 0 0 0 0 0 0 -2.360138185e-07 
0 0 0 0 0 0 0 0 -2.13972425e-07 
-2.264978737e-07 0 1.3594287e-07 0 0 0 1.3594287e-07 0 0 
-2.578409948e-07 0 1.431988345e-07 0 0 0 1.431988345e-07 0 0 
0 0 0 0 0 0 0 0 0 
1.772160074e-07 0 -1.378931747e-07 0 0 0 -1.378931747e-07 0 2.930506574e-07 
1.25002906e-07 0 -1.360719273e-07 0 0 0 -1.360719273e-07 0 6.348461775e-07 
0 -1.503804165e-07 0 -1.503804165e-07 0 2.211869226e-07 0 2.211869226e-07 5.333349561e-07 
-3.117871884e-07 1.704156304e-07 0 1.704156304e-07 -2.963904657e-07 -1.798051724e-07 0 -1.798051724e-07 2.489707577e-07 
1.511094567e-07 0 -1.36982551e-07 0 0 0 -1.36982551e-07 0 4.639484174e-07 
0 0 0 0 0 1.273883774e-07 0 1.273883774e-07 5.840905668e-07 
1.360511248e-07 0 0 0 0 0 0 0 4.131928067e-07 
0 0 0 0 0 0 0 0 2.710107075e-07 
0 0 0 0 0 0 0 0 4.419084676e-07 
0 0 0 0 0 0 0 0 3.911528569e-07 
2.828305525e-07 0 -1.552675192e-07 0 0 0 -1.552675192e-07 0 0 
-1.820385082e-07 0 0 0 0 0 0 0 -1.997728773e-07 
1.958460355e-07 0 -1.519403102e-07 0 0 0 -1.519403102e-07 0 -1.751318837e-07 
2.27021384e-07 0 -1.491410885e-07 0 0 0 -1.491410885e-07 0 2.714772982e-07 
0 0 0 0 0 0 0 0 -1.439274486e-07 
0 0 0 0 0 0 0 0 -1.874523805e-07 
2.39338294e-07 0 -1.536039147e-07 0 0 0 -1.536039147e-07 0 -1.316069518e-07 
2.549259682e-07 0 -1.522043038e-07 0 0 0 -1.522043038e-07 0 0 
0 0 0 0 0 0 0 0 0 
2.114337098e-07 0 -1.505406994e-07 0 0 0 -1.505406994e-07 0 0 
3.692753124e-07 0 0 0 5.272345051e-07 -1.563659854e-07 0 -1.563659854e-07 6.112597107e-07 
-1.517637111e-07 0 0 0 -2.335233345e-07 0 0 0 3.323450642e-07 
0 0 2.246296391e-07 0 0 0 2.246296391e-07 0 2.618699795e-07 
0 0 -1.693575018e-07 0 -1.690737827e-07 0 -1.693575018e-07 0 3.751142298e-07 
0 0 0 0 1.468555853e-07 0 0 0 4.718023874e-07 
0 0 0 0 -1.352136067e-07 0 0 0 2.971075218e-07 
1.6315611e-07 0 0 0 2.451653132e-07 0 0 0 4.365648451e-07 
1.278143786e-07 0 -1.330041747e-07 0 1.790803612e-07 0 -1.330041747e-07 0 4.931869702e-07 
-1.327051331e-07 0 0 0 -2.012985586e-07 0 0 0 3.53729647e-07 
0 0 0 0 0 0 0 0 3.184921046e-07 
-3.012498713e-07 0 1.422668041e-07 0 0 0 1.422668041e-07 0 1.75415508e-07 
-3.101695415e-07 0 1.64693744e-07 0 0 0 1.64693744e-07 0 0 
-3.137439237e-07 0 1.218251945e-07 0 0 0 1.218251945e-07 0 -2.830419858e-07 
2.627623214e-07 0 -1.469093917e-07 0 0 0 -1.469093917e-07 0 3.318342757e-07 
-3.057097064e-07 0 1.534802741e-07 0 0 0 1.534802741e-07 0 1.432418643e-07 
-3.119567326e-07 0 1.432594693e-07 0 0 0 1.432594693e-07 0 0 
-3.074968975e-07 0 1.320459993e-07 0 0 0 1.320459993e-07 0 0 
0 0 0 0 0 0 0 0 2.536248918e-07 
0 0 0 0 0 0 0 0 2.214512481e-07 
0 0 0 0 0 0 0 0 0 
-1.249713698e-06 0 2.897198438e-07 0 -4.364506563e-07 4.314437255e-07 2.897198438e-07 4.314437255e-07 -9.514996818e-07 
-1.53741237e-07 0 0 0 0 2.171736561e-07 0 2.171736561e-07 6.355047418e-07 
0 0 0 0 0 -1.631133562e-07 0 -1.631133562e-07 9.194517867e-07 
1.404690663e-06 2.076259843e-07 -2.20679891e-07 2.076259843e-07 3.992345021e-07 -3.688849686e-07 -2.20679891e-07 -3.688849686e-07 2.219255508e-07 
-7.017274674e-07 0 1.556871324e-07 0 -2.477419181e-07 3.243086908e-07 1.556871324e-07 3.243086908e-07 -1.5799747e-07 
-1.277839346e-07 0 0 0 0 0 0 0 7.774782642e-07 
-6.757701651e-07 0 1.559634407e-07 0 -2.679810392e-07 1.341651847e-07 1.559634407e-07 1.341651847e-07 0 
0 0 0 0 0 0 0 0 -3.647870655e-07 
6.254747129e-07 0 0 0 1.70100661e-07 0 0 0 4.287151463e-07 
6.514320152e-07 0 0 0 1.4986154e-07 -2.659991624e-07 0 -2.659991624e-07 5.706886687e-07 
-1.393464252e-07 0 1.273663898e-07 0 0 0 1.273663898e-07 0 -4.935727285e-07 
2.323816406e-07 0 -1.695089176e-07 0 1.785300433e-07 0 -1.695089176e-07 0 -4.248247431e-07 
0 1.282219562e-07 0 1.282219562e-07 0 0 0 0 -4.99404872e-07 
-2.254183801e-07 0 0 0 -2.157463082e-07 0 0 0 -4.800755547e-07 
0 0 0 0 0 0 0 0 -4.591987358e-07 
0 0 0 0 0 0 0 0 -4.621148075e-07 
0 0 0 0 0 0 0 0 -4.964888002e-07 
-1.823824026e-07 0 0 0 -1.281531113e-07 0 0 0 -4.868241416e-07 
0 0 0 0 0 0 0 0 -4.524501489e-07 
-1.312565912e-07 0 0 0 -1.206751253e-07 0 0 0 -4.897402133e-07 
-1.292326849e-07 0 1.33043596e-07 0 0 0 1.33043596e-07 0 2.102891049e-07 
0 0 -1.365848571e-07 0 0 0 -1.365848571e-07 0 2.197797796e-07 
0 0 -1.194722359e-07 0 0 0 -1.194722359e-07 0 2.469442997e-07 
0 0 0 0 0 0 0 0 4.34471562e-07 
0 0 0 0 0 0 0 0 2.150344423e-07 
0 0 -1.280285465e-07 0 0 0 -1.280285465e-07 0 2.333620397e-07 
0 0 0 0 0 0 0 0 2.286167023e-07 
0 0 0 0 0 0 0 0 3.223803334e-07 
0 0 -1.199248753e-07 0 0 0 -1.199248753e-07 0 3.271256708e-07 
0 0 0 0 0 0 0 0 3.407079308e-07 
0 0 0 0 0 0 0 0 4.682185261e-07 
-1.671387263e-07 0 1.469944955e-07 0 -1.472307542e-07 1.479751211e-07 1.469944955e-07 1.479751211e-07 3.314819199e-07 
0 0 1.461572941e-07 0 0 0 1.461572941e-07 0 2.974474856e-07 
0 0 0 0 0 0 0 0 4.79520166e-07 
0 0 0 0 0 0 0 0 3.99850223e-07 
-1.253403676e-07 0 1.465758948e-07 0 0 0 1.465758948e-07 0 3.144647028e-07 
0 0 0 0 0 0 0 0 3.828330058e-07 
0 0 0 0 0 0 0 0 4.73869346e-07 
0 0 0 0 0 0 0 0 4.055010429e-07 
0 0 0 0 0 0 0 0 3.884838258e-07 
0 0 0 0 0 1.271080463e-07 0 1.271080463e-07 2.076719982e-07 
2.125836465e-07 -2.182279909e-07 1.293578452e-07 -2.182279909e-07 2.600560631e-07 3.110705581e-07 1.293578452e-07 3.110705581e-07 6.502935975e-07 
-4.477521798e-07 2.405369559e-07 1.310601342e-07 2.405369559e-07 -5.032263393e-07 -2.293673944e-07 1.310601342e-07 -2.293673944e-07 1.689921023e-07 
0 0 -1.313206214e-07 0 0 0 -1.313206214e-07 0 6.475883981e-07 
1.230510488e-07 -1.531366465e-07 1.21041754e-07 -1.531366465e-07 1.795968359e-07 2.190893022e-07 1.21041754e-07 2.190893022e-07 4.289827979e-07 
0 0 1.302089897e-07 0 -1.215851381e-07 0 1.302089897e-07 0 4.096428499e-07 
-2.071168643e-07 0 1.218928985e-07 0 -2.020443653e-07 0 1.218928985e-07 0 1.883320502e-07 
0 0 0 0 0 0 0 0 4.276301981e-07 
1.400582564e-07 0 0 0 1.688221551e-07 1.538284014e-07 0 1.538284014e-07 6.489409978e-07 
-1.901096567e-07 1.598699698e-07 0 1.598699698e-07 -2.128190461e-07 0 0 0 4.082902502e-07 
0 0 0 0 0 0 0 0 4.499160122e-07 
0 0 1.863937354e-07 0 0 0 1.863937354e-07 0 2.832877651e-07 
1.848007655e-07 0 0 0 1.990991875e-07 0 0 0 5.024004552e-07 
0 0 -1.450371992e-07 0 0 0 -1.450371992e-07 0 4.874426354e-07 
0 0 0 0 0 0 0 0 3.666018886e-07 
0 0 0 0 0 0 0 0 3.928441102e-07 
0 0 0 0 0 0 0 0 4.761582337e-07 
0 0 0 0 0 0 0 0 4.686793238e-07 
0 0 0 0 0 0 0 0 3.853652002e-07 
0 0 -1.31318835e-07 0 0 0 -1.31318835e-07 0 4.949215453e-07 
-2.931047325e-07 0 0 0 -1.72173908e-07 -1.237672011e-07 0 -1.237672011e-07 7.014563106e-07 
-8.872530394e-07 0 2.023949281e-07 0 -2.441632778e-07 2.766889327e-07 2.023949281e-07 2.766889327e-07 -6.935531345e-07 
0 0 0 0 0 1.563020417e-07 0 1.563020417e-07 6.80701676e-07 
1.071303058e-06 1.455467158e-07 -1.724526222e-07 1.455467158e-07 3.05371409e-07 -2.751161644e-07 -1.724526222e-07 -2.751161644e-07 0 
-5.90178886e-07 0 0 0 -2.081685929e-07 0 0 0 0 
-4.439612936e-07 0 1.233362473e-07 0 0 2.164954872e-07 1.233362473e-07 2.164954872e-07 0 
-1.468871402e-07 0 0 0 0 0 0 0 6.910789933e-07 
3.890991627e-07 0 0 0 0 -1.994416827e-07 0 -1.994416827e-07 4.061410882e-07 
0 0 0 0 0 0 0 0 -2.913636344e-07 
5.353167551e-07 0 0 0 1.729408727e-07 0 0 0 3.957637709e-07 
1.934214822e-07 0 -1.415289499e-07 0 0 0 -1.415289499e-07 0 -1.19598126e-07 
2.549298633e-07 0 -1.604999242e-07 0 0 0 -1.604999242e-07 0 3.297561908e-07 
-2.499908834e-07 0 0 0 0 0 0 0 1.531740597e-07 
2.079871436e-07 0 -1.289036813e-07 0 0 0 -1.289036813e-07 0 2.689869578e-07 
2.241756728e-07 0 -1.510144371e-07 0 0 0 -1.510144371e-07 0 0 
0 0 0 0 0 0 0 0 2.414651252e-07 
0 0 0 0 0 0 0 0 0 
2.007043129e-07 0 -1.352163156e-07 0 0 0 -1.352163156e-07 0 0 
2.314585034e-07 0 -1.447018027e-07 0 0 0 -1.447018027e-07 0 2.993715743e-07 
0 0 0 0 0 0 0 0 2.110805088e-07 
-1.665784095e-07 0 0 0 0 0 0 0 -6.520127803e-07 
-1.719273649e-07 0 1.291786559e-07 0 0 0 1.291786559e-07 0 -2.534316942e-07 
3.185163203e-07 0 -1.610917537e-07 0 0 0 -1.610917537e-07 0 0 
-3.41407909e-07 0 1.434516524e-07 0 0 0 1.434516524e-07 0 -3.173317219e-07 
-1.692528872e-07 0 1.228131978e-07 0 0 0 1.228131978e-07 0 -4.527222372e-07 
0 0 0 0 0 0 0 0 -1.738483678e-07 
0 0 0 0 0 0 0 0 -3.731389109e-07 
-2.539931592e-07 0 1.299496961e-07 0 0 0 1.299496961e-07 0 -4.846722511e-07 
-2.566676369e-07 0 1.363151542e-07 0 0 0 1.363151542e-07 0 -2.85381708e-07 
0 0 0 0 0 0 0 0 -2.057983817e-07 
0 0 -1.524833284e-07 0 0 0 -1.524833284e-07 0 2.479506728e-07 
-1.415167954e-07 0 1.549613921e-07 0 0 0 1.549613921e-07 0 2.483613907e-07 
0 0 1.567526666e-07 0 0 0 1.567526666e-07 0 2.04332084e-07 
0 0 1.656045408e-07 0 0 0 1.656045408e-07 0 4.0399268e-07 
0 0 0 0 0 0 0 0 2.481560318e-07 
0 0 1.558570293e-07 0 0 0 1.558570293e-07 0 2.263467373e-07 
0 0 0 0 0 0 0 0 2.261413784e-07 
0 0 0 0 0 0 0 0 3.259716764e-07 
-1.203566987e-07 0 1.602829664e-07 0 0 0 1.602829664e-07 0 3.261770353e-07 
0 0 1.611786037e-07 0 0 0 1.611786037e-07 0 3.04162382e-07 
-2.745776371e-07 0 1.303867282e-07 0 -2.891563817e-07 0 1.303867282e-07 0 -7.603304915e-07 
3.441859822e-07 0 -1.686483492e-07 0 2.013826965e-07 0 -1.686483492e-07 0 0 
0 0 0 0 0 0 0 0 -6.014214119e-07 
-2.074286039e-07 0 1.42112952e-07 0 0 0 1.42112952e-07 0 -2.642448336e-07 
0 0 0 0 0 0 0 0 -3.998936457e-07 
1.952581284e-07 0 -1.290953725e-07 0 0 0 -1.290953725e-07 0 -3.204391059e-07 
0 0 0 0 -1.608950514e-07 0 0 0 -6.808759517e-07 
-2.410031205e-07 0 1.362498401e-07 0 -1.334446686e-07 0 1.362498401e-07 0 -5.122876626e-07 
0 0 0 0 0 0 0 0 -1.518508168e-07 
0 0 0 0 0 0 0 0 -4.328331228e-07 
2.022858205e-07 0 -1.425329017e-07 0 0 0 -1.425329017e-07 0 -1.841974716e-07 
1.29314634e-07 0 -1.808290266e-07 0 0 0 -1.808290266e-07 0 -1.333309553e-07 
3.204539224e-07 0 -1.91667905e-07 0 0 1.222141997e-07 -1.91667905e-07 1.222141997e-07 -3.305135423e-07 
-2.071632212e-07 0 0 0 0 0 0 0 -1.965658581e-07 
1.658002272e-07 0 -1.616809641e-07 0 0 0 -1.616809641e-07 0 -1.587642134e-07 
2.248842782e-07 0 -1.862484658e-07 0 0 0 -1.862484658e-07 0 -2.319222488e-07 
2.613698714e-07 0 -1.671004033e-07 0 0 0 -1.671004033e-07 0 -2.573555069e-07 
0 0 0 0 0 0 0 0 -1.903816649e-07 
0 0 0 0 0 0 0 0 -1.649484067e-07 
0 0 0 0 0 0 0 0 -2.635397002e-07 
3.106508182e-07 0 -1.640306375e-07 0 0 0 -1.640306375e-07 0 0 
-3.237511178e-07 0 0 0 0 0 0 0 -3.326839904e-07 
-2.103708989e-07 0 1.201921082e-07 0 0 0 1.201921082e-07 0 -2.443108322e-07 
-2.658994385e-07 0 1.364817601e-07 0 0 0 1.364817601e-07 0 1.731089318e-07 
0 0 0 0 0 0 0 0 -2.069624417e-07 
-2.670610083e-07 0 0 0 0 0 0 0 -2.884974113e-07 
0 0 0 0 0 0 0 0 -1.627758626e-07 
0 0 0 0 0 0 0 0 0 
-2.948252782e-07 0 1.214839739e-07 0 0 0 1.214839739e-07 0 0 
-2.381351687e-07 0 1.283369341e-07 0 0 0 1.283369341e-07 0 0 
-4.300652526e-07 0 4.030280787e-07 0 -1.696363081e-07 0 4.030280787e-07 0 -5.583832502e-07 
2.392216185e-07 0 0 0 3.621348961e-07 2.841683546e-07 0 2.841683546e-07 -3.902858362e-07 
0 -1.684789707e-07 -4.538354413e-07 -1.684789707e-07 -4.408334709e-07 -2.817962792e-07 -4.538354413e-07 -2.817962792e-07 -6.622121812e-07 
1.600745099e-07 0 -1.478622272e-07 0 0 0 -1.478622272e-07 0 -2.316456642e-07 
0 0 1.856889548e-07 0 0 1.792812538e-07 1.856889548e-07 1.792812538e-07 -4.743345432e-07 
1.753845349e-07 0 -2.427428052e-07 0 0 0 -2.427428052e-07 0 -5.262490087e-07 
-1.592589007e-07 0 0 0 -3.052348895e-07 0 0 0 -6.102977157e-07 
-1.349953714e-07 0 1.275829258e-07 0 0 0 1.275829258e-07 0 -3.950144572e-07 
1.996480642e-07 0 0 0 2.324788051e-07 1.985011176e-07 0 1.985011176e-07 -3.109657502e-07 
1.358109806e-07 0 -3.008488342e-07 0 -1.690053784e-07 0 -3.008488342e-07 0 -4.469289227e-07 
-2.626299662e-07 0 0 0 0 0 0 0 -3.219692271e-07 
-2.68475347e-07 0 1.333166571e-07 0 0 0 1.333166571e-07 0 0 
-2.560098769e-07 0 0 0 0 0 0 0 1.646606221e-07 
3.29647092e-07 0 -1.766517325e-07 0 0 0 -1.766517325e-07 0 4.145550044e-07 
-2.655526566e-07 0 1.234914347e-07 0 0 0 1.234914347e-07 0 0 
-2.622426119e-07 0 1.198171861e-07 0 0 0 1.198171861e-07 0 1.41179735e-07 
-2.593199215e-07 0 0 0 0 0 0 0 0 
0 0 0 0 0 0 0 0 0 
0 0 0 0 0 0 0 0 2.661269262e-07 
0 0 0 0 0 0 0 0 2.896078132e-07 
1.6792435e-07 0 -1.236022842e-07 0 1.560312233e-07 0 -1.236022842e-07 0 -4.509875653e-07 
-2.460465547e-07 0 1.793008921e-07 0 -2.54636987e-07 0 1.793008921e-07 0 -5.898918734e-07 
0 1.490882054e-07 0 1.490882054e-07 1.46548603e-07 -1.664425598e-07 0 -1.664425598e-07 -4.421101069e-07 
-2.598912653e-07 0 1.52346619e-07 0 0 0 1.52346619e-07 0 -3.089322499e-07 
0 0 0 0 0 0 0 0 -5.204397194e-07 
-1.320994877e-07 1.332610649e-07 1.276947811e-07 1.332610649e-07 0 -1.351619523e-07 1.276947811e-07 -1.351619523e-07 -5.160009902e-07 
0 0 0 0 1.512899131e-07 0 0 0 -4.465488361e-07 
0 0 0 0 0 0 0 0 -3.799599076e-07 
-2.5296891e-07 0 1.658237555e-07 0 -1.688716363e-07 0 1.658237555e-07 0 -4.494120616e-07 
-1.39021843e-07 0 0 0 0 0 0 0 -3.755211784e-07 
6.551646669e-07 0 0 0 3.636212967e-07 0 0 0 9.521064799e-07 
-4.675850579e-07 0 0 0 0 2.735456042e-07 0 2.735456042e-07 -2.513387406e-07 
-4.107462824e-07 0 0 0 -1.979813598e-07 -1.525192234e-07 0 -1.525192234e-07 6.522127016e-07 
2.137828868e-07 0 0 0 -1.254176072e-07 -1.775033379e-07 0 -1.775033379e-07 -2.946773116e-07 
0 0 0 0 1.893271327e-07 1.649707482e-07 0 1.649707482e-07 3.503838697e-07 
-4.391656702e-07 0 0 0 0 0 0 0 2.004369805e-07 
1.222091922e-07 0 0 0 0 0 0 0 8.021595908e-07 
4.344737768e-07 0 0 0 0 0 0 0 3.287145842e-07 
-1.269010856e-07 0 0 0 0 0 0 0 -2.730080261e-07 
0 0 0 0 -1.616994835e-07 -1.650112807e-07 0 -1.650112807e-07 1.78767695e-07 
0 0 0 0 0 0 0 0 4.481871726e-07 
-1.556817341e-07 0 1.581741229e-07 0 0 0 1.581741229e-07 0 2.843072182e-07 
0 0 -1.408749058e-07 0 0 0 -1.408749058e-07 0 4.530922576e-07 
0 0 0 0 0 0 0 0 5.028279799e-07 
0 0 0 0 0 0 0 0 3.662471954e-07 
0 0 0 0 0 0 0 0 3.686997379e-07 
0 0 0 0 0 0 0 0 4.506397151e-07 
0 0 0 0 0 0 0 0 4.755075763e-07 
0 0 0 0 0 0 0 0 3.935675991e-07 
0 0 -1.232149177e-07 0 0 0 -1.232149177e-07 0 4.779601188e-07 
-3.903229139e-07 0 1.871534344e-07 0 -2.322352248e-07 0 1.871534344e-07 0 0 
-2.069922074e-07 0 1.384560151e-07 0 0 0 1.384560151e-07 0 -2.619297232e-07 
4.082559078e-07 0 -1.92295897e-07 0 2.907076219e-07 0 -1.92295897e-07 0 0 
2.668475758e-07 0 -1.952648204e-07 0 0 0 -1.952648204e-07 0 4.024918466e-07 
-2.986575607e-07 0 1.628047248e-07 0 0 0 1.628047248e-07 0 0 
0 0 0 0 1.686320525e-07 0 0 0 0 
0 0 0 0 0 0 0 0 0 
0 0 0 0 -1.466168725e-07 0 0 0 2.176861762e-07 
0 0 0 0 0 0 0 0 0 
3.375517418e-07 0 -1.937803587e-07 0 0 0 -1.937803587e-07 0 2.153557499e-07 
2.839384907e-07 0 -1.610180612e-07 0 0 0 -1.610180612e-07 0 0 
-2.574656861e-07 0 1.328017784e-07 0 0 0 1.328017784e-07 0 1.292354992e-07 
-2.792041507e-07 0 0 0 0 0 0 0 -3.411788281e-07 
3.236832504e-07 0 -1.774890928e-07 0 0 0 -1.774890928e-07 0 4.089723826e-07 
0 0 0 0 0 0 0 0 0 
-2.683349184e-07 0 1.241073618e-07 0 0 0 1.241073618e-07 0 0 
0 0 0 0 0 0 0 0 -2.223121561e-07 
3.038108705e-07 0 -1.69253577e-07 0 0 0 -1.69253577e-07 0 1.527634493e-07 
0 0 0 0 0 0 0 0 2.691039409e-07 
0 0 0 0 0 0 0 0 0 
0 0 1.33625345e-07 0 0 0 1.33625345e-07 0 2.282448919e-07 
0 0 -1.451040492e-07 0 0 0 -1.451040492e-07 0 3.171149858e-07 
0 0 1.217956308e-07 0 0 0 1.217956308e-07 0 1.997712127e-07 
0 0 0 0 0 0 0 0 4.404762222e-07 
0 0 0 0 0 0 0 0 2.726799389e-07 
0 0 0 0 0 0 0 0 2.584430993e-07 
0 0 1.277104879e-07 0 0 0 1.277104879e-07 0 2.140080523e-07 
0 0 0 0 0 0 0 0 3.343605571e-07 
0 0 0 0 0 0 0 0 3.78795604e-07 
0 0 0 0 0 0 0 0 3.201237174e-07 
-3.096307552e-07 0 1.427434728e-07 0 0 0 1.427434728e-07 0 1.641560887e-07 
-3.363965004e-07 0 1.259279573e-07 0 0 0 1.259279573e-07 0 -3.162466372e-07 
2.538576128e-07 0 -1.741930264e-07 0 0 0 -1.741930264e-07 0 0 
2.60698832e-07 0 -1.49679936e-07 0 0 0 -1.49679936e-07 0 3.382348019e-07 
-3.230136278e-07 0 1.343357151e-07 0 0 0 1.343357151e-07 0 0 
0 0 0 0 0 0 0 0 -1.954712973e-07 
0 0 0 0 0 0 0 0 0 
0 0 0 0 0 0 0 0 2.511954453e-07 
0 0 0 0 0 0 0 0 0 
2.572782224e-07 0 -1.619364812e-07 0 0 0 -1.619364812e-07 0 1.317694222e-07 
6.980347816e-07 3.501174988e-07 0 3.501174988e-07 7.255861953e-07 -3.420419228e-07 0 -3.420419228e-07 1.716557733e-07 
-4.833060609e-07 0 2.481450043e-07 0 -3.270377258e-07 0 2.481450043e-07 0 -4.536657076e-07 
-2.807519595e-07 -1.231591822e-07 0 -1.231591822e-07 -3.313012891e-07 0 0 0 -3.284563246e-07 
1.373029199e-07 0 -3.001380925e-07 0 0 3.467986337e-07 -3.001380925e-07 3.467986337e-07 -3.178474852e-07 
0 0 1.314740434e-07 0 1.992742347e-07 -1.524605338e-07 1.314740434e-07 -1.524605338e-07 -1.410049672e-07 
-3.820290102e-07 0 1.275728714e-07 0 -3.291695075e-07 0 1.275728714e-07 0 -3.910610161e-07 
2.08641411e-07 0 0 0 1.971424531e-07 -2.092451038e-07 0 -2.092451038e-07 0 
4.176688507e-07 1.241974975e-07 -1.42667505e-07 1.241974975e-07 3.604218984e-07 0 -1.42667505e-07 0 0 
-1.730015705e-07 0 0 0 -1.658900621e-07 1.919597444e-07 0 1.919597444e-07 -3.857565964e-07 
0 0 -1.46568677e-07 0 -1.680218438e-07 1.351751744e-07 -1.46568677e-07 1.351751744e-07 -3.231519049e-07 
0 0 -1.373818977e-07 0 0 -1.630615326e-07 -1.373818977e-07 -1.630615326e-07 4.354548894e-07 
0 0 -1.488647968e-07 0 0 0 -1.488647968e-07 0 4.753091994e-07 
0 0 0 0 0 -1.546822049e-07 0 -1.546822049e-07 3.410924577e-07 
0 0 0 0 0 0 0 0 3.867048038e-07 
0 0 -1.431233472e-07 0 0 -1.290217354e-07 -1.431233472e-07 -1.290217354e-07 4.553820444e-07 
0 0 0 0 0 -1.248320716e-07 0 -1.248320716e-07 4.082008286e-07 
0 0 0 0 0 -1.588718688e-07 0 -1.588718688e-07 3.882736735e-07 
0 0 0 0 0 0 0 0 4.110798466e-07 
0 0 0 0 0 0 0 0 4.310070016e-07 
0 0 0 0 0 0 0 0 3.638986308e-07 
-2.574295401e-07 0 0 0 0 0 0 0 1.515604679e-07 
2.144391135e-07 0 -1.521332617e-07 0 0 0 -1.521332617e-07 0 -1.632463161e-07 
-1.635696071e-07 0 0 0 0 0 0 0 -1.78844208e-07 
2.308834877e-07 0 -1.482854227e-07 0 0 0 -1.482854227e-07 0 2.751364192e-07 
0 0 0 0 0 0 0 0 0 
0 0 0 0 0 0 0 0 -1.71045262e-07 
-2.104995736e-07 0 0 0 0 0 0 0 0 
0 0 0 0 0 0 0 0 2.133484435e-07 
2.226613006e-07 0 -1.502093422e-07 0 0 0 -1.502093422e-07 0 0 
0 0 0 0 0 0 0 0 0 
-1.41698413e-07 0 1.28757344e-07 0 0 0 1.28757344e-07 0 2.383612486e-07 
0 0 0 0 0 0 0 0 4.844704117e-07 
0 0 -1.392065101e-07 0 0 0 -1.392065101e-07 0 3.665840859e-07 
0 0 0 0 0 0 0 0 4.050130063e-07 
0 0 0 0 0 0 0 0 3.614158302e-07 
0 0 -1.2831288e-07 0 0 0 -1.2831288e-07 0 4.255272488e-07 
0 0 0 0 0 0 0 0 3.024726673e-07 
0 0 0 0 0 0 0 0 3.216871275e-07 
0 0 0 0 0 0 0 0 4.44741709e-07 
0 0 0 0 0 0 0 0 3.857985461e-07 
9.030219153e-07 0 0 0 4.77045988e-07 0 0 0 1.178155938e-06 
-1.668370095e-07 0 0 0 0 4.169263133e-07 0 4.169263133e-07 -1.561175852e-07 
-7.360230825e-07 0 0 0 -2.954973219e-07 -1.974966536e-07 0 -1.974966536e-07 6.81937704e-07 
0 0 0 0 -2.538915252e-07 -2.498814017e-07 0 -2.498814017e-07 -4.620917463e-07 
3.680924529e-07 0 0 0 2.8904161e-07 2.601316847e-07 0 2.601316847e-07 5.110191763e-07 
-4.51430046e-07 0 0 0 0 0 0 0 2.629100594e-07 
0 0 0 0 0 0 0 0 9.300468209e-07 
4.62694624e-07 0 0 0 0 0 0 0 3.580320957e-07 
0 0 0 0 0 0 0 0 -3.091046657e-07 
-3.568278749e-07 0 0 0 -2.746944236e-07 -2.236890276e-07 0 -2.236890276e-07 0 
-2.560488259e-07 0 0 0 0 0 0 0 -2.666532219e-07 
-2.840980713e-07 0 1.363445252e-07 0 0 0 1.363445252e-07 0 1.567924958e-07 
2.888612117e-07 0 -1.629866105e-07 0 0 0 -1.629866105e-07 0 0 
2.28739308e-07 0 -1.565332613e-07 0 0 0 -1.565332613e-07 0 3.112630543e-07 
-2.700734486e-07 0 1.20012964e-07 0 0 0 1.20012964e-07 0 0 
0 0 0 0 0 0 0 0 0 
0 0 0 0 0 0 0 0 -1.854748777e-07 
0 0 0 0 0 0 0 0 0 
0 0 0 0 0 0 0 0 2.34027775e-07 
2.588002599e-07 0 -1.597599359e-07 0 0 0 -1.597599359e-07 0 0 
0 0 1.399189949e-07 0 0 0 1.399189949e-07 0 2.793557483e-07 
0 0 1.526400927e-07 0 0 0 1.526400927e-07 0 4.383923589e-07 
0 0 -1.353807931e-07 0 0 0 -1.353807931e-07 0 2.290942523e-07 
0 0 0 0 0 0 0 0 4.690560949e-07 
0 0 1.462795438e-07 0 0 0 1.462795438e-07 0 3.588740536e-07 
0 0 0 0 0 0 0 0 3.337433056e-07 
0 0 0 0 0 0 0 0 2.542250003e-07 
0 0 0 0 0 0 0 0 3.742059216e-07 
0 0 0 0 0 0 0 0 4.537242269e-07 
0 0 0 0 0 0 0 0 3.490751736e-07 
1.698283974e-07 0 -1.773888844e-07 0 0 0 -1.773888844e-07 0 -2.097690877e-07 
2.790164461e-07 0 -1.738622647e-07 0 0 0 -1.738622647e-07 0 3.667850272e-07 
-2.156891852e-07 0 1.200057811e-07 0 0 0 1.200057811e-07 0 -2.370685876e-07 
-1.965517079e-07 0 1.513215945e-07 0 1.612050242e-07 0 1.513215945e-07 0 2.829167399e-07 
2.244224218e-07 0 -1.756255746e-07 0 0 0 -1.756255746e-07 0 0 
0 0 0 0 0 0 0 0 0 
0 0 0 0 0 0 0 0 -2.234188376e-07 
0 0 0 0 0 0 0 0 0 
0 0 0 0 0 0 0 0 3.248508835e-07 
-2.061204466e-07 0 1.356636878e-07 0 0 0 1.356636878e-07 0 0 
0 0 -1.230683979e-07 0 0 0 -1.230683979e-07 0 2.147699434e-07 
0 0 0 0 0 0 0 0 4.212860417e-07 
0 0 0 0 0 0 0 0 2.194552765e-07 
0 0 0 0 0 0 0 0 3.69980696e-07 
0 0 0 0 0 0 0 0 3.180279925e-07 
0 0 0 0 0 0 0 0 3.203706591e-07 
0 0 0 0 0 0 0 0 2.171126099e-07 
0 0 0 0 0 0 0 0 2.923753197e-07 
0 0 0 0 0 0 0 0 3.956333688e-07 
0 0 0 0 0 0 0 0 2.947179862e-07 
-3.183521661e-07 0 1.49666935e-07 0 -1.580730195e-07 0 1.49666935e-07 0 -3.314130743e-07 
-1.802929178e-07 0 2.009460201e-07 0 2.300886324e-07 0 2.009460201e-07 0 2.740041391e-07 
1.982517681e-07 0 -1.911570368e-07 0 -2.112120851e-07 0 -1.911570368e-07 0 -1.868647423e-07 
3.006070778e-07 0 -1.76206859e-07 0 1.475152706e-07 0 -1.76206859e-07 0 3.935412014e-07 
-2.49322542e-07 0 1.753064776e-07 0 0 0 1.753064776e-07 0 0 
0 0 0 0 0 0 0 0 0 
0 0 0 0 -1.846425523e-07 0 0 0 -2.591389083e-07 
0 0 0 0 0 0 0 0 0 
0 0 0 0 1.888019515e-07 0 0 0 3.337726703e-07 
2.49429423e-07 0 -1.836819479e-07 0 0 0 -1.836819479e-07 0 0 
0 0 0 0 0 0 0 0 -4.405069867e-07 
-1.884648785e-07 0 0 0 0 0 0 0 -3.346127285e-07 
1.963465372e-07 0 0 0 0 0 0 0 -2.594204003e-07 
0 -1.331699259e-07 0 -1.331699259e-07 0 1.550092175e-07 0 1.550092175e-07 -5.219180998e-07 
-1.315463465e-07 0 0 0 0 0 0 0 -3.875598576e-07 
0 0 0 0 0 0 0 0 -2.970165644e-07 
0 0 0 0 0 0 0 0 -3.499636935e-07 
0 0 0 0 0 0 0 0 -4.812125432e-07 
0 0 0 0 0 0 0 0 -4.282654142e-07 
0 0 0 0 0 0 0 0 -3.906692501e-07 
0 0 0 0 0 0 0 0 3.766854799e-07 
0 0 0 0 0 0 0 0 4.70113231e-07 
0 0 -1.222223265e-07 0 0 0 -1.222223265e-07 0 4.840009238e-07 
0 0 0 0 0 0 0 0 3.832831864e-07 
0 0 0 0 0 0 0 0 4.233993554e-07 
0 0 0 0 0 0 0 0 4.770570774e-07 
0 0 0 0 0 0 0 0 4.303432018e-07 
0 0 0 0 0 0 0 0 3.799843331e-07 
0 0 0 0 0 0 0 0 4.266982087e-07 
0 0 0 0 0 0 0 0 4.336420551e-07 
6.467725038e-07 3.458665418e-07 0 3.458665418e-07 6.666388756e-07 -3.088706237e-07 0 -3.088706237e-07 0 
-5.449095517e-07 0 2.168941568e-07 0 -3.319112647e-07 0 2.168941568e-07 0 -5.254041002e-07 
-1.778160405e-07 0 0 0 -2.543981526e-07 0 0 0 -3.250554925e-07 
1.387763786e-07 -1.335545499e-07 -2.574130473e-07 -1.335545499e-07 0 3.174823633e-07 -2.574130473e-07 3.174823633e-07 -4.527924578e-07 
0 0 1.220954291e-07 0 1.673638055e-07 -1.446341221e-07 1.220954291e-07 -1.446341221e-07 -2.444947692e-07 
-3.613627961e-07 0 0 0 -2.931547087e-07 0 0 0 -4.252297964e-07 
2.344782317e-07 1.337418452e-07 0 1.337418452e-07 2.061203615e-07 -1.937937775e-07 0 -1.937937775e-07 -1.443204654e-07 
3.927744412e-07 0 0 0 3.174813699e-07 0 0 0 -2.08188948e-07 
-2.030665866e-07 -1.206224027e-07 0 -1.206224027e-07 -1.817937002e-07 1.685423714e-07 0 1.685423714e-07 -4.89098279e-07 
0 0 -1.283388599e-07 0 -1.430371442e-07 1.19382716e-07 -1.283388599e-07 1.19382716e-07 -3.889239752e-07 
0 0 -1.283446613e-07 0 -2.058365816e-07 0 -1.283446613e-07 0 -1.749251285e-07 
-1.311178631e-07 0 0 0 0 0 0 0 -5.473874936e-07 
3.34742384e-07 0 -2.212995019e-07 0 1.796938672e-07 0 -2.212995019e-07 0 -3.518609853e-07 
-2.417582395e-07 0 0 0 -1.503900361e-07 0 0 0 -1.788853885e-07 
0 0 0 0 0 0 0 0 -3.611563111e-07 
0 0 0 0 0 0 0 0 -4.496242395e-07 
2.079870771e-07 0 -1.748220816e-07 0 0 0 -1.748220816e-07 0 -2.633930569e-07 
0 0 0 0 -1.781133089e-07 0 0 0 -1.769052585e-07 
-1.864380513e-07 0 0 0 0 0 0 0 -3.631364411e-07 
0 0 0 0 0 0 0 0 -2.653731869e-07 
1.352725277e-07 1.807420738e-07 0 1.807420738e-07 1.974339929e-07 -1.72007254e-07 0 -1.72007254e-07 -3.083661222e-07 
-4.228760678e-07 0 1.434904305e-07 0 -1.964894918e-07 0 1.434904305e-07 0 -5.044889318e-07 
2.530865461e-07 0 0 0 0 0 0 0 -2.948714348e-07 
0 -1.54586193e-07 -1.61000212e-07 -1.54586193e-07 0 2.160365198e-07 -1.61000212e-07 2.160365198e-07 -6.058459936e-07 
-1.438017701e-07 0 0 0 0 0 0 0 -4.06427527e-07 
0 0 0 0 0 0 0 0 -3.996801833e-07 
1.941795369e-07 1.399409332e-07 0 1.399409332e-07 0 -1.228238312e-07 0 -1.228238312e-07 -3.016187785e-07 
0 0 0 0 0 0 0 0 -4.571060579e-07 
-2.189717981e-07 0 0 0 0 0 0 0 -5.551674627e-07 
0 0 0 0 0 0 0 0 -4.503587142e-07 
5.069271211e-07 3.243817648e-07 0 3.243817648e-07 5.461601102e-07 -2.730286137e-07 0 -2.730286137e-07 0 
-6.454679308e-07 0 1.880341028e-07 0 -3.618916267e-07 0 1.880341028e-07 0 -6.255114691e-07 
0 0 0 0 -1.450433983e-07 0 0 0 -3.258245954e-07 
0 -1.553303402e-07 -2.000310455e-07 -1.553303402e-07 0 2.725215315e-07 -2.000310455e-07 2.725215315e-07 -5.870812819e-07 
0 0 0 0 0 -1.44291035e-07 0 -1.44291035e-07 -3.621221374e-07 
-3.073186114e-07 0 0 0 -2.534675125e-07 0 0 0 -4.756680322e-07 
2.688789146e-07 1.576843275e-07 0 1.576843275e-07 2.005583559e-07 -1.755058163e-07 0 -1.755058163e-07 -2.122787005e-07 
2.831461297e-07 0 0 0 2.39384053e-07 0 0 0 -3.429070438e-07 
-2.930513963e-07 -1.238869605e-07 0 -1.238869605e-07 -2.146418154e-07 1.284840375e-07 0 1.284840375e-07 -6.062963755e-07 
0 0 0 0 0 0 0 0 -4.564529386e-07 
-2.452309249e-07 0 1.546081755e-07 0 0 0 1.546081755e-07 0 -6.543640586e-07 
-2.323439946e-07 0 1.233227504e-07 0 0 0 1.233227504e-07 0 -1.706846026e-07 
4.718561944e-07 0 -2.936636915e-07 0 2.947704383e-07 1.578758839e-07 -2.936636915e-07 1.578758839e-07 -2.87022915e-07 
1.30463234e-07 -1.359399743e-07 -1.827982356e-07 -1.359399743e-07 -1.885369029e-07 0 -1.827982356e-07 0 -1.63751536e-07 
-2.387874597e-07 0 1.389654629e-07 0 0 0 1.389654629e-07 0 -4.125243306e-07 
1.197560999e-07 0 0 0 0 0 0 0 -2.288537588e-07 
0 0 0 0 0 0 0 0 -4.706934868e-07 
0 0 0 0 -1.393333441e-07 0 0 0 -4.090577973e-07 
0 0 0 0 -1.355080602e-07 0 0 0 -1.672180693e-07 
3.011597142e-07 0 -2.382309636e-07 0 0 0 -2.382309636e-07 0 -2.253872255e-07 
1.351707738e-07 0 -1.466550269e-07 0 0 0 -1.466550269e-07 0 2.578177682e-07 
0 0 1.770833238e-07 0 0 0 1.770833238e-07 0 4.302917466e-07 
-1.230383001e-07 0 1.320240378e-07 0 0 0 1.320240378e-07 0 0 
0 0 0 0 0 0 0 0 4.341515795e-07 
0 0 0 0 0 0 0 0 3.440547574e-07 
0 0 1.545536808e-07 0 0 0 1.545536808e-07 0 2.715364743e-07 
0 0 0 0 0 0 0 0 1.852994852e-07 
0 0 0 0 0 0 0 0 3.459846739e-07 
0 0 0 0 0 0 0 0 4.322216631e-07 
0 0 0 0 0 0 0 0 2.734663908e-07 
-4.17450862e-07 0 2.526740698e-07 0 -3.485354852e-07 0 2.526740698e-07 0 -7.870723176e-07 
0 1.22294615e-07 1.926647091e-07 1.22294615e-07 4.006403393e-07 -1.758800414e-07 1.926647091e-07 -1.758800414e-07 0 
3.372985394e-07 0 -3.363940295e-07 0 0 2.161973563e-07 -3.363940295e-07 2.161973563e-07 -3.810779076e-07 
3.500699148e-07 0 -2.129253189e-07 0 1.420857865e-07 0 -2.129253189e-07 0 0 
-1.993124186e-07 0 2.226693894e-07 0 0 -1.256887333e-07 2.226693894e-07 -1.256887333e-07 -3.794372251e-07 
1.780622821e-07 0 0 0 1.688236737e-07 0 0 0 -1.764400202e-07 
0 0 0 0 -2.057642385e-07 0 0 0 -5.840751126e-07 
0 0 0 0 0 0 0 0 -4.04516531e-07 
1.844479697e-07 0 0 0 2.713630629e-07 0 0 0 0 
3.436842271e-07 0 -2.746596742e-07 0 0 0 -2.746596742e-07 0 -2.01519326e-07 
0 0 0 0 0 0 0 0 2.378803403e-07 
-1.473041468e-07 0 0 0 0 0 0 0 3.303954472e-07 
0 0 0 0 0 0 0 0 4.726933201e-07 
0 0 0 0 0 0 0 0 4.220779549e-07 
-1.21152152e-07 0 0 0 0 0 0 0 2.841378938e-07 
0 0 0 0 0 0 0 0 4.015443836e-07 
0 0 0 0 0 0 0 0 3.552868302e-07 
0 0 0 0 0 0 0 0 3.299791476e-07 
0 0 0 0 0 0 0 0 3.762367011e-07 
0 0 0 0 0 0 0 0 4.473856375e-07 
-6.671456489e-07 1.451680773e-07 0 1.451680773e-07 -3.758468689e-07 1.839385401e-07 0 1.839385401e-07 -1.243179389e-07 
5.863622867e-07 0 0 0 3.555928896e-07 0 0 0 5.052106984e-07 
0 0 0 0 0 -1.443611263e-07 0 -1.443611263e-07 -6.334189886e-07 
0 0 0 0 0 1.519225212e-07 0 1.519225212e-07 -7.51416203e-07 
0 0 0 0 0 0 0 0 1.904463798e-07 
2.775609997e-07 0 0 0 2.024178687e-07 0 0 0 0 
-3.491929681e-07 0 0 0 -1.633020105e-07 0 0 0 -3.788684637e-07 
-2.922702358e-07 0 0 0 -2.08189566e-07 1.679305307e-07 0 1.679305307e-07 -4.37867071e-07 
3.34483732e-07 0 0 0 1.575303133e-07 0 0 0 -1.231027523e-07 
0 0 0 0 0 0 0 0 -6.924175958e-07 
6.936160099e-07 0 0 0 3.671090825e-07 1.558347779e-07 0 1.558347779e-07 1.030472548e-06 
0 -1.705129862e-07 -1.736881502e-07 -1.705129862e-07 0 0 -1.736881502e-07 0 -4.625751388e-07 
-1.163295224e-06 -1.342400193e-07 0 -1.342400193e-07 -5.954876492e-07 -2.381243868e-07 0 -2.381243868e-07 4.125043039e-07 
4.647597767e-07 2.821080097e-07 2.280869864e-07 2.821080097e-07 1.350864064e-07 -1.91077331e-07 2.280869864e-07 -1.91077331e-07 -1.72585605e-07 
3.092574774e-07 0 -1.216649269e-07 0 1.435262575e-07 1.305291505e-07 -1.216649269e-07 1.305291505e-07 2.839487046e-07 
-6.191981396e-07 -1.523765028e-07 0 -1.523765028e-07 -3.377721084e-07 0 0 0 0 
-2.348396071e-07 0 0 0 0 0 0 0 7.214884259e-07 
5.791878933e-07 1.793322298e-07 0 1.793322298e-07 2.510977445e-07 0 0 0 4.289434715e-07 
1.948293608e-07 0 0 0 0 0 0 0 -3.175803719e-07 
-3.492677237e-07 0 1.48333889e-07 0 -2.302006214e-07 -2.146008589e-07 1.48333889e-07 -2.146008589e-07 1.199593495e-07 
8.655329587e-07 0 0 0 4.837897222e-07 0 0 0 1.099140604e-06 
-3.053451413e-07 -1.728016906e-07 -1.583079387e-07 -1.728016906e-07 -1.385861365e-07 0 -1.583079387e-07 0 -5.263999515e-07 
-8.77688527e-07 0 0 0 -4.64785623e-07 -1.752590033e-07 0 -1.752590033e-07 5.095988031e-07 
4.954149384e-07 2.58007778e-07 2.126060723e-07 2.58007778e-07 1.895698757e-07 -1.259694446e-07 2.126060723e-07 -1.259694446e-07 -1.374376757e-07 
2.800939087e-07 0 0 0 1.726017928e-07 0 0 0 2.863703263e-07 
-5.915168342e-07 -1.427224616e-07 0 -1.427224616e-07 -3.016858797e-07 0 0 0 0 
0 0 0 0 0 0 0 0 8.043697036e-07 
6.804739485e-07 1.792596567e-07 0 1.792596567e-07 3.36679799e-07 0 0 0 4.808514642e-07 
0 0 0 0 0 0 0 0 -3.319188136e-07 
-1.911367943e-07 0 1.364215424e-07 0 -1.376078736e-07 -1.506142239e-07 1.364215424e-07 -1.506142239e-07 1.860805637e-07 
-1.336600904e-06 -3.836741243e-07 0 -3.836741243e-07 -6.648826194e-07 0 0 0 -9.976906936e-07 
0 0 1.21065028e-07 0 0 1.733200687e-07 1.21065028e-07 1.733200687e-07 7.716757406e-07 
0 0 0 0 0 -1.858244618e-07 0 -1.858244618e-07 9.212899816e-07 
1.498527266e-06 4.379318534e-07 0 4.379318534e-07 7.28305979e-07 -2.527011566e-07 0 -2.527011566e-07 3.327317897e-07 
-6.627949408e-07 -1.97024132e-07 0 -1.97024132e-07 -3.064197159e-07 0 0 0 0 
0 0 0 0 0 0 0 0 8.464828611e-07 
-6.892947713e-07 -1.766360805e-07 0 -1.766360805e-07 -3.559220885e-07 0 0 0 0 
0 0 0 0 0 0 0 0 -3.324794519e-07 
7.547691444e-07 2.137788569e-07 0 2.137788569e-07 3.901745833e-07 0 0 0 5.522037652e-07 
7.282693139e-07 2.341669084e-07 0 2.341669084e-07 3.406722106e-07 -2.192628092e-07 0 -2.192628092e-07 6.270108856e-07 
5.433223994e-07 0 0 0 3.246992355e-07 0 0 0 8.448375238e-07 
-5.215850948e-07 -1.719730529e-07 -1.295683796e-07 -1.719730529e-07 -2.292595121e-07 0 -1.295683796e-07 0 -5.386827197e-07 
-4.164113018e-07 0 0 0 -2.643378902e-07 0 0 0 5.643702666e-07 
5.050287506e-07 2.281957678e-07 1.517790457e-07 2.281957678e-07 1.879923948e-07 0 1.517790457e-07 0 0 
0 0 0 0 0 0 0 0 1.53077402e-07 
-4.689981983e-07 0 0 0 -2.467987011e-07 0 0 0 0 
0 0 0 0 0 0 0 0 7.046038952e-07 
5.24175575e-07 1.400095825e-07 0 1.400095825e-07 2.563458152e-07 0 0 0 3.864427288e-07 
0 0 0 0 0 0 0 0 -3.053173929e-07 
0 0 0 0 0 0 0 0 2.462091002e-07 
-2.820395104e-07 0 0 0 -1.753337429e-07 -1.297560907e-07 0 -1.297560907e-07 6.549734017e-07 
-7.424022763e-07 -2.452071554e-07 0 -2.452071554e-07 -3.563860643e-07 0 0 0 -6.438439187e-07 
0 0 0 0 1.226349081e-07 1.221026303e-07 0 1.221026303e-07 7.132389738e-07 
9.314997456e-07 2.864865276e-07 0 2.864865276e-07 4.012553334e-07 -1.99718158e-07 0 -1.99718158e-07 1.213489625e-07 
-5.122208933e-07 -1.206310801e-07 0 -1.206310801e-07 -2.658599036e-07 0 0 0 0 
-3.140385767e-07 0 0 0 0 0 0 0 0 
0 0 0 0 0 0 0 0 6.841061877e-07 
3.247301176e-07 1.452157614e-07 0 1.452157614e-07 0 -1.647371243e-07 0 -1.647371243e-07 3.881611821e-07 
0 0 0 0 0 0 0 0 -2.612474781e-07 
5.229124343e-07 1.490669155e-07 0 1.490669155e-07 2.619451208e-07 0 0 0 4.172939682e-07 
-7.496832346e-07 1.704100368e-07 0 1.704100368e-07 -4.30901135e-07 1.929863385e-07 0 1.929863385e-07 -1.614949455e-07 
6.228223628e-07 0 0 0 3.787739708e-07 0 0 0 5.290624952e-07 
0 0 0 0 1.3008815e-07 -1.663628677e-07 0 -1.663628677e-07 -6.048020753e-07 
0 0 0 0 0 1.747881244e-07 0 1.747881244e-07 -8.330952989e-07 
0 0 0 0 0 0 0 0 1.837837749e-07 
3.649675302e-07 0 0 0 2.544310604e-07 -1.39402441e-07 0 -1.39402441e-07 0 
-3.212852685e-07 0 0 0 -1.504064925e-07 0 0 0 -3.831485104e-07 
-3.758573922e-07 0 0 0 -2.545073332e-07 1.838872315e-07 0 1.838872315e-07 -4.972951222e-07 
3.103954065e-07 0 0 0 1.503302197e-07 0 0 0 -1.520164019e-07 
0 0 0 0 0 0 0 0 -7.189486871e-07 
3.496652184e-07 -1.809445278e-07 -3.080426734e-07 -1.809445278e-07 0 1.945366125e-07 -3.080426734e-07 1.945366125e-07 -3.328931501e-07 
-3.048213171e-07 0 2.39621949e-07 0 -1.868267028e-07 0 2.39621949e-07 0 -3.144234429e-07 
2.351075788e-07 0 -2.137600978e-07 0 3.890705451e-07 0 -2.137600978e-07 0 0 
1.722255193e-07 -1.314991393e-07 -1.803066485e-07 -1.314991393e-07 -1.594242052e-07 0 -1.803066485e-07 0 -1.771917423e-07 
0 0 0 0 0 0 0 0 -3.236582965e-07 
0 0 0 0 0 0 0 0 -1.807369059e-07 
2.923863986e-07 -1.19813555e-07 -2.609013856e-07 -1.19813555e-07 2.260888903e-07 0 -2.609013856e-07 0 -1.899717595e-07 
2.609453688e-07 -1.562218335e-07 -2.44174661e-07 -1.562218335e-07 0 1.273885381e-07 -2.44174661e-07 1.273885381e-07 -2.550424462e-07 
0 0 0 0 -1.73125454e-07 0 0 0 -2.458075926e-07 
2.03666549e-07 0 -1.970333731e-07 0 0 0 -1.970333731e-07 0 0 
2.783206297e-07 0 1.438378098e-07 0 0 -2.446197995e-07 1.438378098e-07 -2.446197995e-07 8.951654584e-07 
3.960515393e-07 0 0 0 2.901084851e-07 2.634614624e-07 0 2.634614624e-07 8.574809943e-07 
0 0 0 0 1.255695302e-07 2.479194209e-07 0 2.479194209e-07 7.896849482e-07 
-9.962252948e-07 -1.710193133e-07 -1.957297483e-07 -1.710193133e-07 -4.046359599e-07 1.735840968e-07 -1.957297483e-07 1.735840968e-07 -7.331762959e-07 
3.371860845e-07 0 0 0 1.719703043e-07 0 0 0 8.763232263e-07 
2.571204042e-07 0 0 0 2.078390077e-07 2.556904417e-07 0 2.556904417e-07 8.235829713e-07 
1.982549494e-07 0 0 0 0 0 0 0 8.424252033e-07 
-3.589523325e-07 0 0 0 -1.754019183e-07 0 0 0 0 
-3.000868777e-07 0 0 0 0 2.185227796e-07 0 2.185227796e-07 0 
-4.390180128e-07 0 -1.355884463e-07 0 -1.395332148e-07 2.107517589e-07 -1.355884463e-07 2.107517589e-07 0 
-5.428231842e-07 0 -3.715923192e-07 0 0 6.272469287e-07 -3.715923192e-07 6.272469287e-07 -3.096212858e-07 
0 0 1.357362729e-07 0 0 2.969384674e-07 1.357362729e-07 2.969384674e-07 2.34600292e-07 
2.023386622e-07 0 0 0 1.88180919e-07 2.886624208e-07 0 2.886624208e-07 7.039197837e-07 
4.126478335e-07 0 0 0 0 -3.269073468e-07 0 -3.269073468e-07 7.074622035e-07 
-3.03397579e-07 0 0 0 0 4.620926981e-07 0 4.620926981e-07 0 
0 0 0 0 0 2.928004441e-07 0 2.928004441e-07 4.692600379e-07 
-1.70242261e-07 0 -1.849538113e-07 0 0 4.579546748e-07 -1.849538113e-07 4.579546748e-07 1.971492489e-07 
0 0 -1.94209793e-07 0 0 1.501697909e-07 -1.94209793e-07 1.501697909e-07 1.989204588e-07 
1.743379298e-07 0 0 0 0 0 0 0 4.710312478e-07 
3.074932479e-07 0 0 0 1.378811012e-07 0 0 0 7.056909936e-07 
-6.539564338e-07 0 -2.576641938e-07 0 -2.744235725e-07 -1.223607676e-07 -2.576641938e-07 -1.223607676e-07 -1.015756077e-06 
1.037812069e-06 -2.115060756e-07 4.570972437e-07 -2.115060756e-07 5.900682767e-07 -2.589541571e-07 4.570972437e-07 -2.589541571e-07 7.415731029e-07 
-3.708486497e-07 1.731606673e-07 -5.388778746e-07 1.731606673e-07 -2.470367995e-07 0 -5.388778746e-07 0 -1.894558213e-07 
-2.855840092e-07 0 2.664356328e-07 0 0 -2.518697524e-07 2.664356328e-07 -2.518697524e-07 0 
1.919278175e-07 0 0 0 1.578223521e-07 -1.906574624e-07 0 -1.906574624e-07 -1.370914869e-07 
3.334817095e-07 0 0 0 1.715157386e-07 0 0 0 2.760586408e-07 
-5.124025418e-07 1.329434541e-07 -3.982710342e-07 1.329434541e-07 -2.60730186e-07 0 -3.982710342e-07 0 -6.02605949e-07 
-4.697702215e-07 0 0 0 -1.922257188e-07 -1.8711526e-07 0 -1.8711526e-07 -4.51950059e-07 
3.761140298e-07 0 3.617664383e-07 0 2.400202058e-07 -2.554119548e-07 3.617664383e-07 -2.554119548e-07 4.267145308e-07 
-3.282163295e-07 0 -1.362211209e-07 0 -1.785323323e-07 0 -1.362211209e-07 0 0 
2.620775874e-07 2.082602606e-07 -1.207933861e-07 2.082602606e-07 2.683756131e-07 -3.313694162e-07 -1.207933861e-07 -3.313694162e-07 -2.697101585e-07 
-9.042261342e-07 -2.641443068e-07 4.055355838e-07 -2.641443068e-07 -5.44354543e-07 2.889321308e-07 4.055355838e-07 2.889321308e-07 -7.308241488e-07 
0 -1.288072336e-07 -4.046621403e-07 -1.288072336e-07 0 0 -4.046621403e-07 0 -6.553591743e-07 
8.980777434e-07 1.862762755e-07 -2.432909936e-07 1.862762755e-07 6.08619599e-07 2.810829125e-07 -2.432909936e-07 2.810829125e-07 0 
-3.210742734e-07 0 1.423710989e-07 0 -1.37989465e-07 0 1.423710989e-07 0 -5.002671536e-07 
-4.516216394e-07 -1.964757702e-07 0 -1.964757702e-07 -3.167537059e-07 1.901787466e-07 0 1.901787466e-07 -6.930916615e-07 
1.315302215e-07 0 -2.627277632e-07 0 0 -1.199720269e-07 -2.627277632e-07 -1.199720269e-07 -4.625346664e-07 
5.800776654e-07 1.972682681e-07 -1.820421898e-07 1.972682681e-07 4.384976061e-07 0 -1.820421898e-07 0 -1.220104365e-07 
0 0 0 0 0 2.850075217e-07 0 2.850075217e-07 -3.525674317e-07 
4.495302994e-07 0 -3.23976567e-07 0 2.597333651e-07 1.862541375e-07 -3.23976567e-07 1.862541375e-07 -3.148349444e-07 
0 0 -1.998330435e-07 0 0 3.365504264e-07 -1.998330435e-07 3.365504264e-07 -3.026415162e-07 
3.475743149e-07 2.726189779e-07 0 2.726189779e-07 5.152065394e-07 -1.25742543e-07 0 -1.25742543e-07 0 
-1.536986839e-07 0 0 0 -3.716362103e-07 0 0 0 -4.085958725e-07 
0 0 0 0 -1.67908481e-07 -1.642402478e-07 0 -1.642402478e-07 -5.079174725e-07 
2.083023134e-07 0 0 0 2.873764129e-07 0 0 0 -1.409655034e-07 
0 0 0 0 0 0 0 0 -1.939426815e-07 
0 0 0 0 -1.56044962e-07 0 0 0 -3.556186944e-07 
0 0 0 0 0 0 0 0 -4.052794944e-07 
2.129557209e-07 1.78513677e-07 0 1.78513677e-07 1.736490292e-07 -1.449913954e-07 0 -1.449913954e-07 -2.436034816e-07 
0 0 0 0 -2.697723456e-07 -1.3520177e-07 0 -1.3520177e-07 -4.582566725e-07 
0 -1.538028129e-07 -1.620506997e-07 -1.538028129e-07 -1.790890082e-07 2.551844073e-07 -1.620506997e-07 2.551844073e-07 -4.802233238e-07 
2.1574199e-07 2.91850166e-07 0 2.91850166e-07 4.427329485e-07 -1.433075546e-07 0 -1.433075546e-07 0 
0 0 0 0 -4.17463512e-07 0 0 0 -4.670384315e-07 
5.99881588e-07 2.904380041e-07 0 2.904380041e-07 2.691286414e-07 0 0 0 -2.907345731e-07 
0 0 0 0 1.318219701e-07 0 0 0 -2.90100907e-07 
0 1.523390671e-07 0 1.523390671e-07 0 0 0 0 -2.835084608e-07 
0 0 0 0 -2.982762601e-07 0 0 0 -4.736308776e-07 
3.102994998e-07 0 0 0 0 0 0 0 -3.854789484e-07 
4.07811789e-07 2.911440851e-07 0 2.911440851e-07 3.559307949e-07 0 0 0 -1.953565316e-07 
2.598267831e-07 1.516329861e-07 0 1.516329861e-07 0 0 0 0 -3.788865023e-07 
-8.526227104e-07 -4.089200892e-07 -1.291742777e-07 -4.089200892e-07 -6.054171005e-07 1.676934052e-07 -1.291742777e-07 1.676934052e-07 -8.359365977e-07 
-1.757071532e-07 -1.9944563e-07 -1.686067069e-07 -1.9944563e-07 0 2.071679322e-07 -1.686067069e-07 2.071679322e-07 -6.601260722e-07 
3.733821459e-07 2.418507654e-07 0 2.418507654e-07 3.431059091e-07 0 0 0 -1.6103957e-07 
3.427200762e-07 2.734973492e-07 0 2.734973492e-07 4.679775373e-07 0 0 0 0 
-5.141649318e-07 -3.041828596e-07 -1.488904923e-07 -3.041828596e-07 -3.600581859e-07 1.874306687e-07 -1.488904923e-07 1.874306687e-07 -7.480313349e-07 
0 0 0 0 0 0 0 0 -4.105828211e-07 
-2.396202822e-07 0 0 0 -1.311555957e-07 0 0 0 -4.984880839e-07 
-2.549513171e-07 0 0 0 0 0 0 0 -4.493444741e-07 
0 0 0 0 1.766391331e-07 0 0 0 -3.614392113e-07 
3.580511111e-07 2.576740573e-07 0 2.576740573e-07 4.055417232e-07 0 0 0 0 
-2.070145556e-07 0 1.29117551e-07 0 -1.817935752e-07 -2.093311859e-07 1.29117551e-07 -2.093311859e-07 -5.124558361e-07 
-2.484813468e-07 0 1.289670937e-07 0 0 0 1.289670937e-07 0 -2.901870187e-07 
0 -1.818066933e-07 -2.730418143e-07 -1.818066933e-07 0 2.858558846e-07 -2.730418143e-07 2.858558846e-07 -4.80640885e-07 
4.519870971e-07 0 -1.793106615e-07 0 4.230040963e-07 4.011183688e-07 -1.793106615e-07 4.011183688e-07 0 
-2.277479512e-07 0 1.290423224e-07 0 -1.218254268e-07 -1.381879617e-07 1.290423224e-07 -1.381879617e-07 -4.013214274e-07 
-1.215447444e-07 0 0 0 0 0 0 0 -3.854139519e-07 
0 0 0 0 -1.367849946e-07 0 0 0 -4.965483606e-07 
1.224862708e-07 0 0 0 1.206052606e-07 0 0 0 -2.906202679e-07 
0 0 0 0 1.80573409e-07 1.670368157e-07 0 1.670368157e-07 -1.794858592e-07 
2.286894775e-07 0 -2.261762379e-07 0 1.656138411e-07 3.434871267e-07 -2.261762379e-07 3.434871267e-07 -2.747127924e-07 
0 0 1.378945731e-07 0 0 2.864886647e-07 1.378945731e-07 2.864886647e-07 3.719194479e-07 
6.833393896e-07 0 0 0 2.058051356e-07 -2.962508846e-07 0 -2.962508846e-07 9.768499374e-07 
3.072100039e-07 0 0 0 2.553016123e-07 2.621424508e-07 0 2.621424508e-07 8.811477457e-07 
-8.897915799e-07 -1.418138414e-07 -4.087768978e-07 -1.418138414e-07 -2.455924739e-07 5.841295268e-07 -4.087768978e-07 5.841295268e-07 -5.065253184e-07 
2.886222163e-07 0 0 0 0 0 0 0 6.743846926e-07 
4.952746967e-07 0 0 0 2.305533739e-07 0 0 0 9.289988415e-07 
0 0 0 0 1.207539212e-07 2.743155577e-07 0 2.743155577e-07 6.265335968e-07 
-4.979432685e-07 0 -1.354411624e-07 0 -1.29693122e-07 4.353090957e-07 -1.354411624e-07 4.353090957e-07 0 
0 0 -2.120668562e-07 0 0 1.439393211e-07 -2.120668562e-07 1.439393211e-07 2.351623095e-07 
-2.91290788e-07 0 -1.869829399e-07 0 0 4.231359888e-07 -1.869829399e-07 4.231359888e-07 1.873112136e-07 
0 0 0 0 0 -2.383293584e-07 0 -2.383293584e-07 -3.378766034e-07 
0 0 1.217052074e-07 0 0 0 1.217052074e-07 0 -1.645749914e-07 
0 -1.543366465e-07 -3.038291664e-07 -1.543366465e-07 0 3.300925184e-07 -3.038291664e-07 3.300925184e-07 -3.76986486e-07 
1.8411887e-07 0 -1.897791384e-07 0 2.118996143e-07 4.37594768e-07 -1.897791384e-07 4.37594768e-07 0 
0 0 0 0 0 -1.586695774e-07 0 -1.586695774e-07 -2.512257974e-07 
0 0 0 0 0 1.25541361e-07 0 1.25541361e-07 -2.707807387e-07 
0 0 0 0 0 0 0 0 -3.574315447e-07 
0 0 0 0 0 0 0 0 -2.231607411e-07 
0 0 0 0 0 1.792924858e-07 0 1.792924858e-07 -1.365099352e-07 
0 0 -2.468041524e-07 0 0 3.838436432e-07 -2.468041524e-07 3.838436432e-07 -2.427156825e-07 
1.396864498e-07 0 -2.330431471e-07 0 2.575611011e-07 3.100392719e-07 -2.330431471e-07 3.100392719e-07 -3.75985626e-07 
0 0 0 0 0 -1.400706294e-07 0 -1.400706294e-07 -6.240970871e-07 
-5.347611223e-07 0 2.716391769e-07 0 -3.727449412e-07 0 2.716391769e-07 0 -7.842040788e-07 
3.677905041e-07 0 -2.776310278e-07 0 3.550919693e-07 2.554220787e-07 -2.776310278e-07 2.554220787e-07 0 
0 0 -1.53208811e-07 0 0 0 -1.53208811e-07 0 -5.000413566e-07 
-2.40565054e-07 0 0 0 -2.45227737e-07 0 0 0 -7.04150583e-07 
-1.975373363e-07 0 0 0 0 1.293756046e-07 0 1.293756046e-07 -5.800948524e-07 
2.537384769e-07 0 -2.553370875e-07 0 3.063265352e-07 2.827306753e-07 -2.553370875e-07 2.827306753e-07 -1.887034943e-07 
2.107107592e-07 0 -1.755027514e-07 0 0 0 -1.755027514e-07 0 -3.127592249e-07 
0 0 0 0 0 0 0 0 -3.928127208e-07 
-2.218227476e-07 0 -1.81922384e-07 0 -2.129886675e-07 -2.150183334e-07 -1.81922384e-07 -2.150183334e-07 -6.281754805e-07 
-9.856837667e-07 -3.02850362e-07 2.796504616e-07 -3.02850362e-07 -6.310322596e-07 2.777229102e-07 2.796504616e-07 2.777229102e-07 -9.134956611e-07 
0 -1.515669413e-07 -1.985956095e-07 -1.515669413e-07 0 0 -1.985956095e-07 0 -5.039438983e-07 
1.46578872e-06 3.745267548e-07 -2.224362059e-07 3.745267548e-07 1.073329647e-06 0 -2.224362059e-07 0 2.509555598e-07 
-6.037532571e-07 -1.53755242e-07 0 -1.53755242e-07 -4.220104636e-07 0 0 0 -7.708355708e-07 
-4.458421538e-07 -2.272086517e-07 0 -2.272086517e-07 -2.803503984e-07 1.863386245e-07 0 1.863386245e-07 -7.087197797e-07 
0 0 -1.902589968e-07 0 0 0 -1.902589968e-07 0 -5.660596894e-07 
6.21982986e-07 1.849333164e-07 -2.02179295e-07 1.849333164e-07 4.301704898e-07 0 -2.02179295e-07 0 -1.886099603e-07 
2.400524764e-07 0 0 0 2.211486938e-07 1.71071185e-07 0 1.71071185e-07 -3.312700506e-07 
7.798940893e-07 0 -2.105159077e-07 0 5.71830555e-07 0 -2.105159077e-07 0 -1.264941693e-07 
-9.91933454e-07 0 0 0 -5.185180361e-07 -1.334575273e-07 0 -1.334575273e-07 3.485147467e-07 
0 0 1.362247148e-07 0 -1.327035983e-07 -1.99529715e-07 1.362247148e-07 -1.99529715e-07 -3.086780852e-07 
3.890585947e-07 0 0 0 0 0 0 0 0 
-1.210162296e-07 -2.207887627e-07 0 -2.207887627e-07 0 0 0 0 -3.977055873e-07 
-5.455512927e-07 0 0 0 -3.256108172e-07 -1.664936211e-07 0 -1.664936211e-07 0 
1.449447317e-07 0 0 0 0 -1.532232472e-07 0 -1.532232472e-07 -2.091153073e-07 
-3.014374297e-07 0 0 0 -2.219618886e-07 -1.201871533e-07 0 -1.201871533e-07 1.194811087e-07 
-5.564748418e-07 -1.693334082e-07 0 -1.693334082e-07 -3.084975441e-07 0 0 0 0 
0 0 0 0 0 0 0 0 -3.531918362e-07 
1.340211826e-07 0 0 0 0 0 0 0 -2.536290583e-07 
1.547330926e-07 0 -2.645234729e-07 0 0 3.43884061e-07 -2.645234729e-07 3.43884061e-07 -4.050680159e-07 
1.781997465e-07 0 0 0 1.708396758e-07 5.145956882e-07 0 5.145956882e-07 0 
1.954043782e-07 0 -4.954073302e-07 0 1.764259548e-07 -3.434678436e-07 -4.954073302e-07 -3.434678436e-07 1.756572911e-07 
-5.565249226e-07 -1.547313224e-07 3.86235268e-07 -1.547313224e-07 -4.108065489e-07 1.747933532e-07 3.86235268e-07 1.747933532e-07 -4.488760722e-07 
1.664664196e-07 0 -1.789499554e-07 0 1.286467111e-07 4.292398746e-07 -1.789499554e-07 4.292398746e-07 -2.390005424e-07 
1.868020624e-07 0 -2.94391884e-07 0 1.736328153e-07 0 -2.94391884e-07 0 0 
1.750687354e-07 0 -3.799654015e-07 0 1.314398507e-07 0 -3.799654015e-07 0 0 
-2.00895915e-07 0 0 0 -1.621764012e-07 2.593387071e-07 0 2.593387071e-07 -4.269720441e-07 
-1.89162588e-07 0 1.464294151e-07 0 -1.199834365e-07 3.446945207e-07 1.464294151e-07 3.446945207e-07 -2.609045705e-07 
-1.805602722e-07 0 0 0 0 0 0 0 -1.366093906e-07 
-8.973951195e-07 -3.48655299e-07 0 -3.48655299e-07 -6.043809711e-07 3.407819424e-07 0 3.407819424e-07 -9.010571938e-07 
8.863145776e-07 3.742761832e-07 -3.200275002e-07 3.742761832e-07 7.037776062e-07 -2.529941194e-07 -3.200275002e-07 -2.529941194e-07 2.06009825e-07 
-1.139642239e-06 -5.117283217e-07 -1.205084589e-07 -5.117283217e-07 -8.660504974e-07 2.295747546e-07 -1.205084589e-07 2.295747546e-07 -1.231475271e-06 
3.319095169e-07 3.459690837e-07 1.920404212e-07 3.459690837e-07 5.656182808e-07 0 1.920404212e-07 0 0 
0 0 -2.01452669e-07 0 0 0 -2.01452669e-07 0 -3.475236844e-07 
-1.266638305e-07 0 -2.202679795e-07 0 0 0 -2.202679795e-07 0 -5.127327231e-07 
-1.018518679e-06 -4.301918103e-07 0 -4.301918103e-07 -7.352157343e-07 2.851783485e-07 0 2.851783485e-07 -1.066266233e-06 
-2.827428013e-07 0 0 0 0 1.982613501e-07 0 1.982613501e-07 -5.002141771e-07 
6.091120472e-07 3.601226334e-07 0 3.601226334e-07 6.346979435e-07 0 0 0 0 
-4.038663609e-07 0 0 0 -1.502161083e-07 1.426577562e-07 0 1.426577562e-07 -6.654232158e-07 
-1.740675246e-07 0 2.427588427e-07 0 -4.146348102e-07 0 2.427588427e-07 0 0 
0 0 -1.772255347e-07 0 1.433412135e-07 0 -1.772255347e-07 0 2.240862289e-07 
0 0 -1.319029284e-07 0 -1.380477682e-07 0 -1.319029284e-07 0 1.935369493e-07 
0 0 -1.632468789e-07 0 0 0 -1.632468789e-07 0 4.355898929e-07 
0 0 0 0 -1.356467984e-07 0 0 0 1.293820101e-07 
0 0 -1.545642315e-07 0 0 0 -1.545642315e-07 0 2.088115891e-07 
0 0 0 0 -2.763412892e-07 0 0 0 0 
0 0 0 0 -1.671502925e-07 0 0 0 2.351338421e-07 
0 0 -1.702362068e-07 0 0 0 -1.702362068e-07 0 3.298380609e-07 
0 0 -1.475749036e-07 0 0 0 -1.475749036e-07 0 3.145634211e-07 
-4.403743828e-07 -3.522441841e-07 -6.780574487e-07 -3.522441841e-07 -7.222317396e-07 -3.356684581e-07 -6.780574487e-07 -3.356684581e-07 -7.873294183e-07 
-2.590147109e-07 0 4.184708719e-07 0 -1.959235775e-07 0 4.184708719e-07 0 -3.739154086e-07 
4.316620446e-07 1.401309384e-07 0 1.401309384e-07 4.970524528e-07 4.177286793e-07 0 4.177286793e-07 -1.55349507e-07 
2.698703919e-07 0 -1.751086726e-07 0 2.970527933e-07 1.900248084e-07 -1.751086726e-07 1.900248084e-07 0 
-3.496945468e-07 -1.987382735e-07 -1.297932884e-07 -1.987382735e-07 -4.590776585e-07 -1.953180232e-07 -1.297932884e-07 -1.953180232e-07 -5.806224134e-07 
0 0 2.402390959e-07 0 1.505644376e-07 1.813805455e-07 2.402390959e-07 1.813805455e-07 -2.646324578e-07 
0 0 -3.080250644e-07 0 0 0 -3.080250644e-07 0 -4.713394626e-07 
0 -1.408833321e-07 -4.265830607e-07 -1.408833321e-07 -2.125894732e-07 0 -4.265830607e-07 0 -4.530496624e-07 
0 0 1.216810996e-07 0 0 0 1.216810996e-07 0 -2.463426575e-07 
3.507662182e-07 0 0 0 3.97052623e-07 3.038767438e-07 0 3.038767438e-07 -1.370597067e-07 
-6.87962949e-07 -3.551311624e-07 0 -3.551311624e-07 -4.636675313e-07 0 0 0 -6.608136678e-07 
0 -1.333801793e-07 0 -1.333801793e-07 0 1.642465228e-07 0 1.642465228e-07 -5.055120715e-07 
4.305409551e-07 2.343635806e-07 0 2.343635806e-07 4.216862143e-07 0 0 0 0 
0 0 0 0 0 0 0 0 -2.639959683e-07 
-3.202472604e-07 -2.442556708e-07 0 -2.442556708e-07 -1.939389847e-07 1.411216915e-07 0 1.411216915e-07 -5.831628696e-07 
2.390046916e-07 0 0 0 2.487378881e-07 0 0 0 -2.745176767e-07 
-1.28710997e-07 0 0 0 0 0 0 0 -3.521684749e-07 
-3.89987752e-07 -1.323472362e-07 0 -1.323472362e-07 -1.970326941e-07 0 0 0 -4.62404818e-07 
0 0 0 0 0 0 0 0 -3.847540199e-07 
1.692642e-07 1.624001353e-07 0 1.624001353e-07 2.456441787e-07 0 0 0 -1.537596251e-07 
-1.31937585e-07 0 0 0 -1.670914406e-07 2.112507885e-07 0 2.112507885e-07 3.167623681e-07 
0 0 5.901343291e-07 0 0 0 5.901343291e-07 0 0 
0 0 0 0 -1.2434247e-07 1.508353693e-07 0 1.508353693e-07 0 
0 0 -2.750524632e-07 0 0 0 -2.750524632e-07 0 2.415949953e-07 
0 0 2.831364568e-07 0 0 0 2.831364568e-07 0 2.093788576e-07 
0 0 2.790685498e-07 0 0 0 2.790685498e-07 0 0 
0 0 0 0 -1.457169553e-07 1.810430789e-07 0 1.810430789e-07 1.993451432e-07 
0 0 -1.494569393e-07 0 0 0 -1.494569393e-07 0 2.791786817e-07 
0 0 1.575409329e-07 0 0 0 1.575409329e-07 0 1.717951712e-07 
0 0 -1.535248464e-07 0 0 0 -1.535248464e-07 0 1.617614568e-07 
1.027188775e-06 0 0 0 2.61829637e-07 -1.3985346e-07 0 -1.3985346e-07 0 
-3.171674184e-07 0 0 0 -1.948321535e-07 0 0 0 5.119872148e-07 
-1.485601492e-07 0 0 0 -1.254249932e-07 -1.373721407e-07 0 -1.373721407e-07 6.587705633e-07 
-3.436719588e-07 0 0 0 0 0 0 0 4.733369403e-07 
3.550106782e-07 0 0 0 0 0 0 0 2.978554521e-07 
-2.328637838e-07 0 0 0 -1.601285733e-07 0 0 0 5.853788891e-07 
4.393143128e-07 0 0 0 0 -1.386128003e-07 0 -1.386128003e-07 3.712471264e-07 
3.41758408e-07 0 0 0 0 0 0 0 2.785303149e-07 
-3.304196886e-07 0 0 0 -1.239131465e-07 0 0 0 4.926620776e-07 
-2.46116054e-07 0 0 0 0 0 0 0 5.660537518e-07 
5.835002722e-07 2.123056311e-07 1.741521678e-07 2.123056311e-07 9.089320538e-07 3.54896989e-07 1.741521678e-07 3.54896989e-07 0 
6.862332864e-07 2.211537509e-07 2.062875368e-07 2.211537509e-07 3.26563821e-07 0 2.062875368e-07 0 0 
-1.300466073e-06 -2.325044532e-07 2.392545331e-07 -2.325044532e-07 -6.650193217e-07 0 2.392545331e-07 0 -9.049978913e-07 
5.61166971e-07 -1.612088965e-07 -6.952407416e-07 -1.612088965e-07 -5.904094485e-07 -5.546661129e-07 -6.952407416e-07 -5.546661129e-07 -2.7084445e-07 
6.348667793e-07 2.16729691e-07 1.902198523e-07 2.16729691e-07 6.177479374e-07 1.944256999e-07 1.902198523e-07 1.944256999e-07 0 
-3.071163931e-07 0 2.227710349e-07 0 -1.692277503e-07 0 2.227710349e-07 0 -4.343420065e-07 
-3.584829002e-07 0 2.067033504e-07 0 1.219563661e-07 2.289534444e-07 2.067033504e-07 2.289534444e-07 -5.073782167e-07 
5.723336216e-07 0 -2.605442869e-07 0 1.592613027e-07 0 -2.605442869e-07 0 -1.903014961e-07 
6.237001287e-07 0 -2.444766024e-07 0 -1.319228137e-07 -2.603558511e-07 -2.444766024e-07 -2.603558511e-07 0 
-3.696495508e-07 -1.968566749e-07 -2.279931043e-07 -1.968566749e-07 -6.277143851e-07 -2.258281065e-07 -2.279931043e-07 -2.258281065e-07 -5.879211706e-07 
-1.391930704e-06 -1.724350909e-07 0 -1.724350909e-07 -6.900591076e-07 -2.024812992e-07 0 -2.024812992e-07 3.238891715e-07 
-1.271430604e-07 0 1.711786407e-07 0 0 -2.652531653e-07 1.711786407e-07 -2.652531653e-07 -3.551625091e-07 
4.780337782e-07 0 0 0 0 -1.359458019e-07 0 -1.359458019e-07 -1.419293311e-07 
0 -2.81621086e-07 0 -2.81621086e-07 0 0 0 0 -4.573557335e-07 
-7.595368822e-07 0 0 0 -3.907236175e-07 -2.338672323e-07 0 -2.338672323e-07 0 
1.754453589e-07 0 0 0 0 -2.005994836e-07 0 -2.005994836e-07 -2.485459201e-07 
-4.56948463e-07 0 0 0 -3.087967045e-07 -1.692135505e-07 0 -1.692135505e-07 0 
-7.247384679e-07 -2.270280884e-07 0 -2.270280884e-07 -3.954286269e-07 0 0 0 0 
0 0 0 0 0 0 0 0 -4.062591213e-07 
2.102437733e-07 -1.304541895e-07 0 -1.304541895e-07 0 0 0 0 -2.996425323e-07 
0 0 0 0 0 1.438648975e-07 0 1.438648975e-07 -6.129838719e-07 
-5.128588179e-07 0 3.069648318e-07 0 -4.66524775e-07 0 3.069648318e-07 0 -8.342576812e-07 
3.975259497e-07 0 -4.071665434e-07 0 2.013976836e-07 1.622929354e-07 -4.071665434e-07 1.622929354e-07 -2.06500728e-07 
3.271067095e-07 0 -2.316624466e-07 0 2.05389455e-07 0 -2.316624466e-07 0 0 
-2.853256045e-07 0 1.276976663e-07 0 -2.026513199e-07 0 1.276976663e-07 0 -7.236207766e-07 
0 0 0 0 -1.325635457e-07 0 0 0 -5.203792046e-07 
1.698667793e-07 0 -2.293680213e-07 0 1.313099094e-07 1.530789164e-07 -2.293680213e-07 1.530789164e-07 -4.097423e-07 
1.346571592e-07 0 -1.416159729e-07 0 1.333057951e-07 0 -1.416159729e-07 0 -2.959090712e-07 
0 0 0 0 -1.3056766e-07 0 0 0 -4.065459759e-07 
3.623163296e-07 0 -3.19414495e-07 0 2.033935693e-07 0 -3.19414495e-07 0 0 
2.787901868e-07 0 -1.923253674e-07 0 2.346618597e-07 3.833392701e-07 -1.923253674e-07 3.833392701e-07 -1.806392098e-07 
1.933480168e-07 1.205033757e-07 0 1.205033757e-07 2.093902469e-07 0 0 0 -1.267244073e-07 
-2.793918863e-07 -2.100178862e-07 -2.715167535e-07 -2.100178862e-07 -1.900908948e-07 2.969536305e-07 -2.715167535e-07 2.969536305e-07 -5.877195178e-07 
0 0 0 0 0 0 0 0 -2.958392442e-07 
2.360691018e-07 0 0 0 2.220260533e-07 1.371367252e-07 0 1.371367252e-07 -1.536818086e-07 
0 0 0 0 0 0 0 0 -3.572219625e-07 
0 -1.212943344e-07 -2.319210605e-07 -1.212943344e-07 0 3.401464503e-07 -2.319210605e-07 3.401464503e-07 -3.841793638e-07 
0 0 0 0 0 1.774313549e-07 0 1.774313549e-07 -2.38239227e-07 
0 0 0 0 0 0 0 0 -2.112818257e-07 
-1.86299807e-07 0 -1.424202117e-07 0 -1.267177269e-07 1.342385351e-07 -1.424202117e-07 1.342385351e-07 -4.41779381e-07 
1.349853087e-06 1.657410694e-07 0 1.657410694e-07 5.516378002e-07 -2.415066293e-07 0 -2.415066293e-07 1.453454694e-06 
3.398460224e-07 1.471851348e-07 0 1.471851348e-07 2.648255767e-07 1.969743168e-07 0 1.969743168e-07 9.895375849e-07 
-1.509258688e-07 0 0 0 0 2.700361258e-07 0 2.700361258e-07 5.392120343e-07 
-1.547660857e-06 -2.078804226e-07 -4.39589037e-07 -2.078804226e-07 -5.494780511e-07 4.965578113e-07 -4.39589037e-07 4.965578113e-07 -8.883969745e-07 
8.448495548e-07 1.564631021e-07 0 1.564631021e-07 4.082316884e-07 0 0 0 1.22149614e-06 
0 0 0 0 0 2.335052213e-07 0 2.335052213e-07 7.643748096e-07 
5.994636091e-07 0 0 0 2.532253747e-07 0 0 0 9.963333643e-07 
0 0 -1.919757982e-07 0 0 1.27525591e-07 -1.919757982e-07 1.27525591e-07 2.825288599e-07 
-6.039074172e-07 0 -1.905180957e-07 0 -1.423262372e-07 3.46766064e-07 -1.905180957e-07 3.46766064e-07 0 
-8.492933628e-07 -1.577043091e-07 -1.65680496e-07 -1.577043091e-07 -2.97332551e-07 3.832969685e-07 -1.65680496e-07 3.832969685e-07 -1.745924701e-07 
-6.488453372e-07 -1.539930453e-07 2.951748589e-07 -1.539930453e-07 -4.397596743e-07 0 2.951748589e-07 0 -5.440852267e-07 
0 0 0 0 0 4.891734906e-07 0 4.891734906e-07 -2.710394073e-07 
0 0 -2.135715026e-07 0 0 3.227201908e-07 -2.135715026e-07 3.227201908e-07 -5.39140022e-07 
5.503984087e-07 1.594771413e-07 -4.37909648e-07 1.594771413e-07 4.251756221e-07 -3.044209678e-07 -4.37909648e-07 -3.044209678e-07 2.702171373e-07 
-3.50313727e-07 -1.288481913e-07 0 -1.288481913e-07 -2.211838084e-07 3.007468377e-07 0 3.007468377e-07 -4.07562317e-07 
0 0 -1.552445035e-07 0 0 4.059468407e-07 -1.552445035e-07 4.059468407e-07 -4.050897147e-07 
-2.914158284e-07 0 0 0 -1.971558953e-07 2.175201878e-07 0 2.175201878e-07 -5.416126244e-07 
0 0 0 0 0 0 0 0 -1.369340447e-07 
2.493081459e-07 0 -2.674135763e-07 0 2.112838398e-07 0 -2.674135763e-07 0 0 
3.082060445e-07 0 -3.257405753e-07 0 2.353117528e-07 0 -3.257405753e-07 0 -1.344614423e-07 
-5.04346376e-07 0 0 0 -2.063972819e-07 0 0 0 -2.275753895e-07 
2.87912854e-07 0 1.195461845e-07 0 0 2.202245934e-07 1.195461845e-07 2.202245934e-07 -7.062116674e-07 
-1.437254533e-07 0 0 0 -1.565313355e-07 2.589487651e-07 0 2.589487651e-07 -9.059187203e-07 
3.818381165e-07 0 0 0 2.346007894e-07 -1.912566046e-07 0 -1.912566046e-07 -5.604842876e-07 
0 0 0 0 0 0 0 0 -4.668935284e-07 
0 0 0 0 0 2.395866793e-07 0 2.395866793e-07 -8.060651938e-07 
-3.240359146e-07 0 0 0 -1.814643087e-07 0 0 0 -5.667470549e-07 
0 0 0 0 0 0 0 0 -3.940298385e-07 
3.348754852e-07 0 0 0 1.560270785e-07 0 0 0 -6.333479775e-07 
0 0 0 0 0 0 0 0 -7.332015039e-07 
-7.759776136e-07 -1.39308984e-07 2.596078303e-07 -1.39308984e-07 -4.305755035e-07 0 2.596078303e-07 0 -6.699899364e-07 
3.622982866e-07 1.801580246e-07 -1.240176484e-07 1.801580246e-07 0 -3.467384618e-07 -1.240176484e-07 -3.467384618e-07 -2.953155532e-07 
-1.350028774e-07 -1.570718208e-07 -3.311250579e-07 -1.570718208e-07 0 1.637302858e-07 -3.311250579e-07 1.637302858e-07 -6.821311218e-07 
5.972791869e-07 0 0 0 5.160545741e-07 4.65860123e-07 0 4.65860123e-07 0 
-2.068396635e-07 0 0 0 -1.705849208e-07 -1.296997929e-07 0 -1.296997929e-07 -4.826527448e-07 
0 0 -2.275713531e-07 0 0 0 -2.275713531e-07 0 -4.887233375e-07 
-4.554902455e-07 -1.481904024e-07 0 -1.481904024e-07 -2.660551342e-07 1.255345809e-07 0 1.255345809e-07 -6.760605291e-07 
0 0 0 0 0 2.765994995e-07 0 2.765994995e-07 -3.581480336e-07 
4.797887367e-07 1.43139034e-07 0 1.43139034e-07 3.027301181e-07 0 0 0 -1.70810842e-07 
2.311381548e-07 0 -1.906337383e-07 0 2.072599047e-07 3.147952044e-07 -1.906337383e-07 3.147952044e-07 -3.642186263e-07 
0 2.181029623e-07 0 2.181029623e-07 1.555995281e-07 -1.728157498e-07 0 -1.728157498e-07 -4.689379792e-07 
-1.832720411e-07 0 1.956337883e-07 0 0 0 1.956337883e-07 0 -5.026375613e-07 
2.347869177e-07 0 -1.956011359e-07 0 1.45088358e-07 1.855890445e-07 -1.956011359e-07 1.855890445e-07 -4.887516498e-07 
-3.489557576e-07 0 0 0 -3.72301385e-07 0 0 0 -5.846777083e-07 
0 1.514749744e-07 1.441050741e-07 1.514749744e-07 0 0 1.441050741e-07 0 -4.857877702e-07 
0 0 0 0 0 0 0 0 -4.956946055e-07 
1.271744038e-07 0 0 0 1.50343943e-07 0 0 0 -4.788448145e-07 
-1.646969338e-07 0 0 0 0 0 0 0 -5.268078438e-07 
-2.661138993e-07 0 1.441600818e-07 0 -2.339301617e-07 0 1.441600818e-07 0 -5.436576348e-07 
0 0 0 0 0 0 0 0 -5.367146791e-07 
1.569620761e-06 1.597671228e-07 1.472187588e-07 1.597671228e-07 3.921558773e-07 -2.610241423e-07 1.472187588e-07 -2.610241423e-07 1.91630764e-07 
-9.19077187e-07 -1.852653016e-07 0 -1.852653016e-07 -4.704834205e-07 -1.513255768e-07 0 -1.513255768e-07 5.554670255e-07 
5.778440176e-07 1.811966122e-07 0 1.811966122e-07 2.808753866e-07 -2.593928779e-07 0 -2.593928779e-07 1.148451212e-06 
-8.908205705e-07 0 0 0 -2.791476884e-07 1.726042591e-07 0 1.726042591e-07 3.753915971e-07 
3.252717869e-07 0 0 0 0 -2.061748595e-07 0 -2.061748595e-07 3.735488948e-07 
-1.706165847e-07 0 0 0 0 -2.053592273e-07 0 -2.053592273e-07 8.519591189e-07 
1.073732389e-06 1.704818675e-07 0 1.704818675e-07 3.36515632e-07 -2.602085101e-07 0 -2.602085101e-07 6.700409881e-07 
3.394000951e-07 0 0 0 0 0 0 0 2.835111806e-07 
-9.049488787e-07 0 0 0 -3.748155544e-07 0 0 0 4.654293113e-07 
-1.564882764e-07 0 0 0 0 0 0 0 7.619214047e-07 
-7.032913787e-07 0 3.037833935e-07 0 -3.180846698e-07 1.346396177e-07 3.037833935e-07 1.346396177e-07 -8.783642386e-07 
4.762977236e-07 0 -4.573998457e-07 0 0 -2.688893981e-07 -4.573998457e-07 -2.688893981e-07 -4.765244561e-07 
0 1.633621662e-07 1.731189035e-07 1.633621662e-07 1.391608255e-07 0 1.731189035e-07 0 -5.32902966e-07 
0 1.299985995e-07 1.487718474e-07 1.299985995e-07 0 0 1.487718474e-07 0 0 
0 0 0 0 -1.43547417e-07 0 0 0 -6.774443474e-07 
1.876803755e-07 0 -1.421404711e-07 0 0 -1.549716903e-07 -1.421404711e-07 -1.549716903e-07 -5.04713711e-07 
-4.021141756e-07 0 2.384511485e-07 0 0 0 2.384511485e-07 0 -7.056336023e-07 
-3.794425212e-07 0 2.262776205e-07 0 -1.228916854e-07 0 2.262776205e-07 0 -4.696313053e-07 
2.103520299e-07 0 -1.543139991e-07 0 0 -1.520138216e-07 -1.543139991e-07 -1.520138216e-07 -2.687114141e-07 
0 1.466803829e-07 1.609453754e-07 1.466803829e-07 0 0 1.609453754e-07 0 -2.96900669e-07 
-4.231375295e-07 0 1.587225365e-07 0 -3.898774739e-07 0 1.587225365e-07 0 -7.942387756e-07 
4.596899664e-07 0 -2.867283232e-07 0 3.254423343e-07 1.757608853e-07 -2.867283232e-07 1.757608853e-07 -2.77435039e-07 
0 0 0 0 0 0 0 0 -6.23142997e-07 
1.496511483e-07 -1.35052465e-07 -1.608887094e-07 -1.35052465e-07 -1.200360269e-07 0 -1.608887094e-07 0 -1.267764234e-07 
0 0 0 0 0 0 0 0 -5.358369073e-07 
2.14663757e-07 0 -1.894022471e-07 0 1.857075193e-07 0 -1.894022471e-07 0 -4.50289018e-07 
-2.26749991e-07 0 0 0 -1.719523848e-07 0 0 0 -7.086908863e-07 
-1.367431906e-07 0 0 0 -2.549567504e-07 0 0 0 -4.605075995e-07 
3.046705574e-07 0 -2.238085163e-07 0 0 1.404956831e-07 -2.238085163e-07 1.404956831e-07 -2.021057312e-07 
0 -1.204554338e-07 -1.264824402e-07 -1.204554338e-07 0 0 -1.264824402e-07 0 -3.749597102e-07 
1.465285689e-07 0 0 0 0 1.197154901e-07 0 1.197154901e-07 1.976348423e-07 
0 0 -2.204301039e-07 0 2.021871173e-07 -2.597129443e-07 -2.204301039e-07 -2.597129443e-07 3.511714747e-07 
0 0 -1.844298796e-07 0 0 -2.569140669e-07 -1.844298796e-07 -2.569140669e-07 3.022277105e-07 
0 0 -1.571173413e-07 0 0 -2.199692817e-07 -1.571173413e-07 -2.199692817e-07 4.908651301e-07 
1.235531894e-07 0 0 0 0 0 0 0 2.744031585e-07 
0 0 -2.024299918e-07 0 0 -2.583135056e-07 -2.024299918e-07 -2.583135056e-07 3.266995926e-07 
1.287472765e-07 0 0 0 0 0 0 0 2.499312764e-07 
0 0 0 0 0 0 0 0 3.442499862e-07 
0 0 -1.887737226e-07 0 1.36940949e-07 -2.39841113e-07 -1.887737226e-07 -2.39841113e-07 4.210183024e-07 
0 0 -1.707736104e-07 0 0 -2.384416743e-07 -1.707736104e-07 -2.384416743e-07 3.965464203e-07 
-4.413888619e-07 0 3.447113157e-07 0 -4.384874262e-07 0 3.447113157e-07 0 -7.222670478e-07 
2.843542552e-07 0 -4.708241563e-07 0 1.843601507e-07 1.371140108e-07 -4.708241563e-07 1.371140108e-07 -1.205866523e-07 
0 0 0 0 0 1.911244903e-07 0 1.911244903e-07 -5.564402772e-07 
3.120904958e-07 0 -2.660939691e-07 0 3.041238576e-07 0 -2.660939691e-07 0 0 
0 0 0 0 -1.270636378e-07 0 0 0 -4.214268501e-07 
0 0 -2.468052593e-07 0 0 1.641192505e-07 -2.468052593e-07 1.641192505e-07 -3.385134647e-07 
-2.536341759e-07 0 1.609624767e-07 0 -2.290647475e-07 0 1.609624767e-07 0 -6.393536625e-07 
0 0 0 0 0 0 0 0 -3.287169468e-07 
2.982223755e-07 0 -3.684590627e-07 0 2.442420041e-07 0 -3.684590627e-07 0 0 
1.23105503e-07 0 -1.444401657e-07 0 1.422408944e-07 1.334488503e-07 -1.444401657e-07 1.334488503e-07 -2.458035615e-07 
6.103761371e-07 0 -5.477888226e-07 0 1.881595702e-07 -3.271432753e-07 -5.477888226e-07 -3.271432753e-07 -3.781157961e-07 
-1.262410148e-07 1.527482975e-07 2.532656085e-07 1.527482975e-07 0 0 2.532656085e-07 0 -5.67671444e-07 
-5.695200346e-07 0 4.580668814e-07 0 -2.431115328e-07 1.755000852e-07 4.580668814e-07 1.755000852e-07 -8.003008037e-07 
-1.531244697e-07 0 2.296803596e-07 0 0 0 2.296803596e-07 0 0 
2.420675611e-07 1.294965605e-07 -1.47261607e-07 1.294965605e-07 1.48902317e-07 -2.046532627e-07 -1.47261607e-07 -2.046532627e-07 -4.728936201e-07 
-3.478805247e-07 0 3.55666245e-07 0 0 0 3.55666245e-07 0 -6.839861238e-07 
0 0 0 0 0 0 0 0 -5.892082999e-07 
2.286258337e-07 0 -1.590542315e-07 0 0 -2.120447764e-07 -1.590542315e-07 -2.120447764e-07 -2.463398653e-07 
-1.396827423e-07 0 2.41472984e-07 0 0 0 2.41472984e-07 0 -3.411176892e-07 
-3.613222522e-07 0 3.438736205e-07 0 0 0 3.438736205e-07 0 -4.57432369e-07 
-2.667631742e-07 0 4.20516752e-07 0 0 1.715298273e-07 4.20516752e-07 1.715298273e-07 -2.894185778e-07 
0 0 0 0 0 1.722507874e-07 0 1.722507874e-07 4.721643439e-07 
0 0 0 0 -1.871542462e-07 1.510535713e-07 0 1.510535713e-07 1.456341236e-07 
1.332153669e-07 0 -2.007659831e-07 0 2.567151873e-07 -2.278406611e-07 -2.007659831e-07 -2.278406611e-07 4.000395761e-07 
-1.428640945e-07 0 2.139171787e-07 0 0 1.718903073e-07 2.139171787e-07 1.718903073e-07 0 
0 0 0 0 -1.34039657e-07 1.616521793e-07 0 1.616521793e-07 3.088992337e-07 
-1.228843833e-07 0 2.314741161e-07 0 -1.425872212e-07 1.612916993e-07 2.314741161e-07 1.612916993e-07 0 
0 0 0 0 0 0 0 0 0 
0 0 0 0 0 0 0 0 4.3610196e-07 
0 0 0 0 0 0 0 0 2.728368498e-07 
-2.824291175e-07 1.490246997e-07 3.441988424e-07 1.490246997e-07 -2.703598919e-07 -1.254601729e-07 3.441988424e-07 -1.254601729e-07 -6.698544856e-07 
-5.598146379e-07 0 2.253607677e-07 0 0 0 2.253607677e-07 0 -3.522756387e-07 
0 -1.37011138e-07 -1.82354985e-07 -1.37011138e-07 0 0 -1.82354985e-07 0 -2.427890079e-07 
0 1.240721345e-07 2.083789262e-07 1.240721345e-07 1.518881487e-07 0 2.083789262e-07 0 -1.511878628e-07 
-4.211218777e-07 0 2.847798051e-07 0 -1.356456191e-07 0 2.847798051e-07 0 -5.110650622e-07 
-2.797513598e-07 0 0 0 0 0 0 0 -2.975323233e-07 
-1.410585995e-07 0 0 0 -1.700149196e-07 0 0 0 -4.563217468e-07 
-1.737205133e-07 1.365484171e-07 2.762888843e-07 1.365484171e-07 0 0 2.762888843e-07 0 -4.105211742e-07 
-3.124132735e-07 0 2.168698469e-07 0 0 0 2.168698469e-07 0 -2.517317508e-07 
0 0 0 0 0 0 0 0 -1.969884354e-07 
-6.910801532e-07 0 0 0 -2.939769997e-07 0 0 0 -3.399595366e-07 
1.536986739e-07 0 1.278091405e-07 0 0 1.847998047e-07 1.278091405e-07 1.847998047e-07 -8.388248807e-07 
0 0 0 0 0 2.128381779e-07 0 2.128381779e-07 -8.886475135e-07 
4.496269935e-07 0 0 0 2.500363359e-07 -1.426164316e-07 0 -1.426164316e-07 -6.178671601e-07 
-2.686907396e-07 0 0 0 -1.466937284e-07 0 0 0 -5.893922086e-07 
0 0 0 0 0 1.988189913e-07 0 1.988189913e-07 -8.637361971e-07 
-3.368677236e-07 0 0 0 -1.834275608e-07 0 0 0 -6.14303525e-07 
-1.207265798e-07 0 0 0 0 0 0 0 -4.789133483e-07 
3.016628337e-07 0 0 0 1.253129394e-07 0 0 0 -7.283460204e-07 
2.334858498e-07 0 0 0 0 0 0 0 -7.532573368e-07 
-5.366201635e-07 0 2.356360139e-07 0 -4.885190669e-07 0 2.356360139e-07 0 -8.712441325e-07 
4.72987726e-07 0 -3.514942667e-07 0 2.341019309e-07 1.940010057e-07 -3.514942667e-07 1.940010057e-07 -2.588577145e-07 
0 0 0 0 1.255480755e-07 0 0 0 -6.072368839e-07 
2.547119846e-07 0 -1.800230076e-07 0 0 0 -1.800230076e-07 0 0 
0 0 0 0 -1.27208568e-07 0 0 0 -5.650509235e-07 
2.276279863e-07 0 -2.193259056e-07 0 1.798250032e-07 1.352152256e-07 -2.193259056e-07 1.352152256e-07 -4.330472992e-07 
-2.771759585e-07 0 0 0 -1.814854957e-07 0 0 0 -7.392405082e-07 
-1.409540894e-07 0 0 0 -2.312652609e-07 0 0 0 -4.695921652e-07 
3.638498553e-07 0 -2.657586372e-07 0 1.30045238e-07 1.408698198e-07 -2.657586372e-07 1.408698198e-07 -1.633989562e-07 
0 0 -1.335902761e-07 0 0 0 -1.335902761e-07 0 -3.375885409e-07 
-3.469694988e-07 0 2.692263461e-07 0 0 0 2.692263461e-07 0 -2.826398803e-07 
0 1.495925141e-07 2.155481169e-07 1.495925141e-07 0 0 2.155481169e-07 0 -6.233805205e-07 
-2.829654273e-07 0 2.678455242e-07 0 1.337396224e-07 0 2.678455242e-07 0 -2.616385721e-07 
1.647556262e-07 0 -1.812088944e-07 0 0 0 -1.812088944e-07 0 -1.680787118e-07 
-2.250027835e-07 0 2.423872315e-07 0 0 0 2.423872315e-07 0 -4.530102004e-07 
-1.930007477e-07 0 2.416968205e-07 0 0 0 2.416968205e-07 0 -4.425095463e-07 
-3.149674631e-07 0 2.685359351e-07 0 0 0 2.685359351e-07 0 -2.721392262e-07 
0 0 0 0 0 0 0 0 -2.25359296e-07 
0 0 0 0 0 0 0 0 -3.957296162e-07 
0 0 0 0 0 0 0 0 -2.14858642e-07 
-1.722541075e-07 0 -1.324828758e-07 0 -2.476968192e-07 -4.373843637e-07 -1.324828758e-07 -4.373843637e-07 -4.436090102e-07 
3.251534607e-07 0 0 0 3.162115366e-07 5.107137229e-07 0 5.107137229e-07 0 
-2.715082325e-07 -1.524990785e-07 -4.212730712e-07 -1.524990785e-07 -1.787960524e-07 2.394661914e-07 -4.212730712e-07 2.394661914e-07 -5.800328794e-07 
1.638551029e-07 0 3.264059338e-07 0 2.084420964e-07 1.310343506e-07 3.264059338e-07 1.310343506e-07 0 
0 0 0 0 0 0 0 0 -2.143390132e-07 
0 0 -2.588670031e-07 0 0 3.750899572e-07 -2.588670031e-07 3.750899572e-07 -2.825509478e-07 
-2.2188117e-07 0 -2.768779735e-07 0 -2.132464358e-07 0 -2.768779735e-07 0 -5.118209448e-07 
0 0 0 0 0 -1.531750065e-07 0 -1.531750065e-07 -2.405943257e-07 
2.445042818e-07 0 0 0 2.623268165e-07 3.208740368e-07 0 3.208740368e-07 0 
0 0 0 0 0 1.85250271e-07 0 1.85250271e-07 -3.088062603e-07 
0 0 -1.795803725e-07 0 1.628641662e-07 4.373516975e-07 -1.795803725e-07 4.373516975e-07 0 
0 0 0 0 1.679590472e-07 -1.438954577e-07 0 -1.438954577e-07 0 
0 0 0 0 0 -1.276553708e-07 0 -1.276553708e-07 0 
-2.041675281e-07 0 0 0 -3.110346204e-07 -2.751329876e-07 0 -2.751329876e-07 -5.122314949e-07 
0 0 0 0 1.654116067e-07 1.467281199e-07 0 1.467281199e-07 0 
0 0 0 0 0 -1.357754143e-07 0 -1.357754143e-07 0 
0 0 0 0 0 1.548481633e-07 0 1.548481633e-07 0 
0 0 0 0 0 0 0 0 -2.988535888e-07 
0 0 0 0 0 -2.095142227e-07 0 -2.095142227e-07 -2.82928545e-07 
0 0 0 0 -1.932908207e-07 -2.013941792e-07 0 -2.013941792e-07 -3.04605106e-07 
-2.721836447e-07 -1.804519145e-07 -3.910767851e-07 -1.804519145e-07 -1.732899612e-07 2.064165592e-07 -3.910767851e-07 2.064165592e-07 -6.675424925e-07 
0 0 3.112226626e-07 0 0 1.193407867e-07 3.112226626e-07 1.193407867e-07 -2.366000058e-07 
0 0 -1.268613261e-07 0 -1.212845414e-07 -3.901615349e-07 -1.268613261e-07 -3.901615349e-07 -3.964558183e-07 
3.783051505e-07 0 0 0 3.606124401e-07 4.917554677e-07 0 4.917554677e-07 0 
-1.7637073e-07 0 0 0 0 1.628786729e-07 0 1.628786729e-07 -4.520712492e-07 
0 0 0 0 0 -1.354103741e-07 0 -1.354103741e-07 -3.16527912e-07 
-1.245364859e-07 0 -2.589690556e-07 0 -1.472872513e-07 0 -2.589690556e-07 0 -5.319991554e-07 
0 0 -2.398863354e-07 0 0 3.490860135e-07 -2.398863354e-07 3.490860135e-07 -3.5196817e-07 
1.488736676e-07 0 0 0 1.979611886e-07 3.055481272e-07 0 3.055481272e-07 -1.364969267e-07 
2.007079117e-07 0 0 0 1.196639493e-07 0 0 0 -2.164248329e-07 
1.774703649e-07 0 -5.207739154e-07 0 0 -5.36157189e-07 -5.207739154e-07 -5.36157189e-07 0 
-1.447382509e-07 0 -3.812480984e-07 0 -2.273178073e-07 -4.732259897e-07 -3.812480984e-07 -4.732259897e-07 -3.233788205e-07 
-1.708786302e-07 0 2.080908689e-07 0 -1.224008031e-07 -3.033220975e-07 2.080908689e-07 -3.033220975e-07 5.444606705e-07 
0 0 7.848909984e-07 0 1.535164471e-07 7.584156919e-07 7.848909984e-07 7.584156919e-07 0 
0 0 -4.510110069e-07 0 -1.474056252e-07 -5.046915894e-07 -4.510110069e-07 -5.046915894e-07 -2.182072648e-07 
-1.578084405e-07 0 0 0 -1.748593052e-07 -3.882740436e-07 0 -3.882740436e-07 0 
0 0 -1.563415233e-07 0 0 -4.197396432e-07 -1.563415233e-07 -4.197396432e-07 2.157124807e-07 
0 0 1.320585415e-07 0 0 0 1.320585415e-07 0 0 
0 0 2.0182145e-07 0 0 1.425948511e-07 2.0182145e-07 1.425948511e-07 -1.977677352e-07 
0 0 4.964909336e-07 0 0 2.275467972e-07 4.964909336e-07 2.275467972e-07 2.361520103e-07 
0 0 -1.921377735e-07 0 1.651960018e-07 4.010711846e-07 -1.921377735e-07 4.010711846e-07 -1.530678567e-07 
1.640179267e-07 1.698202811e-07 0 1.698202811e-07 2.963102513e-07 -1.327953869e-07 0 -1.327953869e-07 0 
0 0 0 0 -1.938434911e-07 -1.1933013e-07 0 -1.1933013e-07 -2.270577891e-07 
-1.392164942e-07 0 0 0 -2.984780924e-07 -2.312000203e-07 0 -2.312000203e-07 -5.394494797e-07 
1.331214164e-07 0 0 0 2.307531265e-07 1.341378988e-07 0 1.341378988e-07 0 
0 0 0 0 0 -1.260627585e-07 0 -1.260627585e-07 -1.290494265e-07 
0 0 0 0 0 1.408705273e-07 0 1.408705273e-07 -1.900628229e-07 
0 0 0 0 0 0 0 0 -3.462586682e-07 
0 0 0 0 0 -1.819977036e-07 0 -1.819977036e-07 -2.852452717e-07 
0 0 0 0 -2.461607918e-07 -1.752650752e-07 0 -1.752650752e-07 -3.832536344e-07 
3.656685063e-07 1.986351035e-07 0 1.986351035e-07 2.814898736e-07 -2.795757647e-07 0 -2.795757647e-07 -1.45714989e-07 
-3.7943228e-07 0 3.975485014e-07 0 -1.627908637e-07 2.732314327e-07 3.975485014e-07 2.732314327e-07 -3.51078254e-07 
0 0 -4.972261842e-07 0 0 0 -4.972261842e-07 0 -5.410158271e-07 
1.541698719e-07 0 -2.926690534e-07 0 0 2.983088007e-07 -2.926690534e-07 2.983088007e-07 -2.498503573e-07 
0 0 1.931726472e-07 0 0 0 1.931726472e-07 0 -2.483966215e-07 
-1.523847453e-07 0 0 0 0 1.87110874e-07 0 1.87110874e-07 -4.460470406e-07 
2.201656478e-07 0 -2.542146956e-07 0 1.389265638e-07 0 -2.542146956e-07 0 -3.433654081e-07 
2.599191891e-07 0 -1.519361302e-07 0 1.600420454e-07 0 -1.519361302e-07 0 -1.977826732e-07 
0 0 0 0 0 2.857701167e-07 0 2.857701167e-07 -3.004643057e-07 
0 0 -3.949476188e-07 0 0 1.99649558e-07 -3.949476188e-07 1.99649558e-07 -3.954330922e-07 
6.889595826e-07 2.407386888e-07 -3.368978422e-07 2.407386888e-07 0 -3.600772121e-07 -3.368978422e-07 -3.600772121e-07 -1.30855124e-07 
0 0 -1.60628375e-07 0 -2.220780744e-07 -2.823220293e-07 -1.60628375e-07 -2.823220293e-07 -3.887789737e-07 
-1.405301419e-06 -1.876813321e-07 0 -1.876813321e-07 -6.512751177e-07 -1.762623398e-07 0 -1.762623398e-07 4.189439273e-07 
-1.569515578e-07 0 5.390343978e-07 0 0 4.596659991e-07 5.390343978e-07 4.596659991e-07 -3.459910651e-07 
3.395062774e-07 0 -2.487631086e-07 0 0 -3.211996207e-07 -2.487631086e-07 -3.211996207e-07 -2.598170488e-07 
-7.076242234e-07 0 0 0 -4.36676596e-07 -2.292921845e-07 0 -2.292921845e-07 0 
-3.581709182e-07 0 -1.712059322e-07 0 -2.825901686e-07 -2.681697759e-07 -1.712059322e-07 -2.681697759e-07 1.440444016e-07 
2.660040124e-07 1.384159926e-07 0 1.384159926e-07 0 0 0 0 -2.384230946e-07 
0 0 1.892030114e-07 0 0 0 1.892030114e-07 0 -3.673850194e-07 
-7.811264884e-07 0 2.667601878e-07 0 -2.839424912e-07 1.417018296e-07 2.667601878e-07 1.417018296e-07 0 
1.847020229e-06 3.213561798e-07 0 3.213561798e-07 8.511686456e-07 -1.806678383e-07 0 -1.806678383e-07 1.77042569e-06 
-2.982179499e-07 0 0 0 0 0 0 0 7.355818417e-07 
4.090137564e-07 0 0 0 1.682116663e-07 2.312632772e-07 0 2.312632772e-07 8.507977548e-07 
-2.085866361e-06 -2.702900787e-07 -4.41330543e-07 -2.702900787e-07 -8.097101247e-07 3.569242501e-07 -4.41330543e-07 3.569242501e-07 -1.158026654e-06 
7.744011394e-07 1.794944355e-07 0 1.794944355e-07 4.12470618e-07 0 0 0 1.253003766e-06 
0 0 0 0 0 1.737103302e-07 0 1.737103302e-07 7.931897983e-07 
1.128016993e-06 1.206710929e-07 0 1.206710929e-07 5.09690156e-07 0 0 0 1.310611722e-06 
-1.194230661e-07 0 -1.858340335e-07 0 0 0 -1.858340335e-07 0 3.061995181e-07 
-1.192042155e-06 0 -1.77923188e-07 0 -4.179687672e-07 2.365408167e-07 -1.77923188e-07 2.365408167e-07 -2.11222406e-07 
-8.384263022e-07 -1.751520363e-07 -1.642732062e-07 -1.751520363e-07 -3.207492292e-07 2.940937636e-07 -1.642732062e-07 2.940937636e-07 -1.536144494e-07 
1.251758015e-06 3.106001545e-07 0 3.106001545e-07 8.904995175e-07 3.905541904e-07 0 3.905541904e-07 1.62125092e-07 
0 -1.364661366e-07 -2.31723346e-07 -1.364661366e-07 0 1.58445654e-07 -2.31723346e-07 1.58445654e-07 -5.85107953e-07 
5.771440631e-07 2.652612967e-07 -1.325103476e-07 2.652612967e-07 2.41087244e-07 -2.820459018e-07 -1.325103476e-07 -2.820459018e-07 -2.436261753e-07 
-1.862894494e-06 -4.161979163e-07 1.568203877e-07 -4.161979163e-07 -1.163074379e-06 0 1.568203877e-07 0 -1.25653638e-06 
6.637310243e-07 0 -1.195677496e-07 0 4.480580361e-07 2.744999222e-07 -1.195677496e-07 2.744999222e-07 -2.114914305e-07 
3.264240484e-07 0 -1.821168468e-07 0 1.233518993e-07 0 -1.821168468e-07 0 -4.143670641e-07 
9.144510389e-07 2.879307256e-07 0 2.879307256e-07 5.657933807e-07 0 0 0 0 
-3.055682395e-07 0 0 0 -1.362874307e-07 2.170478669e-07 0 2.170478669e-07 -5.47205644e-07 
-8.935952299e-07 -2.763320264e-07 0 -2.763320264e-07 -5.787289121e-07 0 0 0 -9.208221666e-07 
-6.428752153e-07 0 0 0 -4.609935674e-07 -1.192521791e-07 0 -1.192521791e-07 -7.500812777e-07 
4.725171564e-07 0 0 0 1.784348027e-07 -1.58715507e-07 0 -1.58715507e-07 1.106955521e-06 
-2.551724136e-07 0 0 0 0 0 0 0 6.604394889e-07 
9.315678574e-07 1.245277517e-07 0 1.245277517e-07 5.010179088e-07 1.443369155e-07 0 1.443369155e-07 1.208647064e-06 
-1.585473256e-06 -2.75363405e-07 -1.598126445e-07 -2.75363405e-07 -7.033187404e-07 0 -1.598126445e-07 0 -1.067190803e-06 
0 0 0 0 0 0 0 0 8.83697505e-07 
3.381977219e-07 0 0 0 2.4038657e-07 1.311823538e-07 0 1.311823538e-07 9.345432766e-07 
7.020425069e-07 0 0 0 3.397263558e-07 0 0 0 1.157801293e-06 
-5.564780497e-07 0 0 0 -2.624419688e-07 0 0 0 0 
-9.203228347e-07 -1.569682205e-07 0 -1.569682205e-07 -3.617817546e-07 0 0 0 -2.033756568e-07 
-3.269526992e-07 0 0 0 0 0 0 0 0 
6.952742509e-07 1.944627756e-07 -3.825734494e-07 1.944627756e-07 1.563708988e-07 -4.321851211e-07 -3.825734494e-07 -4.321851211e-07 0 
-2.621843002e-07 0 -2.926572808e-07 0 -3.226665172e-07 -4.040541306e-07 -2.926572808e-07 -4.040541306e-07 -4.995349548e-07 
-1.064306297e-06 0 0 0 -5.359995157e-07 -2.216895772e-07 0 -2.216895772e-07 4.659116327e-07 
0 0 6.744268923e-07 0 1.619741637e-07 6.137933153e-07 6.744268923e-07 6.137933153e-07 -2.188685702e-07 
2.165449754e-07 0 -3.376153651e-07 0 0 -4.181196258e-07 -3.376153651e-07 -4.181196258e-07 -2.682023314e-07 
-6.632452988e-07 0 0 0 -4.293330165e-07 -3.128718539e-07 0 -3.128718539e-07 0 
-1.845160232e-07 0 -1.333416618e-07 0 -1.898143085e-07 -3.269373491e-07 -1.333416618e-07 -3.269373491e-07 2.145209623e-07 
3.386077099e-07 0 1.459267214e-07 0 1.591725312e-07 0 1.459267214e-07 0 -1.278691391e-07 
-1.401215657e-07 0 1.908848057e-07 0 0 0 1.908848057e-07 0 -3.592017625e-07 
-5.411825642e-07 0 3.951585091e-07 0 -1.87012676e-07 1.960518691e-07 3.951585091e-07 1.960518691e-07 1.235215312e-07 
-1.755563502e-07 0 2.377075231e-07 0 -1.395976291e-07 0 2.377075231e-07 0 -4.42962618e-07 
0 0 -2.00796193e-07 0 0 2.549119405e-07 -2.00796193e-07 2.549119405e-07 -5.581582985e-07 
0 2.424493852e-07 1.640930091e-07 2.424493852e-07 2.627613733e-07 -2.161053903e-07 1.640930091e-07 -2.161053903e-07 -4.411758568e-07 
-1.365184597e-07 0 0 0 -2.307229259e-07 0 0 0 -4.603686867e-07 
0 0 0 0 0 0 0 0 -5.005604582e-07 
0 0 0 0 1.304279335e-07 0 0 0 -4.996670777e-07 
0 1.455685036e-07 2.009002661e-07 1.455685036e-07 0 -1.450327557e-07 2.009002661e-07 -1.450327557e-07 -4.420692374e-07 
-1.56037405e-07 0 1.609605613e-07 0 -1.851602775e-07 0 1.609605613e-07 0 -4.516656524e-07 
0 0 0 0 0 0 0 0 -5.092634926e-07 
0 0 1.241533043e-07 0 0 -1.356659335e-07 1.241533043e-07 -1.356659335e-07 -4.507722718e-07 
-1.217056375e-07 0 -1.690019982e-07 0 0 -2.990221422e-07 -1.690019982e-07 -2.990221422e-07 -5.382555055e-07 
-1.304300905e-06 -3.862759948e-07 3.328955424e-07 -3.862759948e-07 -8.552073399e-07 2.556945497e-07 3.328955424e-07 2.556945497e-07 -1.048587783e-06 
0 -1.574260027e-07 -2.926524441e-07 -1.574260027e-07 0 0 -2.926524441e-07 0 -6.332368455e-07 
1.772215005e-06 4.978255623e-07 -2.15051445e-07 4.978255623e-07 1.280548024e-06 1.988691589e-07 -2.15051445e-07 1.988691589e-07 3.889821482e-07 
-7.130032715e-07 -1.465644686e-07 0 -1.465644686e-07 -4.416588461e-07 0 0 0 -7.934216445e-07 
-6.426050059e-07 -2.718509988e-07 0 -2.718509988e-07 -4.554194873e-07 1.793209464e-07 0 1.793209464e-07 -8.409123145e-07 
0 0 -2.308272211e-07 0 0 0 -2.308272211e-07 0 -5.857461755e-07 
8.252546837e-07 2.954863099e-07 -1.920267216e-07 2.954863099e-07 6.262188358e-07 0 -1.920267216e-07 0 0 
2.339570498e-07 0 0 0 2.126703419e-07 2.272818543e-07 0 2.272818543e-07 -3.298028176e-07 
8.956529492e-07 1.701997798e-07 -2.538519445e-07 1.701997798e-07 6.124581946e-07 1.50908251e-07 -2.538519445e-07 1.50908251e-07 -1.221273487e-07 
2.65067144e-07 0 0 0 1.960044464e-07 1.903537662e-07 0 1.903537662e-07 9.563513981e-07 
3.624503542e-07 0 1.517638084e-07 0 1.227585922e-07 -2.149333783e-07 1.517638084e-07 -2.149333783e-07 1.09488427e-06 
3.995190116e-07 0 0 0 2.76613082e-07 1.811244977e-07 0 1.811244977e-07 9.585343189e-07 
-1.340179705e-06 -2.276388263e-07 -1.713000158e-07 -2.276388263e-07 -6.176822308e-07 0 -1.713000158e-07 0 -9.857257324e-07 
3.137587491e-07 0 0 0 1.593815193e-07 0 0 0 1.025617834e-06 
3.809846829e-07 0 0 0 1.996858371e-07 0 0 0 1.026709294e-06 
3.322930778e-07 0 0 0 2.363087642e-07 1.857391319e-07 0 1.857391319e-07 9.574428585e-07 
-5.375562805e-07 -1.238634586e-07 -1.214218817e-07 -1.238634586e-07 -2.108388922e-07 1.513754043e-07 -1.214218817e-07 1.513754043e-07 0 
-4.888646754e-07 0 0 0 -2.474618193e-07 0 0 0 0 
-4.703303467e-07 0 0 0 -1.705345744e-07 1.467607701e-07 0 1.467607701e-07 0 
-4.551785443e-07 0 0 0 -2.990494906e-07 -3.235587695e-07 0 -3.235587695e-07 3.373052823e-07 
2.502482738e-07 0 1.84994839e-07 0 0 -3.400016924e-07 1.84994839e-07 -3.400016924e-07 0 
0 0 0 0 -1.225976849e-07 -3.302913019e-07 0 -3.302913019e-07 -2.268366809e-07 
1.556895156e-07 0 0 0 0 2.176487443e-07 0 2.176487443e-07 -1.528342243e-07 
0 0 0 0 -1.237517533e-07 -3.317802309e-07 0 -3.317802309e-07 1.300328341e-07 
0 0 1.518453129e-07 0 0 -3.351464972e-07 1.518453129e-07 -3.351464972e-07 -1.520381475e-07 
-2.84321257e-07 0 0 0 -2.108235877e-07 -3.269250357e-07 0 -3.269250357e-07 0 
-1.497445143e-07 0 0 0 0 0 0 0 0 
2.029688947e-07 0 0 0 0 0 0 0 0 
0 0 0 0 0 0 0 0 -1.898354526e-07 
1.564567058e-07 0 1.553791071e-07 0 0 -2.85846246e-07 1.553791071e-07 -2.85846246e-07 6.285283515e-07 
2.759938835e-07 0 0 0 2.181134176e-07 2.816827194e-07 0 2.816827194e-07 6.188474011e-07 
0 0 0 0 0 2.740837465e-07 0 2.740837465e-07 6.201042221e-07 
-5.796296192e-07 0 -2.125518808e-07 0 -2.038980855e-07 2.051339282e-07 -2.125518808e-07 2.051339282e-07 -4.634534984e-07 
2.162252946e-07 0 0 0 0 0 0 0 6.236878763e-07 
1.603065441e-07 0 0 0 1.536974645e-07 2.778832329e-07 0 2.778832329e-07 6.194758116e-07 
0 0 0 0 0 0 0 0 6.243162868e-07 
-2.115864567e-07 0 0 0 0 0 0 0 0 
-1.518178679e-07 0 0 0 0 2.434083238e-07 0 2.434083238e-07 0 
-2.675052072e-07 0 -1.343061538e-07 0 0 2.396088373e-07 -1.343061538e-07 2.396088373e-07 0 
3.97170663e-07 0 -4.576018253e-07 0 0 -4.865108103e-07 -4.576018253e-07 -4.865108103e-07 0 
-1.756190526e-07 0 -3.630086331e-07 0 -2.651791326e-07 -4.49877063e-07 -3.630086331e-07 -4.49877063e-07 -3.956177766e-07 
-4.778869802e-07 0 1.891947292e-07 0 -2.800794015e-07 -2.681178852e-07 1.891947292e-07 -2.681178852e-07 5.481426514e-07 
0 0 7.393155805e-07 0 1.765655925e-07 7.097258137e-07 7.393155805e-07 7.097258137e-07 0 
0 0 -4.103052292e-07 0 -1.19349065e-07 -4.681939366e-07 -4.103052292e-07 -4.681939366e-07 -2.324578976e-07 
-3.267530164e-07 0 0 0 -2.72629267e-07 -3.589974741e-07 0 -3.589974741e-07 0 
0 0 -1.342035481e-07 0 -1.267991994e-07 -3.773143477e-07 -1.342035481e-07 -3.773143477e-07 2.394223164e-07 
1.988634159e-07 0 1.408568776e-07 0 0 0 1.408568776e-07 0 0 
0 0 1.881534737e-07 0 0 1.299243753e-07 1.881534737e-07 1.299243753e-07 -2.551634768e-07 
-2.386654057e-07 0 4.642551548e-07 0 0 2.208039642e-07 4.642551548e-07 2.208039642e-07 2.167167373e-07 
1.352575866e-07 0 -2.61393866e-07 0 1.840958022e-07 3.727822283e-07 -2.61393866e-07 3.727822283e-07 -2.870312967e-07 
0 0 0 0 0 -1.560680903e-07 0 -1.560680903e-07 -5.188310521e-07 
-5.296754199e-07 0 2.971759932e-07 0 -4.002078578e-07 0 2.971759932e-07 0 -7.007595912e-07 
3.606596157e-07 0 -3.178008383e-07 0 3.957593904e-07 2.801501899e-07 -3.178008383e-07 2.801501899e-07 0 
0 0 -1.771373917e-07 0 0 0 -1.771373917e-07 0 -4.029311744e-07 
-2.410759542e-07 0 0 0 -2.561875663e-07 0 0 0 -6.097953216e-07 
-1.972089166e-07 0 0 0 0 1.666676561e-07 0 1.666676561e-07 -4.938954439e-07 
2.479586012e-07 0 -2.895973521e-07 0 2.899275963e-07 3.264662091e-07 -2.895973521e-07 3.264662091e-07 0 
2.040915636e-07 0 -2.053408779e-07 0 1.417960578e-07 0 -2.053408779e-07 0 -2.111266784e-07 
0 0 0 0 0 1.203516369e-07 0 1.203516369e-07 -3.02090948e-07 
-2.461393722e-07 -1.771903561e-07 -2.740996855e-07 -1.771903561e-07 -1.603216546e-07 3.515420511e-07 -2.740996855e-07 3.515420511e-07 -4.417065406e-07 
2.95891638e-07 0 0 0 1.956408466e-07 -1.204784388e-07 0 -1.204784388e-07 0 
-1.221061373e-07 0 0 0 0 0 0 0 -2.710052138e-07 
2.163083788e-07 0 -2.312122371e-07 0 2.090315344e-07 4.161463811e-07 -2.312122371e-07 4.161463811e-07 -1.23798361e-07 
0 0 -1.223349956e-07 0 0 0 -1.223349956e-07 0 -2.438047148e-07 
0 0 0 0 0 0 0 0 -1.584540514e-07 
-1.841227548e-07 0 -1.405860296e-07 0 -1.211199853e-07 1.660769405e-07 -1.405860296e-07 1.660769405e-07 -3.563558772e-07 
0 0 -2.526559613e-07 0 0 3.838442161e-07 -2.526559613e-07 3.838442161e-07 -2.827524508e-07 
2.561000084e-07 0 0 0 2.023361905e-07 1.478339711e-07 0 1.478339711e-07 0 
0 0 0 0 0 1.983791055e-07 0 1.983791055e-07 -1.974017874e-07 
-4.158717509e-07 -2.496305195e-07 -2.41049223e-07 -2.496305195e-07 -2.703275488e-07 2.366145365e-07 -2.41049223e-07 2.366145365e-07 -7.540908178e-07 
1.727048465e-07 -1.199178299e-07 -1.470645134e-07 -1.199178299e-07 0 2.939269799e-07 -1.470645134e-07 2.939269799e-07 -3.697048171e-07 
2.501675752e-07 2.260627974e-07 0 2.260627974e-07 4.025617653e-07 -1.235964716e-07 0 -1.235964716e-07 0 
0 0 0 0 0 0 0 0 -3.513955657e-07 
-1.215834522e-07 -1.847741747e-07 -1.940568682e-07 -1.847741747e-07 -1.310950528e-07 2.652707582e-07 -1.940568682e-07 2.652707582e-07 -5.618978174e-07 
2.114362108e-07 0 0 0 2.053496043e-07 0 0 0 -2.425273418e-07 
0 0 0 0 0 0 0 0 -4.347203422e-07 
-2.372849208e-07 0 -1.220653926e-07 0 -1.33176455e-07 0 -1.220653926e-07 0 -5.527431918e-07 
0 0 0 0 0 1.222300948e-07 0 1.222300948e-07 -3.605501914e-07 
0 1.352027338e-07 0 1.352027338e-07 2.032682021e-07 0 0 0 -2.333727161e-07 
1.342490211e-06 1.285307683e-07 1.406172611e-07 1.285307683e-07 3.63065544e-07 -1.817504969e-07 1.406172611e-07 -1.817504969e-07 1.368485765e-07 
-4.972409318e-07 0 0 0 -2.724414889e-07 0 0 0 5.911495372e-07 
0 0 0 0 0 -1.985169596e-07 0 -1.985169596e-07 8.267335949e-07 
-4.282507566e-07 0 0 0 0 0 0 0 5.503954343e-07 
4.226246397e-07 0 0 0 0 -1.406951513e-07 0 -1.406951513e-07 3.639990568e-07 
-3.000288476e-07 0 0 0 -1.687035583e-07 -1.490783827e-07 0 -1.490783827e-07 7.08941566e-07 
6.198367239e-07 0 0 0 1.490499581e-07 -1.901337283e-07 0 -1.901337283e-07 4.817910857e-07 
4.571197273e-07 0 0 0 1.431381492e-07 0 0 0 3.436220054e-07 
-4.627458442e-07 0 0 0 -1.746153672e-07 0 0 0 5.707724857e-07 
-2.6553376e-07 0 0 0 0 0 0 0 6.885645146e-07 
-5.992179177e-07 0 2.588213786e-07 0 -2.1136207e-07 0 2.588213786e-07 0 -5.515819767e-07 
-4.97493765e-07 -2.835580666e-07 -1.212970458e-07 -2.835580666e-07 -3.625851379e-07 4.254286909e-07 -1.212970458e-07 4.254286909e-07 -6.174952568e-07 
-3.565067165e-07 -2.335449582e-07 -1.618862916e-07 -2.335449582e-07 -2.974222071e-07 2.744673571e-07 -1.618862916e-07 2.744673571e-07 -8.444093146e-07 
1.126873915e-06 3.614513566e-07 -3.820101126e-07 3.614513566e-07 8.228673616e-07 -2.867565554e-07 -3.820101126e-07 -2.867565554e-07 4.246717114e-07 
-5.483558414e-07 -1.630761584e-07 0 -1.630761584e-07 -2.869736039e-07 2.535754428e-07 0 2.535754428e-07 -5.845386167e-07 
-4.270002408e-07 -2.585515124e-07 -1.415916687e-07 -2.585515124e-07 -3.300036725e-07 3.49948024e-07 -1.415916687e-07 3.49948024e-07 -7.309522857e-07 
-4.778623171e-07 -1.380696042e-07 0 -1.380696042e-07 -2.543921385e-07 1.780947759e-07 0 1.780947759e-07 -6.979956456e-07 
2.638279987e-07 1.594285533e-07 0 1.594285533e-07 3.057526458e-07 0 0 0 0 
3.146900751e-07 0 -2.516535792e-07 0 2.301411118e-07 0 -2.516535792e-07 0 0 
3.851835993e-07 0 -2.719482021e-07 0 2.627225772e-07 0 -2.719482021e-07 0 -2.098688016e-07 
1.423474643e-06 2.780724941e-07 0 2.780724941e-07 6.423806558e-07 -1.345644032e-07 0 -1.345644032e-07 1.436940175e-06 
-3.193626021e-07 0 0 0 0 0 0 0 5.814705458e-07 
4.192013823e-07 0 0 0 2.322743505e-07 1.59027228e-07 0 1.59027228e-07 8.503214936e-07 
-1.613518885e-06 -2.219078259e-07 -3.333696406e-07 -2.219078259e-07 -5.476198258e-07 2.21680096e-07 -3.333696406e-07 2.21680096e-07 -8.769532593e-07 
5.520560207e-07 0 0 0 2.862440071e-07 0 0 0 1.00920536e-06 
0 0 0 0 0 0 0 0 7.158960197e-07 
9.213380129e-07 1.455631945e-07 0 1.455631945e-07 4.373275031e-07 0 0 0 1.143630834e-06 
0 0 -1.386329222e-07 0 0 0 -1.386329222e-07 0 2.799934579e-07 
-9.664407434e-07 -1.496519871e-07 -1.333615027e-07 -1.496519871e-07 -3.087562337e-07 1.412363526e-07 -1.333615027e-07 1.412363526e-07 -1.477413568e-07 
-5.971587512e-07 0 0 0 -1.576727376e-07 1.90353662e-07 0 1.90353662e-07 0 
6.128590365e-07 0 0 0 3.70012e-07 0 0 0 9.65182456e-07 
2.925266797e-07 0 0 0 0 0 0 0 8.702994634e-07 
0 0 0 0 0 0 0 0 6.183809608e-07 
-1.142509734e-06 -1.965844094e-07 0 -1.965844094e-07 -4.870561015e-07 0 0 0 -7.846019514e-07 
4.526928581e-07 0 0 0 2.242088276e-07 0 0 0 9.177409597e-07 
0 0 0 0 0 0 0 0 7.443402121e-07 
2.759923272e-07 0 0 0 2.114769183e-07 0 0 0 7.917817084e-07 
-2.648253487e-07 0 0 0 0 0 0 0 0 
-4.249915271e-07 0 0 0 -2.043252232e-07 0 0 0 0 
-6.016920581e-07 0 0 0 -2.170571324e-07 0 0 0 0 
-1.141950249e-06 -5.37526291e-07 0 -5.37526291e-07 -8.747624817e-07 1.894875628e-07 0 1.894875628e-07 -1.177647422e-06 
-3.805605472e-07 -2.299458252e-07 0 -2.299458252e-07 -2.184719921e-07 2.664806702e-07 0 2.664806702e-07 -6.224715799e-07 
3.702821013e-07 1.849613224e-07 -2.217453691e-07 1.849613224e-07 3.454531154e-07 -2.007993482e-07 -2.217453691e-07 -2.007993482e-07 0 
5.943915119e-07 4.00406004e-07 0 4.00406004e-07 7.821906839e-07 0 0 0 0 
-7.612553982e-07 -3.837360581e-07 0 -3.837360581e-07 -5.466172369e-07 2.279841165e-07 0 2.279841165e-07 -9.000595012e-07 
0 0 -1.218730915e-07 0 0 0 -1.218730915e-07 0 -3.178914281e-07 
-3.858340739e-07 -1.762824843e-07 -1.349860863e-07 -1.762824843e-07 -2.646546831e-07 0 -1.349860863e-07 0 -5.954793493e-07 
-2.737793686e-07 0 0 0 0 0 0 0 -5.463015737e-07 
0 0 0 0 2.818593459e-07 1.261740384e-07 0 1.261740384e-07 -2.687136524e-07 
4.823368066e-07 2.926836632e-07 0 2.926836632e-07 5.638218997e-07 0 0 0 0 
1.130916536e-06 2.765192593e-07 0 2.765192593e-07 9.26785411e-07 2.850627431e-07 0 2.850627431e-07 1.552315301e-07 
4.199626029e-07 0 -1.740825404e-07 0 2.197001153e-07 0 -1.740825404e-07 0 -3.578699879e-07 
5.494539367e-07 2.010542955e-07 -1.556309733e-07 2.010542955e-07 1.499202182e-07 -2.051699061e-07 -1.556309733e-07 -2.051699061e-07 -2.859585328e-07 
-2.046292411e-06 -4.875279971e-07 1.456268312e-07 -4.875279971e-07 -1.245390688e-06 0 1.456268312e-07 0 -1.317822033e-06 
7.754395697e-07 0 0 0 5.732427631e-07 1.980254958e-07 0 1.980254958e-07 0 
4.847082698e-07 0 -1.648567569e-07 0 1.848101667e-07 0 -1.648567569e-07 0 -3.219142603e-07 
8.401852366e-07 2.387867774e-07 0 2.387867774e-07 5.383528146e-07 0 0 0 0 
-4.576879374e-07 0 0 0 -1.593026386e-07 1.632885394e-07 0 1.632885394e-07 -5.812952514e-07 
-8.131649042e-07 -2.768949571e-07 0 -2.768949571e-07 -5.128452864e-07 0 0 0 -8.378460104e-07 
-7.484192373e-07 -1.432368508e-07 0 -1.432368508e-07 -5.47735235e-07 0 0 0 -8.018902828e-07 
-5.906750775e-07 -3.209086534e-07 -2.269496294e-07 -3.209086534e-07 -3.580339626e-07 0 -2.269496294e-07 0 -6.610345188e-07 
1.049314078e-06 0 0 0 4.946880739e-07 1.516540766e-07 0 1.516540766e-07 1.123429175e-06 
0 1.295068014e-07 2.222358365e-07 1.295068014e-07 2.909955159e-07 2.939085371e-07 2.222358365e-07 2.939085371e-07 -2.537909334e-07 
3.899276435e-07 2.497775302e-07 -1.249881538e-07 2.497775302e-07 1.727546188e-07 -2.214919867e-07 -1.249881538e-07 -2.214919867e-07 0 
2.293195004e-07 -1.364381853e-07 0 -1.364381853e-07 0 0 0 0 2.31197328e-07 
5.626074288e-07 0 1.480848404e-07 0 3.928417949e-07 2.227813068e-07 1.480848404e-07 2.227813068e-07 4.348191207e-07 
-2.57387149e-07 0 0 0 0 1.596494809e-07 0 1.596494809e-07 -4.574127261e-07 
0 0 -1.759688916e-07 0 0 0 -1.759688916e-07 0 -3.791528969e-07 
7.196208609e-07 1.489049065e-07 0 1.489049065e-07 3.337213463e-07 0 0 0 5.130789499e-07 
2.329142114e-07 1.896421658e-07 0 1.896421658e-07 2.318750674e-07 0 0 0 -1.755311042e-07 
1.430380862e-06 1.660613326e-07 0 1.660613326e-07 6.942078011e-07 1.439063267e-07 0 1.439063267e-07 1.351043959e-06 
-1.011664116e-06 -4.65559321e-07 -2.513807166e-07 -4.65559321e-07 -6.457553283e-07 0 -2.513807166e-07 0 -9.51947218e-07 
2.939470976e-07 1.64432727e-07 3.149891035e-07 1.64432727e-07 4.319519712e-07 4.553475615e-07 3.149891035e-07 4.553475615e-07 0 
0 1.473388936e-07 0 1.473388936e-07 0 -3.021068281e-07 0 -3.021068281e-07 -3.794092732e-07 
2.093583732e-07 -1.497489942e-07 0 -1.497489942e-07 0 0 0 0 1.995483704e-07 
-3.588585091e-07 -1.50563297e-07 0 -1.50563297e-07 0 2.238439103e-07 0 2.238439103e-07 -4.740268284e-07 
8.621639799e-07 1.652470298e-07 1.834148142e-07 1.652470298e-07 5.630798861e-07 2.996269441e-07 1.834148142e-07 2.996269441e-07 6.774687601e-07 
7.239622933e-07 1.567001131e-07 0 1.567001131e-07 3.15170788e-07 0 0 0 4.858173429e-07 
-4.970601956e-07 -1.591102137e-07 -1.591716808e-07 -1.591102137e-07 -3.548107767e-07 -1.548832846e-07 -1.591716808e-07 -1.548832846e-07 -6.656782456e-07 
1.55745411e-07 1.558858103e-07 1.240132293e-07 1.558858103e-07 1.840428731e-07 0 1.240132293e-07 0 -1.87757856e-07 
-1.59299274e-06 -2.273361755e-07 0 -2.273361755e-07 -8.056508465e-07 -2.627417615e-07 0 -2.627417615e-07 2.532705012e-07 
3.004687578e-07 1.929541158e-07 1.83777305e-07 1.929541158e-07 1.306288036e-07 -3.160144142e-07 1.83777305e-07 -3.160144142e-07 -1.672315949e-07 
0 0 0 0 -1.88982203e-07 -2.009398402e-07 0 -2.009398402e-07 -3.605408161e-07 
1.8054236e-07 -2.348251489e-07 0 -2.348251489e-07 0 1.259120198e-07 0 1.259120198e-07 -3.829118444e-07 
-6.46261991e-07 0 0 0 -3.375110215e-07 -2.893780878e-07 0 -2.893780878e-07 0 
1.720525569e-07 0 1.201128233e-07 0 0 -2.584771272e-07 1.201128233e-07 -2.584771272e-07 -2.638862055e-07 
-7.746781919e-07 -1.313686887e-07 0 -1.313686887e-07 -4.973165248e-07 -2.318408008e-07 0 -2.318408008e-07 0 
-7.062251899e-07 -2.310806622e-07 0 -2.310806622e-07 -4.112918996e-07 0 0 0 0 
2.405055589e-07 0 0 0 0 0 0 0 -2.750717197e-07 
0 -1.351131754e-07 0 -1.351131754e-07 0 0 0 0 -3.717263303e-07 
1.136540303e-06 0 0 0 4.651871602e-07 2.020294354e-07 0 2.020294354e-07 1.16425994e-06 
5.740340732e-07 3.144694612e-07 3.526898375e-07 3.144694612e-07 5.244015072e-07 4.60155127e-07 3.526898375e-07 4.60155127e-07 -1.288779959e-07 
-9.92877114e-07 -3.824227107e-07 -3.309813599e-07 -3.824227107e-07 -5.734014137e-07 0 -3.309813599e-07 0 -8.492059208e-07 
5.12993109e-07 3.053761912e-07 -1.692019929e-07 3.053761912e-07 2.017116553e-07 -3.021941115e-07 -1.692019929e-07 -3.021941115e-07 0 
8.552871882e-07 1.627868772e-07 2.046772274e-07 1.627868772e-07 4.947943337e-07 3.310922812e-07 2.046772274e-07 3.310922812e-07 5.176909718e-07 
-2.094215204e-07 0 0 0 0 2.640177565e-07 0 2.640177565e-07 -4.890419584e-07 
0 -1.856592088e-07 -1.371583713e-07 -1.856592088e-07 0 1.349549107e-07 -1.371583713e-07 1.349549107e-07 1.575270094e-07 
8.247667061e-07 1.582402422e-07 0 1.582402422e-07 3.334494078e-07 0 0 0 5.542085733e-07 
5.435135911e-07 3.099228262e-07 0 3.099228262e-07 3.630565813e-07 0 0 0 0 
-2.399420025e-07 0 -2.500916764e-07 0 -1.858448792e-07 0 -2.500916764e-07 0 -4.525243569e-07 
1.09823171e-06 0 0 0 5.3361546e-07 0 0 0 1.097867013e-06 
-6.318655199e-07 -3.213757073e-07 -1.524379556e-07 -3.213757073e-07 -3.986131993e-07 0 -1.524379556e-07 0 -6.642101846e-07 
1.937585236e-07 0 2.575138825e-07 0 3.816277306e-07 3.088746598e-07 2.575138825e-07 3.088746598e-07 0 
0 1.231054955e-07 0 1.231054955e-07 0 -2.230489123e-07 0 -2.230489123e-07 -3.198377444e-07 
2.331830951e-07 0 0 0 0 0 0 0 2.16828414e-07 
-2.190534981e-07 0 0 0 0 1.485868547e-07 0 1.485868547e-07 -3.371756339e-07 
6.459951168e-07 0 1.332497202e-07 0 4.576215953e-07 1.983710581e-07 1.332497202e-07 1.983710581e-07 5.438629647e-07 
5.431148067e-07 0 0 0 2.260932223e-07 0 0 0 3.890146341e-07 
-3.219338082e-07 0 0 0 -2.400211074e-07 0 0 0 -4.920239645e-07 
0 0 0 0 1.500993576e-07 0 0 0 -1.649894138e-07 
1.510817491e-06 1.653311671e-07 1.717421002e-07 1.653311671e-07 5.016836778e-07 -2.013878156e-07 1.717421002e-07 -2.013878156e-07 2.468077853e-07 
1.350238695e-07 0 0 0 0 -1.576588908e-07 0 -1.576588908e-07 9.70585752e-07 
-7.931934407e-07 0 0 0 -4.095058506e-07 -2.273583293e-07 0 -2.273583293e-07 6.114120357e-07 
-6.391487594e-07 0 0 0 -2.229967454e-07 1.229993654e-07 0 1.229993654e-07 5.342565422e-07 
8.229206803e-07 0 0 0 2.561727382e-07 -1.795233532e-07 0 -1.795233532e-07 6.086967686e-07 
-3.290847856e-07 0 0 0 -1.99422026e-07 -1.9250861e-07 0 -1.9250861e-07 7.909988938e-07 
3.588120252e-07 0 0 0 0 -2.143730725e-07 0 -2.143730725e-07 4.291099105e-07 
4.358343659e-07 0 0 0 1.393434662e-07 0 0 0 3.905321637e-07 
-2.520624449e-07 0 0 0 0 0 0 0 7.524211471e-07 
-7.161711e-07 0 0 0 -3.16251298e-07 0 0 0 5.728342889e-07 
0 0 -1.72785903e-07 0 0 -2.038064684e-07 -1.72785903e-07 -2.038064684e-07 1.715340394e-07 
0 0 -1.881589303e-07 0 0 0 -1.881589303e-07 0 6.054715069e-07 
0 0 0 0 0 0 0 0 4.740515294e-07 
1.771855647e-07 0 -1.208318746e-07 0 0 -1.315443632e-07 -1.208318746e-07 -1.315443632e-07 6.11871896e-07 
0 0 -1.804724166e-07 0 0 -1.579996356e-07 -1.804724166e-07 -1.579996356e-07 3.885027732e-07 
0 0 0 0 0 0 0 0 5.397615181e-07 
0 0 0 0 0 0 0 0 3.227927844e-07 
0 0 -1.468088888e-07 0 0 -1.676754158e-07 -1.468088888e-07 -1.676754158e-07 3.917029677e-07 
0 0 -1.544954024e-07 0 0 -1.21868583e-07 -1.544954024e-07 -1.21868583e-07 6.086717015e-07 
0 0 0 0 0 0 0 0 5.429617127e-07 
0 0 -1.565625354e-07 0 0 0 -1.565625354e-07 0 2.946449741e-07 
0 0 -1.365247936e-07 0 -1.294473329e-07 0 -1.365247936e-07 0 2.945665749e-07 
-1.522740933e-07 0 1.782233916e-07 0 0 0 1.782233916e-07 0 2.206659217e-07 
0 0 -1.344317379e-07 0 0 0 -1.344317379e-07 0 5.315892901e-07 
0 0 -1.465436645e-07 0 0 0 -1.465436645e-07 0 2.946057745e-07 
0 0 0 0 0 0 0 0 2.576162483e-07 
0 0 0 0 0 0 0 0 2.576554479e-07 
0 0 -1.454971366e-07 0 0 0 -1.454971366e-07 0 4.131171321e-07 
0 0 -1.354782657e-07 0 0 0 -1.354782657e-07 0 4.130779325e-07 
0 0 0 0 0 0 0 0 3.761276059e-07 
2.519089108e-07 0 -1.863917525e-07 0 0 0 -1.863917525e-07 0 -1.352596199e-07 
1.626673647e-07 0 -1.77742035e-07 0 -2.251749151e-07 0 -1.77742035e-07 0 -1.99807969e-07 
-2.426759907e-07 0 1.933711524e-07 0 -2.13892881e-07 0 1.933711524e-07 0 -3.034792519e-07 
2.719762276e-07 0 -1.940634146e-07 0 1.201829708e-07 0 -1.940634146e-07 0 4.008528098e-07 
2.072881378e-07 0 -1.820668937e-07 0 0 0 -1.820668937e-07 0 -1.675337945e-07 
0 0 0 0 -2.195338981e-07 0 0 0 -2.516436105e-07 
0 0 0 0 0 0 0 0 -2.193694359e-07 
2.619425692e-07 0 -1.902275835e-07 0 0 0 -1.902275835e-07 0 1.32796595e-07 
2.173217962e-07 0 -1.859027248e-07 0 0 0 -1.859027248e-07 0 0 
0 0 0 0 0 0 0 0 0 
0 0 -1.483137796e-07 0 1.289959698e-07 -2.09307088e-07 -1.483137796e-07 -2.09307088e-07 3.204757619e-07 
1.569945377e-07 0 -1.230432236e-07 0 0 -1.552356809e-07 -1.230432236e-07 -1.552356809e-07 3.285380208e-07 
0 0 0 0 -2.242707947e-07 0 0 0 0 
2.700903909e-07 0 -1.817747586e-07 0 2.919238054e-07 -1.394488541e-07 -1.817747586e-07 -1.394488541e-07 6.667037206e-07 
1.347628415e-07 0 -1.356785016e-07 0 0 -1.822713845e-07 -1.356785016e-07 -1.822713845e-07 3.245068914e-07 
0 0 0 0 0 0 0 0 2.080857078e-07 
0 0 0 0 0 0 0 0 2.040545783e-07 
1.913107682e-07 0 -1.650442691e-07 0 2.104598876e-07 -1.743779711e-07 -1.650442691e-07 -1.743779711e-07 4.935897412e-07 
2.135424643e-07 0 -1.524089911e-07 0 1.968033868e-07 -1.473422675e-07 -1.524089911e-07 -1.473422675e-07 4.976208707e-07 
1.227864169e-07 0 0 0 0 0 0 0 3.771685577e-07 
-6.661190141e-07 0 0 0 -2.214553029e-07 -1.625451955e-07 0 -1.625451955e-07 -9.345524056e-07 
0 0 1.528303345e-07 0 0 1.615472647e-07 1.528303345e-07 1.615472647e-07 1.339746325e-07 
0 0 0 0 0 0 0 0 2.638236599e-07 
0 0 0 0 0 0 0 0 3.012842556e-07 
-3.232490036e-07 0 0 0 -1.555203865e-07 0 0 0 -4.002888865e-07 
0 0 0 0 0 0 0 0 1.988991462e-07 
-3.191515922e-07 0 0 0 0 -1.251888665e-07 0 -1.251888665e-07 -3.353643729e-07 
-2.831622344e-07 0 0 0 0 -1.348228845e-07 0 -1.348228845e-07 -3.16634075e-07 
0 0 0 0 0 0 0 0 2.176294441e-07 
0 0 0 0 0 0 0 0 2.825539577e-07 
-7.483906002e-07 0 0 0 -2.624900332e-07 -1.406050533e-07 0 -1.406050533e-07 -9.377497036e-07 
0 0 1.218774841e-07 0 0 1.574110583e-07 1.218774841e-07 1.574110583e-07 1.586275481e-07 
0 0 0 0 0 0 0 0 2.76388959e-07 
0 0 0 0 0 0 0 0 2.892485821e-07 
-3.455457115e-07 0 0 0 -1.666796767e-07 0 0 0 -3.895610777e-07 
0 0 0 0 0 0 0 0 2.175082536e-07 
-3.538376935e-07 0 0 0 0 0 0 0 -3.306803723e-07 
-3.396486952e-07 0 0 0 0 0 0 0 -3.242505607e-07 
0 0 0 0 0 0 0 0 2.239380651e-07 
0 0 0 0 0 0 0 0 2.828187706e-07 
-1.5570347e-06 1.972367028e-07 0 1.972367028e-07 -6.979672567e-07 0 0 0 -1.380137081e-06 
1.908242144e-07 0 0 0 0 0 0 0 2.920535322e-07 
-1.896465576e-07 0 2.103828147e-07 0 0 -1.329044943e-07 2.103828147e-07 -1.329044943e-07 1.760009239e-07 
1.088643752e-06 0 -3.080180978e-07 0 4.427265358e-07 0 -3.080180978e-07 0 4.582104407e-07 
-6.831052429e-07 0 0 0 -2.974101662e-07 0 0 0 -5.440417746e-07 
0 0 1.606233953e-07 0 0 0 1.606233953e-07 0 2.34027228e-07 
-8.73340629e-07 0 0 0 -3.548813512e-07 0 0 0 -6.020680787e-07 
-2.341954742e-07 0 -1.959568872e-07 0 -1.276203604e-07 0 -1.959568872e-07 0 -4.609633203e-07 
6.397339832e-07 0 0 0 2.729367301e-07 0 0 0 3.751319864e-07 
4.494985972e-07 0 0 0 2.15465545e-07 0 0 0 3.171056823e-07 
-1.440616753e-06 2.055026663e-07 0 2.055026663e-07 -6.582736077e-07 0 0 0 -1.393494521e-06 
0 0 0 0 0 -1.381082626e-07 0 -1.381082626e-07 2.644218477e-07 
0 0 2.100567906e-07 0 1.202574204e-07 -1.503015133e-07 2.100567906e-07 -1.503015133e-07 2.9461783e-07 
9.191778497e-07 0 -3.423777642e-07 0 3.691728566e-07 0 -3.423777642e-07 0 3.767948589e-07 
-6.652519635e-07 0 0 0 -2.862402483e-07 0 0 0 -5.645363365e-07 
0 0 1.611740473e-07 0 0 -1.442048879e-07 1.611740473e-07 -1.442048879e-07 2.795198389e-07 
-6.93030907e-07 0 0 0 -2.690080937e-07 -1.240026755e-07 0 -1.240026755e-07 -5.494383454e-07 
-2.607194517e-07 0 -2.180052904e-07 0 -1.445503756e-07 0 -2.180052904e-07 0 -5.083498309e-07 
5.14645338e-07 0 0 0 2.274829839e-07 0 0 0 3.206083533e-07 
4.868663944e-07 0 0 0 2.447151385e-07 0 0 0 3.357063445e-07 
-6.44604409e-07 0 0 0 -3.298408567e-07 1.731739381e-07 0 1.731739381e-07 0 
0 0 0 0 0 2.198327243e-07 0 2.198327243e-07 -8.246114259e-07 
1.927453017e-07 0 0 0 0 1.791455881e-07 0 1.791455881e-07 -7.346147004e-07 
2.868119974e-07 0 0 0 1.852380383e-07 -1.484474409e-07 0 -1.484474409e-07 -5.745929361e-07 
-3.125763557e-07 0 0 0 -2.088727756e-07 1.965033312e-07 0 1.965033312e-07 -4.61997175e-07 
0 0 0 0 0 1.994891562e-07 0 1.994891562e-07 -7.796130632e-07 
-2.259295536e-07 0 0 0 -1.22859671e-07 1.761597631e-07 0 1.761597631e-07 -4.169988122e-07 
-1.788962058e-07 0 0 0 0 0 0 0 -3.369879301e-07 
1.531318474e-07 0 0 0 0 0 0 0 -6.99602181e-07 
2.397786495e-07 0 0 0 1.346797766e-07 0 0 0 -6.546038183e-07 
2.783340739e-07 0 3.055033018e-07 0 2.341532147e-07 -1.853035077e-07 3.055033018e-07 -1.853035077e-07 4.033317283e-07 
7.509258843e-07 0 -4.441668256e-07 0 3.033319891e-07 0 -4.441668256e-07 0 2.895742552e-07 
-1.178138338e-06 1.693542202e-07 -1.737906034e-07 1.693542202e-07 -5.272741146e-07 0 -1.737906034e-07 0 -1.341467631e-06 
-1.704738495e-07 0 2.580273639e-07 0 0 -1.824617352e-07 2.580273639e-07 -1.824617352e-07 1.505816409e-07 
5.146299791e-07 0 0 0 2.687426019e-07 0 0 0 3.464529917e-07 
-2.13606227e-07 0 -3.089787145e-07 0 0 0 -3.089787145e-07 0 -5.259466881e-07 
-4.499021322e-07 0 0 0 -1.465604499e-07 -1.409219561e-07 0 -1.409219561e-07 -4.690679515e-07 
0 0 2.817653328e-07 0 0 -1.838826214e-07 2.817653328e-07 -1.838826214e-07 2.769566846e-07 
2.902260174e-07 0 0 0 1.298932199e-07 0 0 0 2.20077948e-07 
-6.743060938e-07 0 0 0 -2.85409832e-07 -1.395010698e-07 0 -1.395010698e-07 -5.954429952e-07 
0 1.29849871e-07 -4.993545103e-07 1.29849871e-07 0 0 -4.993545103e-07 0 0 
-3.196474938e-07 0 2.538861321e-07 0 -1.235527155e-07 -2.111426052e-07 2.538861321e-07 -2.111426052e-07 0 
-7.954932577e-07 0 -2.089010897e-07 0 -3.456877604e-07 0 -2.089010897e-07 0 -1.155580767e-06 
8.508153557e-07 -1.861787192e-07 3.879582421e-07 -1.861787192e-07 5.135404467e-07 -2.236484482e-07 3.879582421e-07 -2.236484482e-07 6.673553037e-07 
-1.936998445e-07 0 -1.227341891e-07 0 0 0 -1.227341891e-07 0 0 
-5.575703757e-07 0 0 0 -2.346202379e-07 -1.62291052e-07 0 -1.62291052e-07 -5.308419213e-07 
-4.316227264e-07 0 -3.541278e-07 0 -2.218615297e-07 0 -3.541278e-07 0 -6.103669725e-07 
3.915315803e-07 0 0 0 2.077525739e-07 0 0 0 3.011010628e-07 
2.655839309e-07 0 3.209221871e-07 0 1.949938656e-07 -2.173955267e-07 3.209221871e-07 -2.173955267e-07 3.80626114e-07 
0 0 0 0 0 -1.685439735e-07 0 -1.685439735e-07 -2.441127316e-07 
2.417711268e-07 0 -2.041872339e-07 0 1.572930396e-07 0 -2.041872339e-07 0 0 
0 0 -1.820235321e-07 0 -1.926628142e-07 0 -1.820235321e-07 0 -2.976428871e-07 
-3.448705047e-07 0 2.622565294e-07 0 -5.419728743e-07 0 2.622565294e-07 0 -4.792718501e-07 
2.308554832e-07 0 -2.229846693e-07 0 3.008384146e-07 0 -2.229846693e-07 0 3.133453416e-07 
1.27704588e-07 0 -1.93105383e-07 0 0 0 -1.93105383e-07 0 -1.93212664e-07 
-1.656162277e-07 0 0 0 -3.673178443e-07 0 0 0 -3.884573686e-07 
0 0 0 0 -1.923399174e-07 0 0 0 -2.840271455e-07 
2.36313305e-07 0 -2.135859516e-07 0 2.290657271e-07 0 -2.135859516e-07 0 0 
1.222467662e-07 0 -2.025041007e-07 0 0 0 -2.025041007e-07 0 0 
0 0 0 0 -1.205672299e-07 0 0 0 0 
0 0 0 0 0 0 0 0 5.139096319e-07 
-1.625011253e-07 0 2.092636634e-07 0 -1.434922182e-07 1.486242828e-07 2.092636634e-07 1.486242828e-07 3.320887957e-07 
0 0 1.703823004e-07 0 0 0 1.703823004e-07 0 3.014018522e-07 
0 0 -1.332905699e-07 0 0 0 -1.332905699e-07 0 4.54865603e-07 
0 0 0 0 0 0 0 0 4.229992138e-07 
0 0 1.898229819e-07 0 0 0 1.898229819e-07 0 3.16745324e-07 
0 0 0 0 0 0 0 0 4.07655742e-07 
0 0 0 0 0 0 0 0 4.843876174e-07 
0 0 0 0 0 0 0 0 3.934771993e-07 
0 0 0 0 0 0 0 0 3.781337276e-07 
0 0 0 0 0 -1.262301523e-07 0 -1.262301523e-07 2.808207158e-07 
0 0 0 0 0 -1.315168002e-07 0 -1.315168002e-07 3.138064654e-07 
-7.845001075e-07 0 0 0 -2.846096602e-07 -1.739295834e-07 0 -1.739295834e-07 -1.024679797e-06 
1.730144129e-07 0 1.301628839e-07 0 0 1.589710117e-07 1.301628839e-07 1.589710117e-07 2.078621629e-07 
0 0 0 0 0 -1.288734762e-07 0 -1.288734762e-07 2.973135906e-07 
-3.388839512e-07 0 0 0 0 -1.527231918e-07 0 -1.527231918e-07 -3.554366659e-07 
-3.806657713e-07 0 0 0 0 -1.500798678e-07 0 -1.500798678e-07 -3.719295407e-07 
0 0 0 0 0 0 0 0 2.443414394e-07 
1.39873309e-07 0 0 0 0 0 0 0 2.608343142e-07 
-3.057428473e-07 0 0 0 -1.52117594e-07 0 0 0 -4.084088172e-07 
0 0 -1.329980536e-07 0 -1.784812641e-07 0 -1.329980536e-07 0 2.414968224e-07 
-1.79419678e-07 0 2.096172318e-07 0 -2.920509965e-07 0 2.096172318e-07 0 1.240808728e-07 
0 0 -1.621926371e-07 0 0 0 -1.621926371e-07 0 2.830544222e-07 
0 0 -1.476174991e-07 0 0 0 -1.476174991e-07 0 5.23905609e-07 
0 0 0 0 -2.352661303e-07 0 0 0 1.827888476e-07 
0 0 0 0 0 0 0 0 2.035676475e-07 
0 0 -1.475953453e-07 0 0 0 -1.475953453e-07 0 2.622756223e-07 
0 0 -1.403077763e-07 0 0 0 -1.403077763e-07 0 3.827012157e-07 
0 0 0 0 0 0 0 0 3.239932409e-07 
0 0 -1.549050681e-07 0 0 0 -1.549050681e-07 0 4.034800156e-07 
-6.467870376e-07 0 0 0 -3.393901961e-07 1.772387599e-07 0 1.772387599e-07 0 
-1.676092074e-07 0 0 0 -2.011445907e-07 2.298549153e-07 0 2.298549153e-07 -8.678941191e-07 
3.010627035e-07 -1.232634262e-07 0 -1.232634262e-07 1.471989399e-07 1.978271429e-07 0 1.978271429e-07 -6.894209338e-07 
3.397186032e-07 0 0 0 2.012363563e-07 -1.790979771e-07 0 -1.790979771e-07 -5.161239187e-07 
-4.071981225e-07 0 0 0 -2.702673934e-07 2.035468376e-07 0 2.035468376e-07 -4.824813462e-07 
0 0 0 0 0 2.138410291e-07 0 2.138410291e-07 -7.786575264e-07 
-1.728621671e-07 0 0 0 0 1.875329514e-07 0 1.875329514e-07 -3.932447536e-07 
-1.535342172e-07 0 0 0 0 0 0 0 -3.065962461e-07 
0 0 0 0 0 0 0 0 -6.920090189e-07 
3.203906533e-07 0 0 0 1.742176481e-07 0 0 0 -6.027724263e-07 
0 0 0 0 0 -1.738152934e-07 0 -1.738152934e-07 2.820037173e-07 
-8.362412113e-07 0 0 0 -3.300874398e-07 -2.067669507e-07 0 -2.067669507e-07 -1.021262434e-06 
0 0 0 0 0 -1.402477472e-07 0 -1.402477472e-07 3.225159375e-07 
2.172140904e-07 0 1.235868618e-07 0 0 1.646648204e-07 1.235868618e-07 1.646648204e-07 2.417443052e-07 
-4.069853136e-07 0 0 0 -1.616142645e-07 -1.90291122e-07 0 -1.90291122e-07 -3.696293585e-07 
-3.669579547e-07 0 0 0 0 -1.73507349e-07 0 -1.73507349e-07 -3.493732484e-07 
0 0 0 0 0 -1.570315203e-07 0 -1.570315203e-07 3.022598274e-07 
1.197423373e-07 0 0 0 0 0 0 0 2.618740112e-07 
-3.095135605e-07 0 0 0 -1.565249844e-07 0 0 0 -3.897590645e-07 
1.597696961e-07 0 0 0 0 0 0 0 2.821301214e-07 
8.362612394e-07 0 0 0 4.609024426e-07 0 0 0 6.076777581e-07 
0 0 0 0 0 -1.244679476e-07 0 -1.244679476e-07 -7.605974995e-07 
-2.795966112e-07 0 0 0 0 -1.663878231e-07 0 -1.663878231e-07 -7.718859147e-07 
-3.559329371e-07 0 0 0 -2.573446698e-07 1.741894014e-07 0 1.741894014e-07 -9.863903723e-07 
4.063721203e-07 0 0 0 2.363754594e-07 0 0 0 0 
-1.51556805e-07 0 0 0 0 -1.454278853e-07 0 -1.454278853e-07 -7.662417071e-07 
2.783323141e-07 0 0 0 2.046904854e-07 -1.347854532e-07 0 -1.347854532e-07 0 
2.401641512e-07 0 0 0 0 0 0 0 -1.893563071e-07 
-1.89724968e-07 0 0 0 -1.227480968e-07 0 0 0 -8.734939359e-07 
-3.177647741e-07 0 0 0 -1.544330708e-07 0 0 0 -8.791381435e-07 
-1.076724262e-06 1.372014409e-07 0 1.372014409e-07 -5.156832981e-07 1.748236768e-07 0 1.748236768e-07 -2.847395599e-07 
0 0 0 0 0 1.721210484e-07 0 1.721210484e-07 -7.789452477e-07 
3.259807265e-07 0 0 0 0 0 0 0 -6.088693044e-07 
5.793900734e-07 0 0 0 2.989620069e-07 -1.24611085e-07 0 -1.24611085e-07 -3.912551962e-07 
-5.469623254e-07 0 0 0 -2.981157639e-07 1.734723626e-07 0 1.734723626e-07 -5.318424038e-07 
1.54390169e-07 0 0 0 0 1.447288909e-07 0 1.447288909e-07 -6.93907276e-07 
-3.753717679e-07 0 0 0 -2.054855628e-07 1.460802051e-07 0 1.460802051e-07 -4.468044322e-07 
-2.486670944e-07 0 0 0 0 0 0 0 -3.379973781e-07 
2.810948424e-07 0 0 0 0 0 0 0 -5.851002219e-07 
4.526853999e-07 0 0 0 2.018370897e-07 0 0 0 -5.000622503e-07 
-6.347266383e-07 1.441424246e-07 0 1.441424246e-07 -3.178778919e-07 0 0 0 -2.625518256e-07 
0 0 0 0 0 0 0 0 -6.708452452e-07 
3.612809581e-07 -1.246040339e-07 0 -1.246040339e-07 2.605319446e-07 0 0 0 3.777080495e-07 
2.925686125e-07 0 0 0 0 1.354903905e-07 0 1.354903905e-07 -6.831306129e-07 
-3.044726773e-07 0 0 0 -1.290009389e-07 0 0 0 -4.666985354e-07 
1.935311209e-07 0 0 0 1.602039794e-07 0 0 0 -1.465685979e-07 
-1.367228401e-07 0 0 0 0 0 0 0 0 
-1.710790129e-07 0 0 0 -1.437930994e-07 0 0 0 -4.728412193e-07 
1.591749481e-07 0 0 0 0 0 0 0 -6.769879291e-07 
3.269247853e-07 0 0 0 1.454118189e-07 0 0 0 -1.527112817e-07 
-2.207160741e-07 0 0 0 0 -1.434355922e-07 0 -1.434355922e-07 -7.161141989e-07 
9.02984692e-07 -1.334074571e-07 0 -1.334074571e-07 4.887591396e-07 0 0 0 6.215298781e-07 
-1.533255627e-07 0 0 0 0 0 0 0 -7.583450699e-07 
-3.349263778e-07 0 0 0 -2.46461089e-07 1.487444252e-07 0 1.487444252e-07 -9.267281498e-07 
3.41134309e-07 0 0 0 2.264712907e-07 0 0 0 0 
3.748295647e-07 0 0 0 2.214100641e-07 0 0 0 0 
-1.870208184e-07 0 0 0 0 -1.2627236e-07 0 -1.2627236e-07 -7.372296344e-07 
-2.778212259e-07 0 0 0 -1.411388236e-07 0 0 0 -8.214211743e-07 
2.840291571e-07 0 0 0 1.211490253e-07 0 0 0 -1.525991359e-07 
-2.441259702e-07 0 0 0 -1.462000502e-07 0 0 0 -8.425366099e-07 
-3.092252491e-07 0 2.472414929e-07 0 -5.052781784e-07 0 2.472414929e-07 0 -4.11362246e-07 
2.198125898e-07 0 -1.823745542e-07 0 0 0 -1.823745542e-07 0 -1.647536694e-07 
0 -1.45385323e-07 -1.800220151e-07 -1.45385323e-07 -3.377207035e-07 0 -1.800220151e-07 0 -2.608795206e-07 
2.748477463e-07 0 -2.237469467e-07 0 2.856121927e-07 0 -2.237469467e-07 0 4.163971113e-07 
0 0 0 0 -2.012486657e-07 0 0 0 -2.880579577e-07 
1.316106726e-07 0 -1.811982847e-07 0 0 0 -1.811982847e-07 0 -2.12816595e-07 
-1.329082468e-07 0 0 0 -4.21499441e-07 0 0 0 -3.361208833e-07 
0 0 0 0 0 0 0 0 0 
2.473301681e-07 0 -2.030607505e-07 0 1.941965198e-07 0 -2.030607505e-07 0 1.258217209e-07 
1.591282508e-07 0 -2.018844809e-07 0 0 0 -2.018844809e-07 0 0 
0 1.655162406e-07 3.943662787e-07 1.655162406e-07 -1.268197398e-07 -1.458378549e-07 3.943662787e-07 -1.458378549e-07 -5.357822476e-07 
0 1.360271172e-07 2.724401374e-07 1.360271172e-07 2.126644674e-07 -1.281344826e-07 2.724401374e-07 -1.281344826e-07 -1.232424969e-07 
-5.79438994e-07 0 2.893978376e-07 0 0 0 2.893978376e-07 0 -3.823551322e-07 
-1.213753663e-07 -1.566066858e-07 -1.936420786e-07 -1.566066858e-07 -2.280097486e-07 0 -1.936420786e-07 0 -3.500930691e-07 
0 1.507716789e-07 3.334032081e-07 1.507716789e-07 0 -1.369861687e-07 3.334032081e-07 -1.369861687e-07 -3.295123722e-07 
-2.895281143e-07 0 2.809189875e-07 0 0 0 2.809189875e-07 0 -2.527988146e-07 
-3.405458271e-07 0 3.418820582e-07 0 0 0 3.418820582e-07 0 -4.590686899e-07 
0 0 0 0 -1.774147442e-07 0 0 0 -4.429376584e-07 
0 0 0 0 0 0 0 0 -2.36667783e-07 
-3.504071801e-07 -1.197234065e-07 0 -1.197234065e-07 -1.215198651e-07 0 0 0 -3.662241007e-07 
2.935993598e-07 0 0 0 0 1.753740583e-07 0 1.753740583e-07 2.846362184e-07 
-8.218401638e-07 0 0 0 -3.534046706e-07 -2.406752082e-07 0 -2.406752082e-07 -9.361170636e-07 
-1.284000489e-07 0 0 0 0 -2.244903301e-07 0 -2.244903301e-07 1.962836879e-07 
1.935696154e-07 0 0 0 1.391516993e-07 -1.499515282e-07 0 -1.499515282e-07 3.403424004e-07 
-2.64120402e-07 0 0 0 -1.357882316e-07 0 0 0 -3.257404226e-07 
-4.751201064e-07 0 0 0 -2.25668509e-07 -2.325827691e-07 0 -2.325827691e-07 -3.699166878e-07 
0 0 0 0 0 0 0 0 2.404599531e-07 
2.435844876e-07 0 0 0 0 0 0 0 3.124893094e-07 
-3.141352742e-07 0 0 0 0 -1.953133682e-07 0 -1.953133682e-07 -2.978873316e-07 
0 0 0 0 0 -1.872209292e-07 0 -1.872209292e-07 2.683130441e-07 
-1.465565696e-07 0 2.196443971e-07 0 -4.698919448e-07 0 2.196443971e-07 0 0 
0 0 -1.495893054e-07 0 2.134674478e-07 0 -1.495893054e-07 0 2.757150326e-07 
0 0 -2.073760896e-07 0 0 0 -2.073760896e-07 0 0 
0 0 -1.766820968e-07 0 0 0 -1.766820968e-07 0 3.839370744e-07 
0 0 0 0 -1.282122485e-07 0 0 0 0 
0 0 -1.784826975e-07 0 0 0 -1.784826975e-07 0 1.69868633e-07 
0 0 0 0 -2.873017728e-07 0 0 0 0 
0 0 0 0 -2.470218616e-07 0 0 0 1.527857135e-07 
0 0 -1.631357011e-07 0 0 0 -1.631357011e-07 0 3.298260535e-07 
0 0 -1.920290932e-07 0 0 0 -1.920290932e-07 0 2.239796538e-07 
0 0 0 0 -1.239134571e-07 0 0 0 1.518829777e-07 
0 0 -1.733537858e-07 0 1.582996854e-07 -2.276984454e-07 -1.733537858e-07 -2.276984454e-07 3.214648858e-07 
1.766637029e-07 0 -1.617368185e-07 0 0 -2.053202216e-07 -1.617368185e-07 -2.053202216e-07 3.386819852e-07 
1.648725126e-07 0 -1.67451697e-07 0 1.471950607e-07 -1.823472831e-07 -1.67451697e-07 -1.823472831e-07 5.85868588e-07 
0 0 0 0 0 0 0 0 2.366739317e-07 
1.195049013e-07 0 -1.675453021e-07 0 1.205533567e-07 -2.165093335e-07 -1.675453021e-07 -2.165093335e-07 3.300734355e-07 
1.321444411e-07 0 0 0 0 0 0 0 2.452824815e-07 
1.26248846e-07 0 0 0 0 0 0 0 3.688757828e-07 
0 0 -1.704027414e-07 0 1.52747373e-07 -2.050228643e-07 -1.704027414e-07 -2.050228643e-07 4.536667369e-07 
1.707681077e-07 0 -1.645942577e-07 0 0 -1.938337523e-07 -1.645942577e-07 -1.938337523e-07 4.622752866e-07 
-1.917661973e-07 0 2.328123011e-07 0 -4.750503978e-07 0 2.328123011e-07 0 0 
6.183415963e-07 -2.789755226e-07 1.949240501e-07 -2.789755226e-07 9.56137278e-07 -3.249272039e-07 1.949240501e-07 -3.249272039e-07 8.150223658e-07 
-5.795667324e-07 2.599716106e-07 -2.130095537e-07 2.599716106e-07 -8.927733838e-07 0 -2.130095537e-07 0 -2.193983472e-07 
2.496088992e-07 0 -2.393244542e-07 0 3.971560211e-07 0 -2.393244542e-07 0 6.261136173e-07 
2.132876995e-07 0 2.138681756e-07 0 2.405434401e-07 -1.306653034e-07 2.138681756e-07 -1.306653034e-07 3.586217894e-07 
0 0 0 0 0 -1.300643839e-07 0 -1.300643839e-07 2.978120093e-07 
-3.856664648e-07 1.567921054e-07 0 1.567921054e-07 -6.839118908e-07 0 0 0 -1.585885671e-07 
0 0 0 0 0 0 0 0 2.641674151e-07 
4.339752478e-07 -1.768131247e-07 0 -1.768131247e-07 6.766466495e-07 0 0 0 7.205679915e-07 
-1.649789166e-07 0 -2.26167004e-07 0 -2.478086813e-07 0 -2.26167004e-07 0 2.03357635e-07 
0 1.199861065e-07 2.950701556e-07 1.199861065e-07 0 -1.488221653e-07 2.950701556e-07 -1.488221653e-07 -3.125658652e-07 
0 0 3.236908812e-07 0 0 0 3.236908812e-07 0 -1.771244147e-07 
-1.931927676e-07 0 3.476174437e-07 0 0 -1.266196265e-07 3.476174437e-07 -1.266196265e-07 -1.717366955e-07 
0 0 -2.30593864e-07 0 -3.678438035e-07 1.206408466e-07 -2.30593864e-07 1.206408466e-07 -2.985872385e-07 
0 0 3.093805184e-07 0 0 -1.293299187e-07 3.093805184e-07 -1.293299187e-07 -2.4484514e-07 
-1.306544809e-07 0 3.356541625e-07 0 0 0 3.356541625e-07 0 -1.744305551e-07 
0 0 3.213437997e-07 0 0 -1.377208959e-07 3.213437997e-07 -1.377208959e-07 -2.421512803e-07 
0 0 0 0 -1.346374646e-07 0 0 0 -3.055765518e-07 
0 0 0 0 -1.329089559e-07 0 0 0 -2.378558266e-07 
-1.250550776e-07 0 0 0 -1.668948436e-07 0 0 0 -2.35161967e-07 
-2.018716389e-07 0 4.494552184e-07 0 0 2.025010124e-07 4.494552184e-07 2.025010124e-07 -2.781163845e-07 
0 0 0 0 0 1.941299718e-07 0 1.941299718e-07 4.2740937e-07 
0 0 0 0 -2.076815096e-07 1.461996886e-07 0 1.461996886e-07 0 
1.6515304e-07 0 -2.286411981e-07 0 2.974166448e-07 -2.611592856e-07 -2.286411981e-07 -2.611592856e-07 4.214092264e-07 
0 0 2.287579172e-07 0 0 1.983154921e-07 2.287579172e-07 1.983154921e-07 0 
0 0 0 0 -1.356761241e-07 1.701648302e-07 0 1.701648302e-07 2.694839388e-07 
-1.203231753e-07 0 2.585859465e-07 0 -1.512839656e-07 1.743503505e-07 2.585859465e-07 1.743503505e-07 0 
0 0 0 0 0 0 0 0 0 
0 0 0 0 0 0 0 0 4.244092982e-07 
0 0 0 0 0 0 0 0 2.66483867e-07 
-3.373856817e-07 0 4.023834045e-07 0 -1.222362223e-07 1.408979376e-07 4.023834045e-07 1.408979376e-07 -3.109078125e-07 
0 0 0 0 0 1.607533245e-07 0 1.607533245e-07 4.92863652e-07 
0 0 0 0 -1.404036785e-07 1.603879088e-07 0 1.603879088e-07 1.592921259e-07 
0 0 -1.737044008e-07 0 2.070356655e-07 -1.916842074e-07 -1.737044008e-07 -1.916842074e-07 3.556639034e-07 
-1.705094707e-07 0 2.056058961e-07 0 0 1.508256311e-07 2.056058961e-07 1.508256311e-07 0 
0 0 0 0 0 1.605706166e-07 0 1.605706166e-07 3.26077889e-07 
-1.50408895e-07 0 2.15295344e-07 0 -1.313199504e-07 1.506429232e-07 2.15295344e-07 1.506429232e-07 0 
-1.234088481e-07 0 0 0 0 0 0 0 0 
0 0 0 0 0 0 0 0 4.242637777e-07 
0 0 0 0 0 0 0 0 2.574780147e-07 
-2.655489573e-07 0 2.786418261e-07 0 -4.679110708e-07 0 2.786418261e-07 0 -4.021883874e-07 
1.590750738e-07 0 -2.209508572e-07 0 1.775848977e-07 0 -2.209508572e-07 0 0 
0 0 -1.980456532e-07 0 -2.014213741e-07 0 -1.980456532e-07 0 -2.878947714e-07 
1.50880092e-07 0 -2.615792291e-07 0 2.346956148e-07 0 -2.615792291e-07 0 2.183954336e-07 
0 0 0 0 -1.451630866e-07 0 0 0 -2.432239985e-07 
0 0 -2.094982552e-07 0 0 0 -2.094982552e-07 0 -1.860771905e-07 
-1.599309901e-07 0 0 0 -3.346662225e-07 0 0 0 -3.450415794e-07 
0 0 0 0 0 0 0 0 0 
1.549775829e-07 0 -2.412650431e-07 0 2.061402563e-07 0 -2.412650431e-07 0 0 
0 0 -2.298124411e-07 0 0 0 -2.298124411e-07 0 0 
-3.127462061e-07 0 2.745617505e-07 0 -5.989924148e-07 0 2.745617505e-07 0 -4.238055769e-07 
1.572567731e-07 0 -1.91134394e-07 0 1.381763482e-07 0 -1.91134394e-07 0 -1.777228889e-07 
0 -1.445834915e-07 -1.985564875e-07 -1.445834915e-07 -3.113968274e-07 0 -1.985564875e-07 0 -2.482841546e-07 
2.261257045e-07 0 -2.561152798e-07 0 3.125463564e-07 0 -2.561152798e-07 0 3.573782066e-07 
0 0 0 0 -2.304080333e-07 0 0 0 -3.007642329e-07 
0 0 -1.948454408e-07 0 0 0 -1.948454408e-07 0 -2.130035218e-07 
-1.751621083e-07 0 0 0 -4.551946211e-07 0 0 0 -3.360448658e-07 
0 0 0 0 -1.432230292e-07 0 0 0 0 
1.916912388e-07 0 -2.236248369e-07 0 2.253613523e-07 0 -2.236248369e-07 0 0 
0 0 -2.273358837e-07 0 0 0 -2.273358837e-07 0 0 
1.260164316e-07 0 -2.742239442e-07 0 1.935210957e-07 -2.942403649e-07 -2.742239442e-07 -2.942403649e-07 3.396081108e-07 
0 0 -1.944541234e-07 0 -1.519073058e-07 -3.131087151e-07 -1.944541234e-07 -3.131087151e-07 2.080987936e-07 
2.143399638e-07 0 0 0 0 1.443216037e-07 0 1.443216037e-07 2.479452277e-07 
0 0 -1.565096291e-07 0 0 -2.437404334e-07 -1.565096291e-07 -2.437404334e-07 3.826206215e-07 
0 0 -2.343390338e-07 0 0 -3.0367454e-07 -2.343390338e-07 -3.0367454e-07 2.738534522e-07 
0 0 0 0 0 0 0 0 2.280220106e-07 
1.701781977e-07 0 0 0 0 0 0 0 2.937766692e-07 
0 0 -2.153667867e-07 0 1.25356033e-07 -2.689903992e-07 -2.153667867e-07 -2.689903992e-07 3.611143661e-07 
0 0 -1.754818763e-07 0 0 -2.784245743e-07 -1.754818763e-07 -2.784245743e-07 2.953597075e-07 
1.310869251e-07 0 0 0 0 0 0 0 3.152829246e-07 
3.266721965e-07 0 -1.934231262e-07 0 0 0 -1.934231262e-07 0 0 
2.69057224e-07 0 -1.635041211e-07 0 0 0 -1.635041211e-07 0 3.387686468e-07 
-3.580752069e-07 0 1.906804278e-07 0 -1.476617336e-07 0 1.906804278e-07 0 0 
3.396749281e-07 0 -1.964394512e-07 0 0 0 -1.964394512e-07 0 4.727364434e-07 
2.978647102e-07 0 -1.784636237e-07 0 0 0 -1.784636237e-07 0 1.431296986e-07 
0 0 0 0 0 0 0 0 2.018963122e-07 
0 0 0 0 0 0 0 0 0 
3.331735623e-07 0 -1.949312887e-07 0 0 0 -1.949312887e-07 0 2.101135969e-07 
3.04366076e-07 0 -1.799717861e-07 0 0 0 -1.799717861e-07 0 4.057525451e-07 
0 0 0 0 0 0 0 0 2.688802105e-07 
-1.33496514e-07 0 0 0 0 -1.276269022e-07 0 -1.276269022e-07 1.719005088e-07 
-5.41020309e-07 1.574576594e-07 1.714936891e-07 1.574576594e-07 -3.51825254e-07 1.752613846e-07 1.714936891e-07 1.752613846e-07 0 
2.264055751e-07 0 -2.505365729e-07 0 1.582589149e-07 0 -2.505365729e-07 0 1.262181474e-07 
9.189249816e-07 -1.415138664e-07 0 -1.415138664e-07 3.460927186e-07 1.742024956e-07 0 1.742024956e-07 -4.489082051e-07 
-3.372584115e-07 0 1.247905131e-07 0 -1.524573822e-07 0 1.247905131e-07 0 0 
-1.573073669e-07 0 0 0 0 0 0 0 0 
0 0 0 0 0 0 0 0 1.490593281e-07 
3.927142338e-07 0 0 0 1.965016041e-07 0 0 0 -1.385038482e-07 
1.889523363e-07 0 0 0 0 1.747319401e-07 0 1.747319401e-07 -2.795566311e-07 
5.726652784e-07 -1.273953221e-07 0 -1.273953221e-07 2.521758168e-07 0 0 0 -1.613450289e-07 
0 0 2.487935415e-07 0 0 1.829146209e-07 2.487935415e-07 1.829146209e-07 3.378709997e-07 
0 0 2.08498305e-07 0 0 0 2.08498305e-07 0 2.658418409e-07 
0 0 0 0 0 0 0 0 5.089684444e-07 
-1.787548658e-07 0 -1.523042836e-07 0 -1.631084226e-07 0 -1.523042836e-07 0 3.556419146e-07 
0 0 2.286459233e-07 0 0 1.350513471e-07 2.286459233e-07 1.350513471e-07 3.018564203e-07 
0 0 0 0 0 0 0 0 3.874051427e-07 
0 0 1.32576215e-07 0 0 0 1.32576215e-07 0 4.234197221e-07 
-1.295450921e-07 0 0 0 -1.372337476e-07 0 0 0 3.467564572e-07 
-1.237796349e-07 0 0 0 0 0 0 0 3.107418778e-07 
0 0 0 0 0 0 0 0 4.323051795e-07 
-3.892215914e-07 0 2.192403658e-07 0 -5.113505517e-07 0 2.192403658e-07 0 -4.791359739e-07 
3.086609907e-07 0 -1.935619999e-07 0 0 0 -1.935619999e-07 0 0 
1.300921179e-07 0 -1.771306834e-07 0 -1.195935662e-07 0 -1.771306834e-07 0 -2.258730266e-07 
2.837816461e-07 0 -1.918586992e-07 0 2.752574064e-07 0 -1.918586992e-07 0 3.90035918e-07 
0 0 0 0 -1.995783847e-07 0 0 0 -2.755285537e-07 
2.193765543e-07 0 -1.853463417e-07 0 0 0 -1.853463417e-07 0 -1.4889708e-07 
-1.295647368e-07 0 0 0 -3.154720589e-07 0 0 0 -3.525045003e-07 
0 0 0 0 0 0 0 0 0 
2.962213184e-07 0 -1.927103495e-07 0 1.937255943e-07 0 -1.927103495e-07 0 1.590573923e-07 
2.06936882e-07 0 -1.844946913e-07 0 0 0 -1.844946913e-07 0 0 
2.817314333e-07 0 -1.203398902e-07 0 4.486184717e-07 0 -1.203398902e-07 0 5.655231714e-07 
-1.264821725e-07 0 -2.609020742e-07 0 -2.912721201e-07 2.003154009e-07 -2.609020742e-07 2.003154009e-07 3.529069686e-07 
0 0 1.693839013e-07 0 0 -2.941279342e-07 1.693839013e-07 -2.941279342e-07 4.635511816e-07 
0 0 -1.596777986e-07 0 0 0 -1.596777986e-07 0 4.538386623e-07 
0 0 -1.906209822e-07 0 0 0 -1.906209822e-07 0 4.5921507e-07 
0 0 0 0 0 0 0 0 4.082290751e-07 
1.629949693e-07 0 0 0 2.781183915e-07 -1.991561249e-07 0 -1.991561249e-07 5.145371765e-07 
1.536769695e-07 0 -1.400088444e-07 0 2.045229875e-07 0 -1.400088444e-07 0 5.096809169e-07 
0 0 -2.102899364e-07 0 -1.654223084e-07 0 -2.102899364e-07 0 4.033728155e-07 
0 0 0 0 0 -1.692113496e-07 0 -1.692113496e-07 4.58694922e-07 
0 0 0 0 -1.316541438e-07 2.438289333e-07 0 2.438289333e-07 3.199388167e-07 
0 0 6.57748812e-07 0 1.233644303e-07 0 6.57748812e-07 0 1.322549326e-07 
0 0 0 0 -1.260588965e-07 1.489845392e-07 0 1.489845392e-07 0 
0 0 -2.954828144e-07 0 0 -1.341945021e-07 -2.954828144e-07 -1.341945021e-07 1.936500439e-07 
0 0 3.046126623e-07 0 0 1.226075663e-07 3.046126623e-07 1.226075663e-07 2.260968747e-07 
0 0 3.220864844e-07 0 0 0 3.220864844e-07 0 0 
0 0 0 0 -1.288565201e-07 1.964067362e-07 0 1.964067362e-07 2.051439121e-07 
0 0 -1.72003151e-07 0 0 0 -1.72003151e-07 0 2.567944303e-07 
0 0 1.811329988e-07 0 0 0 1.811329988e-07 0 1.629524883e-07 
0 0 -1.545293288e-07 0 0 0 -1.545293288e-07 0 1.419995257e-07 
0 1.419455567e-07 4.033889097e-07 1.419455567e-07 0 -1.431450053e-07 4.033889097e-07 -1.431450053e-07 -3.631746214e-07 
0 1.212647419e-07 3.042933612e-07 1.212647419e-07 2.020804075e-07 -1.417327989e-07 3.042933612e-07 -1.417327989e-07 0 
-4.522661759e-07 0 3.211991535e-07 0 0 0 3.211991535e-07 0 -3.743055729e-07 
-1.681880309e-07 -1.288764237e-07 -2.259895313e-07 -1.288764237e-07 -3.777007826e-07 0 -2.259895313e-07 0 -4.130996167e-07 
0 1.316051493e-07 3.538411354e-07 1.316051493e-07 1.393320962e-07 -1.424389021e-07 3.538411354e-07 -1.424389021e-07 -2.294042386e-07 
-1.956279586e-07 0 3.127462573e-07 0 0 0 3.127462573e-07 0 -2.349697143e-07 
-2.100344685e-07 0 3.622940316e-07 0 0 0 3.622940316e-07 0 -3.687400972e-07 
0 0 0 0 -1.505584988e-07 0 0 0 -3.881371191e-07 
0 0 0 0 0 0 0 0 -2.543667362e-07 
-3.102271034e-07 0 0 0 -2.28090574e-07 0 0 0 -3.937025948e-07 
0 1.53496749e-07 2.583604694e-07 1.53496749e-07 0 -1.363722126e-07 2.583604694e-07 -1.363722126e-07 -4.469656609e-07 
-1.559302669e-07 0 3.008002888e-07 0 1.379453661e-07 0 3.008002888e-07 0 -2.265218011e-07 
-3.026808857e-07 0 3.260571407e-07 0 0 0 3.260571407e-07 0 -2.410437573e-07 
0 0 -1.967569922e-07 0 -2.727428429e-07 0 -1.967569922e-07 0 -2.72585347e-07 
0 0 2.795803791e-07 0 0 -1.214768946e-07 2.795803791e-07 -1.214768946e-07 -3.36743731e-07 
-2.293055763e-07 0 3.134287148e-07 0 0 0 3.134287148e-07 0 -2.337827792e-07 
-1.312976053e-07 0 2.922088051e-07 0 0 -1.194167112e-07 2.922088051e-07 -1.194167112e-07 -3.440047091e-07 
0 0 0 0 0 0 0 0 -3.597755039e-07 
0 0 0 0 0 0 0 0 -2.49553574e-07 
-1.430384832e-07 0 0 0 -1.394570267e-07 0 0 0 -2.568145522e-07 
3.764416834e-07 -1.278178275e-07 0 -1.278178275e-07 6.866250268e-07 -1.306662886e-07 0 -1.306662886e-07 5.951577734e-07 
-2.413094117e-07 1.266851719e-07 -2.693916634e-07 1.266851719e-07 -4.368485603e-07 1.684146426e-07 -2.693916634e-07 1.684146426e-07 2.15895163e-07 
0 0 2.00390539e-07 0 0 -3.319330185e-07 2.00390539e-07 -3.319330185e-07 3.566613224e-07 
0 0 -1.89995942e-07 0 0 0 -1.89995942e-07 0 3.832176976e-07 
0 0 -1.919074086e-07 0 1.248882333e-07 0 -1.919074086e-07 0 4.055264682e-07 
0 0 0 0 -2.295014484e-07 0 0 0 2.862782427e-07 
1.908855104e-07 0 0 0 3.322353452e-07 -2.312996536e-07 0 -2.312996536e-07 4.759095479e-07 
1.973258058e-07 0 -1.522095479e-07 0 3.376384781e-07 0 -1.522095479e-07 0 4.891877355e-07 
0 0 -2.296938027e-07 0 -2.240983155e-07 0 -2.296938027e-07 0 2.995564303e-07 
0 0 0 0 0 -1.672787813e-07 0 -1.672787813e-07 3.6993951e-07 
2.215934652e-07 0 -1.789280542e-07 0 0 0 -1.789280542e-07 0 -1.598585249e-07 
2.606890423e-07 0 -1.88350136e-07 0 0 0 -1.88350136e-07 0 -1.194496644e-07 
-1.977162118e-07 0 1.205667022e-07 0 0 0 1.205667022e-07 0 -2.214467164e-07 
2.551047703e-07 0 -1.730327289e-07 0 0 0 -1.730327289e-07 0 3.421774994e-07 
2.411412538e-07 0 -1.836390951e-07 0 0 0 -1.836390951e-07 0 -1.396540947e-07 
0 0 0 0 0 0 0 0 -1.704481904e-07 
0 0 0 0 0 0 0 0 -1.906526206e-07 
2.383491178e-07 0 -1.759803915e-07 0 0 0 -1.759803915e-07 0 0 
2.578969063e-07 0 -1.806914325e-07 0 0 0 -1.806914325e-07 0 0 
0 0 0 0 0 0 0 0 0 
-3.400309734e-07 1.346850995e-07 1.539504694e-07 1.346850995e-07 -2.419470294e-07 0 1.539504694e-07 0 -3.694357652e-07 
3.198524958e-07 0 -1.930786453e-07 0 0 0 -1.930786453e-07 0 0 
2.247347377e-07 0 -1.838817273e-07 0 0 0 -1.838817273e-07 0 -1.360574402e-07 
2.603007971e-07 0 -1.777007824e-07 0 0 0 -1.777007824e-07 0 3.680009254e-07 
0 0 0 0 0 0 0 0 -2.178848211e-07 
2.722936168e-07 0 -1.884801863e-07 0 0 0 -1.884801863e-07 0 0 
0 0 0 0 -1.228212219e-07 0 0 0 -2.527466027e-07 
0 0 0 0 0 0 0 0 0 
2.900766465e-07 0 -1.853897139e-07 0 0 0 -1.853897139e-07 0 1.508335242e-07 
2.425177674e-07 0 -1.807912548e-07 0 0 0 -1.807912548e-07 0 0 
-3.288024158e-07 0 2.10504887e-07 0 0 0 2.10504887e-07 0 0 
-2.33634947e-07 0 1.656681748e-07 0 0 0 1.656681748e-07 0 -2.291096576e-07 
-2.891066159e-07 0 2.081493718e-07 0 0 0 2.081493718e-07 0 2.074267707e-07 
2.066378229e-07 0 -1.754154445e-07 0 0 0 -1.754154445e-07 0 2.977946635e-07 
-2.812186814e-07 0 1.880865309e-07 0 0 0 1.880865309e-07 0 0 
-2.613707815e-07 0 1.869087733e-07 0 0 0 1.869087733e-07 0 0 
-3.089545158e-07 0 2.093271294e-07 0 0 0 2.093271294e-07 0 1.555641973e-07 
0 0 0 0 0 0 0 0 2.007481437e-07 
0 0 0 0 0 0 0 0 0 
0 0 0 0 0 0 0 0 2.526107171e-07 
-1.460559907e-07 0 0 0 -1.452084958e-07 2.790006991e-07 0 2.790006991e-07 2.391084906e-07 
0 0 7.721674659e-07 0 1.583263535e-07 0 7.721674659e-07 0 1.938721953e-07 
0 0 0 0 0 1.600257402e-07 0 1.600257402e-07 1.320548462e-07 
-1.611464904e-07 0 -3.701045817e-07 0 0 -1.39059153e-07 -3.701045817e-07 -1.39059153e-07 1.606953289e-07 
0 0 3.519514515e-07 0 0 1.242410041e-07 3.519514515e-07 1.242410041e-07 2.164903429e-07 
0 0 3.805530023e-07 0 0 0 3.805530023e-07 0 1.629635207e-07 
0 0 0 0 0 2.195132197e-07 0 2.195132197e-07 1.855816684e-07 
-1.536012405e-07 0 -2.191845723e-07 0 0 0 -2.191845723e-07 0 1.999019098e-07 
0 0 2.010314421e-07 0 0 0 2.010314421e-07 0 1.772837621e-07 
0 0 -1.905830215e-07 0 0 0 -1.905830215e-07 0 1.463750876e-07 
-2.11459084e-07 0 1.240563826e-07 0 0 0 1.240563826e-07 0 1.353406529e-07 
-7.759013293e-07 1.786604367e-07 1.749987813e-07 1.786604367e-07 -4.469550599e-07 1.608642252e-07 1.749987813e-07 1.608642252e-07 -2.096316143e-07 
4.670352505e-07 -1.482019484e-07 -2.820065923e-07 -1.482019484e-07 2.712468606e-07 0 -2.820065923e-07 0 2.385328904e-07 
1.034316927e-06 -1.544368714e-07 0 -1.544368714e-07 3.992619939e-07 1.48027507e-07 0 1.48027507e-07 -3.524960366e-07 
-4.936802067e-07 0 1.49527582e-07 0 -2.180545183e-07 0 1.49527582e-07 0 0 
-1.544330394e-07 0 0 0 0 0 0 0 0 
1.277880832e-07 0 0 0 1.41046442e-07 0 0 0 1.869367717e-07 
4.114289214e-07 -1.196519633e-07 0 -1.196519633e-07 2.050540087e-07 0 0 0 0 
1.292077988e-07 0 0 0 0 1.544458661e-07 0 1.544458661e-07 -2.810638254e-07 
7.506760887e-07 -1.513194099e-07 -1.394964403e-07 -1.513194099e-07 3.352544273e-07 0 -1.394964403e-07 0 0 
-1.862731874e-07 0 0 0 -2.477372632e-07 1.538165524e-07 0 1.538165524e-07 2.433379691e-07 
0 -1.333967439e-07 3.716033172e-07 -1.333967439e-07 0 0 3.716033172e-07 0 0 
0 0 0 0 -2.19910302e-07 0 0 0 0 
1.591776372e-07 0 -1.545034921e-07 0 1.794234085e-07 0 -1.545034921e-07 0 3.171836317e-07 
-1.385426542e-07 0 1.810094864e-07 0 0 0 1.810094864e-07 0 1.642905649e-07 
0 0 1.788923765e-07 0 0 0 1.788923765e-07 0 0 
-1.469336095e-07 0 0 0 -2.338237826e-07 1.239948724e-07 0 1.239948724e-07 1.444084807e-07 
0 0 0 0 0 0 0 0 2.802608004e-07 
0 0 0 0 1.439099268e-07 0 0 0 2.012133963e-07 
0 0 0 0 0 0 0 0 1.81331312e-07 
0 0 2.433776838e-07 0 0 0 2.433776838e-07 0 -1.664666533e-07 
-1.510408832e-07 0 2.855593847e-07 0 1.606199412e-07 0 2.855593847e-07 0 1.407284884e-07 
-3.213257099e-07 -1.377533612e-07 2.614617737e-07 -1.377533612e-07 -2.08408578e-07 0 2.614617737e-07 0 1.398856563e-07 
0 0 -2.341750107e-07 0 -1.95791497e-07 0 -2.341750107e-07 0 2.448176157e-07 
0 0 2.644685342e-07 0 1.203754505e-07 0 2.644685342e-07 0 0 
-2.361832965e-07 0 2.735105792e-07 0 0 0 2.735105792e-07 0 1.403070724e-07 
-1.759222054e-07 0 2.524197287e-07 0 0 0 2.524197287e-07 0 0 
0 0 0 0 0 0 0 0 0 
0 0 0 0 0 0 0 0 1.92773052e-07 
-1.284606286e-07 0 0 0 -2.021000375e-07 0 0 0 1.92351636e-07 
-3.284097609e-07 1.414855353e-07 -1.860014184e-07 1.414855353e-07 -5.386042469e-07 0 -1.860014184e-07 0 0 
0 0 2.485569555e-07 0 2.929071192e-07 0 2.485569555e-07 0 2.155835252e-07 
0 0 2.721275746e-07 0 -2.172737238e-07 0 2.721275746e-07 0 1.529725636e-07 
3.047818226e-07 -1.218423649e-07 0 -1.218423649e-07 4.908419489e-07 0 0 0 6.377172483e-07 
0 0 0 0 -1.228485638e-07 0 0 0 0 
0 0 2.603422651e-07 0 0 0 2.603422651e-07 0 1.842780444e-07 
-2.011339438e-07 0 0 0 -3.779389854e-07 0 0 0 0 
0 0 0 0 0 0 0 0 2.945456552e-07 
2.0284059e-07 0 1.421898648e-07 0 3.918745341e-07 0 1.421898648e-07 0 4.266503868e-07 
0 0 1.539751743e-07 0 1.367841126e-07 0 1.539751743e-07 0 3.953449059e-07 
-1.426708356e-07 0 -1.715291501e-07 0 -2.578847954e-07 0 -1.715291501e-07 0 3.403390028e-07 
-6.819066804e-07 3.276753583e-07 1.422582861e-07 3.276753583e-07 -1.020789587e-06 -2.186278722e-07 1.422582861e-07 -2.186278722e-07 -1.794350146e-07 
4.858633962e-07 -2.08263341e-07 2.512643496e-07 -2.08263341e-07 7.296811604e-07 4.146283779e-07 2.512643496e-07 4.146283779e-07 7.468316546e-07 
0 0 1.906668081e-07 0 2.274880888e-07 1.638296832e-07 1.906668081e-07 1.638296832e-07 1.823465309e-07 
-4.12288758e-07 2.156626104e-07 0 2.156626104e-07 -6.393371914e-07 -1.52305176e-07 0 -1.52305176e-07 0 
0 0 1.967613178e-07 0 -1.455542135e-07 0 1.967613178e-07 0 2.8369832e-07 
1.715962803e-07 0 0 0 2.358981825e-07 1.64322949e-07 0 1.64322949e-07 5.435853287e-07 
0 0 0 0 0 0 0 0 2.613427669e-07 
-2.946460356e-07 1.578125706e-07 1.664625471e-07 1.578125706e-07 -3.966507493e-07 0 1.664625471e-07 0 0 
2.892390026e-07 0 2.209655788e-07 0 4.785846246e-07 2.892290305e-07 2.209655788e-07 2.892290305e-07 4.645890927e-07 
0 0 2.271548871e-07 0 0 0 2.271548871e-07 0 1.216563389e-07 
0 0 0 0 0 6.43540096e-07 0 6.43540096e-07 5.046276476e-07 
0 0 3.255058152e-07 0 0 0 3.255058152e-07 0 2.85916635e-07 
0 0 -1.561274618e-07 0 1.435492669e-07 -2.587277818e-07 -1.561274618e-07 -2.587277818e-07 4.834672497e-07 
0 0 0 0 0 3.388541339e-07 0 3.388541339e-07 3.131419933e-07 
0 0 1.640040289e-07 0 0 2.997954327e-07 1.640040289e-07 2.997954327e-07 3.952721413e-07 
0 0 2.763303511e-07 0 0 0 2.763303511e-07 0 2.03786487e-07 
0 0 0 0 0 0 0 0 3.025617943e-07 
0 0 0 0 0 1.924061571e-07 0 1.924061571e-07 4.940474487e-07 
0 0 0 0 0 -1.513385062e-07 0 -1.513385062e-07 3.846919424e-07 
0 0 -2.368573155e-07 0 0 -1.327445104e-07 -2.368573155e-07 -1.327445104e-07 5.424866197e-07 
0 0 -2.359739122e-07 0 0 -2.571103022e-07 -2.359739122e-07 -2.571103022e-07 1.914843156e-07 
2.812958887e-07 0 -1.601403536e-07 0 0 -1.648721953e-07 -1.601403536e-07 -1.648721953e-07 5.59613135e-07 
0 0 0 0 -2.707934417e-07 0 0 0 2.947482957e-07 
0 0 -2.364156139e-07 0 0 -1.949274063e-07 -2.364156139e-07 -1.949274063e-07 3.669854676e-07 
0 0 -1.980571329e-07 0 0 -2.109912488e-07 -1.980571329e-07 -2.109912488e-07 3.755487253e-07 
0 0 -1.984988346e-07 0 0 -1.488083529e-07 -1.984988346e-07 -1.488083529e-07 5.510498773e-07 
0 0 0 0 0 0 0 0 4.186174577e-07 
0 0 0 0 -1.397186388e-07 0 0 0 2.431163056e-07 
0 0 0 0 0 0 0 0 4.271807153e-07 
0 0 0 0 -1.432045761e-07 0 0 0 4.062123298e-07 
2.201474453e-07 0 -1.379911465e-07 0 0 -1.52748602e-07 -1.379911465e-07 -1.52748602e-07 6.065327407e-07 
0 0 -1.978184617e-07 0 0 -2.190930812e-07 -1.978184617e-07 -2.190930812e-07 1.856451643e-07 
0 0 -2.149447e-07 0 0 -1.23757446e-07 -2.149447e-07 -1.23757446e-07 6.072423086e-07 
0 0 0 0 0 0 0 0 5.063725352e-07 
0 0 -1.679048041e-07 0 0 -1.859208416e-07 -1.679048041e-07 -1.859208416e-07 3.960889525e-07 
0 0 0 0 0 0 0 0 2.959287471e-07 
0 0 0 0 0 0 0 0 5.067273192e-07 
0 0 -1.764679233e-07 0 0 -1.38253024e-07 -1.764679233e-07 -1.38253024e-07 6.068875247e-07 
0 0 -2.063815809e-07 0 0 -1.714252636e-07 -2.063815809e-07 -1.714252636e-07 3.964437365e-07 
1.688491277e-07 0 1.389035228e-07 0 3.467489629e-07 1.393342614e-07 1.389035228e-07 1.393342614e-07 3.143846292e-07 
0 1.440466276e-07 -1.305936307e-07 1.440466276e-07 -1.822054454e-07 0 -1.305936307e-07 0 5.093798879e-07 
3.558053132e-07 -2.689120233e-07 1.541209703e-07 -2.689120233e-07 4.574536053e-07 3.62490892e-07 1.541209703e-07 3.62490892e-07 7.497516682e-07 
-6.207569746e-07 3.22916739e-07 1.308559236e-07 3.22916739e-07 -7.905861499e-07 -2.17490578e-07 1.308559236e-07 -2.17490578e-07 0 
0 0 0 0 0 0 0 0 4.118822585e-07 
1.262842572e-07 0 0 0 1.3762408e-07 1.564368996e-07 0 1.564368996e-07 6.29565778e-07 
2.623272205e-07 -1.861344092e-07 1.465122465e-07 -1.861344092e-07 4.021012841e-07 2.509125767e-07 1.465122465e-07 2.509125767e-07 5.320681487e-07 
-2.259539235e-07 0 1.348797232e-07 0 -2.219185935e-07 0 1.348797232e-07 0 1.694929353e-07 
-3.619968867e-07 2.334816833e-07 0 2.334816833e-07 -4.863957977e-07 -1.335538355e-07 0 -1.335538355e-07 2.669905647e-07 
-1.324758307e-07 0 1.424884469e-07 0 -1.665662723e-07 0 1.424884469e-07 0 3.871764548e-07 
-1.276687854e-07 0 1.958870724e-07 0 0 0 1.958870724e-07 0 -2.316034181e-07 
-2.313661284e-07 0 2.459415922e-07 0 1.207178283e-07 0 2.459415922e-07 0 1.571324054e-07 
-3.631241946e-07 -1.233549831e-07 2.092929126e-07 -1.233549831e-07 -1.966439129e-07 0 2.092929126e-07 0 1.624270514e-07 
2.013833095e-07 0 -2.118596115e-07 0 0 0 -2.118596115e-07 0 3.805001835e-07 
-1.795174569e-07 0 2.209143323e-07 0 0 0 2.209143323e-07 0 0 
-2.972451615e-07 0 2.276172524e-07 0 0 0 2.276172524e-07 0 1.597797284e-07 
-2.4539649e-07 0 2.025899925e-07 0 0 0 2.025899925e-07 0 0 
0 0 0 0 0 0 0 0 0 
0 0 0 0 0 0 0 0 2.688162944e-07 
0 0 0 0 -1.331284106e-07 0 0 0 2.714636175e-07 
0 0 1.4693003e-07 0 1.458845866e-07 -2.597077357e-07 1.4693003e-07 -2.597077357e-07 4.914985561e-07 
1.603267513e-07 0 -1.388435524e-07 0 1.75202361e-07 0 -1.388435524e-07 0 4.911867507e-07 
0 0 -2.351716789e-07 0 0 2.016247454e-07 -2.351716789e-07 2.016247454e-07 5.131729764e-07 
0 0 -1.338371145e-07 0 0 0 -1.338371145e-07 0 4.764563842e-07 
0 0 0 0 1.605434738e-07 -1.644181759e-07 0 -1.644181759e-07 4.913426534e-07 
0 0 -1.870076157e-07 0 0 0 -1.870076157e-07 0 5.021798635e-07 
0 0 0 0 0 0 0 0 5.023357662e-07 
0 0 0 0 0 -1.696622416e-07 0 -1.696622416e-07 4.839774702e-07 
0 0 -1.363403334e-07 0 0 0 -1.363403334e-07 0 4.838215675e-07 
0 0 -1.845043967e-07 0 0 0 -1.845043967e-07 0 4.948146803e-07 
-3.161073523e-07 0 3.215437882e-07 0 0 1.527199011e-07 3.215437882e-07 1.527199011e-07 -2.5525332e-07 
0 0 0 0 0 1.340621562e-07 0 1.340621562e-07 4.546711156e-07 
0 0 0 0 -2.038527674e-07 1.565643116e-07 0 1.565643116e-07 0 
0 0 0 0 2.066536266e-07 -1.741917735e-07 0 -1.741917735e-07 3.382636378e-07 
-1.672950868e-07 0 1.807405228e-07 0 0 1.433910286e-07 1.807405228e-07 1.433910286e-07 0 
0 0 0 0 -1.600851389e-07 1.453132339e-07 0 1.453132339e-07 2.850576363e-07 
-1.907278404e-07 0 1.649822957e-07 0 -1.467123354e-07 1.546421063e-07 1.649822957e-07 1.546421063e-07 0 
0 0 0 0 0 0 0 0 0 
0 0 0 0 0 0 0 0 3.964673767e-07 
0 0 0 0 0 0 0 0 2.268538974e-07 
0 0 -1.499184403e-07 0 0 0 -1.499184403e-07 0 2.580767554e-07 
0 0 -1.415937411e-07 0 0 0 -1.415937411e-07 0 3.055971553e-07 
-1.435824287e-07 0 1.565377538e-07 0 0 0 1.565377538e-07 0 2.547491715e-07 
0 0 0 0 0 0 0 0 4.937213983e-07 
0 0 -1.457560907e-07 0 0 0 -1.457560907e-07 0 2.818369554e-07 
0 0 0 0 0 0 0 0 2.801731634e-07 
0 0 0 0 0 0 0 0 2.564129634e-07 
0 0 -1.252977429e-07 0 0 0 -1.252977429e-07 0 3.758990768e-07 
0 0 -1.211353932e-07 0 0 0 -1.211353932e-07 0 3.996592768e-07 
0 0 0 0 0 0 0 0 3.742352849e-07 
-1.404403503e-07 0 0 0 -2.001358002e-07 1.897098235e-07 0 1.897098235e-07 2.942095421e-07 
0 -1.201700602e-07 4.445027706e-07 -1.201700602e-07 0 0 4.445027706e-07 0 0 
0 0 0 0 -1.738694312e-07 0 0 0 0 
0 0 -1.846969747e-07 0 0 0 -1.846969747e-07 0 2.708520104e-07 
0 0 2.153353195e-07 0 0 1.311216686e-07 2.153353195e-07 1.311216686e-07 1.977181228e-07 
0 0 2.138575941e-07 0 0 0 2.138575941e-07 0 0 
0 0 0 0 -1.870026157e-07 1.542122271e-07 0 1.542122271e-07 1.788533567e-07 
0 0 0 0 0 0 0 0 2.825307763e-07 
0 0 1.299028979e-07 0 0 0 1.299028979e-07 0 1.860393569e-07 
0 0 0 0 0 0 0 0 1.671745908e-07 
0 0 -1.617921882e-07 0 0 0 -1.617921882e-07 0 4.406012039e-07 
0 0 -1.958964774e-07 0 0 1.382974583e-07 -1.958964774e-07 1.382974583e-07 4.931610605e-07 
0 0 1.43006775e-07 0 0 -2.657127391e-07 1.43006775e-07 -2.657127391e-07 4.287568271e-07 
0 0 -1.305821797e-07 0 0 0 -1.305821797e-07 0 4.922677054e-07 
0 0 -1.788443328e-07 0 0 0 -1.788443328e-07 0 4.668811322e-07 
0 0 0 0 0 0 0 0 4.609589438e-07 
0 0 0 0 0 -1.55266814e-07 0 -1.55266814e-07 4.346790155e-07 
0 0 -1.461871839e-07 0 0 0 -1.461871839e-07 0 4.664344546e-07 
0 0 -1.632393285e-07 0 0 0 -1.632393285e-07 0 4.927143829e-07 
0 0 0 0 0 -1.332132367e-07 0 -1.332132367e-07 4.605122662e-07 
0 0 0 0 0 -1.681872514e-07 0 -1.681872514e-07 3.10880973e-07 
1.516247872e-07 0 0 0 0 -1.316096337e-07 0 -1.316096337e-07 3.238255211e-07 
0 0 0 0 -2.453731405e-07 0 0 0 0 
3.248786652e-07 0 -1.807722953e-07 0 3.443347438e-07 -1.376758313e-07 -1.807722953e-07 -1.376758313e-07 6.598018133e-07 
1.34068187e-07 0 0 0 0 -1.498984425e-07 0 -1.498984425e-07 3.173532471e-07 
0 0 0 0 0 0 0 0 2.063112671e-07 
0 0 0 0 0 0 0 0 1.998389931e-07 
2.20695126e-07 0 -1.381397768e-07 0 2.282899978e-07 -1.529315413e-07 -1.381397768e-07 -1.529315413e-07 4.853413932e-07 
2.382517262e-07 0 -1.439330584e-07 0 2.276620734e-07 -1.346427325e-07 -1.439330584e-07 -1.346427325e-07 4.918136672e-07 
1.614358862e-07 0 0 0 0 0 0 0 3.742994132e-07 
-3.463350016e-07 0 3.159084509e-07 0 0 0 3.159084509e-07 0 -2.420641278e-07 
0 0 0 0 -1.861431037e-07 0 0 0 3.774298109e-07 
0 0 0 0 -1.640504837e-07 1.574883021e-07 0 1.574883021e-07 1.305930101e-07 
0 0 -1.215732058e-07 0 1.921484211e-07 -1.343630204e-07 -1.215732058e-07 -1.343630204e-07 3.39633747e-07 
-2.178274335e-07 0 1.734650496e-07 0 -1.405520421e-07 0 1.734650496e-07 0 0 
0 0 0 0 -1.750967937e-07 1.371609442e-07 0 1.371609442e-07 2.540114105e-07 
-1.905777127e-07 0 1.609327508e-07 0 -1.295057321e-07 1.330037086e-07 1.609327508e-07 1.330037086e-07 0 
0 0 0 0 0 0 0 0 0 
0 0 0 0 0 0 0 0 3.58531779e-07 
0 0 0 0 0 0 0 0 2.351133786e-07 
2.262077737e-07 0 -1.993943332e-07 0 1.523607282e-07 2.275604549e-07 -1.993943332e-07 2.275604549e-07 6.128400051e-07 
0 0 0 0 -1.712134601e-07 -1.431898374e-07 0 -1.431898374e-07 1.880731827e-07 
0 0 -1.225974896e-07 0 0 0 -1.225974896e-07 0 3.166194133e-07 
0 0 1.196582372e-07 0 0 -2.222495073e-07 1.196582372e-07 -2.222495073e-07 4.700724756e-07 
0 0 -1.539702111e-07 0 0 0 -1.539702111e-07 0 4.004565939e-07 
0 0 0 0 0 0 0 0 2.52346298e-07 
1.37811168e-07 0 -1.609959114e-07 0 0 0 -1.609959114e-07 0 4.647297092e-07 
0 0 0 0 1.30107349e-07 0 0 0 5.414562404e-07 
0 0 0 0 0 -1.827196724e-07 0 -1.827196724e-07 3.290728292e-07 
0 0 0 0 0 -1.477560244e-07 0 -1.477560244e-07 3.933459445e-07 
0 0 -1.480633199e-07 0 0 0 -1.480633199e-07 0 3.802076744e-07 
1.303419747e-07 0 -1.476755384e-07 0 0 0 -1.476755384e-07 0 5.292465872e-07 
0 0 -1.626595953e-07 0 0 1.360597189e-07 -1.626595953e-07 1.360597189e-07 4.459805937e-07 
-1.523169819e-07 0 1.498489067e-07 0 0 -3.039967521e-07 1.498489067e-07 -3.039967521e-07 3.051690447e-07 
0 0 -1.478694292e-07 0 0 0 -1.478694292e-07 0 4.547271308e-07 
0 0 -1.551675669e-07 0 0 0 -1.551675669e-07 0 4.876135904e-07 
0 0 -1.553614576e-07 0 0 0 -1.553614576e-07 0 4.130941341e-07 
0 0 0 0 0 -1.637680646e-07 0 -1.637680646e-07 3.426883596e-07 
0 0 0 0 0 -1.519144506e-07 0 -1.519144506e-07 4.172078159e-07 
0 0 0 0 0 0 0 0 3.755748192e-07 
1.732067429e-07 1.522675498e-07 5.323562679e-07 1.522675498e-07 6.841703762e-07 7.760510938e-07 5.323562679e-07 7.760510938e-07 -3.267127147e-07 
2.863177492e-07 0 3.057246706e-07 0 -1.673417539e-07 0 3.057246706e-07 0 -2.874908284e-07 
-1.802015948e-07 1.747872261e-07 4.474937343e-07 1.747872261e-07 3.193661457e-07 2.191994165e-07 4.474937343e-07 2.191994165e-07 -2.493703669e-07 
1.328114329e-07 -2.898125606e-07 -1.517803837e-06 -2.898125606e-07 -8.232474585e-07 -1.106131829e-06 -1.517803837e-06 -1.106131829e-06 -4.7245757e-07 
2.297622461e-07 0 4.190404692e-07 0 2.584143112e-07 4.2063264e-07 4.190404692e-07 4.2063264e-07 -3.071017715e-07 
0 0 3.766092025e-07 0 0 1.422068014e-07 3.766092025e-07 1.422068014e-07 -2.684305976e-07 
0 1.63527388e-07 4.899250011e-07 1.63527388e-07 5.017682609e-07 4.976252551e-07 4.899250011e-07 4.976252551e-07 -2.880415408e-07 
1.530090879e-07 0 -4.927237845e-07 0 0 -1.650403675e-07 -4.927237845e-07 -1.650403675e-07 -3.995851424e-07 
2.095645911e-07 -1.412414373e-07 -6.060395831e-07 -1.412414373e-07 -4.952946062e-07 -5.204588212e-07 -6.060395831e-07 -5.204588212e-07 -3.799741992e-07 
0 0 -5.351550512e-07 0 -2.519406564e-07 -4.434662061e-07 -5.351550512e-07 -4.434662061e-07 -3.609139684e-07 
-9.887688371e-07 1.360074763e-07 0 1.360074763e-07 -4.900146863e-07 1.894587884e-07 0 1.894587884e-07 -2.517871413e-07 
0 0 0 0 0 1.847974421e-07 0 1.847974421e-07 -8.341171791e-07 
3.224985834e-07 0 0 0 0 1.438171466e-07 0 1.438171466e-07 -6.574336983e-07 
5.598581763e-07 0 0 0 3.046985281e-07 -1.482289228e-07 0 -1.482289228e-07 -4.295271909e-07 
-5.31354871e-07 0 0 0 -3.021640616e-07 1.871281153e-07 0 1.871281153e-07 -5.429521602e-07 
1.242788393e-07 0 0 0 0 1.643072944e-07 0 1.643072944e-07 -7.457754387e-07 
-3.331351268e-07 0 0 0 -1.873990789e-07 1.666379675e-07 0 1.666379675e-07 -4.546104198e-07 
-2.144553304e-07 0 0 0 0 0 0 0 -3.406571661e-07 
2.429586357e-07 0 0 0 0 0 0 0 -6.31822185e-07 
4.411783798e-07 0 0 0 2.099575283e-07 0 0 0 -5.434804446e-07 
0 0 5.925472299e-07 0 4.090647732e-07 8.99411054e-07 5.925472299e-07 8.99411054e-07 -3.66588106e-07 
1.268389507e-07 0 3.820483291e-07 0 -1.320201672e-07 1.325699675e-07 3.820483291e-07 1.325699675e-07 -2.637318624e-07 
0 1.923755981e-07 5.079672307e-07 1.923755981e-07 3.950540909e-07 2.685913117e-07 5.079672307e-07 2.685913117e-07 0 
0 -2.34027857e-07 -1.805914959e-06 -2.34027857e-07 -6.232699561e-07 -1.280419159e-06 -1.805914959e-06 -1.280419159e-06 -3.626249721e-07 
0 0 4.872977795e-07 0 1.38522303e-07 5.159905108e-07 4.872977795e-07 5.159905108e-07 -3.151599842e-07 
0 0 4.450077799e-07 0 1.315169618e-07 2.005806396e-07 4.450077799e-07 2.005806396e-07 -1.563842014e-07 
0 0 5.502572303e-07 0 4.020594321e-07 5.840011829e-07 5.502572303e-07 5.840011829e-07 -2.078123232e-07 
0 0 -6.066838645e-07 0 0 -1.905040523e-07 -6.066838645e-07 -1.905040523e-07 -3.64606539e-07 
0 -1.231767427e-07 -7.119333149e-07 -1.231767427e-07 -3.776450617e-07 -5.739245955e-07 -7.119333149e-07 -5.739245955e-07 -3.131784172e-07 
0 0 -6.489738641e-07 0 0 -5.059139234e-07 -6.489738641e-07 -5.059139234e-07 -2.058307563e-07 
0 0 2.698586142e-07 0 0 0 2.698586142e-07 0 0 
0 0 3.221064269e-07 0 0 0 3.221064269e-07 0 0 
-2.112156601e-07 0 3.137230009e-07 0 -1.453169347e-07 0 3.137230009e-07 0 1.333268101e-07 
0 0 -2.593866055e-07 0 -2.784744444e-07 0 -2.593866055e-07 0 0 
0 0 2.959825206e-07 0 0 0 2.959825206e-07 0 0 
-1.472848851e-07 0 3.179147139e-07 0 0 0 3.179147139e-07 0 1.196863196e-07 
0 0 2.917908076e-07 0 0 0 2.917908076e-07 0 0 
0 0 0 0 0 0 0 0 0 
0 0 0 0 0 0 0 0 0 
-1.241469543e-07 0 0 0 -2.118956896e-07 0 0 0 1.250921573e-07 
0 0 6.39067677e-07 0 2.896963978e-07 9.871414736e-07 6.39067677e-07 9.871414736e-07 -2.895110263e-07 
0 0 4.514757219e-07 0 0 1.756762494e-07 4.514757219e-07 1.756762494e-07 -2.236025383e-07 
2.129042013e-07 1.638592472e-07 5.025793387e-07 1.638592472e-07 3.447974795e-07 2.614532577e-07 5.025793387e-07 2.614532577e-07 0 
0 -1.781065977e-07 -1.963168057e-06 -1.781065977e-07 -4.643195253e-07 -1.383260613e-06 -1.963168057e-06 -1.383260613e-06 -2.9196515e-07 
0 0 5.452716995e-07 0 0 5.814088615e-07 5.452716995e-07 5.814088615e-07 -2.565567823e-07 
1.334961489e-07 0 4.770275303e-07 0 1.232275774e-07 2.185647535e-07 4.770275303e-07 2.185647535e-07 0 
0 0 5.708235079e-07 0 3.172469387e-07 6.242973656e-07 5.708235079e-07 6.242973656e-07 -1.332323877e-07 
0 0 -6.620501898e-07 0 0 -1.980595696e-07 -6.620501898e-07 -1.980595696e-07 -2.907380881e-07 
0 0 -7.558461673e-07 0 -2.81330925e-07 -6.037921817e-07 -7.558461673e-07 -6.037921817e-07 -2.577838442e-07 
0 0 -7.302943589e-07 0 0 -5.609036776e-07 -7.302943589e-07 -5.609036776e-07 -1.344594495e-07 
0 0 -2.328117302e-07 0 -3.603776839e-07 0 -2.328117302e-07 0 0 
-2.013692098e-07 0 3.058738248e-07 0 0 0 3.058738248e-07 0 0 
0 0 3.116041429e-07 0 1.282759923e-07 0 3.116041429e-07 0 2.091105902e-07 
0 0 2.724396163e-07 0 0 0 2.724396163e-07 0 -2.098378921e-07 
-1.21345744e-07 0 0 0 -1.985363899e-07 0 0 0 0 
-1.534612874e-07 0 3.087389839e-07 0 0 0 3.087389839e-07 0 1.45977235e-07 
0 0 0 0 0 0 0 0 1.286264607e-07 
0 0 0 0 -1.341648765e-07 0 0 0 0 
-1.362801233e-07 0 2.891567206e-07 0 0 0 2.891567206e-07 0 0 
0 0 2.920218796e-07 0 0 0 2.920218796e-07 0 0 
-8.190371828e-07 -1.202775045e-07 0 -1.202775045e-07 -4.694282177e-07 -2.783794556e-07 0 -2.783794556e-07 4.175338057e-07 
4.160293992e-07 1.784947466e-07 1.863157253e-07 1.784947466e-07 1.645820366e-07 -3.271969967e-07 1.863157253e-07 -3.271969967e-07 0 
-1.693305358e-07 0 0 0 -1.968127803e-07 -2.776968764e-07 0 -2.776968764e-07 -3.598011309e-07 
1.320484693e-07 -1.370754699e-07 -1.247233448e-07 -1.370754699e-07 0 1.811210721e-07 -1.247233448e-07 1.811210721e-07 -2.815919023e-07 
-2.015038918e-07 0 0 0 -1.524230906e-07 -3.027882261e-07 0 -3.027882261e-07 1.774073074e-07 
1.233494317e-07 0 1.373578729e-07 0 0 -3.024469365e-07 1.373578729e-07 -3.024469365e-07 -2.112601609e-07 
-4.941838593e-07 0 0 0 -3.33120499e-07 -2.78038166e-07 0 -2.78038166e-07 0 
-3.434943567e-07 -1.286764872e-07 0 -1.286764872e-07 -2.029353711e-07 0 0 0 0 
2.740389343e-07 0 0 0 0 0 0 0 -1.721555466e-07 
0 0 0 0 0 0 0 0 -3.206965166e-07 
-3.140148153e-07 1.600052329e-07 -1.727641313e-07 1.600052329e-07 -2.643362192e-07 0 -1.727641313e-07 0 2.070404836e-07 
0 -1.578123078e-07 2.986571538e-07 -1.578123078e-07 0 2.185706547e-07 2.986571538e-07 2.185706547e-07 3.517675767e-07 
0 0 0 0 1.412400182e-07 0 0 0 4.6037848e-07 
0 0 2.418679611e-07 0 0 0 2.418679611e-07 0 1.781941225e-07 
-1.198563274e-07 0 0 0 -1.301393614e-07 0 0 0 2.794040302e-07 
0 0 1.686368668e-07 0 0 0 1.686368668e-07 0 4.060730284e-07 
0 0 0 0 0 0 0 0 3.337094818e-07 
-2.063495663e-07 0 0 0 -1.687020544e-07 0 0 0 1.926173031e-07 
0 0 2.702625574e-07 0 0 1.633869271e-07 2.702625574e-07 1.633869271e-07 2.649808496e-07 
0 0 1.402422704e-07 0 0 0 1.402422704e-07 0 3.192863013e-07 
-9.295711544e-07 1.328113314e-07 0 1.328113314e-07 -4.33029088e-07 0 0 0 -4.240020347e-07 
2.850950821e-07 0 0 0 0 1.692998563e-07 0 1.692998563e-07 -7.244299117e-07 
0 0 0 0 0 1.850512187e-07 0 1.850512187e-07 -8.372954217e-07 
4.865540896e-07 0 0 0 2.675151068e-07 -1.2401117e-07 0 -1.2401117e-07 -5.373998222e-07 
-3.222380361e-07 0 0 0 -1.78699947e-07 0 0 0 -5.742159732e-07 
1.520863931e-07 0 0 0 0 1.771755375e-07 0 1.771755375e-07 -7.808626667e-07 
-4.552467251e-07 0 0 0 -2.56309934e-07 0 0 0 -6.306487282e-07 
-2.215085324e-07 0 0 0 0 0 0 0 -4.807009284e-07 
3.858245859e-07 0 0 0 1.715721504e-07 0 0 0 -6.309148669e-07 
2.528158969e-07 0 0 0 0 0 0 0 -6.873476219e-07 
0 0 -1.978251354e-07 0 -2.462668249e-07 0 -1.978251354e-07 0 1.793070152e-07 
-2.949621814e-07 0 2.647057935e-07 0 0 0 2.647057935e-07 0 0 
-2.104841831e-07 0 2.596587957e-07 0 0 0 2.596587957e-07 0 2.213587809e-07 
-1.198908571e-07 0 2.29046223e-07 0 1.591889964e-07 0 2.29046223e-07 0 -2.030104352e-07 
0 0 0 0 -1.661670681e-07 0 0 0 1.381389664e-07 
-2.527231823e-07 0 2.621822946e-07 0 0 0 2.621822946e-07 0 1.591648493e-07 
0 0 0 0 0 0 0 0 2.003328981e-07 
0 0 0 0 0 0 0 0 0 
-2.074265193e-07 0 2.468760083e-07 0 0 0 2.468760083e-07 0 0 
-1.651875201e-07 0 2.443525094e-07 0 1.257245454e-07 0 2.443525094e-07 0 0 
-1.661707007e-07 -2.37915076e-07 -1.349772704e-07 -2.37915076e-07 -2.916370482e-07 1.564051442e-07 -1.349772704e-07 1.564051442e-07 -5.476921681e-07 
-1.742588302e-07 0 0 0 0 0 0 0 -3.585006783e-07 
2.638617783e-07 1.466034332e-07 0 1.466034332e-07 0 0 0 0 -2.348494746e-07 
7.723071366e-07 3.592254431e-07 0 3.592254431e-07 5.665161351e-07 0 0 0 -1.62475126e-07 
-1.702147655e-07 0 0 0 -1.722362555e-07 0 0 0 -4.530964232e-07 
0 1.215395509e-07 0 1.215395509e-07 0 0 0 0 -2.966750765e-07 
0 0 0 0 -1.565326709e-07 0 0 0 -3.912708214e-07 
3.030682179e-07 0 0 0 1.374395434e-07 0 0 0 -3.550836471e-07 
2.990241532e-07 2.278505558e-07 0 2.278505558e-07 2.568403361e-07 0 0 0 -2.604879022e-07 
5.180844574e-07 2.529144382e-07 0 2.529144382e-07 2.725439207e-07 0 0 0 -1.986623003e-07 
1.023998879e-06 3.510069108e-07 3.039261976e-07 3.510069108e-07 1.176709966e-06 5.369771727e-07 3.039261976e-07 5.369771727e-07 0 
1.03282337e-06 2.185477728e-07 3.063514098e-07 2.185477728e-07 2.559916889e-07 0 3.063514098e-07 0 0 
-1.481355631e-06 -1.40146901e-07 2.528887691e-07 -1.40146901e-07 -5.154175137e-07 0 2.528887691e-07 0 -9.615862353e-07 
-1.52732386e-07 -3.465189399e-07 -1.006781282e-06 -3.465189399e-07 -1.09058998e-06 -7.573055147e-07 -1.006781282e-06 -7.573055147e-07 -6.990598916e-07 
1.028411124e-06 2.847773418e-07 3.051388037e-07 2.847773418e-07 7.163508277e-07 3.110356658e-07 3.051388037e-07 3.110356658e-07 0 
-2.242661307e-07 0 2.796200895e-07 0 -1.297129124e-07 0 2.796200895e-07 0 -4.467333869e-07 
-2.286783763e-07 0 2.784074833e-07 0 3.306462264e-07 3.207219768e-07 2.784074833e-07 3.207219768e-07 -4.490495482e-07 
4.356332464e-07 0 -3.514275423e-07 0 0 0 -3.514275423e-07 0 -3.177863764e-07 
4.40045492e-07 0 -3.502149362e-07 0 -4.172991456e-07 -3.361056779e-07 -3.502149362e-07 -3.361056779e-07 -3.15470215e-07 
-8.170440086e-07 -2.433329204e-07 -3.769462566e-07 -2.433329204e-07 -8.030037469e-07 -3.264193669e-07 -3.769462566e-07 -3.264193669e-07 -8.303230634e-07 
0 -1.28329915e-07 -2.294743645e-07 -1.28329915e-07 0 3.735306099e-07 -2.294743645e-07 3.735306099e-07 -4.584710576e-07 
0 1.466934463e-07 2.400110991e-07 1.466934463e-07 1.868303485e-07 -2.017336184e-07 2.400110991e-07 -2.017336184e-07 -3.344777052e-07 
0 0 2.732990587e-07 0 -1.356373494e-07 -1.456050088e-07 2.732990587e-07 -1.456050088e-07 -2.718444022e-07 
0 0 0 0 0 0 0 0 -2.19818348e-07 
0 0 0 0 0 0 0 0 -3.964743814e-07 
0 0 2.566550789e-07 0 0 -1.736693136e-07 2.566550789e-07 -1.736693136e-07 -3.031610537e-07 
0 0 0 0 0 0 0 0 -3.651577299e-07 
0 0 0 0 0 1.594937313e-07 0 1.594937313e-07 -3.391447028e-07 
0 0 1.593631776e-07 0 0 -1.281383828e-07 1.593631776e-07 -1.281383828e-07 -2.771480266e-07 
0 0 1.760071574e-07 0 0 0 1.760071574e-07 0 -2.458313751e-07 
-6.726019792e-07 0 0 0 -2.860736022e-07 0 0 0 -3.19493332e-07 
1.863767469e-07 0 1.217057129e-07 0 0 1.949372265e-07 1.217057129e-07 1.949372265e-07 -8.249258385e-07 
0 0 0 0 0 2.375070281e-07 0 2.375070281e-07 -9.0884987e-07 
4.766339769e-07 0 0 0 2.712442922e-07 -1.635097009e-07 0 -1.635097009e-07 -5.871896307e-07 
-2.431126162e-07 0 0 0 -1.401869212e-07 0 0 0 -5.722095853e-07 
0 0 0 0 0 2.162221273e-07 0 2.162221273e-07 -8.668878542e-07 
-3.529294913e-07 0 0 0 -1.942010611e-07 0 0 0 -6.14171601e-07 
0 0 0 0 0 0 0 0 -4.533414814e-07 
3.315053619e-07 0 0 0 1.38472026e-07 0 0 0 -7.060577346e-07 
2.216884867e-07 0 0 0 0 0 0 0 -7.480197503e-07 
-1.066090348e-06 1.327502809e-07 0 1.327502809e-07 -4.999368727e-07 1.550432077e-07 0 1.550432077e-07 -2.766491557e-07 
0 0 0 0 0 1.500203667e-07 0 1.500203667e-07 -7.104593065e-07 
3.034468297e-07 0 0 0 0 0 0 0 -5.525434445e-07 
5.721496268e-07 0 0 0 2.885283969e-07 0 0 0 -3.409063965e-07 
-5.254110042e-07 0 0 0 -2.748152407e-07 1.525317872e-07 0 1.525317872e-07 -4.935542311e-07 
1.593575845e-07 0 0 0 0 1.205859421e-07 0 1.205859421e-07 -6.315013755e-07 
-3.81321759e-07 0 0 0 -2.077391186e-07 1.230973627e-07 0 1.230973627e-07 -4.145963001e-07 
-2.469703605e-07 0 0 0 0 0 0 0 -3.087777761e-07 
2.937089831e-07 0 0 0 1.194173941e-07 0 0 0 -5.256828515e-07 
4.377982282e-07 0 0 0 1.864935161e-07 0 0 0 -4.467249205e-07 
-2.972430769e-07 0 0 0 -2.091063407e-07 -3.504624544e-07 0 -3.504624544e-07 2.11090223e-07 
1.61392257e-07 0 1.915469141e-07 0 0 -3.454380052e-07 1.915469141e-07 -3.454380052e-07 0 
0 0 1.29513009e-07 0 0 -3.697662608e-07 1.29513009e-07 -3.697662608e-07 0 
1.445987651e-07 0 0 0 0 2.427079867e-07 0 2.427079867e-07 0 
0 0 0 0 0 -3.479502298e-07 0 -3.479502298e-07 0 
0 0 1.605299615e-07 0 0 -3.57602133e-07 1.605299615e-07 -3.57602133e-07 0 
-1.808426228e-07 0 0 0 -1.348998445e-07 -3.601143576e-07 0 -3.601143576e-07 0 
0 0 0 0 0 0 0 0 0 
1.529955111e-07 0 0 0 0 0 0 0 0 
0 0 0 0 0 0 0 0 0 
1.214349799e-06 0 0 0 3.53177272e-07 -1.527953269e-07 0 -1.527953269e-07 1.676980018e-07 
1.992680571e-07 0 0 0 0 0 0 0 8.358746947e-07 
-7.639517451e-07 0 0 0 -4.065713034e-07 -1.743364647e-07 0 -1.743364647e-07 4.690331468e-07 
-4.365941656e-07 0 0 0 0 0 0 0 5.141409869e-07 
7.068089282e-07 0 0 0 1.962128306e-07 -1.256663182e-07 0 -1.256663182e-07 5.017863482e-07 
-2.82341844e-07 0 0 0 -1.836614571e-07 -1.364368871e-07 0 -1.364368871e-07 6.524539207e-07 
2.251990271e-07 0 0 0 0 -1.635658958e-07 0 -1.635658958e-07 3.183655743e-07 
3.888778169e-07 0 0 0 1.295017397e-07 0 0 0 3.409194943e-07 
0 0 0 0 0 0 0 0 6.750078408e-07 
-6.002729554e-07 0 0 0 -2.503725479e-07 0 0 0 4.915870668e-07 
0 -1.455992623e-07 -2.273518828e-07 -1.455992623e-07 0 3.192228855e-07 -2.273518828e-07 3.192228855e-07 -5.314841471e-07 
0 1.801004722e-07 2.056471412e-07 1.801004722e-07 2.175534973e-07 -2.097497384e-07 2.056471412e-07 -2.097497384e-07 -4.06743143e-07 
0 0 2.607957439e-07 0 -1.37778229e-07 0 2.607957439e-07 0 -3.45822131e-07 
0 0 0 0 0 0 0 0 -3.216955703e-07 
0 0 0 0 0 0 0 0 -4.691136451e-07 
0 0 2.332214425e-07 0 0 -1.578231413e-07 2.332214425e-07 -1.578231413e-07 -3.76282637e-07 
0 0 0 0 0 0 0 0 -4.386531391e-07 
0 0 0 0 0 1.318332372e-07 0 1.318332372e-07 -4.265898587e-07 
0 0 1.43676185e-07 0 0 -1.326530747e-07 1.43676185e-07 -1.326530747e-07 -3.642193567e-07 
0 0 1.712504863e-07 0 -1.205718974e-07 0 1.712504863e-07 0 -3.337588507e-07 
0 1.349333237e-07 -1.639138853e-07 1.349333237e-07 -2.878038887e-07 0 -1.639138853e-07 0 2.235615785e-07 
0 0 1.861820493e-07 0 2.812197684e-07 0 1.861820493e-07 0 2.957283207e-07 
-1.927907803e-07 0 1.910770182e-07 0 -2.077565975e-07 0 1.910770182e-07 0 2.10204985e-07 
0 0 0 0 0 0 0 0 5.611772143e-07 
0 0 0 0 0 0 0 0 2.596449496e-07 
0 0 1.886295338e-07 0 0 0 1.886295338e-07 0 2.529666529e-07 
-1.481211735e-07 0 0 0 -2.477802431e-07 0 0 0 2.168832818e-07 
0 0 0 0 0 0 0 0 3.923693964e-07 
0 0 0 0 1.860189769e-07 0 0 0 4.284527675e-07 
0 0 0 0 0 0 0 0 3.856910997e-07 
-1.065242281e-06 1.57162371e-07 0 1.57162371e-07 -4.982828073e-07 0 0 0 -4.739503716e-07 
3.391746616e-07 0 0 0 0 1.466201865e-07 0 1.466201865e-07 -6.420168792e-07 
0 0 0 0 0 1.594396563e-07 0 1.594396563e-07 -7.934918134e-07 
5.795673639e-07 0 0 0 3.067187533e-07 0 0 0 -4.374745736e-07 
-3.630338099e-07 0 0 0 -1.930682051e-07 0 0 0 -5.579836254e-07 
1.62558796e-07 0 0 0 0 1.530299214e-07 0 1.530299214e-07 -7.177543463e-07 
-5.396496755e-07 0 0 0 -2.979710967e-07 0 0 0 -6.337210925e-07 
-2.428374587e-07 0 0 0 0 0 0 0 -4.557124726e-07 
4.593710127e-07 0 0 0 2.094325752e-07 0 0 0 -5.397457264e-07 
2.827551471e-07 0 0 0 0 0 0 0 -6.154831935e-07 
-2.439848972e-07 1.540733883e-07 -1.751192197e-07 1.540733883e-07 -4.71276171e-07 0 -1.751192197e-07 0 0 
1.198603158e-07 0 2.21936499e-07 0 3.437386439e-07 0 2.21936499e-07 0 2.76974482e-07 
-1.778148792e-07 0 2.325238119e-07 0 -2.907429633e-07 0 2.325238119e-07 0 1.58256789e-07 
2.198567451e-07 0 0 0 3.100530073e-07 0 0 0 6.251577221e-07 
0 0 0 0 0 0 0 0 1.732963705e-07 
0 0 2.272301555e-07 0 0 0 2.272301555e-07 0 2.176156355e-07 
-2.108998882e-07 0 0 0 -3.810095671e-07 0 0 0 0 
0 0 0 0 0 0 0 0 3.473879906e-07 
1.698585304e-07 0 1.236708581e-07 0 3.268958256e-07 0 1.236708581e-07 0 4.510661021e-07 
0 0 1.289645145e-07 0 0 0 1.289645145e-07 0 3.917072556e-07 
3.667830417e-07 1.273386295e-07 -2.420161027e-07 1.273386295e-07 0 -2.772850231e-07 -2.420161027e-07 -2.772850231e-07 -2.063432735e-07 
2.935469057e-07 0 0 0 0 -2.062562843e-07 0 -2.062562843e-07 -1.933079292e-07 
-1.176800841e-06 -1.557235432e-07 0 -1.557235432e-07 -5.604763467e-07 -1.400258294e-07 0 -1.400258294e-07 3.601939812e-07 
-2.555957497e-07 0 3.925460234e-07 0 0 3.048115205e-07 3.925460234e-07 3.048115205e-07 -3.154498675e-07 
3.301649737e-07 0 -1.699320501e-07 0 0 -2.417706537e-07 -1.699320501e-07 -2.417706537e-07 -1.998256014e-07 
-4.416269679e-07 0 0 0 -3.026641081e-07 -1.731410569e-07 0 -1.731410569e-07 0 
-4.050088999e-07 0 -1.224003414e-07 0 -2.809156755e-07 -2.086554262e-07 -1.224003414e-07 -2.086554262e-07 0 
0 0 0 0 0 0 0 0 -2.608965705e-07 
0 0 1.47349013e-07 0 0 0 1.47349013e-07 0 -2.543788983e-07 
-7.161982956e-07 0 1.948807217e-07 0 -2.437365127e-07 0 1.948807217e-07 0 0 
-7.903237502e-07 2.212527527e-07 0 2.212527527e-07 -5.042316603e-07 1.629877601e-07 0 1.629877601e-07 -2.086740338e-07 
0 0 0 0 0 -1.607723727e-07 0 -1.607723727e-07 -6.513491177e-07 
4.996145848e-07 0 0 0 2.728057116e-07 -1.219541067e-07 0 -1.219541067e-07 -5.711430246e-07 
6.529661123e-07 -1.747873455e-07 0 -1.747873455e-07 4.456263845e-07 0 0 0 5.831154216e-07 
-3.747069571e-07 0 0 0 -2.012942732e-07 0 0 0 -4.300115757e-07 
2.702622104e-07 0 0 0 1.872244128e-07 -1.413632397e-07 0 -1.413632397e-07 -6.112460711e-07 
-1.453545827e-07 0 0 0 0 0 0 0 -3.899085292e-07 
0 0 0 0 0 0 0 0 1.872206939e-07 
3.469379741e-07 0 0 0 2.736347493e-07 -1.382112441e-07 0 -1.382112441e-07 0 
5.762903486e-07 0 0 0 3.592160481e-07 0 0 0 0 
1.930985094e-07 0 0 0 1.236238185e-07 -1.318474519e-07 0 -1.318474519e-07 -7.078524151e-07 
0 0 0 0 1.306273935e-07 -1.827924498e-07 0 -1.827924498e-07 -6.417386813e-07 
0 0 0 0 0 1.906940885e-07 0 1.906940885e-07 1.222266104e-07 
-4.436028328e-07 0 0 0 -2.686602621e-07 2.077265729e-07 0 2.077265729e-07 -1.04686648e-06 
0 0 0 0 1.27125606e-07 -1.573199508e-07 0 -1.573199508e-07 -6.747955482e-07 
0 0 0 0 0 0 0 0 -2.597560354e-07 
0 0 0 0 0 0 0 0 -2.928129024e-07 
-1.252521617e-07 0 0 0 0 0 0 0 -8.773594478e-07 
-1.998212442e-07 0 0 0 0 0 0 0 -8.443025809e-07 
-2.706808923e-07 0 0 0 -1.812272867e-07 1.992103307e-07 0 1.992103307e-07 -4.62319935e-07 
1.844764524e-07 0 0 0 0 -1.339721596e-07 0 -1.339721596e-07 -7.28163942e-07 
0 0 -2.924656082e-07 0 0 0 -2.924656082e-07 0 0 
0 0 1.316481425e-07 0 -1.770040123e-07 1.664358653e-07 1.316481425e-07 1.664358653e-07 0 
-2.202086387e-07 0 0 0 0 -1.488874734e-07 0 -1.488874734e-07 1.456467438e-07 
0 0 -1.57381269e-07 0 0 0 -1.57381269e-07 0 -3.533702884e-07 
0 0 0 0 0 0 0 0 0 
0 0 0 0 0 0 0 0 -3.229278198e-07 
0 0 0 0 0 -1.414298165e-07 0 -1.414298165e-07 -2.912585991e-07 
0 0 0 0 0 0 0 0 0 
-1.635608719e-07 0 0 0 0 0 0 0 0 
6.644131881e-07 0 0 0 2.767396466e-07 2.032892716e-07 0 2.032892716e-07 4.58447739e-07 
-3.855060046e-07 0 0 0 -1.727166103e-07 0 0 0 -1.995147778e-07 
-1.582793087e-07 0 0 0 0 -1.440033628e-07 0 -1.440033628e-07 -8.82995381e-07 
3.571678886e-07 0 0 0 0 2.086844804e-07 0 2.086844804e-07 -7.18699855e-07 
1.394535917e-07 0 0 0 0 0 0 0 1.294664806e-07 
-2.718926567e-07 0 0 0 0 0 0 0 -5.412550794e-07 
2.530669397e-07 0 0 0 0 0 0 0 -2.12273821e-07 
5.107905383e-07 0 0 0 1.891862457e-07 2.05986876e-07 0 2.05986876e-07 -1.30126058e-07 
0 0 0 0 0 0 0 0 -4.591073164e-07 
0 0 0 0 0 0 0 0 -8.00847618e-07 
1.27993765e-07 0 0 0 0 0 0 0 5.784577019e-07 
0 0 0 0 0 0 0 0 6.004824369e-07 
0 0 1.332144198e-07 0 0 0 1.332144198e-07 0 1.525219316e-07 
2.264073852e-07 0 -1.6164632e-07 0 1.594408231e-07 0 -1.6164632e-07 0 3.353739523e-07 
0 0 0 0 0 0 0 0 5.894700694e-07 
0 0 0 0 0 0 0 0 3.765021843e-07 
0 0 0 0 0 0 0 0 3.654898168e-07 
1.772005751e-07 0 -1.278233878e-07 0 0 0 -1.278233878e-07 0 4.569158271e-07 
1.311572093e-07 0 -1.291996491e-07 0 0 0 -1.291996491e-07 0 4.679281946e-07 
0 0 0 0 0 0 0 0 2.43947942e-07 
0 0 1.19774638e-07 0 0 0 1.19774638e-07 0 1.361536806e-07 
0 0 0 0 0 0 0 0 6.300006306e-07 
0 0 0 0 0 0 0 0 5.85857632e-07 
-1.557512627e-07 0 2.265398243e-07 0 0 0 2.265398243e-07 0 4.042191694e-07 
0 0 0 0 0 0 0 0 3.830771556e-07 
0 0 0 0 0 0 0 0 6.079291313e-07 
0 0 0 0 0 0 0 0 3.610056563e-07 
0 0 1.731572312e-07 0 0 0 1.731572312e-07 0 2.70186425e-07 
0 0 0 0 0 0 0 0 5.171099e-07 
0 0 0 0 0 0 0 0 4.950384007e-07 
0 0 1.723371252e-07 0 0 0 1.723371252e-07 0 2.203233263e-07 
0 0 1.920123928e-07 0 0 0 1.920123928e-07 0 3.110708679e-07 
0 0 -1.436634364e-07 0 0 0 -1.436634364e-07 0 4.917816697e-07 
0 0 -1.659726286e-07 0 -1.954658661e-07 0 -1.659726286e-07 0 1.840064159e-07 
0 0 1.82174759e-07 0 0 0 1.82174759e-07 0 2.656970971e-07 
0 0 0 0 0 0 0 0 4.014262688e-07 
0 0 0 0 0 0 0 0 3.56052498e-07 
0 0 0 0 0 0 0 0 2.021648711e-07 
0 0 0 0 0 0 0 0 2.475386419e-07 
0 0 -1.548180325e-07 0 0 0 -1.548180325e-07 0 3.378940428e-07 
0 0 -1.206742796e-07 0 0 0 -1.206742796e-07 0 4.992994518e-07 
-1.225214429e-07 0 1.623215583e-07 0 0 0 1.623215583e-07 0 2.222602971e-07 
0 0 1.558971839e-07 0 0 0 1.558971839e-07 0 2.0592885e-07 
0 0 2.207790403e-07 0 1.992427648e-07 0 2.207790403e-07 0 5.057090795e-07 
0 0 0 0 0 0 0 0 3.607798745e-07 
0 0 1.591093711e-07 0 0 0 1.591093711e-07 0 2.140945735e-07 
0 0 0 0 0 0 0 0 3.526141509e-07 
0 0 0 0 1.20856646e-07 0 0 0 5.025042657e-07 
0 0 1.915502993e-07 0 0 0 1.915502993e-07 0 3.639846883e-07 
0 0 1.883381121e-07 0 0 0 1.883381121e-07 0 3.558189647e-07 
-3.10343441e-07 0 0 0 -2.071894128e-07 -3.304860248e-07 0 -3.304860248e-07 2.0588829e-07 
2.838659106e-07 0 0 0 2.211838828e-07 2.617955463e-07 0 2.617955463e-07 0 
3.349361104e-07 0 -2.094626359e-07 0 2.368161507e-07 6.05019922e-07 -2.094626359e-07 6.05019922e-07 -1.357149886e-07 
-2.011900344e-07 0 0 0 0 2.687672308e-07 0 2.687672308e-07 1.855114471e-07 
0 0 0 0 0 0 0 0 1.61701126e-07 
3.094010105e-07 0 0 0 2.290000167e-07 4.334077341e-07 0 4.334077341e-07 0 
0 0 0 0 0 1.372669486e-07 0 1.372669486e-07 0 
-2.557667377e-07 0 0 0 -1.272440766e-07 0 0 0 1.956998685e-07 
0 0 0 0 0 2.652813886e-07 0 2.652813886e-07 1.515127046e-07 
0 0 -1.574641376e-07 0 0 4.368935764e-07 -1.574641376e-07 4.368935764e-07 0 
3.151818209e-07 1.514438328e-07 7.109661025e-07 1.514438328e-07 3.257474422e-07 7.539360111e-07 7.109661025e-07 7.539360111e-07 0 
-3.061696554e-07 -1.639116855e-07 -4.581838959e-07 -1.639116855e-07 0 1.748727173e-07 -4.581838959e-07 1.748727173e-07 -2.207560187e-07 
-2.815934842e-07 0 0 0 -2.122937521e-07 -3.401280226e-07 0 -3.401280226e-07 2.067983703e-07 
2.879527521e-07 0 -3.150599769e-07 0 0 -4.525758484e-07 -3.150599769e-07 -4.525758484e-07 0 
0 0 1.263911033e-07 0 0 4.644043642e-07 1.263911033e-07 4.644043642e-07 0 
-2.938815698e-07 0 -2.201376109e-07 0 -1.605395929e-07 0 -2.201376109e-07 0 0 
0 0 3.644373883e-07 0 0 2.069039942e-07 3.644373883e-07 2.069039942e-07 0 
3.015672865e-07 0 1.979530628e-07 0 2.163279309e-07 1.506800813e-07 1.979530628e-07 1.506800813e-07 0 
0 0 -3.866219364e-07 0 0 -1.388515655e-07 -3.866219364e-07 -1.388515655e-07 0 
0 0 -1.485756514e-07 0 0 -3.963519355e-07 -1.485756514e-07 -3.963519355e-07 1.573306391e-07 
-3.142703027e-07 0 0 0 0 6.74948941e-07 0 6.74948941e-07 -2.797571439e-07 
0 0 0 0 0 -3.168190849e-07 0 -3.168190849e-07 4.732635473e-07 
3.058652209e-07 0 0 0 0 -3.56600584e-07 0 -3.56600584e-07 4.192585442e-07 
0 0 0 0 0 2.767451424e-07 0 2.767451424e-07 3.141807306e-07 
-2.093053362e-07 0 0 0 0 1.790649281e-07 0 1.790649281e-07 0 
0 0 0 0 0 -3.367098344e-07 0 -3.367098344e-07 4.462610457e-07 
0 0 0 0 0 1.591741785e-07 0 1.591741785e-07 0 
-1.283294862e-07 0 0 0 0 4.758470417e-07 0 4.758470417e-07 0 
0 0 0 0 0 0 0 0 3.93722139e-07 
1.817382757e-07 0 0 0 0 0 0 0 3.667196374e-07 
2.525126641e-07 0 0 0 0 -3.5990328e-07 0 -3.5990328e-07 3.935563281e-07 
2.034046271e-07 0 2.118593406e-07 0 0 -3.061363692e-07 2.118593406e-07 -3.061363692e-07 6.022160308e-07 
-2.994067454e-07 0 7.039184793e-07 0 0 7.518589083e-07 7.039184793e-07 7.518589083e-07 -2.625691283e-07 
0 0 -5.858641348e-07 0 -1.819603311e-07 -5.635413848e-07 -5.858641348e-07 -5.635413848e-07 -2.630424785e-07 
2.279586456e-07 0 0 0 0 -3.330198246e-07 0 -3.330198246e-07 4.978861794e-07 
0 0 4.578889099e-07 0 0 2.228612695e-07 4.578889099e-07 2.228612695e-07 1.698234512e-07 
0 0 3.464085287e-07 0 0 1.959778142e-07 3.464085287e-07 1.959778142e-07 0 
0 0 -2.984827784e-07 0 0 -4.617223324e-07 -2.984827784e-07 -4.617223324e-07 0 
0 0 -1.870023971e-07 0 0 -4.34838877e-07 -1.870023971e-07 -4.34838877e-07 1.695867761e-07 
-2.011973113e-07 0 0 0 0 0 0 0 -2.628058034e-07 
1.335523439e-07 0 -1.543134935e-07 0 2.037201449e-07 0 -1.543134935e-07 0 0 
3.160512588e-07 0 -1.554805019e-07 0 0 0 -1.554805019e-07 0 0 
-3.241226487e-07 0 1.607029148e-07 0 -3.534051252e-07 0 1.607029148e-07 0 -8.052201103e-07 
2.555124795e-07 0 -1.358531839e-07 0 2.93554324e-07 0 -1.358531839e-07 0 -4.67081214e-07 
2.248018014e-07 0 -1.548969977e-07 0 1.562288056e-07 0 -1.548969977e-07 0 0 
0 0 0 0 -1.223338295e-07 0 0 0 -4.321105126e-07 
0 0 0 0 0 0 0 0 -4.53308742e-07 
1.945324117e-07 0 -1.450833387e-07 0 2.486372345e-07 0 -1.450833387e-07 0 -2.842392938e-07 
2.857818692e-07 0 -1.456668429e-07 0 2.011458951e-07 0 -1.456668429e-07 0 -2.630410645e-07 
0 0 0 0 0 0 0 0 -6.361506621e-07 
-3.415366116e-07 0 1.805100578e-07 0 -3.273372703e-07 0 1.805100578e-07 0 -8.027231184e-07 
2.964398996e-07 0 -1.900677927e-07 0 1.277853119e-07 0 -1.900677927e-07 0 0 
1.757843656e-07 0 -1.70673224e-07 0 1.826079553e-07 0 -1.70673224e-07 0 0 
-4.051826368e-07 0 2.121634045e-07 0 0 0 2.121634045e-07 0 -3.452115042e-07 
0 0 0 0 0 0 0 0 -4.308598219e-07 
2.361121326e-07 0 -1.803705084e-07 0 1.551966336e-07 0 -1.803705084e-07 0 0 
0 0 0 0 0 0 0 0 -4.488513609e-07 
-3.733596242e-07 0 1.963367311e-07 0 -2.107423778e-07 0 1.963367311e-07 0 -5.739673113e-07 
0 0 0 0 0 0 0 0 -2.021040148e-07 
0 0 0 0 0 0 0 0 -2.200955537e-07 
0 2.204964448e-07 0 2.204964448e-07 1.645863813e-07 -1.812133958e-07 0 -1.812133958e-07 -4.660619844e-07 
-2.282527173e-07 1.241436214e-07 2.561405077e-07 1.241436214e-07 0 -2.118695164e-07 2.561405077e-07 -2.118695164e-07 -5.214929551e-07 
0 -1.343803245e-07 0 -1.343803245e-07 0 1.747076582e-07 0 1.747076582e-07 -3.251384853e-07 
0 0 -1.503329712e-07 0 -1.945695118e-07 0 -1.503329712e-07 0 -6.408960742e-07 
0 1.723200331e-07 1.757523562e-07 1.723200331e-07 0 -1.965414561e-07 1.757523562e-07 -1.965414561e-07 -4.937774697e-07 
-1.239365078e-07 0 0 0 0 0 0 0 -4.233157202e-07 
0 0 0 0 0 0 0 0 -3.956002349e-07 
0 0 0 0 0 0 0 0 -5.534790293e-07 
0 0 0 0 -1.537832971e-07 0 0 0 -5.811945146e-07 
0 0 -1.340330831e-07 0 -1.269044608e-07 0 -1.340330831e-07 0 -4.830172798e-07 
0 0 -1.47897695e-07 0 0 1.213125137e-07 -1.47897695e-07 1.213125137e-07 -2.986143491e-07 
-1.925000471e-07 1.544531151e-07 2.789814169e-07 1.544531151e-07 -2.781596251e-07 -1.714511882e-07 2.789814169e-07 -1.714511882e-07 -5.603098341e-07 
0 1.703212354e-07 1.264045649e-07 1.703212354e-07 0 -1.26267984e-07 1.264045649e-07 -1.26267984e-07 -5.228877539e-07 
-1.475998653e-07 1.322940061e-07 1.87995099e-07 1.322940061e-07 4.254163776e-07 0 1.87995099e-07 0 -1.289480525e-07 
0 0 0 0 -1.568056349e-07 0 0 0 -4.294620916e-07 
-1.384481086e-07 1.623871753e-07 2.026929909e-07 1.623871753e-07 0 -1.488595861e-07 2.026929909e-07 -1.488595861e-07 -5.41598794e-07 
0 0 0 0 0 0 0 0 -4.107510515e-07 
0 0 0 0 1.949823664e-07 0 0 0 -2.137812008e-07 
-1.700499562e-07 1.433735606e-07 2.33488258e-07 1.433735606e-07 0 -1.307409406e-07 2.33488258e-07 -1.307409406e-07 -3.446289433e-07 
0 1.513076208e-07 1.57199832e-07 1.513076208e-07 2.525668732e-07 0 1.57199832e-07 0 -3.259179032e-07 
0 -1.571992402e-07 -2.097435127e-07 -1.571992402e-07 -3.08430028e-07 0 -2.097435127e-07 0 -2.500998849e-07 
0 2.411058397e-07 3.542367668e-07 2.411058397e-07 4.414466736e-07 -2.066892784e-07 3.542367668e-07 -2.066892784e-07 -3.138760093e-07 
1.88380194e-07 0 -2.377873321e-07 0 4.568434785e-07 0 -2.377873321e-07 0 0 
-4.421323772e-07 0 3.206452748e-07 0 -4.554082526e-07 0 3.206452748e-07 0 -4.368722467e-07 
0 0 0 0 0 0 0 0 -2.819879471e-07 
1.518707786e-07 0 0 0 4.49145076e-07 0 0 0 -1.906929223e-07 
0 0 -2.237654224e-07 0 0 0 -2.237654224e-07 0 -1.588048601e-07 
-1.964462486e-07 0 0 0 -3.819191403e-07 0 0 0 -3.434860658e-07 
-1.63385507e-07 0 3.374410208e-07 0 0 -1.213983333e-07 3.374410208e-07 -1.213983333e-07 -3.75374128e-07 
-1.268760916e-07 0 0 0 0 0 0 0 -2.52191041e-07 
-2.221735121e-07 0 5.465252647e-07 0 1.511582227e-07 1.317433887e-07 5.465252647e-07 1.317433887e-07 -5.029842054e-07 
1.42306176e-07 -1.226479063e-07 -1.788031832e-07 -1.226479063e-07 0 1.364331422e-07 -1.788031832e-07 1.364331422e-07 -1.538638271e-07 
0 -1.496329753e-07 -1.607343038e-07 -1.496329753e-07 -3.006575457e-07 1.582975977e-07 -1.607343038e-07 1.582975977e-07 -3.860897784e-07 
6.320565454e-07 0 -6.829812725e-07 0 4.461995693e-07 -4.785285243e-07 -6.829812725e-07 -4.785285243e-07 -1.401859959e-07 
0 0 1.838610407e-07 0 0 1.340882655e-07 1.838610407e-07 1.340882655e-07 -3.284240163e-07 
0 -1.361404408e-07 -1.697687435e-07 -1.361404408e-07 -1.904792656e-07 1.4736537e-07 -1.697687435e-07 1.4736537e-07 -2.699768027e-07 
-1.6860397e-07 0 1.928954804e-07 0 0 1.450204932e-07 1.928954804e-07 1.450204932e-07 -4.445369919e-07 
2.049415166e-07 0 0 0 2.98678896e-07 -1.733925678e-07 0 -1.733925678e-07 -3.215851007e-07 
3.871813607e-07 0 -4.308922278e-07 0 1.829492919e-07 -1.71047691e-07 -4.308922278e-07 -1.71047691e-07 -1.470249115e-07 
2.585110587e-07 0 -4.218577881e-07 0 0 -1.601154633e-07 -4.218577881e-07 -1.601154633e-07 -2.631378872e-07 
-4.941004513e-07 0 3.884454716e-07 0 -6.495807664e-07 -1.651458825e-07 3.884454716e-07 -1.651458825e-07 -7.962376209e-07 
5.399787494e-07 0 -2.826749129e-07 0 3.757923709e-07 0 -2.826749129e-07 0 1.388047217e-07 
-4.882590464e-07 0 3.488142686e-07 0 -5.355326072e-07 0 3.488142686e-07 0 -8.377646804e-07 
3.115731283e-07 2.061816907e-07 2.416397634e-07 2.061816907e-07 9.15074197e-07 -2.5017596e-07 2.416397634e-07 -2.5017596e-07 2.831992935e-07 
0 0 0 0 -1.368941978e-07 0 0 0 -3.287164496e-07 
0 0 0 0 0 0 0 0 -3.494799793e-07 
-4.911797488e-07 0 3.686298701e-07 0 -5.925566868e-07 0 3.686298701e-07 0 -8.170011506e-07 
0 0 3.150426175e-07 0 1.327467153e-07 -2.076609212e-07 3.150426175e-07 -2.076609212e-07 -2.565191637e-07 
4.257759389e-07 1.536338765e-07 0 1.536338765e-07 6.454332839e-07 -1.317856358e-07 0 -1.317856358e-07 2.110020076e-07 
0 0 2.95227016e-07 0 1.897707949e-07 -1.403017443e-07 2.95227016e-07 -1.403017443e-07 -2.772826934e-07 
1.96337392e-07 0 -2.323896585e-07 0 0 0 -2.323896585e-07 0 0 
-3.139038105e-07 0 5.954439439e-07 0 -1.591546359e-07 1.988269301e-07 5.954439439e-07 1.988269301e-07 -5.950522016e-07 
-1.24147199e-07 0 3.379521721e-07 0 0 0 3.379521721e-07 0 -5.557543919e-07 
4.62831921e-07 0 -6.750492972e-07 0 0 -3.703057284e-07 -6.750492972e-07 -3.703057284e-07 -3.63217381e-07 
0 0 1.815271427e-07 0 0 1.369248673e-07 1.815271427e-07 1.369248673e-07 -3.196642213e-07 
-2.190255047e-07 0 4.66698058e-07 0 0 0 4.66698058e-07 0 -5.754032967e-07 
0 0 0 0 0 0 0 0 -3.000153164e-07 
3.295846565e-07 0 -4.537194779e-07 0 0 -1.476414619e-07 -4.537194779e-07 -1.476414619e-07 -2.03746811e-07 
0 0 0 0 0 0 0 0 -4.791347913e-07 
1.69342361e-07 0 -1.685485626e-07 0 0 -2.099162566e-07 -1.685485626e-07 -2.099162566e-07 -4.594858864e-07 
2.336764519e-07 0 0 0 0 1.931657212e-07 0 1.931657212e-07 4.795409432e-07 
1.785877213e-07 0 -1.914775476e-07 0 1.345819593e-07 0 -1.914775476e-07 0 3.299366757e-07 
1.510267108e-07 0 -1.968195256e-07 0 0 0 -1.968195256e-07 0 2.714988863e-07 
-3.629988851e-07 0 5.180165056e-07 0 -1.471898856e-07 0 5.180165056e-07 0 -1.533368126e-07 
2.061320866e-07 0 -1.310734633e-07 0 0 0 -1.310734633e-07 0 4.047388095e-07 
1.64807216e-07 0 -1.941485366e-07 0 0 0 -1.941485366e-07 0 3.00717781e-07 
1.923515813e-07 0 -1.337444524e-07 0 0 0 -1.337444524e-07 0 3.755199148e-07 
0 0 2.236735633e-07 0 0 0 2.236735633e-07 0 1.631020653e-07 
0 0 1.63269479e-07 0 0 0 1.63269479e-07 0 0 
0 0 1.6059849e-07 0 0 0 1.6059849e-07 0 0 
0 0 -1.268321108e-07 0 0 -1.252863156e-07 -1.268321108e-07 -1.252863156e-07 2.124201202e-07 
0 0 0 0 0 -1.613344519e-07 0 -1.613344519e-07 2.785312642e-07 
0 0 0 0 0 0 0 0 3.816085969e-07 
0 0 0 0 0 0 0 0 5.339496366e-07 
0 0 0 0 0 -1.433103837e-07 0 -1.433103837e-07 2.454756922e-07 
0 0 0 0 0 0 0 0 3.300699305e-07 
0 0 0 0 0 0 0 0 2.970143586e-07 
0 0 -1.225940921e-07 0 0 -1.201718492e-07 -1.225940921e-07 -1.201718492e-07 3.731848784e-07 
0 0 0 0 0 -1.381959173e-07 0 -1.381959173e-07 4.062404504e-07 
0 0 0 0 0 0 0 0 4.577791167e-07 
2.384062407e-07 0 0 0 0 2.313630409e-07 0 2.313630409e-07 5.077511756e-07 
0 0 -2.200802741e-07 0 0 0 -2.200802741e-07 0 3.012022372e-07 
0 0 -2.032577098e-07 0 0 0 -2.032577098e-07 0 2.595452373e-07 
-3.297659816e-07 0 5.905263791e-07 0 -1.368829747e-07 0 5.905263791e-07 0 -1.427315036e-07 
1.703186862e-07 0 -1.52813696e-07 0 0 0 -1.52813696e-07 0 4.044767064e-07 
0 0 -2.116689919e-07 0 0 0 -2.116689919e-07 0 2.803737372e-07 
1.764431341e-07 0 -1.444024139e-07 0 0 0 -1.444024139e-07 0 3.836482065e-07 
0 0 2.524896306e-07 0 0 0 2.524896306e-07 0 1.82509836e-07 
0 0 1.852230525e-07 0 0 0 1.852230525e-07 0 0 
0 0 1.936343347e-07 0 0 0 1.936343347e-07 0 0 
0 0 -1.621387298e-07 0 0 -1.329944373e-07 -1.621387298e-07 -1.329944373e-07 1.84371384e-07 
0 0 0 0 1.33835862e-07 -1.850138902e-07 0 -1.850138902e-07 2.933750811e-07 
0 0 0 0 0 0 0 0 4.044075299e-07 
1.42516039e-07 0 -1.256083882e-07 0 0 -1.571108794e-07 -1.256083882e-07 -1.571108794e-07 5.951285857e-07 
0 0 -1.398590413e-07 0 0 -1.590041638e-07 -1.398590413e-07 -1.590041638e-07 2.388732326e-07 
0 0 0 0 0 0 0 0 3.488913055e-07 
0 0 0 0 0 0 0 0 2.943894569e-07 
0 0 -1.43873559e-07 0 0 -1.450526584e-07 -1.43873559e-07 -1.450526584e-07 3.897499848e-07 
0 0 -1.215938705e-07 0 0 -1.710623848e-07 -1.215938705e-07 -1.710623848e-07 4.442518334e-07 
0 0 0 0 0 0 0 0 4.997680578e-07 
-3.528952745e-07 0 0 0 -2.6234002e-07 -3.11308683e-07 0 -3.11308683e-07 3.682186395e-07 
4.150193483e-07 1.899849213e-07 6.238074764e-07 1.899849213e-07 4.124190619e-07 7.048224565e-07 6.238074764e-07 7.048224565e-07 0 
-3.120916159e-07 -1.947435898e-07 -4.355958447e-07 -1.947435898e-07 -1.195833164e-07 1.593495259e-07 -4.355958447e-07 1.593495259e-07 -3.030989648e-07 
2.484321699e-07 0 -2.607036121e-07 0 0 -4.026410413e-07 -2.607036121e-07 -4.026410413e-07 0 
0 0 3.273950671e-07 0 0 1.967568868e-07 3.273950671e-07 1.967568868e-07 1.727606987e-07 
0 0 0 0 1.464178728e-07 4.320859912e-07 0 4.320859912e-07 -1.628981035e-07 
-3.324934452e-07 -1.320922119e-07 -2.023065934e-07 -1.320922119e-07 -1.909616682e-07 0 -2.023065934e-07 0 0 
0 0 0 0 0 -3.569748621e-07 0 -3.569748621e-07 1.860933894e-07 
3.317257591e-07 1.401063165e-07 1.815519321e-07 1.401063165e-07 2.418315521e-07 1.510907076e-07 1.815519321e-07 1.510907076e-07 0 
0 0 -3.481497284e-07 0 0 -1.216457577e-07 -3.481497284e-07 -1.216457577e-07 -1.495654128e-07 
5.99953258e-07 0 -1.995848797e-07 0 3.901105456e-07 5.676233782e-07 -1.995848797e-07 5.676233782e-07 0 
-4.238708804e-07 0 0 0 -2.663966485e-07 -3.005206818e-07 0 -3.005206818e-07 3.519147391e-07 
2.236017081e-07 0 0 0 1.962682693e-07 2.436639676e-07 0 2.436639676e-07 0 
0 0 0 0 0 2.526557264e-07 0 2.526557264e-07 3.8380746e-07 
0 0 0 0 0 1.335513482e-07 0 1.335513482e-07 1.406506679e-07 
0 0 0 0 0 0 0 0 1.809464419e-07 
4.117774831e-07 0 0 0 2.931894075e-07 4.056436729e-07 0 4.056436729e-07 0 
2.44391052e-07 0 -1.563914447e-07 0 1.978897559e-07 4.101395523e-07 -1.563914447e-07 4.101395523e-07 1.565970284e-07 
-2.675210172e-07 0 0 0 -1.303638412e-07 0 0 0 3.678610995e-07 
0 0 0 0 0 2.48159847e-07 0 2.48159847e-07 1.968928023e-07 
-4.719604537e-07 0 6.195211131e-07 0 0 7.03027688e-07 6.195211131e-07 7.03027688e-07 -3.98633123e-07 
4.111663672e-07 0 0 0 0 -3.355341576e-07 0 -3.355341576e-07 6.488188011e-07 
0 0 1.875320375e-07 0 0 -2.750563862e-07 1.875320375e-07 -2.750563862e-07 7.04116361e-07 
1.934395445e-07 0 -5.246401808e-07 0 0 -5.139641491e-07 -5.246401808e-07 -5.139641491e-07 -2.102543752e-07 
0 0 3.004086984e-07 0 0 1.837467652e-07 3.004086984e-07 1.837467652e-07 1.25092839e-07 
2.552162705e-07 0 0 0 0 -3.052952719e-07 0 -3.052952719e-07 6.764675811e-07 
-1.8634714e-07 0 4.035265753e-07 0 0 2.139856509e-07 4.035265753e-07 2.139856509e-07 1.52741619e-07 
-1.392604546e-07 0 0 0 0 0 0 0 -3.044437491e-07 
3.023029558e-07 0 -2.716719486e-07 0 0 -4.247491534e-07 -2.716719486e-07 -4.247491534e-07 2.192822129e-07 
1.463528591e-07 0 -1.685540716e-07 0 0 -3.945102677e-07 -1.685540716e-07 -3.945102677e-07 2.469309929e-07 
5.207630649e-07 0 0 0 1.601659296e-07 -3.335599816e-07 0 -3.335599816e-07 7.004768068e-07 
-4.706403489e-07 -1.21649286e-07 0 -1.21649286e-07 0 6.380804758e-07 0 6.380804758e-07 -4.104324124e-07 
-1.840983785e-07 0 0 0 -1.683528954e-07 -2.840993305e-07 0 -2.840993305e-07 5.862945469e-07 
0 0 0 0 0 2.642384094e-07 0 2.642384094e-07 4.138072545e-07 
0 0 0 0 0 1.522602471e-07 0 1.522602471e-07 1.450221972e-07 
-3.273693637e-07 0 0 0 -1.291321437e-07 1.769905726e-07 0 1.769905726e-07 0 
1.683323432e-07 0 0 0 0 -3.088296561e-07 0 -3.088296561e-07 6.433856769e-07 
2.160891387e-07 0 0 0 0 0 0 0 5.571420307e-07 
-2.796125682e-07 0 0 0 0 4.511594426e-07 0 4.511594426e-07 0 
-1.36341583e-07 0 0 0 0 0 0 0 5.000509007e-07 
-9.02110684e-07 2.322143472e-07 1.348679579e-07 2.322143472e-07 -5.559458571e-07 1.600046005e-07 1.348679579e-07 1.600046005e-07 -2.507890875e-07 
1.686208138e-07 0 0 0 1.524419352e-07 -1.907145464e-07 0 -1.907145464e-07 -5.652130443e-07 
4.870571869e-07 0 0 0 2.510546241e-07 -1.519925181e-07 0 -1.519925181e-07 -5.64036941e-07 
6.707190867e-07 -1.837640908e-07 0 -1.837640908e-07 4.633628472e-07 -1.429881293e-07 0 -1.429881293e-07 6.141813098e-07 
-3.667449351e-07 0 0 0 -2.01751961e-07 0 0 0 -4.080010659e-07 
3.278390003e-07 0 0 0 2.017482796e-07 -1.713535322e-07 0 -1.713535322e-07 -5.646249927e-07 
-2.075267486e-07 0 0 0 -1.524456165e-07 0 0 0 -4.074130142e-07 
0 0 0 0 0 0 0 0 1.816961112e-07 
4.196699503e-07 0 0 0 3.079023912e-07 -1.668513379e-07 0 -1.668513379e-07 0 
5.788881368e-07 0 0 0 3.572087356e-07 -1.474903237e-07 0 -1.474903237e-07 0 
1.982929887e-07 0 0 0 0 -1.606413339e-07 0 -1.606413339e-07 -6.935225189e-07 
1.460920408e-07 0 0 0 1.703202842e-07 -2.079454754e-07 0 -2.079454754e-07 -5.666081715e-07 
-1.769489397e-07 0 0 0 0 1.926179111e-07 0 1.926179111e-07 0 
-4.743237504e-07 0 0 0 -2.796170246e-07 2.163922327e-07 0 2.163922327e-07 -1.056976928e-06 
1.721925147e-07 0 0 0 1.392602568e-07 -1.842934047e-07 0 -1.842934047e-07 -6.300653452e-07 
0 0 0 0 0 0 0 0 -2.341159602e-07 
0 0 0 0 0 0 0 0 -2.975731339e-07 
-1.380153809e-07 0 0 0 0 0 0 0 -8.752497236e-07 
-1.641158548e-07 0 0 0 0 0 0 0 -8.117925499e-07 
-3.256363451e-07 0 0 0 -1.984200821e-07 2.045050719e-07 0 2.045050719e-07 -4.793003387e-07 
0 0 0 0 0 -1.586575366e-07 0 -1.586575366e-07 -7.784333805e-07 
0 0 -3.075970564e-07 0 0 0 -3.075970564e-07 0 0 
0 1.439742752e-07 1.515851345e-07 1.439742752e-07 -1.822338145e-07 1.59470428e-07 1.515851345e-07 1.59470428e-07 0 
-1.495542188e-07 0 0 0 0 -1.731723347e-07 0 -1.731723347e-07 1.93601995e-07 
0 0 -1.670319417e-07 0 0 0 -1.670319417e-07 0 -3.740420468e-07 
0 0 0 0 0 0 0 0 0 
0 0 0 0 0 0 0 0 -3.423681037e-07 
0 0 0 0 0 -1.659149357e-07 0 -1.659149357e-07 -2.924156927e-07 
0 0 0 0 0 0 0 0 0 
0 0 0 0 0 0 0 0 1.43649584e-07 
6.818341114e-07 0 0 0 2.78123574e-07 2.017838067e-07 0 2.017838067e-07 4.671021624e-07 
-2.978966134e-07 0 0 0 -1.283115763e-07 0 0 0 -1.486706352e-07 
-2.575383204e-07 0 0 0 0 -1.672413386e-07 0 -1.672413386e-07 -9.088146343e-07 
3.32828851e-07 0 0 0 0 2.207254029e-07 0 2.207254029e-07 -7.233903395e-07 
1.91968749e-07 0 0 0 0 0 0 0 1.592157636e-07 
-2.777174669e-07 0 0 0 0 0 0 0 -5.287426348e-07 
2.121478955e-07 0 0 0 0 0 0 0 -2.208562359e-07 
5.073314812e-07 0 0 0 1.827196621e-07 2.112546048e-07 0 2.112546048e-07 -1.281440885e-07 
0 0 0 0 0 0 0 0 -4.360304874e-07 
0 0 0 0 0 0 0 0 -8.161024869e-07 
1.605141629e-07 0 -2.6555246e-07 0 1.346279771e-07 0 -2.6555246e-07 0 0 
0 0 6.052465626e-07 0 0 1.507277116e-07 6.052465626e-07 1.507277116e-07 -3.884596686e-07 
0 0 3.856057062e-07 0 0 0 3.856057062e-07 0 -4.294874779e-07 
1.355703085e-07 0 -7.395808967e-07 0 -1.410126474e-07 -3.784860209e-07 -7.395808967e-07 -3.784860209e-07 -4.029332623e-07 
0 0 1.698470513e-07 0 0 0 1.698470513e-07 0 -2.083990281e-07 
0 0 4.954261344e-07 0 0 0 4.954261344e-07 0 -4.089735732e-07 
0 0 0 0 0 0 0 0 -2.289129327e-07 
1.480422357e-07 0 -5.025666784e-07 0 0 -1.476110528e-07 -5.025666784e-07 -1.476110528e-07 -2.156358249e-07 
0 0 0 0 -1.248942431e-07 0 0 0 -3.956964655e-07 
0 0 -1.769875952e-07 0 0 -2.030652298e-07 -1.769875952e-07 -2.030652298e-07 -4.162103701e-07 
-5.538417033e-07 -1.485582032e-07 3.848807023e-07 -1.485582032e-07 -7.97484412e-07 -2.351938335e-07 3.848807023e-07 -2.351938335e-07 -7.327353003e-07 
5.227087593e-07 1.527987352e-07 -3.152211844e-07 1.527987352e-07 3.966672717e-07 0 -3.152211844e-07 0 1.58937868e-07 
-4.654218491e-07 0 4.000179873e-07 0 -5.839454062e-07 0 4.000179873e-07 0 -7.592723584e-07 
4.823612675e-07 2.320764943e-07 2.721806589e-07 2.320764943e-07 1.108233736e-06 -2.702813306e-07 2.721806589e-07 -2.702813306e-07 4.030695338e-07 
0 0 0 0 -2.004085701e-07 -1.194536744e-07 0 -1.194536744e-07 -2.868987162e-07 
0 0 0 0 0 0 0 0 -3.001672452e-07 
-5.096317762e-07 -1.260281923e-07 3.924493448e-07 -1.260281923e-07 -6.907149091e-07 0 3.924493448e-07 0 -7.460038294e-07 
0 0 3.285306806e-07 0 1.553746621e-07 -2.52737582e-07 3.285306806e-07 -2.52737582e-07 -1.648328833e-07 
5.025350134e-07 1.924376148e-07 0 1.924376148e-07 7.524505039e-07 -1.36997423e-07 0 -1.36997423e-07 2.810037009e-07 
0 0 3.360993231e-07 0 2.62144165e-07 -1.363432199e-07 3.360993231e-07 -1.363432199e-07 -1.781014123e-07 
0 1.611842965e-07 5.470004237e-07 1.611842965e-07 4.2390055e-07 0 5.470004237e-07 0 -2.475930025e-07 
0 0 -2.136007661e-07 0 -1.289287782e-07 1.40319012e-07 -2.136007661e-07 1.40319012e-07 -1.717920793e-07 
-2.218316462e-07 -1.516741431e-07 -1.707683065e-07 -1.516741431e-07 -4.85060324e-07 2.192870806e-07 -1.707683065e-07 2.192870806e-07 -4.781576983e-07 
3.905225973e-07 0 -7.640109659e-07 0 4.442892229e-07 -4.734214026e-07 -7.640109659e-07 -4.734214026e-07 -1.453245742e-07 
0 0 1.666998288e-07 0 1.474858859e-07 1.287566667e-07 1.666998288e-07 1.287566667e-07 -2.096925409e-07 
0 -1.343714355e-07 -1.921845363e-07 -1.343714355e-07 -3.069945511e-07 1.798030463e-07 -1.921845363e-07 1.798030463e-07 -3.249748888e-07 
0 0 1.881160586e-07 0 0 1.68240701e-07 1.881160586e-07 1.68240701e-07 -3.628753504e-07 
2.513846696e-07 0 0 0 4.340948865e-07 -1.781135406e-07 0 -1.781135406e-07 -1.964587884e-07 
2.122640419e-07 0 -4.88805866e-07 0 1.576802224e-07 -1.665511953e-07 -4.88805866e-07 -1.665511953e-07 -1.585583268e-07 
0 0 -4.673896362e-07 0 0 -1.27067161e-07 -4.673896362e-07 -1.27067161e-07 -3.117411363e-07 
0 -1.366766325e-07 -2.480493315e-07 -1.366766325e-07 -3.39706935e-07 0 -2.480493315e-07 0 -2.536069655e-07 
3.240291493e-07 2.55076652e-07 3.731438445e-07 2.55076652e-07 7.043808216e-07 -1.876945087e-07 3.731438445e-07 -1.876945087e-07 0 
1.569267098e-07 0 -2.685295544e-07 0 3.583278191e-07 0 -2.685295544e-07 0 0 
-4.274495617e-07 0 3.577059066e-07 0 -5.448244452e-07 0 3.577059066e-07 0 -4.426552596e-07 
1.478247023e-07 0 0 0 1.823369433e-07 0 0 0 -1.764220645e-07 
2.404779296e-07 1.249191689e-07 0 1.249191689e-07 5.313543203e-07 0 0 0 0 
0 0 -2.582894429e-07 0 0 0 -2.582894429e-07 0 -1.823699703e-07 
-2.279146532e-07 0 0 0 -4.422656901e-07 0 0 0 -3.481311125e-07 
0 0 3.654248755e-07 0 0 0 3.654248755e-07 0 -2.709462115e-07 
-1.352614259e-07 0 0 0 0 0 0 0 -2.768941173e-07 
0 0 0 0 0 -1.276558419e-07 0 -1.276558419e-07 5.157695501e-07 
0 0 0 0 0 0 0 0 5.002317739e-07 
0 0 1.292932346e-07 0 0 1.255081847e-07 1.292932346e-07 1.255081847e-07 3.828062975e-07 
0 0 0 0 0 0 0 0 4.142256507e-07 
0 0 0 0 0 0 0 0 5.08000662e-07 
0 0 0 0 0 0 0 0 4.415190357e-07 
0 0 0 0 0 0 0 0 4.492879238e-07 
0 0 0 0 0 0 0 0 4.649976004e-07 
0 0 0 0 0 0 0 0 4.572287123e-07 
0 0 0 0 0 0 0 0 3.985159741e-07 
0 0 0 0 0 0 0 0 4.033507065e-07 
0 0 -1.678106176e-07 0 0 -1.340124378e-07 -1.678106176e-07 -1.340124378e-07 4.858817512e-07 
0 0 -1.423410505e-07 0 0 -1.619656782e-07 -1.423410505e-07 -1.619656782e-07 4.687798336e-07 
1.457562689e-07 0 0 0 1.521921066e-07 -1.804451867e-07 0 -1.804451867e-07 3.729845482e-07 
0 0 0 0 0 0 0 0 4.446162289e-07 
0 0 -1.550758341e-07 0 0 -1.47989058e-07 -1.550758341e-07 -1.47989058e-07 4.773307924e-07 
0 0 0 0 0 0 0 0 4.360652701e-07 
0 0 0 0 0 0 0 0 3.881676274e-07 
0 0 -1.29025385e-07 0 0 -1.572288123e-07 -1.29025385e-07 -1.572288123e-07 4.294331497e-07 
0 0 0 0 0 -1.712054325e-07 0 -1.712054325e-07 4.208821909e-07 
0 0 1.617488163e-07 0 0 0 1.617488163e-07 0 4.022236015e-07 
-1.458134304e-07 0 1.884755407e-07 0 -1.229329964e-07 0 1.884755407e-07 0 1.325335347e-07 
0 0 0 0 0 -2.066130828e-07 0 -2.066130828e-07 4.776980081e-07 
1.430406878e-07 -1.835343653e-07 0 -1.835343653e-07 1.243853956e-07 5.377290284e-07 0 5.377290284e-07 4.194744778e-07 
-1.196306934e-07 0 1.751121785e-07 0 0 0 1.751121785e-07 0 2.673785681e-07 
0 0 0 0 0 0 0 0 3.051157714e-07 
0 0 0 0 0 0 0 0 4.399608048e-07 
0 0 0 0 0 2.816182621e-07 0 2.816182621e-07 4.108490396e-07 
0 0 0 0 0 2.726032317e-07 0 2.726032317e-07 2.760040062e-07 
0 0 0 0 0 1.655579728e-07 0 1.655579728e-07 4.48586243e-07 
0 0 0 0 0 -1.98110126e-07 0 -1.98110126e-07 4.472163667e-07 
7.827400108e-07 -2.395356259e-07 0 -2.395356259e-07 4.589513437e-07 1.545913305e-07 0 1.545913305e-07 5.6113995e-07 
-1.428633295e-07 0 1.559961212e-07 0 0 0 1.559961212e-07 0 3.892377215e-07 
-5.36225649e-07 2.4612604e-07 -1.611057775e-07 2.4612604e-07 -3.62594383e-07 -1.225659812e-07 -1.611057775e-07 -1.225659812e-07 0 
3.502528059e-07 0 0 0 2.296479169e-07 0 0 0 5.041781583e-07 
3.199383407e-07 0 0 0 2.010460012e-07 0 0 0 4.751888357e-07 
0 0 0 0 0 0 0 0 4.182270441e-07 
-3.09230024e-07 1.464772984e-07 -1.312400679e-07 1.464772984e-07 -1.811249464e-07 -1.603380536e-07 -1.312400679e-07 -1.603380536e-07 2.263773086e-07 
1.232571809e-07 0 0 0 0 0 0 0 2.833391002e-07 
-3.395444892e-07 1.243589754e-07 0 1.243589754e-07 -2.097268621e-07 0 0 0 1.97387986e-07 
-4.333613142e-07 0 0 0 -3.081268577e-07 -2.617474035e-07 0 -2.617474035e-07 5.648938444e-07 
6.616824838e-07 2.631971331e-07 5.158278301e-07 2.631971331e-07 5.384188863e-07 6.096685517e-07 5.158278301e-07 6.096685517e-07 0 
-4.603986565e-07 -2.657030584e-07 -4.056041812e-07 -2.657030584e-07 -2.239271144e-07 1.337497334e-07 -4.056041812e-07 1.337497334e-07 -4.916629382e-07 
2.394178231e-07 1.613142534e-07 -1.849095529e-07 1.613142534e-07 0 -3.387690738e-07 -1.849095529e-07 -3.387690738e-07 0 
0 0 2.834268138e-07 0 0 1.739605741e-07 2.834268138e-07 1.739605741e-07 2.68728688e-07 
0 0 0 0 1.57245886e-07 3.717091426e-07 0 3.717091426e-07 -2.595497033e-07 
-4.468799854e-07 -1.811102413e-07 -1.772891919e-07 -1.811102413e-07 -2.66026986e-07 0 -1.772891919e-07 0 0 
0 0 0 0 0 -3.002582387e-07 0 -3.002582387e-07 2.302247942e-07 
4.505501534e-07 2.122556933e-07 1.654591386e-07 2.122556933e-07 3.102729569e-07 1.35449739e-07 1.654591386e-07 1.35449739e-07 0 
0 0 -2.952568671e-07 0 0 0 -2.952568671e-07 0 -2.980535971e-07 
1.152233799e-06 0 -1.595041778e-07 0 6.431994739e-07 4.925921729e-07 -1.595041778e-07 4.925921729e-07 0 
-6.074205998e-07 0 0 0 -3.363768904e-07 -2.492927618e-07 0 -2.492927618e-07 5.100637917e-07 
0 0 0 0 0 2.127464143e-07 0 2.127464143e-07 -2.148840841e-07 
1.339788611e-07 0 -1.28727706e-07 0 0 2.22491179e-07 -1.28727706e-07 2.22491179e-07 6.589446739e-07 
2.724065998e-07 0 0 0 1.534112918e-07 1.216497055e-07 0 1.216497055e-07 2.913097057e-07 
-3.073441211e-07 0 0 0 -1.29573567e-07 0 0 0 1.475898538e-07 
5.724830785e-07 0 0 0 3.602146152e-07 3.526692936e-07 0 3.526692936e-07 0 
6.431063303e-07 0 -1.441159419e-07 0 3.761261866e-07 3.575416759e-07 -1.441159419e-07 3.575416759e-07 3.657501468e-07 
-2.367208694e-07 0 0 0 0 0 0 0 5.845042328e-07 
0 0 0 0 0 2.176187967e-07 0 2.176187967e-07 2.220302949e-07 
-7.217554035e-07 0 5.057268596e-07 0 -1.712372078e-07 6.063687595e-07 5.057268596e-07 6.063687595e-07 -6.226211021e-07 
7.287517638e-07 0 0 0 2.515893071e-07 -2.876699703e-07 0 -2.876699703e-07 1.018780268e-06 
-1.894823145e-07 0 1.395658374e-07 0 -1.790588917e-07 -2.234306149e-07 1.395658374e-07 -2.234306149e-07 7.808313382e-07 
7.937469995e-07 1.305482453e-07 -4.311957548e-07 1.305482453e-07 1.756631583e-07 -4.556791748e-07 -4.311957548e-07 -4.556791748e-07 0 
0 0 2.489479826e-07 0 0 1.593493946e-07 2.489479826e-07 1.593493946e-07 1.980795828e-07 
2.696347246e-07 0 0 0 0 -2.555502926e-07 0 -2.555502926e-07 8.998058029e-07 
-4.55618859e-07 0 3.226463485e-07 0 -1.751480497e-07 1.914690723e-07 3.226463485e-07 1.914690723e-07 0 
0 0 0 0 0 0 0 0 -3.386766719e-07 
7.612493816e-07 0 -2.195133246e-07 0 2.136262327e-07 -3.716745725e-07 -2.195133246e-07 -3.716745725e-07 4.820240129e-07 
3.021323425e-07 0 -1.458149587e-07 0 0 -3.395548949e-07 -1.458149587e-07 -3.395548949e-07 3.630495482e-07 
9.12441089e-07 1.976105605e-07 0 1.976105605e-07 3.582650841e-07 -2.87356361e-07 0 -2.87356361e-07 1.105889798e-06 
-6.96480589e-07 -1.551390573e-07 0 -1.551390573e-07 -2.087952169e-07 5.563983227e-07 0 5.563983227e-07 -6.263060604e-07 
-3.795815688e-07 0 0 0 -2.522835939e-07 -2.331851594e-07 0 -2.331851594e-07 7.018341513e-07 
-4.562373349e-07 0 0 0 -1.595134025e-07 2.486558491e-07 0 2.486558491e-07 4.445455963e-07 
0 0 0 0 0 1.345209809e-07 0 1.345209809e-07 2.397918689e-07 
-5.380310789e-07 0 0 0 -2.305394054e-07 1.616065817e-07 0 1.616065817e-07 0 
2.664297601e-07 0 0 0 0 -2.602707602e-07 0 -2.602707602e-07 9.038619748e-07 
2.281018771e-07 0 0 0 0 0 0 0 7.752176973e-07 
-5.763589619e-07 -1.283102058e-07 0 -1.283102058e-07 -1.841543097e-07 4.025270859e-07 0 4.025270859e-07 0 
-4.179094518e-07 0 0 0 -2.058984982e-07 0 0 0 5.731898738e-07 
3.484983555e-07 1.472612136e-07 0 1.472612136e-07 0 -3.84445727e-07 0 -3.84445727e-07 -4.116183465e-07 
6.902649038e-07 0 0 0 5.689205044e-07 5.064856417e-07 0 5.064856417e-07 1.245364518e-07 
3.871541077e-07 2.350435571e-07 1.468859375e-07 2.350435571e-07 2.879160738e-07 0 1.468859375e-07 0 -2.506171226e-07 
-1.721325068e-06 -4.654040306e-07 0 -4.654040306e-07 -1.105125461e-06 0 0 0 -1.03788689e-06 
5.193816297e-07 1.26801483e-07 0 1.26801483e-07 3.08563914e-07 0 0 0 -1.435409474e-07 
5.387095058e-07 1.706926548e-07 0 1.706926548e-07 4.284182891e-07 2.075824184e-07 0 2.075824184e-07 0 
3.678262316e-07 1.911523854e-07 0 1.911523854e-07 1.680616987e-07 -2.378832659e-07 0 -2.378832659e-07 -3.311177346e-07 
-6.864133564e-07 -1.590714085e-07 0 -1.590714085e-07 -5.284590688e-07 -2.420449498e-07 0 -2.420449498e-07 -7.247526184e-07 
-5.155300822e-07 -1.79531139e-07 0 -1.79531139e-07 -2.681024784e-07 2.034207345e-07 0 2.034207345e-07 -4.566752192e-07 
-6.670854803e-07 0 0 0 -4.086046937e-07 0 0 0 -6.442520064e-07 
-6.166596184e-07 -1.421285066e-07 0 -1.421285066e-07 -6.117162418e-07 -2.341110712e-07 0 -2.341110712e-07 -8.216516836e-07 
-3.258906827e-07 -3.098800547e-07 -8.442305816e-07 -3.098800547e-07 -4.735111542e-07 -2.33362916e-07 -8.442305816e-07 -2.33362916e-07 -4.930435998e-07 
2.829144748e-07 1.84446522e-07 0 1.84446522e-07 2.261158055e-07 -3.074169722e-07 0 -3.074169722e-07 -3.779205624e-07 
2.408703622e-07 2.615767495e-07 1.213354975e-06 2.615767495e-07 6.321674549e-07 9.711847342e-07 1.213354975e-06 9.711847342e-07 -2.631544706e-07 
-4.712751506e-07 -2.260042807e-07 -4.291148344e-07 -2.260042807e-07 -5.42613698e-07 -2.337369936e-07 -4.291148344e-07 -2.337369936e-07 -6.573476417e-07 
0 0 -4.346540885e-07 0 -1.236976743e-07 -2.703899441e-07 -4.346540885e-07 -2.703899441e-07 -4.354820811e-07 
-1.668725718e-07 0 0 0 -1.928002181e-07 -2.707640217e-07 0 -2.707640217e-07 -5.99786123e-07 
-1.878946281e-07 0 5.996779438e-07 0 0 3.685368315e-07 5.996779438e-07 3.685368315e-07 -5.424030771e-07 
0 0 1.845621965e-07 0 0 3.689109091e-07 1.845621965e-07 3.689109091e-07 -3.780990352e-07 
2.618924185e-07 2.230116358e-07 5.941386897e-07 2.230116358e-07 4.291416302e-07 3.31883881e-07 5.941386897e-07 3.31883881e-07 -3.205375165e-07 
3.613099088e-07 0 0 0 2.260503318e-07 1.62330108e-07 0 1.62330108e-07 3.562607042e-07 
-2.287679718e-07 0 0 0 -2.593579724e-07 0 0 0 2.470615252e-07 
-1.825623827e-07 0 -1.50772182e-07 0 0 -2.040280836e-07 -1.50772182e-07 -2.040280836e-07 3.978528275e-07 
0 0 -2.167009306e-07 0 1.8253077e-07 -2.815854053e-07 -2.167009306e-07 -2.815854053e-07 3.575513492e-07 
0 0 0 0 0 1.32893665e-07 0 1.32893665e-07 3.016611147e-07 
-2.056651773e-07 0 0 0 -1.788841654e-07 0 0 0 3.224571764e-07 
0 0 0 0 0 0 0 0 3.770567659e-07 
2.288271275e-07 0 0 0 2.042905509e-07 0 0 0 3.569060267e-07 
0 0 0 0 0 0 0 0 3.023064372e-07 
0 0 -1.837365563e-07 0 0 -2.428067444e-07 -1.837365563e-07 -2.428067444e-07 3.777020883e-07 
-3.700356154e-07 1.292192825e-07 -2.478532645e-07 1.292192825e-07 -2.388910524e-07 -1.499004673e-07 -2.478532645e-07 -1.499004673e-07 2.573075903e-07 
3.28947206e-07 0 1.585474264e-07 0 1.200165222e-07 0 1.585474264e-07 0 5.507801381e-07 
0 0 1.709184317e-07 0 0 0 1.709184317e-07 0 2.803416218e-07 
0 0 3.313437535e-07 0 0 3.742955618e-07 3.313437535e-07 3.742955618e-07 1.543796544e-07 
0 0 0 0 0 0 0 0 4.040438642e-07 
1.989870411e-07 0 1.647329291e-07 0 0 0 1.647329291e-07 0 4.1556088e-07 
-1.505043697e-07 0 0 0 0 0 0 0 2.688246061e-07 
-2.287697713e-07 0 0 0 -1.295265061e-07 0 0 0 2.058436224e-07 
1.207216394e-07 0 2.4494559e-07 0 0 2.180790585e-07 2.4494559e-07 2.180790585e-07 3.525798963e-07 
0 0 2.511310926e-07 0 0 2.352082465e-07 2.511310926e-07 2.352082465e-07 2.173606381e-07 
0 0 0 0 0 -3.273108246e-07 0 -3.273108246e-07 4.179083616e-07 
0 0 -2.68422626e-07 0 0 -1.594084882e-07 -2.68422626e-07 -1.594084882e-07 4.638213661e-07 
5.046110614e-07 -1.488068198e-07 0 -1.488068198e-07 3.157575066e-07 1.935611472e-07 0 1.935611472e-07 4.478509432e-07 
-6.264618791e-07 2.513047371e-07 -1.773093694e-07 2.513047371e-07 -5.044261518e-07 -3.138635886e-07 -1.773093694e-07 -3.138635886e-07 0 
0 0 -1.562152608e-07 0 0 -2.433596564e-07 -1.562152608e-07 -2.433596564e-07 4.408648639e-07 
2.592436622e-07 0 -1.290974372e-07 0 2.161578551e-07 0 -1.290974372e-07 0 4.558361547e-07 
2.784463309e-07 0 0 0 1.893795415e-07 0 0 0 4.328796524e-07 
-2.870901394e-07 0 0 0 -2.207122877e-07 -3.205872066e-07 0 -3.205872066e-07 1.783847819e-07 
-3.06292808e-07 0 -2.228659977e-07 0 -1.939339742e-07 -2.366360384e-07 -2.228659977e-07 -2.366360384e-07 2.013412841e-07 
0 0 0 0 0 0 0 0 1.933560726e-07 
-1.490041242e-07 0 2.97891143e-07 0 -1.732639436e-07 0 2.97891143e-07 0 0 
0 0 -1.51150237e-07 0 0 -2.456496356e-07 -1.51150237e-07 -2.456496356e-07 4.535100548e-07 
0 0 0 0 0 -2.776447931e-07 0 -2.776447931e-07 3.575232272e-07 
0 0 0 0 0 7.583180587e-07 0 7.583180587e-07 4.082134063e-07 
0 0 0 0 0 -1.31557745e-07 0 -1.31557745e-07 2.779147392e-07 
0 0 -1.314797066e-07 0 0 -2.616472143e-07 -1.314797066e-07 -2.616472143e-07 4.05516641e-07 
0 0 0 0 0 -1.475553238e-07 0 -1.475553238e-07 2.299213254e-07 
0 0 0 0 0 3.704261021e-07 0 3.704261021e-07 2.55266415e-07 
0 0 -1.306642031e-07 0 0 2.563342116e-07 -1.306642031e-07 2.563342116e-07 4.308617306e-07 
0 0 0 0 0 2.403366328e-07 0 2.403366328e-07 3.828683168e-07 
-9.153435656e-07 2.191824582e-07 1.645909895e-07 2.191824582e-07 -5.516439249e-07 1.549397731e-07 1.645909895e-07 1.549397731e-07 -2.65224878e-07 
3.240650025e-07 0 0 0 2.159156806e-07 -2.112068701e-07 0 -2.112068701e-07 -3.988773078e-07 
3.883147911e-07 0 0 0 2.090952526e-07 -1.778272772e-07 0 -1.778272772e-07 -5.204683071e-07 
5.922686156e-07 -1.666694042e-07 -1.352819678e-07 -1.666694042e-07 4.186933205e-07 -1.7919631e-07 -1.352819678e-07 -1.7919631e-07 5.756980558e-07 
-2.956392816e-07 0 0 0 -1.678641221e-07 0 0 0 -3.320510929e-07 
3.561898968e-07 0 0 0 2.125054666e-07 -1.945170736e-07 0 -1.945170736e-07 -4.596728075e-07 
-2.635143872e-07 0 0 0 -1.712743361e-07 0 0 0 -3.928465926e-07 
-1.61537475e-07 0 0 0 0 0 0 0 1.552365889e-07 
4.581668091e-07 0 0 0 3.173045006e-07 -1.9520159e-07 0 -1.9520159e-07 0 
4.902917034e-07 0 0 0 3.138942866e-07 -1.785117936e-07 0 -1.785117936e-07 0 
1.894533315e-07 0 0 0 0 -1.833262502e-07 0 -1.833262502e-07 -6.097718118e-07 
2.015479955e-07 0 0 0 1.765942003e-07 -2.303372736e-07 0 -2.303372736e-07 -4.47428854e-07 
-2.221886213e-07 0 0 0 -1.293439395e-07 1.917189757e-07 0 1.917189757e-07 0 
-4.261227836e-07 0 0 0 -2.38686375e-07 2.398877226e-07 0 2.398877226e-07 -9.567922096e-07 
1.955006635e-07 0 0 0 1.434362817e-07 -2.068317619e-07 0 -2.068317619e-07 -5.286003329e-07 
0 0 0 0 0 0 0 0 -1.890086266e-07 
0 0 0 0 0 0 0 0 -2.701801055e-07 
0 0 0 0 0 0 0 0 -7.832820107e-07 
0 0 0 0 0 0 0 0 -7.021105318e-07 
-3.241557024e-07 0 0 0 -1.840151572e-07 2.158033492e-07 0 2.158033492e-07 -4.436903044e-07 
0 0 0 0 0 -1.8316509e-07 0 -1.8316509e-07 -7.567419861e-07 
0 0 -3.088325478e-07 0 0 0 -3.088325478e-07 0 0 
0 1.443388059e-07 1.561924627e-07 1.443388059e-07 -1.689279176e-07 1.56860687e-07 1.561924627e-07 1.56860687e-07 0 
0 -1.548933081e-07 0 -1.548933081e-07 1.570447409e-07 -1.972187435e-07 0 -1.972187435e-07 2.675225273e-07 
0 0 -1.60557495e-07 0 0 0 -1.60557495e-07 0 -3.613751535e-07 
0 0 0 0 0 0 0 0 0 
0 0 0 0 0 0 0 0 -3.300833335e-07 
0 0 0 0 0 -1.901919168e-07 0 -1.901919168e-07 -2.446097294e-07 
0 0 -1.406595932e-07 0 0 0 -1.406595932e-07 0 1.507571032e-07 
0 0 0 0 0 0 0 0 1.820489232e-07 
6.204933758e-07 0 0 0 2.512838002e-07 2.018710975e-07 0 2.018710975e-07 4.342594704e-07 
-1.923973612e-07 0 0 0 0 0 0 0 0 
-2.661561143e-07 0 0 0 0 -1.873412908e-07 0 -1.873412908e-07 -8.298818039e-07 
1.917512449e-07 0 0 0 0 2.416455347e-07 0 2.416455347e-07 -7.114711232e-07 
2.140480073e-07 0 0 0 0 0 0 0 1.731138679e-07 
-2.292767377e-07 0 0 0 0 0 0 0 -4.589567692e-07 
1.771686307e-07 0 0 0 0 0 0 0 -1.978111667e-07 
4.061223103e-07 0 0 0 1.419632987e-07 2.217583161e-07 0 2.217583161e-07 -1.386058264e-07 
0 0 0 0 0 0 0 0 -3.997514289e-07 
0 0 0 0 0 0 0 0 -7.706764635e-07 
0 0 1.359237601e-07 0 0 0 1.359237601e-07 0 3.844940185e-07 
0 0 0 0 0 -1.930478155e-07 0 -1.930478155e-07 4.132608348e-07 
7.766006774e-07 -2.374268308e-07 0 -2.374268308e-07 4.339559141e-07 1.303427042e-07 0 1.303427042e-07 5.376721778e-07 
-5.598429116e-07 2.581597009e-07 -1.485897443e-07 2.581597009e-07 -3.710946717e-07 0 -1.485897443e-07 0 0 
0 0 0 0 0 0 0 0 3.988774267e-07 
3.447221261e-07 0 0 0 2.213290371e-07 0 0 0 4.754665063e-07 
3.364934263e-07 -1.26737089e-07 0 -1.26737089e-07 2.098122963e-07 0 0 0 4.610830981e-07 
-3.317283682e-07 1.210561769e-07 0 1.210561769e-07 -1.927129966e-07 0 0 0 1.865407935e-07 
-3.234996684e-07 1.566623309e-07 -1.26643911e-07 1.566623309e-07 -1.811962558e-07 -1.451469625e-07 -1.26643911e-07 -1.451469625e-07 2.009242016e-07 
0 0 0 0 0 0 0 0 2.631298731e-07 
0 0 1.716489751e-07 0 0 0 1.716489751e-07 0 1.408343289e-07 
0 0 0 0 0 -2.45923446e-07 0 -2.45923446e-07 4.341481644e-07 
0 0 0 0 0 0 0 0 3.684110551e-07 
1.458921128e-07 -1.703910308e-07 -1.2812162e-07 -1.703910308e-07 0 4.864396663e-07 -1.2812162e-07 4.864396663e-07 3.853567247e-07 
0 0 0 0 0 0 0 0 2.874912466e-07 
0 0 0 0 0 0 0 0 4.012796097e-07 
0 0 1.42899201e-07 0 0 0 1.42899201e-07 0 2.54622692e-07 
0 0 0 0 0 2.491457609e-07 0 2.491457609e-07 2.630955268e-07 
0 0 0 0 0 1.202581101e-07 0 1.202581101e-07 4.097524445e-07 
0 0 0 0 0 2.637370276e-07 0 2.637370276e-07 3.768838899e-07 
1.791473408e-07 0 0 0 0 2.584946478e-07 0 2.584946478e-07 5.038838303e-07 
1.277415768e-07 0 -3.260562116e-07 0 0 0 -3.260562116e-07 0 3.158015695e-07 
1.495008244e-07 0 -2.868142535e-07 0 0 0 -2.868142535e-07 0 2.854143682e-07 
-3.010572525e-07 0 7.373753185e-07 0 0 0 7.373753185e-07 0 -1.378113846e-07 
1.534444588e-07 0 -2.198200601e-07 0 0 0 -2.198200601e-07 0 4.098426999e-07 
1.386212006e-07 0 -3.064352325e-07 0 0 0 -3.064352325e-07 0 3.006079689e-07 
1.643240826e-07 0 -2.00199081e-07 0 0 0 -2.00199081e-07 0 3.946490992e-07 
0 0 3.11895705e-07 0 0 0 3.11895705e-07 0 1.830362228e-07 
0 0 2.056595535e-07 0 0 0 2.056595535e-07 0 0 
0 0 2.252805325e-07 0 0 0 2.252805325e-07 0 0 
0 0 -1.389978625e-07 0 1.265726592e-07 -2.518002016e-07 -1.389978625e-07 -2.518002016e-07 2.88132271e-07 
0 0 0 0 0 0 0 0 4.176772568e-07 
0 0 -2.3451087e-07 0 0 -1.410072743e-07 -2.3451087e-07 -1.410072743e-07 1.789135427e-07 
2.191644584e-07 0 0 0 1.778414035e-07 -1.652252785e-07 0 -1.652252785e-07 6.822898962e-07 
0 0 0 0 0 0 0 0 3.529047639e-07 
0 0 0 0 0 0 0 0 2.982953998e-07 
0 0 -1.867543663e-07 0 0 -1.96403738e-07 -1.867543663e-07 -1.96403738e-07 2.335229068e-07 
1.214495284e-07 0 -1.243887721e-07 0 1.522070313e-07 -2.085127401e-07 -1.243887721e-07 -2.085127401e-07 4.852110836e-07 
0 0 0 0 0 0 0 0 5.499835765e-07 
0 0 -1.721452758e-07 0 0 -1.531162764e-07 -1.721452758e-07 -1.531162764e-07 4.306017194e-07 
0 0 -1.74497623e-07 0 0 0 -1.74497623e-07 0 3.58714303e-07 
1.537200411e-07 0 -1.775771799e-07 0 0 1.493762668e-07 -1.775771799e-07 1.493762668e-07 6.410346915e-07 
-1.26303422e-07 0 1.719189421e-07 0 -1.564778449e-07 0 1.719189421e-07 0 1.202207969e-07 
0 0 1.481588482e-07 0 0 -2.485769299e-07 1.481588482e-07 -2.485769299e-07 4.74020656e-07 
0 0 -1.760374015e-07 0 0 0 -1.760374015e-07 0 4.998744972e-07 
0 0 0 0 0 0 0 0 3.806277442e-07 
0 0 0 0 0 0 0 0 2.394675499e-07 
0 0 0 0 0 -1.351931745e-07 0 -1.351931745e-07 4.163674795e-07 
0 0 0 0 0 0 0 0 5.575276737e-07 
0 0 1.600388952e-07 0 0 -1.482581541e-07 1.600388952e-07 -1.482581541e-07 2.971207264e-07 
0 0 1.353581983e-07 0 0 0 1.353581983e-07 0 1.880021176e-07 
0 0 0 0 0 0 0 0 5.439583431e-07 
0 0 -1.646719217e-07 0 0 0 -1.646719217e-07 0 3.478477538e-07 
1.445511439e-07 0 -1.707335063e-07 0 0 0 -1.707335063e-07 0 2.861076504e-07 
0 0 0 0 0 0 0 0 3.659802303e-07 
0 0 -1.279404314e-07 0 0 0 -1.279404314e-07 0 4.459030484e-07 
0 0 0 0 0 0 0 0 2.679249357e-07 
0 0 0 0 0 0 0 0 2.37054884e-07 
0 0 -1.309712237e-07 0 0 0 -1.309712237e-07 0 4.150329968e-07 
0 0 -1.67702714e-07 0 0 0 -1.67702714e-07 0 3.169777021e-07 
-1.04195181e-06 -5.733741584e-07 -6.454040509e-07 -5.733741584e-07 -1.137269361e-06 -1.754186775e-07 -6.454040509e-07 -1.754186775e-07 -9.966916109e-07 
3.738116149e-07 1.420833102e-07 0 1.420833102e-07 0 -2.493185411e-07 0 -2.493185411e-07 -4.444426141e-07 
-1.371378816e-07 0 0 0 0 -1.491680693e-07 0 -1.491680693e-07 -5.982770125e-07 
2.284114725e-07 3.194758233e-07 9.018715242e-07 3.194758233e-07 8.026608589e-07 7.213869209e-07 9.018715242e-07 7.213869209e-07 -3.085139577e-07 
-3.340700976e-07 -2.156454241e-07 -3.116264394e-07 -2.156454241e-07 -5.58499367e-07 -2.123686093e-07 -3.116264394e-07 -2.123686093e-07 -7.205671125e-07 
0 1.276184151e-07 0 1.276184151e-07 0 -1.992433052e-07 0 -1.992433052e-07 -5.213598133e-07 
-5.895448458e-07 -2.301103192e-07 -3.181026415e-07 -2.301103192e-07 -5.697573351e-07 -1.622933734e-07 -3.181026415e-07 -1.622933734e-07 -7.974843117e-07 
-4.067701688e-07 -1.269491676e-07 1.282337367e-07 -1.269491676e-07 -1.673042512e-07 2.729841217e-07 1.282337367e-07 2.729841217e-07 -6.526027843e-07 
3.011115437e-07 2.307795668e-07 4.620113482e-07 2.307795668e-07 4.114657431e-07 2.360341899e-07 4.620113482e-07 2.360341899e-07 -3.764782859e-07 
0 2.163146717e-07 4.555351461e-07 2.163146717e-07 4.00207775e-07 2.861094258e-07 4.555351461e-07 2.861094258e-07 -4.533954851e-07 
0 0 0 0 -2.566835179e-07 -3.641540944e-07 0 -3.641540944e-07 -6.076090795e-07 
1.868979336e-06 5.114966301e-07 0 5.114966301e-07 1.437471519e-06 4.874535547e-07 0 4.874535547e-07 6.4895404e-07 
2.957024925e-07 2.094181723e-07 0 2.094181723e-07 1.314757781e-07 0 0 0 -4.283137376e-07 
-2.694601298e-06 -6.878328776e-07 0 -6.878328776e-07 -1.6435859e-06 -1.214063958e-07 0 -1.214063958e-07 -1.558966545e-06 
9.879122825e-07 2.717125568e-07 0 2.717125568e-07 5.903940006e-07 0 0 0 0 
1.082340914e-06 3.604574012e-07 0 3.604574012e-07 7.844736486e-07 1.997267003e-07 0 1.997267003e-07 0 
2.012738609e-07 1.206733279e-07 0 1.206733279e-07 0 -2.260771242e-07 0 -2.260771242e-07 -5.179614085e-07 
-1.293878035e-06 -3.279521971e-07 0 -3.279521971e-07 -9.501347091e-07 -2.427802451e-07 0 -2.427802451e-07 -1.083287812e-06 
-4.128109813e-07 0 0 0 0 1.830235794e-07 0 1.830235794e-07 -4.550062527e-07 
-1.199449403e-06 -2.392073527e-07 0 -2.392073527e-07 -7.560550611e-07 0 0 0 -9.936401415e-07 
-5.197445129e-07 0 2.253321693e-07 0 -2.983194903e-07 0 2.253321693e-07 0 -7.966334152e-07 
3.893995434e-07 0 -1.88510074e-07 0 2.20393386e-07 2.184110964e-07 -1.88510074e-07 2.184110964e-07 -1.352664937e-07 
1.268627318e-07 -1.269245282e-07 -1.980712021e-07 -1.269245282e-07 3.59477644e-07 2.088575405e-07 -1.980712021e-07 2.088575405e-07 -4.138520576e-07 
0 0 0 0 0 0 0 0 -6.843462093e-07 
0 0 0 0 0 0 0 0 -4.659499545e-07 
2.581311376e-07 0 -1.93290638e-07 0 2.89935515e-07 2.136343185e-07 -1.93290638e-07 2.136343185e-07 -2.745592756e-07 
-1.964408905e-07 0 0 0 0 0 0 0 -6.052427364e-07 
-2.321501792e-07 0 0 0 -1.998133596e-07 0 0 0 -7.404898123e-07 
2.22421849e-07 0 -1.233155068e-07 0 0 0 -1.233155068e-07 0 -4.098063515e-07 
0 0 -1.280960708e-07 0 1.290852076e-07 0 -1.280960708e-07 0 -5.490991334e-07 
7.737978976e-07 1.801880496e-07 -1.539055878e-07 1.801880496e-07 6.257417678e-07 3.171326262e-07 -1.539055878e-07 3.171326262e-07 0 
-3.625631002e-07 0 1.304854177e-07 0 -2.883173343e-07 -1.743532918e-07 1.304854177e-07 -1.743532918e-07 -6.443950025e-07 
0 -2.052044304e-07 -2.137869316e-07 -2.052044304e-07 -1.33220674e-07 2.405506969e-07 -2.137869316e-07 2.405506969e-07 -6.004799756e-07 
-3.69837845e-07 0 1.247845788e-07 0 0 0 1.247845788e-07 0 -3.968201586e-07 
2.056173987e-07 0 0 0 1.687122167e-07 0 0 0 -3.294202866e-07 
-2.090978088e-07 0 0 0 -2.107690042e-07 0 0 0 -6.224374891e-07 
3.590826901e-07 0 -1.838462597e-07 0 2.462605469e-07 2.788416616e-07 -1.838462597e-07 2.788416616e-07 -3.074627731e-07 
2.019800263e-07 0 0 0 2.858869151e-07 0 0 0 -2.056328646e-07 
-3.662004726e-07 0 1.276349982e-07 0 -1.71142636e-07 -1.318743886e-07 1.276349982e-07 -1.318743886e-07 -5.206075806e-07 
-2.127351812e-07 0 0 0 0 0 0 0 -4.986500671e-07 
2.052489554e-07 0 -1.305191914e-07 0 0 2.815446658e-07 -1.305191914e-07 2.815446658e-07 5.000968595e-07 
1.205311244e-07 0 -3.509071469e-07 0 0 0 -3.509071469e-07 0 3.266311662e-07 
1.372582949e-07 0 -3.296606445e-07 0 0 0 -3.296606445e-07 0 2.94378598e-07 
-3.199987191e-07 0 8.060151288e-07 0 -1.347176844e-07 0 8.060151288e-07 0 -1.485733707e-07 
1.628900399e-07 0 -2.407131692e-07 0 0 0 -2.407131692e-07 0 4.133640129e-07 
1.288947097e-07 0 -3.402838957e-07 0 0 0 -3.402838957e-07 0 3.105048821e-07 
1.712536252e-07 0 -2.300899179e-07 0 0 0 -2.300899179e-07 0 3.972377288e-07 
0 0 3.377479687e-07 0 0 0 3.377479687e-07 0 1.757617444e-07 
0 0 2.275539909e-07 0 0 0 2.275539909e-07 0 0 
0 0 2.381772422e-07 0 0 0 2.381772422e-07 0 0 
0 0 -2.700362454e-07 0 0 -1.719835783e-07 -2.700362454e-07 -1.719835783e-07 1.925431357e-07 
0 0 -1.582232963e-07 0 0 -2.803352686e-07 -1.582232963e-07 -2.803352686e-07 2.539898366e-07 
-1.61828099e-07 0 0 0 -1.816571579e-07 0 0 0 3.340882289e-07 
4.120407002e-07 0 0 0 3.537961606e-07 -2.075791681e-07 0 -2.075791681e-07 7.79868778e-07 
0 0 -2.141297709e-07 0 0 -2.261594235e-07 -2.141297709e-07 -2.261594235e-07 2.232664861e-07 
0 0 0 0 0 0 0 0 2.940390327e-07 
0 0 0 0 -1.250111075e-07 0 0 0 2.633156823e-07 
1.857497984e-07 0 -1.873403816e-07 0 1.427155518e-07 -1.897813732e-07 -1.873403816e-07 -1.897813732e-07 4.862059568e-07 
1.697742741e-07 0 -1.314339071e-07 0 2.104500892e-07 -2.439572184e-07 -1.314339071e-07 -2.439572184e-07 5.169293073e-07 
1.251063006e-07 0 0 0 0 0 0 0 5.569785035e-07 
-1.878818836e-07 0 0 0 -1.511654263e-07 0 0 0 -5.596475967e-07 
3.537714308e-07 0 0 0 3.348048855e-07 0 0 0 -1.330994599e-07 
-1.655568211e-07 0 0 0 0 0 0 0 -2.809207895e-07 
0 -1.376593353e-07 0 -1.376593353e-07 0 1.560997893e-07 0 1.560997893e-07 -5.188026177e-07 
0 0 0 0 0 0 0 0 -3.463735283e-07 
0 0 0 0 1.678352468e-07 0 0 0 -2.070101247e-07 
-1.767193524e-07 0 0 0 0 0 0 0 -4.202841931e-07 
0 0 0 0 0 0 0 0 -5.392251072e-07 
1.918723536e-07 0 0 0 1.991021694e-07 1.281189822e-07 0 1.281189822e-07 -3.259510388e-07 
0 0 0 0 0 0 0 0 -3.998617036e-07 
2.576212852e-07 0 0 0 1.638127608e-07 0 0 0 -1.814193248e-07 
-1.68900994e-07 0 0 0 0 0 0 0 -5.692890162e-07 
0 0 0 0 0 0 0 0 -6.338842891e-07 
0 -1.386646317e-07 0 -1.386646317e-07 1.834905021e-07 1.387394579e-07 0 1.387394579e-07 -4.732076437e-07 
0 0 0 0 0 0 0 0 -3.753541705e-07 
0 0 0 0 0 0 0 0 -6.015866527e-07 
1.423269082e-07 0 0 0 0 0 0 0 -4.07651807e-07 
1.668580512e-07 0 0 0 1.736516315e-07 1.226364248e-07 0 1.226364248e-07 -3.273134843e-07 
0 0 0 0 0 0 0 0 -5.2124833e-07 
0 0 0 0 0 0 0 0 -5.535459664e-07 
0 0 -1.858502922e-07 0 0 0 -1.858502922e-07 0 -1.754191632e-07 
-2.21875843e-07 0 2.201141275e-07 0 -1.797651478e-07 0 2.201141275e-07 0 -6.822657503e-07 
2.909551207e-07 0 -1.996229907e-07 0 3.143565704e-07 0 -1.996229907e-07 0 0 
-5.00514464e-07 0 2.890348596e-07 0 -3.37874211e-07 0 2.890348596e-07 0 -4.609697524e-07 
0 0 0 0 0 0 0 0 -4.288424568e-07 
0 0 0 0 0 0 0 0 -3.494032798e-07 
2.022198442e-07 0 -1.927366415e-07 0 1.89671952e-07 0 -1.927366415e-07 0 0 
-1.935149482e-07 0 0 0 -1.364434387e-07 0 0 0 -3.181944578e-07 
-3.611951535e-07 0 2.545744936e-07 0 -2.588196794e-07 0 2.545744936e-07 0 -5.716177514e-07 
0 0 0 0 0 0 0 0 -2.387552808e-07 
-1.839572038e-07 0 1.920821152e-07 0 -2.086563671e-07 -1.234500255e-07 1.920821152e-07 -1.234500255e-07 -6.794606587e-07 
0 -1.200116837e-07 -1.664364036e-07 -1.200116837e-07 1.251809597e-07 0 -1.664364036e-07 0 -1.779570112e-07 
0 -1.881049243e-07 -1.278043454e-07 -1.881049243e-07 -3.504484265e-07 1.665914878e-07 -1.278043454e-07 1.665914878e-07 -3.09665295e-07 
5.830871571e-07 1.739860041e-07 -1.655492624e-07 1.739860041e-07 8.041821738e-07 0 -1.655492624e-07 0 -1.908711247e-07 
0 0 0 0 0 0 0 0 -4.28708835e-07 
0 -1.54058304e-07 -1.471203745e-07 -1.54058304e-07 0 0 -1.471203745e-07 0 -2.438111531e-07 
0 0 0 0 -2.795523968e-07 0 0 0 -4.945629768e-07 
1.995649767e-07 1.423196643e-07 0 1.423196643e-07 2.977629034e-07 0 0 0 -4.351658917e-07 
3.140709523e-07 0 -1.65992833e-07 0 4.646815668e-07 0 -1.65992833e-07 0 -1.84414068e-07 
2.812967224e-07 0 -1.466768039e-07 0 2.268668737e-07 0 -1.466768039e-07 0 -2.502682099e-07 
0 1.340278168e-07 1.95832552e-07 1.340278168e-07 0 -1.336519034e-07 1.95832552e-07 -1.336519034e-07 -5.570520298e-07 
1.528705833e-07 0 -1.722883362e-07 0 1.21187122e-07 1.237638333e-07 -1.722883362e-07 1.237638333e-07 -2.282506003e-07 
-4.043977625e-07 0 3.257551535e-07 0 -6.841331119e-07 -2.01714991e-07 3.257551535e-07 -2.01714991e-07 -6.751575073e-07 
1.533883352e-07 2.431138614e-07 2.518791467e-07 2.431138614e-07 9.123339918e-07 -1.312082952e-07 2.518791467e-07 -1.312082952e-07 0 
0 0 0 0 0 0 0 0 -3.926513151e-07 
-1.257635896e-07 0 0 0 -2.814729949e-07 0 0 0 -4.517040538e-07 
-2.553459039e-07 0 2.607938528e-07 0 -3.446712113e-07 -1.676834472e-07 2.607938528e-07 -1.676834472e-07 -6.161047686e-07 
0 1.885708391e-07 2.238558494e-07 1.885708391e-07 4.535623406e-07 -1.324300993e-07 2.238558494e-07 -1.324300993e-07 -2.382223329e-07 
1.531294593e-07 0 0 0 5.167605569e-07 0 0 0 0 
-1.255047136e-07 1.196813935e-07 2.888171501e-07 1.196813935e-07 0 -1.664616431e-07 2.888171501e-07 -1.664616431e-07 -2.972750716e-07 
1.272960667e-07 0 -1.349083208e-07 0 2.20251318e-07 1.896423231e-07 -1.349083208e-07 1.896423231e-07 -2.061887467e-07 
0 1.737386645e-07 1.594336844e-07 1.737386645e-07 0 -1.97798362e-07 1.594336844e-07 -1.97798362e-07 -5.267156241e-07 
-1.250737097e-07 0 2.871228359e-07 0 0 -2.697657789e-07 2.871228359e-07 -2.697657789e-07 -3.606250179e-07 
-1.820023148e-07 0 -1.48511723e-07 0 -6.9131336e-07 0 -1.48511723e-07 0 -8.45875121e-07 
0 0 0 0 1.193047475e-07 0 0 0 -3.664521854e-07 
0 1.339771354e-07 2.232782602e-07 1.339771354e-07 0 -2.337820704e-07 2.232782602e-07 -2.337820704e-07 -4.43670321e-07 
0 0 0 0 1.526436389e-07 0 0 0 -2.834068823e-07 
0 0 -1.417100219e-07 0 -2.35531021e-07 0 -1.417100219e-07 0 -5.260319338e-07 
0 0 0 0 -3.364775915e-07 0 0 0 -6.862953726e-07 
-1.535380122e-07 0 0 0 -3.031387001e-07 0 0 0 -6.032500695e-07 
2.310030418e-07 0 -1.668785512e-07 0 4.115899368e-07 2.139242636e-07 -1.668785512e-07 2.139242636e-07 0 
0 0 2.063329454e-07 0 0 -2.138056538e-07 2.063329454e-07 -2.138056538e-07 -5.223811021e-07 
0 0 2.93571941e-07 0 1.649637098e-07 -2.848076373e-07 2.93571941e-07 -2.848076373e-07 -2.275767804e-07 
-3.185805013e-07 -1.529526938e-07 -1.672760715e-07 -1.529526938e-07 -8.110718952e-07 0 -1.672760715e-07 0 -8.356616221e-07 
0 0 0 0 1.609968133e-07 0 0 0 -3.07589681e-07 
0 0 2.499524432e-07 0 0 -2.493066455e-07 2.499524432e-07 -2.493066455e-07 -3.749789413e-07 
0 0 0 0 2.882768233e-07 0 0 0 -1.601875201e-07 
0 0 -1.670773114e-07 0 -1.997409792e-07 0 -1.670773114e-07 0 -4.64229941e-07 
-1.977586548e-07 0 0 0 -4.503341028e-07 0 0 0 -6.790213621e-07 
-1.648113674e-07 0 0 0 -3.230540927e-07 -1.470741029e-07 0 -1.470741029e-07 -5.316192012e-07 
-1.350786416e-07 0 2.608262387e-07 0 0 0 2.608262387e-07 0 -5.276331831e-07 
2.278828523e-07 0 -2.214705057e-07 0 1.597067087e-07 0 -2.214705057e-07 0 -1.693273228e-07 
-4.97945365e-07 -1.226295281e-07 3.261380118e-07 -1.226295281e-07 -8.016760469e-07 -2.276767399e-07 3.261380118e-07 -2.276767399e-07 -6.636229211e-07 
3.449381592e-07 2.735262538e-07 2.937177664e-07 2.735262538e-07 1.023514701e-06 -1.356081128e-07 2.937177664e-07 -1.356081128e-07 1.683377722e-07 
0 0 0 0 0 0 0 0 -3.48480253e-07 
-1.350312564e-07 0 0 0 -3.209846691e-07 0 0 0 -4.164751219e-07 
-3.165120033e-07 0 2.934821252e-07 0 -4.253653735e-07 -1.729187269e-07 2.934821252e-07 -1.729187269e-07 -5.956280521e-07 
0 1.67883386e-07 2.772720025e-07 1.67883386e-07 4.872300006e-07 -1.268844133e-07 2.772720025e-07 -1.268844133e-07 -1.796477055e-07 
2.864105058e-07 1.632328866e-07 0 1.632328866e-07 5.91610705e-07 0 0 0 0 
0 0 3.099278891e-07 0 0 -1.816424264e-07 3.099278891e-07 -1.816424264e-07 -2.476425744e-07 
0 1.304704459e-07 2.012793117e-07 1.304704459e-07 0 -2.241784684e-07 2.012793117e-07 -2.241784684e-07 -4.51993195e-07 
0 0 -1.826761761e-07 0 0 1.452545127e-07 -1.826761761e-07 1.452545127e-07 -2.691695248e-07 
-3.069767133e-07 -2.569128576e-07 -1.350804391e-07 -2.569128576e-07 -7.37505337e-07 2.274187173e-07 -1.350804391e-07 2.274187173e-07 -5.219644147e-07 
7.127325497e-07 2.584645423e-07 -1.858148576e-07 2.584645423e-07 1.04990225e-06 0 -1.858148576e-07 0 0 
0 0 0 0 0 0 0 0 -3.605813599e-07 
-1.84496694e-07 -1.850043541e-07 -1.588783076e-07 -1.850043541e-07 -3.800551641e-07 1.86336615e-07 -1.588783076e-07 1.86336615e-07 -3.955669698e-07 
-1.494806708e-07 0 0 0 -3.415362863e-07 0 0 0 -4.869788049e-07 
3.603739607e-07 1.944674941e-07 0 1.944674941e-07 5.521675074e-07 -1.362861475e-07 0 -1.362861475e-07 -2.219779569e-07 
3.253579376e-07 0 -1.842455168e-07 0 5.136486296e-07 0 -1.842455168e-07 0 -1.305661218e-07 
2.028779182e-07 0 -1.604476484e-07 0 1.561984567e-07 0 -1.604476484e-07 0 -2.569635668e-07 
0 0 -2.238612399e-07 0 -1.448921694e-07 0 -2.238612399e-07 0 -2.759098593e-07 
0 0 2.564723031e-07 0 0 -1.272550774e-07 2.564723031e-07 -1.272550774e-07 -4.771650197e-07 
2.304152927e-07 0 -2.341088357e-07 0 3.726387978e-07 0 -2.341088357e-07 0 0 
-4.367363623e-07 0 3.20011387e-07 0 -4.553002084e-07 0 3.20011387e-07 0 -4.812252373e-07 
0 0 0 0 0 0 0 0 -3.765374395e-07 
0 0 0 0 2.139545541e-07 0 0 0 -2.522722695e-07 
1.338846924e-07 0 -2.289850378e-07 0 0 0 -2.289850378e-07 0 -1.516446893e-07 
-1.996911351e-07 0 0 0 -3.000961889e-07 0 0 0 -3.785675483e-07 
-2.564314144e-07 0 2.88241845e-07 0 -2.00014949e-07 0 2.88241845e-07 0 -4.791951285e-07 
0 0 0 0 0 0 0 0 -2.543023783e-07 
2.660219307e-07 0 -1.986492601e-07 0 4.935903811e-07 2.295714701e-07 -1.986492601e-07 2.295714701e-07 0 
0 0 2.412202318e-07 0 -1.415157038e-07 -2.122297195e-07 2.412202318e-07 -2.122297195e-07 -4.630039955e-07 
0 0 2.920331163e-07 0 1.7558484e-07 -2.98996925e-07 2.920331163e-07 -2.98996925e-07 -1.454074128e-07 
-3.929752304e-07 -1.669644024e-07 -1.775357075e-07 -1.669644024e-07 -8.261007887e-07 0 -1.775357075e-07 0 -7.625771437e-07 
0 0 0 0 1.760373386e-07 0 0 0 -2.310884809e-07 
0 0 2.66626674e-07 0 0 -2.556133223e-07 2.66626674e-07 -2.556133223e-07 -3.042057042e-07 
1.57584416e-07 0 0 0 3.345876105e-07 0 0 0 0 
0 0 -1.880924838e-07 0 -1.662552038e-07 0 -1.880924838e-07 0 -3.808750551e-07 
-2.437918594e-07 0 0 0 -4.838082463e-07 -1.326480408e-07 0 -1.326480408e-07 -6.127905696e-07 
-1.719141646e-07 0 0 0 -3.252579744e-07 -1.760316436e-07 0 -1.760316436e-07 -4.539922783e-07 
0 0 2.999461489e-07 0 0 0 2.999461489e-07 0 -4.314216377e-07 
2.1274559e-07 0 -2.647551821e-07 0 1.324005879e-07 0 -2.647551821e-07 0 -1.235539661e-07 
-5.054362623e-07 -1.796288611e-07 3.279647733e-07 -1.796288611e-07 -7.958914599e-07 -2.362090342e-07 3.279647733e-07 -2.362090342e-07 -6.032028754e-07 
4.292451994e-07 2.543889884e-07 3.152818079e-07 2.543889884e-07 9.884853191e-07 -1.413394238e-07 3.152818079e-07 -1.413394238e-07 2.223327818e-07 
0 0 0 0 0 0 0 0 -2.774878019e-07 
-1.463453362e-07 0 0 0 -3.31745436e-07 0 0 0 -3.633784208e-07 
-3.049719715e-07 0 3.139554611e-07 0 -4.111776609e-07 -1.728903955e-07 3.139554611e-07 -1.728903955e-07 -5.173122566e-07 
1.623687594e-07 1.420149202e-07 3.076139784e-07 1.420149202e-07 4.810107286e-07 -1.254555903e-07 3.076139784e-07 -1.254555903e-07 0 
3.209953947e-07 1.676465718e-07 0 1.676465718e-07 5.604429535e-07 0 0 0 0 
0 0 3.216232906e-07 0 0 -1.88774229e-07 3.216232906e-07 -1.88774229e-07 -1.904350468e-07 
0 0 2.14220324e-07 0 1.52785083e-07 -2.770152928e-07 2.14220324e-07 -2.770152928e-07 -3.037723153e-07 
0 0 -2.008683736e-07 0 0 2.066381771e-07 -2.008683736e-07 2.066381771e-07 -2.517558618e-07 
-4.353947063e-07 -2.578070037e-07 -1.633004172e-07 -2.578070037e-07 -8.8791009e-07 2.594466912e-07 -1.633004172e-07 2.594466912e-07 -5.822523877e-07 
7.000593337e-07 2.850475574e-07 -1.937355195e-07 2.850475574e-07 1.055684514e-06 0 -1.937355195e-07 0 0 
0 0 0 0 0 0 0 0 -2.777640886e-07 
-2.629922508e-07 -1.6890947e-07 -1.820843954e-07 -1.6890947e-07 -4.667006755e-07 2.330424341e-07 -1.820843954e-07 2.330424341e-07 -4.170041248e-07 
-1.805943876e-07 0 0 0 -3.675625035e-07 0 0 0 -4.430123515e-07 
3.871326324e-07 1.943352793e-07 0 1.943352793e-07 6.042347986e-07 -1.784082974e-07 0 -1.784082974e-07 0 
3.047347692e-07 0 -1.973019466e-07 0 5.050966266e-07 0 -1.973019466e-07 0 0 
1.323323137e-07 0 -1.785179684e-07 0 0 0 -1.785179684e-07 0 -2.347149369e-07 
0 0 -2.599567503e-07 0 -2.378623305e-07 0 -2.599567503e-07 0 -2.876064533e-07 
0 0 2.822788079e-07 0 1.822310512e-07 -1.579455965e-07 2.822788079e-07 -1.579455965e-07 -3.135638708e-07 
1.597313805e-07 0 -2.6939448e-07 0 3.191763668e-07 0 -2.6939448e-07 0 0 
-3.346101704e-07 0 3.338202064e-07 0 -4.376456299e-07 0 3.338202064e-07 0 -4.14213871e-07 
0 0 0 0 0 0 0 0 -3.00585162e-07 
0 0 0 0 2.50703709e-07 0 0 0 -1.774043623e-07 
0 0 -2.646756151e-07 0 0 0 -2.646756151e-07 0 -1.644256536e-07 
-1.764842728e-07 0 0 0 -3.377539802e-07 0 0 0 -3.509101622e-07 
-1.60876876e-07 0 3.080495071e-07 0 -1.277072894e-07 -1.289095967e-07 3.080495071e-07 -1.289095967e-07 -3.638888709e-07 
0 0 0 0 0 0 0 0 -2.277293624e-07 
4.03145952e-07 -1.221983975e-07 0 -1.221983975e-07 2.346354558e-07 1.314726815e-07 0 1.314726815e-07 3.632818668e-07 
-1.831415107e-07 0 0 0 -1.822497779e-07 0 0 0 3.438268383e-07 
-1.769242146e-07 0 -1.523883116e-07 0 0 -1.715838959e-07 -1.523883116e-07 -1.715838959e-07 4.607471186e-07 
0 0 -1.931713695e-07 0 0 -2.40761899e-07 -1.931713695e-07 -2.40761899e-07 3.234566079e-07 
0 0 0 0 0 0 0 0 3.535543526e-07 
-1.800328626e-07 0 0 0 -1.390623136e-07 0 0 0 4.022869785e-07 
0 0 0 0 0 0 0 0 4.120144927e-07 
2.181158989e-07 0 0 0 1.729069904e-07 0 0 0 3.433692373e-07 
0 0 0 0 0 0 0 0 3.336417231e-07 
0 0 -1.727798406e-07 0 0 -2.061728975e-07 -1.727798406e-07 -2.061728975e-07 3.921018632e-07 
-2.130617015e-07 0 -2.180312001e-07 0 -1.369176172e-07 -1.382083914e-07 -2.180312001e-07 -1.382083914e-07 3.997607822e-07 
1.489376486e-07 0 1.278615973e-07 0 0 0 1.278615973e-07 0 5.203472797e-07 
0 0 1.469524764e-07 0 0 0 1.469524764e-07 0 2.547291519e-07 
0 0 2.988473025e-07 0 0 3.10891827e-07 2.988473025e-07 3.10891827e-07 2.318708062e-07 
0 0 0 0 0 0 0 0 4.600540309e-07 
0 0 1.374070369e-07 0 0 0 1.374070369e-07 0 3.875382158e-07 
0 0 0 0 0 0 0 0 3.272449671e-07 
-1.463760119e-07 0 0 0 0 0 0 0 3.158157942e-07 
0 0 2.133544499e-07 0 0 1.884306943e-07 2.133544499e-07 1.884306943e-07 3.761090429e-07 
0 0 2.228998895e-07 0 0 2.004773486e-07 2.228998895e-07 2.004773486e-07 2.432999791e-07 
0 0 0 0 0 -2.987627678e-07 0 -2.987627678e-07 4.324551861e-07 
0 0 -2.280012367e-07 0 1.441610252e-07 -1.593524621e-07 -2.280012367e-07 -1.593524621e-07 5.395908399e-07 
7.189842641e-07 -2.237819731e-07 0 -2.237819731e-07 4.618838777e-07 1.859572688e-07 0 1.859572688e-07 5.561995849e-07 
-7.134269017e-07 2.87786976e-07 -1.611948312e-07 2.87786976e-07 -5.210942194e-07 -2.58996854e-07 -1.611948312e-07 -2.58996854e-07 0 
0 0 -1.284338736e-07 0 0 -2.29057615e-07 -1.284338736e-07 -2.29057615e-07 4.86023013e-07 
3.815419033e-07 -1.211553303e-07 0 -1.211553303e-07 3.030224514e-07 0 0 0 5.478952124e-07 
3.251305782e-07 0 0 0 2.205605811e-07 0 0 0 4.943273855e-07 
-3.910750047e-07 1.617738064e-07 0 1.617738064e-07 -2.709284674e-07 -2.788798109e-07 0 -2.788798109e-07 1.738056152e-07 
-3.346636796e-07 1.346291443e-07 -1.945980339e-07 1.346291443e-07 -1.884665971e-07 -2.091746581e-07 -1.945980339e-07 -2.091746581e-07 2.273734421e-07 
0 0 0 0 0 0 0 0 2.356778146e-07 
-2.069542603e-07 0 2.605472759e-07 0 -2.133413886e-07 0 2.605472759e-07 0 0 
0 0 -1.345504484e-07 0 0 -2.279701737e-07 -1.345504484e-07 -2.279701737e-07 5.007834332e-07 
0 0 0 0 0 -2.466870016e-07 0 -2.466870016e-07 4.566127684e-07 
1.50874613e-07 -1.343158126e-07 0 -1.343158126e-07 1.503732821e-07 6.7243274e-07 0 6.7243274e-07 4.99226556e-07 
0 0 0 0 0 -1.193508721e-07 0 -1.193508721e-07 2.871207842e-07 
0 0 0 0 0 -2.373285877e-07 0 -2.373285877e-07 4.786981008e-07 
0 0 0 0 0 -1.287092861e-07 0 -1.287092861e-07 2.650354518e-07 
0 0 0 0 0 3.308505848e-07 0 3.308505848e-07 2.863423456e-07 
0 0 -1.249262626e-07 0 0 2.222312832e-07 -1.249262626e-07 2.222312832e-07 5.000049946e-07 
0 0 0 0 0 2.128728692e-07 0 2.128728692e-07 4.779196622e-07 
1.866014448e-07 0 -1.544231022e-07 0 0 3.188211826e-07 -1.544231022e-07 3.188211826e-07 4.434016659e-07 
0 0 -4.242952835e-07 0 0 0 -4.242952835e-07 0 3.175078547e-07 
0 0 -3.618621928e-07 0 0 -1.491554675e-07 -3.618621928e-07 -1.491554675e-07 2.610103247e-07 
-2.365408872e-07 0 9.153041809e-07 0 0 -1.385364931e-07 9.153041809e-07 -1.385364931e-07 0 
1.514325667e-07 0 -2.893591928e-07 0 0 0 -2.893591928e-07 0 3.804547603e-07 
0 0 -3.930787381e-07 0 0 -1.31920282e-07 -3.930787381e-07 -1.31920282e-07 2.892590897e-07 
1.223671639e-07 0 -2.581426475e-07 0 0 0 -2.581426475e-07 0 3.522059953e-07 
0 0 3.804405393e-07 0 0 0 3.804405393e-07 0 1.702305656e-07 
0 0 2.455044487e-07 0 0 -1.266107947e-07 2.455044487e-07 -1.266107947e-07 0 
0 0 2.767209941e-07 0 0 -1.438459803e-07 2.767209941e-07 -1.438459803e-07 0 
0 0 -3.000993589e-07 0 0 -2.05422065e-07 -3.000993589e-07 -2.05422065e-07 1.893509182e-07 
-2.34195128e-07 0 -2.028486956e-07 0 0 -3.162080243e-07 -2.028486956e-07 -3.162080243e-07 1.663457416e-07 
-3.218890068e-07 0 0 0 -3.559335653e-07 1.258043975e-07 0 1.258043975e-07 1.765111833e-07 
7.355297622e-07 -2.456832121e-07 0 -2.456832121e-07 6.510801478e-07 -2.553222323e-07 0 -2.553222323e-07 9.081668331e-07 
-1.404310139e-07 0 -2.514740272e-07 0 0 -2.608150446e-07 -2.514740272e-07 -2.608150446e-07 1.778483299e-07 
-2.780420674e-07 0 0 0 -2.001437743e-07 0 0 0 1.714284624e-07 
-1.842779533e-07 0 -1.212404821e-07 0 -2.199318819e-07 0 -1.212404821e-07 0 1.829310507e-07 
3.444314312e-07 0 -1.943200959e-07 0 2.835749746e-07 -2.303721486e-07 -1.943200959e-07 -2.303721486e-07 5.487588757e-07 
2.506673171e-07 0 -1.456947642e-07 0 3.033630822e-07 -2.857651283e-07 -1.456947642e-07 -2.857651283e-07 5.372562873e-07 
2.068203777e-07 0 0 0 1.475732913e-07 0 0 0 5.423390082e-07 
2.762086891e-07 0 -1.949953731e-07 0 2.736144448e-07 0 -1.949953731e-07 0 3.848277454e-07 
-1.860227778e-07 0 2.061714407e-07 0 -1.811282122e-07 0 2.061714407e-07 0 -2.761075439e-07 
-1.275986045e-07 0 2.173558084e-07 0 0 0 2.173558084e-07 0 -2.253919309e-07 
0 0 -1.895152371e-07 0 -4.028129523e-07 0 -1.895152371e-07 0 -2.848465735e-07 
0 0 0 0 0 0 0 0 0 
-1.568106911e-07 0 2.117636245e-07 0 0 0 2.117636245e-07 0 -2.507497374e-07 
0 0 0 0 1.863394941e-07 0 0 0 0 
1.857112789e-07 0 -1.922553051e-07 0 0 0 -1.922553051e-07 0 0 
0 0 0 0 -2.919705823e-07 0 0 0 -2.804770587e-07 
0 0 0 0 -1.518742044e-07 0 0 0 -2.551192522e-07 
-2.240193156e-07 0 2.100496672e-07 0 -2.342938211e-07 0 2.100496672e-07 0 -3.034503107e-07 
3.490914091e-07 0 -1.99531152e-07 0 3.909724215e-07 0 -1.99531152e-07 0 4.418930792e-07 
-4.321220097e-07 0 2.273445025e-07 0 -5.766519853e-07 0 2.273445025e-07 0 -5.194487813e-07 
0 0 2.633153124e-07 0 7.35196949e-07 0 2.633153124e-07 0 4.667528117e-07 
0 0 0 0 0 0 0 0 0 
0 0 0 0 0 0 0 0 0 
-3.280706626e-07 0 2.186970848e-07 0 -4.054729032e-07 0 2.186970848e-07 0 -4.11449546e-07 
0 0 2.366824898e-07 0 2.504515639e-07 0 2.366824898e-07 0 0 
2.035634423e-07 0 0 0 5.630846852e-07 0 0 0 4.543229454e-07 
-1.870432671e-07 0 2.453299075e-07 0 0 0 2.453299075e-07 0 0 
0 0 1.877038503e-07 0 2.209414426e-07 0 1.877038503e-07 0 -1.458787718e-07 
0 0 -1.747199521e-07 0 -2.222377644e-07 0 -1.747199521e-07 0 1.845179669e-07 
0 0 -2.098947346e-07 0 -4.153369757e-07 0 -2.098947346e-07 0 2.277323977e-07 
6.012834914e-07 0 -1.853466047e-07 0 7.633993597e-07 0 -1.853466047e-07 0 2.184273326e-07 
0 0 0 0 0 0 0 0 0 
0 0 -1.923073433e-07 0 -3.1878737e-07 0 -1.923073433e-07 0 2.061251823e-07 
0 0 0 0 0 0 0 0 0 
2.795104714e-07 0 0 0 4.921704012e-07 0 0 0 0 
3.476560811e-07 0 -1.800332784e-07 0 2.705807977e-07 0 -1.800332784e-07 0 2.014726498e-07 
3.33425332e-07 0 -1.976206696e-07 0 1.74031192e-07 0 -1.976206696e-07 0 2.230798652e-07 
1.962100789e-07 0 -1.792896013e-07 0 0 0 -1.792896013e-07 0 2.69852221e-07 
0 0 1.912168791e-07 0 0 0 1.912168791e-07 0 -1.966735304e-07 
3.416539315e-07 0 -2.152077875e-07 0 2.689999601e-07 0 -2.152077875e-07 0 5.160196494e-07 
-4.325026217e-07 0 2.482905022e-07 0 -3.544280352e-07 0 2.482905022e-07 0 0 
0 0 0 0 0 0 0 0 0 
0 0 0 0 1.915020247e-07 0 0 0 1.596730595e-07 
2.689320052e-07 0 -1.972486944e-07 0 0 0 -1.972486944e-07 0 3.929359352e-07 
0 0 0 0 -1.974216498e-07 0 0 0 0 
-2.684008381e-07 0 2.197536907e-07 0 -1.20211973e-07 0 2.197536907e-07 0 0 
0 0 0 0 0 0 0 0 2.396176128e-07 
2.504611658e-07 0 -1.84005344e-07 0 0 0 -1.84005344e-07 0 4.060119877e-07 
-2.677207889e-07 0 1.676618111e-07 0 0 0 1.676618111e-07 0 -2.675319706e-07 
2.913168236e-07 0 -1.788063952e-07 0 1.430050063e-07 0 -1.788063952e-07 0 3.83021749e-07 
-3.621443255e-07 0 2.106957019e-07 0 -1.630539217e-07 0 2.106957019e-07 0 1.363183517e-07 
0 0 0 0 0 0 0 0 0 
0 0 0 0 0 0 0 0 0 
2.708889947e-07 0 -1.814058696e-07 0 0 0 -1.814058696e-07 0 3.945168684e-07 
0 0 0 0 0 0 0 0 2.711651697e-07 
-3.149325572e-07 0 1.891787565e-07 0 0 0 1.891787565e-07 0 0 
0 0 0 0 0 0 0 0 2.596700503e-07 
-2.281338179e-07 1.322990272e-07 1.644479417e-07 1.322990272e-07 0 0 1.644479417e-07 0 -2.405064965e-07 
1.910838052e-07 0 -1.813855868e-07 0 0 0 -1.813855868e-07 0 3.572063826e-07 
1.254087685e-07 0 -1.715614404e-07 0 -2.194074757e-07 0 -1.715614404e-07 0 2.242311499e-07 
4.005173007e-07 0 -1.821174046e-07 0 4.19428092e-07 0 -1.821174046e-07 0 0 
0 0 0 0 0 0 0 0 0 
1.582462869e-07 0 -1.764735136e-07 0 -1.587073562e-07 0 -1.764735136e-07 0 2.907187662e-07 
0 0 0 0 0 0 0 0 0 
0 0 0 0 2.414114615e-07 0 0 0 0 
2.95800553e-07 0 -1.817514957e-07 0 1.607104277e-07 0 -1.817514957e-07 0 2.133925591e-07 
2.629630346e-07 0 -1.768394225e-07 0 0 0 -1.768394225e-07 0 1.469049427e-07 
-3.408085015e-07 0 1.844718021e-07 0 -2.196108602e-07 0 1.844718021e-07 0 -3.521398585e-07 
3.549473765e-07 0 -2.025832747e-07 0 3.165785632e-07 0 -2.025832747e-07 0 4.867434418e-07 
-3.282644606e-07 0 2.02762074e-07 0 -4.019437248e-07 0 2.02762074e-07 0 -3.962906945e-07 
0 0 2.145384015e-07 0 6.252644436e-07 0 2.145384015e-07 0 4.907450987e-07 
0 0 0 0 0 0 0 0 0 
0 0 0 0 0 0 0 0 0 
-3.345364811e-07 0 1.93616938e-07 0 -3.107772925e-07 0 1.93616938e-07 0 -3.742152765e-07 
-1.795830595e-07 0 1.995051018e-07 0 2.028267917e-07 0 1.995051018e-07 0 0 
1.682948795e-07 0 0 0 4.709215034e-07 0 0 0 4.887442703e-07 
-1.73311039e-07 0 2.086502377e-07 0 0 0 2.086502377e-07 0 0 
3.119597405e-07 0 -1.996857408e-07 0 2.508642539e-07 0 -1.996857408e-07 0 4.541372495e-07 
-3.136290957e-07 0 1.812779092e-07 0 -1.967048263e-07 0 1.812779092e-07 0 -3.371190673e-07 
0 0 1.9467698e-07 0 1.616270476e-07 0 1.9467698e-07 0 -1.50314092e-07 
0 0 -1.834439261e-07 0 -4.026201657e-07 0 -1.834439261e-07 0 -3.290648211e-07 
0 0 0 0 0 0 0 0 0 
-1.927507521e-07 0 1.879774446e-07 0 0 0 1.879774446e-07 0 -2.437165797e-07 
1.20043666e-07 0 0 0 2.062456508e-07 0 0 0 1.519115787e-07 
1.788165826e-07 0 -1.915648334e-07 0 0 0 -1.915648334e-07 0 0 
-1.339778355e-07 0 0 0 -2.99662496e-07 0 0 0 -3.330919442e-07 
0 0 0 0 -1.20496559e-07 0 0 0 -2.396894565e-07 
1.437677363e-07 0 -2.117229713e-07 0 0 0 -2.117229713e-07 0 3.109902891e-07 
-1.220664457e-07 0 2.267375161e-07 0 1.628120697e-07 0 2.267375161e-07 0 -2.068146228e-07 
2.755059092e-07 0 -2.028578544e-07 0 2.494137127e-07 0 -2.028578544e-07 0 3.830565461e-07 
-3.990996987e-07 0 2.626600009e-07 0 -3.573676289e-07 0 2.626600009e-07 0 0 
0 0 0 0 0 0 0 0 0 
0 0 0 0 2.061128912e-07 0 0 0 0 
2.096368228e-07 0 -2.072904129e-07 0 0 0 -2.072904129e-07 0 3.470234176e-07 
-1.276659812e-07 0 0 0 -2.252224202e-07 0 0 0 1.746064398e-07 
-2.605830722e-07 0 2.446987585e-07 0 0 0 2.446987585e-07 0 0 
0 0 0 0 0 0 0 0 2.106395683e-07 
0 0 2.237262905e-07 0 2.450811341e-07 0 2.237262905e-07 0 -1.670406168e-07 
0 0 -2.086606331e-07 0 -2.027096288e-07 0 -2.086606331e-07 0 2.58226875e-07 
0 0 -1.937415401e-07 0 -5.98608323e-07 0 -1.937415401e-07 0 0 
5.66995341e-07 0 -1.776514609e-07 0 9.032299245e-07 0 -1.776514609e-07 0 2.298228034e-07 
0 0 0 0 0 0 0 0 0 
0 0 -2.012010866e-07 0 -4.006589759e-07 0 -2.012010866e-07 0 1.388439018e-07 
0 0 0 0 -1.767635945e-07 0 0 0 0 
2.474873065e-07 0 0 0 5.741555293e-07 0 0 0 0 
3.223929519e-07 0 -1.93156047e-07 0 3.502601478e-07 0 -1.93156047e-07 0 2.440248392e-07 
2.39677761e-07 0 -1.856965005e-07 0 1.523108007e-07 0 -1.856965005e-07 0 1.24641866e-07 
-3.122524214e-07 0 2.435615061e-07 0 -3.424676369e-07 0 2.435615061e-07 0 -4.003880873e-07 
3.610125739e-07 0 -2.334506454e-07 0 4.931965704e-07 0 -2.334506454e-07 0 5.101332664e-07 
-4.103277987e-07 0 2.597468132e-07 0 -7.401568116e-07 0 2.597468132e-07 0 -5.322653534e-07 
2.228405027e-07 0 2.668308355e-07 0 1.078596857e-06 0 2.668308355e-07 0 6.656125536e-07 
0 0 0 0 0 0 0 0 0 
0 0 0 0 -1.234801206e-07 0 0 0 0 
-3.6129011e-07 0 2.516541596e-07 0 -5.413122242e-07 0 2.516541596e-07 0 -4.663267203e-07 
0 0 2.551961708e-07 0 3.6806461e-07 0 2.551961708e-07 0 1.326122332e-07 
2.919265383e-07 0 0 0 7.858967136e-07 0 0 0 5.8787291e-07 
0 0 2.632888243e-07 0 1.692200226e-07 0 2.632888243e-07 0 0 
3.415804597e-07 0 -2.297330715e-07 0 4.885604888e-07 0 -2.297330715e-07 0 5.0291823e-07 
-3.019940444e-07 0 2.403344939e-07 0 -3.491496655e-07 0 2.403344939e-07 0 -3.99319889e-07 
0 0 2.476417958e-07 0 2.756907431e-07 0 2.476417958e-07 0 0 
-1.394818111e-07 0 -1.77209699e-07 0 -7.427581173e-07 0 -1.77209699e-07 0 -5.099621548e-07 
0 0 0 0 0 0 0 0 0 
-1.308442758e-07 0 2.439881449e-07 0 0 0 2.439881449e-07 0 -2.458293163e-07 
1.909429762e-07 0 0 0 3.82125616e-07 0 0 0 2.052897432e-07 
0 0 -2.034713852e-07 0 -1.270988142e-07 0 -2.034713852e-07 0 0 
-2.207379277e-07 0 0 0 -5.459538914e-07 0 0 0 -4.546410219e-07 
0 0 0 0 -2.335336871e-07 0 0 0 -3.011504492e-07 
2.636692767e-07 0 -2.289383066e-07 0 4.047524483e-07 0 -2.289383066e-07 0 3.475543194e-07 
-1.580755493e-07 0 2.449300852e-07 0 -2.530327669e-07 0 2.449300852e-07 0 -2.71656151e-07 
0 0 2.608286993e-07 0 2.376197731e-07 0 2.608286993e-07 0 -1.525337559e-07 
-1.234080516e-07 0 -1.964305037e-07 0 -7.239060387e-07 0 -1.964305037e-07 0 -4.499381611e-07 
0 0 0 0 0 0 0 0 0 
0 0 2.528793922e-07 0 0 0 2.528793922e-07 0 -2.120949534e-07 
1.272927645e-07 0 0 0 3.211861107e-07 0 0 0 0 
0 0 -2.126844051e-07 0 -1.595767952e-07 0 -2.126844051e-07 0 0 
-1.407418005e-07 0 0 0 -4.884694028e-07 0 0 0 -3.60797156e-07 
0 0 0 0 -2.431431328e-07 0 0 0 -3.012359585e-07 
-1.651972004e-07 0 2.484648791e-07 0 -2.412217554e-07 0 2.484648791e-07 0 -2.702441745e-07 
2.88496314e-07 0 -2.317617634e-07 0 4.088992402e-07 0 -2.317617634e-07 0 3.56242336e-07 
-4.667494589e-07 0 2.732308778e-07 0 -8.28722205e-07 0 2.732308778e-07 0 -6.097179411e-07 
3.098313909e-07 0 3.065917924e-07 0 1.163819223e-06 0 3.065917924e-07 0 6.185166091e-07 
0 0 0 0 0 0 0 0 0 
0 0 0 0 -2.099114824e-07 0 0 0 -1.267378025e-07 
-3.159733296e-07 0 2.608478784e-07 0 -5.349719802e-07 0 2.608478784e-07 0 -4.399810578e-07 
0 0 2.775283357e-07 0 4.612987337e-07 0 2.775283357e-07 0 1.741362173e-07 
2.991638525e-07 0 0 0 7.863592315e-07 0 0 0 4.873794726e-07 
0 0 2.899113351e-07 0 1.675485088e-07 0 2.899113351e-07 0 0 
0 0 2.341847078e-07 0 2.792024322e-07 0 2.341847078e-07 0 0 
0 0 -2.117725446e-07 0 -2.24506698e-07 0 -2.117725446e-07 0 0 
-1.540632627e-07 0 -2.337591589e-07 0 -7.515938598e-07 0 -2.337591589e-07 0 0 
7.262131739e-07 0 -1.858819393e-07 0 1.223300193e-06 0 -1.858819393e-07 0 3.960108251e-07 
0 0 0 0 0 0 0 0 0 
0 0 -2.227658517e-07 0 -4.880502789e-07 0 -2.227658517e-07 0 0 
0 0 0 0 -2.361957138e-07 0 0 0 0 
3.897167237e-07 0 0 0 7.512513125e-07 0 0 0 1.6025311e-07 
3.722475556e-07 0 -1.988272419e-07 0 4.993967474e-07 0 -1.988272419e-07 0 2.442100363e-07 
2.860749556e-07 0 -2.098205491e-07 0 2.358531665e-07 0 -2.098205491e-07 0 1.971872817e-07 
0 0 -2.145108548e-07 0 0 0 -2.145108548e-07 0 1.478902306e-07 
0 0 2.371411886e-07 0 1.999333761e-07 0 2.371411886e-07 0 0 
2.895995915e-07 0 -2.408298384e-07 0 3.536626125e-07 0 -2.408298384e-07 0 4.632270039e-07 
-4.443717673e-07 0 2.874434696e-07 0 -5.262704978e-07 0 2.874434696e-07 0 -1.42304271e-07 
0 0 0 0 0 0 0 0 0 
1.478740601e-07 0 0 0 2.767979943e-07 0 0 0 1.748720643e-07 
1.906028835e-07 0 -2.276703466e-07 0 1.202688377e-07 0 -2.276703466e-07 0 3.055586173e-07 
-1.763827959e-07 0 0 0 -3.196977175e-07 0 0 0 0 
-2.191116193e-07 0 2.622923291e-07 0 -1.631685609e-07 0 2.622923291e-07 0 -1.278935732e-07 
0 0 0 0 0 0 0 0 1.604613665e-07 
0 0 -2.393515219e-07 0 -2.175577481e-07 0 -2.393515219e-07 0 1.730101069e-07 
-2.693168404e-07 0 -2.302248764e-07 0 -8.946173662e-07 0 -2.302248764e-07 0 -1.845303184e-07 
0 0 2.643762967e-07 0 3.348757336e-07 0 2.643762967e-07 0 0 
6.351731344e-07 0 -1.871983899e-07 0 1.244181152e-06 0 -1.871983899e-07 0 3.432775167e-07 
-1.281224857e-07 0 -2.347881991e-07 0 -5.560875571e-07 0 -2.347881991e-07 0 0 
-1.20147798e-07 0 0 0 -2.798708163e-07 0 0 0 -1.502868552e-07 
0 0 0 0 0 0 0 0 0 
3.241225016e-07 0 -2.132749559e-07 0 5.133117018e-07 0 -2.132749559e-07 0 2.581438118e-07 
1.82928147e-07 0 -2.087116331e-07 0 1.747818927e-07 0 -2.087116331e-07 0 0 
3.320971894e-07 0 0 0 7.895284426e-07 0 0 0 0 
0 0 2.669070472e-07 0 2.648311004e-07 0 2.669070472e-07 0 -1.477264015e-07 
2.196368467e-07 0 -2.389251515e-07 0 2.760212857e-07 0 -2.389251515e-07 0 3.135704024e-07 
0 0 -2.430367059e-07 0 -1.411479038e-07 0 -2.430367059e-07 0 2.10785124e-07 
-3.624869457e-07 0 3.135472633e-07 0 -4.755962973e-07 0 3.135472633e-07 0 0 
0 0 0 0 2.70426193e-07 0 0 0 0 
1.409535459e-07 0 -2.409809287e-07 0 0 0 -2.409809287e-07 0 2.621777632e-07 
0 0 0 0 0 0 0 0 0 
-1.844087491e-07 0 2.902271552e-07 0 0 0 2.902271552e-07 0 0 
0 0 0 0 0 0 0 0 1.364866796e-07 
-1.501083503e-07 0 0 0 -3.083721006e-07 0 0 0 0 
-2.445362969e-07 0 2.775371807e-07 0 -3.463505549e-07 0 2.775371807e-07 0 -3.923132586e-07 
0 0 2.744493115e-07 0 3.115646761e-07 0 2.744493115e-07 0 0 
3.089077989e-07 0 -2.591749485e-07 0 5.40599644e-07 0 -2.591749485e-07 0 4.590646503e-07 
-2.55622667e-07 0 -1.853396236e-07 0 -8.33837593e-07 0 -1.853396236e-07 0 -5.762031186e-07 
0 0 2.759932461e-07 0 0 0 2.759932461e-07 0 -2.223967703e-07 
2.021002877e-07 0 0 0 4.2608216e-07 0 0 0 2.032921841e-07 
0 0 0 0 0 0 0 0 0 
-2.500794819e-07 0 0 0 -5.90094074e-07 0 0 0 -4.842581886e-07 
0 0 0 0 -2.611364585e-07 0 0 0 -3.143417003e-07 
0 0 -2.222572861e-07 0 -1.466189745e-07 0 -2.222572861e-07 0 0 
2.933656313e-07 0 -2.636880349e-07 0 4.730074949e-07 0 -2.636880349e-07 0 4.341179949e-07 
-4.298047429e-07 0 2.883910621e-07 0 -8.80772182e-07 0 2.883910621e-07 0 -5.676909544e-07 
-2.229264585e-07 0 2.803553964e-07 0 -2.891218947e-07 0 2.803553964e-07 0 -3.686577387e-07 
3.768001988e-07 0 3.172594639e-07 0 1.235938059e-06 0 3.172594639e-07 0 7.000595953e-07 
0 0 0 0 -2.038823436e-07 0 0 0 0 
-3.263656007e-07 0 2.843732293e-07 0 -5.849470383e-07 0 2.843732293e-07 0 -4.681743465e-07 
0 0 0 0 0 0 0 0 0 
3.35082915e-07 0 0 0 8.544727768e-07 0 0 0 5.670887951e-07 
0 0 3.02825263e-07 0 1.775829383e-07 0 3.02825263e-07 0 0 
0 0 2.988074302e-07 0 4.73408082e-07 0 2.988074302e-07 0 1.657009283e-07 
0 0 1.238219668e-07 0 0 0 1.238219668e-07 0 2.344674991e-07 
0 0 -1.825827347e-07 0 0 -1.261615794e-07 -1.825827347e-07 -1.261615794e-07 4.826231958e-07 
0 0 0 0 0 0 0 0 4.864639932e-07 
0 0 2.732283904e-07 0 0 2.58198877e-07 2.732283904e-07 2.58198877e-07 2.592993906e-07 
0 0 0 0 0 0 0 0 3.585453475e-07 
0 0 0 0 0 0 0 0 4.845435945e-07 
0 0 0 0 0 0 0 0 3.604657461e-07 
0 0 1.985251786e-07 0 0 1.756572682e-07 1.985251786e-07 1.756572682e-07 2.468834448e-07 
0 0 0 0 0 0 0 0 3.709612932e-07 
0 0 1.903175451e-07 0 0 1.644643745e-07 1.903175451e-07 1.644643745e-07 3.728816919e-07 
0 0 -1.418929428e-07 0 0 -1.457064483e-07 -1.418929428e-07 -1.457064483e-07 5.118616713e-07 
3.592901874e-07 0 0 0 1.811093274e-07 0 0 0 3.21336944e-07 
0 0 0 0 0 0 0 0 4.148067529e-07 
0 0 -1.752138624e-07 0 0 -1.935800364e-07 -1.752138624e-07 -1.935800364e-07 2.795846605e-07 
1.21800011e-07 0 0 0 0 0 0 0 4.165993077e-07 
1.279082473e-07 0 0 0 0 0 0 0 3.680718484e-07 
0 0 0 0 0 0 0 0 4.633342121e-07 
0 0 -1.585534026e-07 0 0 -1.696432424e-07 -1.585534026e-07 -1.696432424e-07 3.957231659e-07 
1.703499456e-07 0 0 0 0 0 0 0 3.004608022e-07 
0 0 0 0 0 0 0 0 3.471957067e-07 
0 0 0 0 0 -2.057622716e-07 0 -2.057622716e-07 4.962845523e-07 
-1.95114931e-07 0 2.288398568e-07 0 -1.771266628e-07 0 2.288398568e-07 0 0 
0 0 0 0 0 -2.215888106e-07 0 -2.215888106e-07 5.099174395e-07 
1.719319502e-07 -1.662113459e-07 0 -1.662113459e-07 1.717514192e-07 5.957965043e-07 0 5.957965043e-07 5.345620953e-07 
0 0 0 0 0 0 0 0 2.859915295e-07 
0 0 0 0 0 0 0 0 2.928079731e-07 
0 0 0 0 0 -2.136755411e-07 0 -2.136755411e-07 5.031009959e-07 
0 0 0 0 0 1.950171164e-07 0 1.950171164e-07 5.154233238e-07 
0 0 0 0 0 2.990078513e-07 0 2.990078513e-07 3.05130301e-07 
0 0 0 0 0 1.871038468e-07 0 1.871038468e-07 5.222397674e-07 
8.129851453e-07 -2.561265638e-07 0 -2.561265638e-07 5.139203884e-07 1.762148133e-07 0 1.762148133e-07 5.870782719e-07 
-1.260089352e-07 0 0 0 0 -2.601009289e-07 0 -2.601009289e-07 4.488856929e-07 
0 0 -1.763476006e-07 0 0 -1.704697286e-07 -1.763476006e-07 -1.704697286e-07 5.367173135e-07 
-6.90864178e-07 2.867829553e-07 -1.560982757e-07 2.867829553e-07 -4.729729569e-07 -1.988627826e-07 -1.560982757e-07 -1.988627826e-07 0 
3.43488105e-07 0 0 0 2.401905115e-07 0 0 0 5.179819824e-07 
0 0 0 0 0 -2.152853287e-07 0 -2.152853287e-07 4.928015032e-07 
4.197279087e-07 -1.236693261e-07 0 -1.236693261e-07 3.05548758e-07 0 0 0 5.618977927e-07 
0 0 0 0 0 0 0 0 2.569393657e-07 
-4.084365566e-07 1.770995502e-07 0 1.770995502e-07 -2.532561612e-07 -2.294818557e-07 0 -2.294818557e-07 1.878430762e-07 
-3.321967529e-07 1.477854334e-07 -1.662229381e-07 1.477854334e-07 -1.878979147e-07 -1.846662556e-07 -1.662229381e-07 -1.846662556e-07 2.317588865e-07 
0 0 -2.590374188e-07 0 -1.598672233e-07 0 -2.590374188e-07 0 0 
0 0 2.638509533e-07 0 2.508405248e-07 0 2.638509533e-07 0 0 
2.084500591e-07 0 -2.686560589e-07 0 3.294350743e-07 0 -2.686560589e-07 0 3.559634969e-07 
-3.737374137e-07 0 3.208445478e-07 0 -5.543322267e-07 0 3.208445478e-07 0 -1.725065272e-07 
0 0 0 0 0 0 0 0 0 
1.397559764e-07 0 0 0 2.901377996e-07 0 0 0 1.566858264e-07 
0 0 -2.638467389e-07 0 0 0 -2.638467389e-07 0 2.041100671e-07 
-1.828578816e-07 0 0 0 -3.57099725e-07 0 0 0 0 
-1.5133776e-07 0 2.923477505e-07 0 -1.51745851e-07 0 2.923477505e-07 0 0 
0 0 0 0 0 0 0 0 0 
0 0 2.603336177e-07 0 2.783833097e-07 0 2.603336177e-07 0 0 
0 0 -2.574043328e-07 0 -1.472840173e-07 0 -2.574043328e-07 0 0 
-3.034338942e-07 0 -2.606147289e-07 0 -9.450128583e-07 0 -2.606147289e-07 0 -1.801416022e-07 
6.965509906e-07 0 -2.031528441e-07 0 1.368384992e-06 0 -2.031528441e-07 0 4.534264083e-07 
0 0 0 0 0 0 0 0 0 
-1.573224294e-07 0 -2.590095308e-07 0 -5.461484378e-07 0 -2.590095308e-07 0 0 
0 0 0 0 -3.333147743e-07 0 0 0 0 
3.930521568e-07 0 0 0 8.233841507e-07 0 0 0 2.123664383e-07 
3.426700131e-07 0 -2.302785884e-07 0 6.105504872e-07 0 -2.302785884e-07 0 2.518245907e-07 
1.965585482e-07 0 -2.318837865e-07 0 2.116860667e-07 0 -2.318837865e-07 0 1.36642403e-07 
0 0 2.665584133e-07 0 -1.397141374e-07 0 2.665584133e-07 0 -1.934146416e-07 
1.895506076e-07 0 -2.70310938e-07 0 3.039746e-07 0 -2.70310938e-07 0 2.415451714e-07 
-4.355732642e-07 0 2.90445588e-07 0 -8.855300118e-07 0 2.90445588e-07 0 -5.835748905e-07 
4.314856876e-07 0 3.364660055e-07 0 1.268106769e-06 0 3.364660055e-07 0 6.373268509e-07 
0 0 0 0 0 0 0 0 0 
-1.230113283e-07 0 0 0 -2.907777059e-07 0 0 0 -1.710148596e-07 
-2.63754321e-07 0 2.785020006e-07 0 -5.126220746e-07 0 2.785020006e-07 0 -3.88494766e-07 
1.697751549e-07 0 3.015122094e-07 0 5.641963159e-07 0 3.015122094e-07 0 2.219561047e-07 
3.105181476e-07 0 0 0 7.860406846e-07 0 0 0 4.394360111e-07 
0 0 3.134557968e-07 0 1.912883787e-07 0 3.134557968e-07 0 0 
2.242025027e-07 0 -2.68602846e-07 0 4.360313804e-07 0 -2.68602846e-07 0 2.91560197e-07 
0 0 2.625002488e-07 0 -2.116045186e-07 0 2.625002488e-07 0 -2.221908287e-07 
0 0 2.78691056e-07 0 2.583245171e-07 0 2.78691056e-07 0 0 
-2.498331697e-07 0 -2.115697833e-07 0 -8.137579494e-07 0 -2.115697833e-07 0 -4.902517692e-07 
0 0 0 0 0 0 0 0 0 
0 0 2.705956524e-07 0 0 0 2.705956524e-07 0 -1.58505191e-07 
1.370073045e-07 0 0 0 3.471779487e-07 0 0 0 0 
0 0 -2.400863146e-07 0 -1.888632845e-07 0 -2.400863146e-07 0 0 
-1.828898207e-07 0 0 0 -5.12681234e-07 0 0 0 -3.56221299e-07 
0 0 0 0 -2.777167162e-07 0 0 0 -2.925356613e-07 
0 0 0 0 0 0 0 0 5.622757674e-07 
0 1.221508767e-07 0 1.221508767e-07 0 0 0 0 5.325200619e-07 
0 0 1.510550055e-07 0 0 0 1.510550055e-07 0 1.331804767e-07 
3.781913634e-07 0 -1.623586098e-07 0 4.100951834e-07 0 -1.623586098e-07 0 4.390871334e-07 
0 0 0 0 0 0 0 0 5.473979146e-07 
0 0 0 0 0 0 0 0 3.328502693e-07 
0 0 0 0 0 0 0 0 3.47728122e-07 
2.472095637e-07 0 -1.292513569e-07 0 2.114451067e-07 0 -1.292513569e-07 0 5.006814504e-07 
1.593961759e-07 0 -1.393927852e-07 0 1.47558992e-07 0 -1.393927852e-07 0 4.858035977e-07 
1.619910181e-07 0 0 0 1.887941094e-07 0 0 0 2.861338051e-07 
0 0 1.404152274e-07 0 0 1.29400301e-07 1.404152274e-07 1.29400301e-07 1.448514409e-07 
0 0 0 0 1.398531494e-07 0 0 0 6.556451029e-07 
0 0 0 0 0 -1.380269293e-07 0 -1.380269293e-07 5.471242987e-07 
-2.164640945e-07 0 2.690631129e-07 0 -2.045015125e-07 1.194643056e-07 2.690631129e-07 1.194643056e-07 3.367935665e-07 
0 0 0 0 0 0 0 0 4.002482719e-07 
0 0 0 0 0 0 0 0 6.013847008e-07 
0 0 0 0 0 0 0 0 3.459878698e-07 
0 0 2.047391702e-07 0 -1.227539347e-07 1.244323033e-07 2.047391702e-07 1.244323033e-07 2.408225037e-07 
0 0 0 0 0 0 0 0 4.962193347e-07 
0 0 0 0 0 0 0 0 4.419589326e-07 
0 0 1.972350033e-07 0 0 0 1.972350033e-07 0 1.959143931e-07 
0 0 2.332652342e-07 0 2.178118526e-07 0 2.332652342e-07 0 3.359691474e-07 
0 0 -1.554995029e-07 0 0 0 -1.554995029e-07 0 5.10006747e-07 
-2.292488399e-07 1.689293703e-07 -1.763209137e-07 1.689293703e-07 -4.660893777e-07 0 -1.763209137e-07 0 0 
0 0 2.152501188e-07 0 0 0 2.152501188e-07 0 2.659417702e-07 
0 0 0 0 1.550602259e-07 0 0 0 4.229879472e-07 
0 0 0 0 0 0 0 0 3.5296057e-07 
-1.257750668e-07 0 0 0 -2.475632702e-07 0 0 0 0 
0 0 0 0 -1.241387626e-07 0 0 0 1.794596823e-07 
0 0 -1.659102083e-07 0 -1.868903892e-07 0 -1.659102083e-07 0 2.66478482e-07 
0 0 -1.297615783e-07 0 0 0 -1.297615783e-07 0 4.877359209e-07 
-2.285653571e-07 0 1.911673822e-07 0 -3.110208263e-07 1.495312195e-07 1.911673822e-07 1.495312195e-07 0 
0 0 1.81238619e-07 0 0 0 1.81238619e-07 0 2.095472656e-07 
2.213250449e-07 -1.849979621e-07 2.718045725e-07 -1.849979621e-07 5.009835351e-07 0 2.718045725e-07 0 6.478724641e-07 
-1.28238916e-07 0 0 0 0 0 0 0 2.913555046e-07 
0 0 1.862030006e-07 0 -1.71425906e-07 0 1.862030006e-07 0 1.522611769e-07 
0 0 0 0 0 0 0 0 3.486415933e-07 
0 0 0 0 2.906916638e-07 0 0 0 5.678041925e-07 
0 0 2.314859774e-07 0 0 0 2.314859774e-07 0 3.714237762e-07 
1.236234072e-07 0 2.265215957e-07 0 2.345762747e-07 0 2.265215957e-07 0 4.287098648e-07 
4.535554551e-07 2.036617212e-07 0 2.036617212e-07 2.056555627e-07 -3.829299552e-07 0 -3.829299552e-07 -2.467569938e-07 
0 0 0 0 0 4.890124485e-07 0 4.890124485e-07 -1.307236356e-07 
4.089529383e-07 2.00740289e-07 2.04587168e-07 2.00740289e-07 2.850019909e-07 0 2.04587168e-07 0 -1.192414508e-07 
-1.113054588e-06 -2.96289253e-07 0 -2.96289253e-07 -7.091717398e-07 0 0 0 -6.623402336e-07 
2.48312536e-07 0 0 0 1.471872748e-07 0 0 0 -1.887403147e-07 
2.260112777e-07 0 0 0 1.868604888e-07 2.03815786e-07 0 2.03815786e-07 -1.249825432e-07 
4.312541967e-07 2.022010051e-07 0 2.022010051e-07 2.453287768e-07 -2.321554158e-07 0 -2.321554158e-07 -1.829992223e-07 
-3.297495663e-07 0 0 0 -2.517580885e-07 -2.392072166e-07 0 -2.392072166e-07 -4.545486137e-07 
-5.349924853e-07 -1.885793436e-07 0 -1.885793436e-07 -3.102263765e-07 1.967639852e-07 0 1.967639852e-07 -3.965319346e-07 
-3.520508247e-07 0 1.475833883e-07 0 -2.120848744e-07 0 1.475833883e-07 0 -3.907908422e-07 
-7.998428678e-07 -2.713120574e-07 0 -2.713120574e-07 -8.667055556e-07 -3.027828193e-07 0 -3.027828193e-07 -8.274135445e-07 
0 -1.345839678e-07 -8.913968223e-07 -1.345839678e-07 0 -2.133252857e-07 -8.913968223e-07 -2.133252857e-07 -1.979739976e-07 
2.094329177e-07 1.994382276e-07 0 1.994382276e-07 3.217002991e-07 -3.133170655e-07 0 -3.133170655e-07 -2.851737037e-07 
3.465701439e-07 2.280886927e-07 1.315759776e-06 2.280886927e-07 5.364644501e-07 1.055159168e-06 1.315759776e-06 1.055159168e-06 -1.361229378e-07 
-3.983977049e-07 -2.029480126e-07 -4.681607526e-07 -2.029480126e-07 -4.80954645e-07 -2.580540525e-07 -4.681607526e-07 -2.580540525e-07 -5.12693771e-07 
0 0 -4.576764032e-07 0 0 -2.633211756e-07 -4.576764032e-07 -2.633211756e-07 -2.415738506e-07 
-2.95204975e-07 0 0 0 -2.725026282e-07 -3.080499424e-07 0 -3.080499424e-07 -5.562936241e-07 
-2.26636362e-07 0 6.354175466e-07 0 -1.651205527e-07 3.761881744e-07 6.354175466e-07 3.761881744e-07 -4.817682411e-07 
1.74808801e-07 0 2.121814769e-07 0 2.206303579e-07 4.209169412e-07 2.121814769e-07 4.209169412e-07 -1.670484677e-07 
2.780015308e-07 2.137634602e-07 6.45901896e-07 2.137634602e-07 4.290823746e-07 3.709210513e-07 6.45901896e-07 3.709210513e-07 -2.106483207e-07 
-1.527871567e-07 -2.616398211e-07 -2.920333695e-07 -2.616398211e-07 -1.794691225e-07 0 -2.920333695e-07 0 -5.993986185e-07 
0 0 3.341263255e-07 0 2.494890575e-07 5.630523121e-07 3.341263255e-07 5.630523121e-07 0 
-1.196085674e-07 0 1.377827125e-07 0 0 -2.385864331e-07 1.377827125e-07 -2.385864331e-07 8.662392046e-07 
-1.392830408e-07 0 0 0 -2.267137819e-07 -4.016341419e-07 0 -4.016341419e-07 -5.073518282e-07 
0 0 0 0 0 3.146000276e-07 0 3.146000276e-07 -3.181883135e-07 
0 0 2.35954519e-07 0 0 1.622329395e-07 2.35954519e-07 1.622329395e-07 4.14630598e-07 
-1.36197862e-07 0 0 0 -1.243133036e-07 0 0 0 1.33420293e-07 
-1.460350988e-07 0 -1.988874529e-07 0 -2.030914522e-07 -1.677431993e-07 -1.988874529e-07 -1.677431993e-07 -5.533752234e-07 
0 0 0 0 0 0 0 0 -2.721649184e-07 
-1.294458041e-07 0 0 0 -1.479356333e-07 -3.201102875e-07 0 -3.201102875e-07 1.794436882e-07 
-6.33280079e-07 0 0 0 -2.979682298e-07 -2.425396542e-07 0 -2.425396542e-07 6.497935405e-07 
-2.787187458e-07 -1.276376442e-07 0 -1.276376442e-07 0 5.371962494e-07 0 5.371962494e-07 -1.593810622e-07 
1.054051001e-06 0 0 0 4.435632494e-07 0 0 0 0 
5.682957692e-07 0 0 0 3.240688013e-07 1.719665955e-07 0 1.719665955e-07 1.026518473e-06 
-4.559994124e-07 0 0 0 0 1.473282976e-07 0 1.473282976e-07 2.452062391e-07 
3.876661277e-07 0 0 0 2.520571516e-07 3.055456315e-07 0 3.055456315e-07 0 
2.103854611e-07 0 0 0 0 0 0 0 2.854431824e-07 
0 0 0 0 0 0 0 0 8.381560066e-07 
1.447885117e-07 0 0 0 1.923099275e-07 3.545814225e-07 0 3.545814225e-07 4.335687052e-07 
8.111733852e-07 0 0 0 3.838160254e-07 1.229308045e-07 0 1.229308045e-07 4.738056485e-07 
1.028855223e-06 1.781667946e-07 1.589291203e-07 1.781667946e-07 3.949686137e-07 -2.508852819e-07 1.589291203e-07 -2.508852819e-07 1.340102509e-06 
0 0 0 0 0 -2.295766982e-07 0 -2.295766982e-07 9.502445646e-07 
-1.718346475e-06 -4.849545722e-07 -2.253316396e-07 -4.849545722e-07 -9.099287548e-07 0 -2.253316396e-07 0 -1.239681583e-06 
1.612179681e-06 4.937197056e-07 1.993101203e-07 4.937197056e-07 7.939641485e-07 -2.878394201e-07 1.993101203e-07 -2.878394201e-07 4.139135387e-07 
4.757213834e-07 0 0 0 1.60316815e-07 -2.402309901e-07 0 -2.402309901e-07 1.145173537e-06 
-8.978794656e-07 -2.376584609e-07 0 -2.376584609e-07 -4.921318692e-07 0 0 0 -1.447185094e-07 
-3.447456255e-07 -1.533938888e-07 0 -1.533938888e-07 -2.574800705e-07 0 0 0 0 
1.320517452e-06 3.359432501e-07 1.791196203e-07 3.359432501e-07 5.944663811e-07 -2.69362351e-07 1.791196203e-07 -2.69362351e-07 8.770080236e-07 
7.673836124e-07 2.51678678e-07 0 2.51678678e-07 3.598145824e-07 -2.587080592e-07 0 -2.587080592e-07 6.820790516e-07 
0 0 0 0 0 0 0 0 -4.128840223e-07 
0 0 0 0 0 1.439888394e-07 0 1.439888394e-07 -4.459037189e-07 
0 0 0 0 0 -2.476928349e-07 0 -2.476928349e-07 9.568600316e-07 
3.250272598e-07 0 0 0 0 -2.617758416e-07 0 -2.617758416e-07 1.032173262e-06 
-7.567296983e-07 -1.206221509e-07 0 -1.206221509e-07 -2.710166291e-07 2.048951766e-07 0 2.048951766e-07 4.978234541e-07 
0 0 0 0 0 0 0 0 2.554781563e-07 
1.456890654e-07 0 0 0 0 -2.547343382e-07 0 -2.547343382e-07 9.94516647e-07 
1.509060446e-07 0 0 0 0 0 0 0 2.931347717e-07 
-3.899724345e-07 0 0 0 0 1.74442008e-07 0 1.74442008e-07 0 
-3.951894137e-07 0 0 0 -1.835316918e-07 0 0 0 7.273417428e-07 
-2.158512193e-07 0 0 0 0 0 0 0 7.649983582e-07 
-1.954445351e-07 0 1.252794433e-07 0 0 0 1.252794433e-07 0 -2.876042794e-07 
3.638738069e-07 0 -3.358824684e-07 0 0 -1.700090964e-07 -3.358824684e-07 -1.700090964e-07 -4.701979636e-07 
0 -1.592358204e-07 0 -1.592358204e-07 0 2.096842244e-07 0 2.096842244e-07 -5.00288906e-07 
-1.901929258e-07 0 2.715165886e-07 0 0 0 2.715165886e-07 0 -4.465560854e-07 
0 0 0 0 0 -1.282147194e-07 0 -1.282147194e-07 -3.789011215e-07 
1.816782761e-07 0 -1.868456349e-07 0 0 0 -1.868456349e-07 0 -4.852434348e-07 
0 0 0 0 0 0 0 0 -3.939465927e-07 
-1.928187304e-07 0 1.98398016e-07 0 0 0 1.98398016e-07 0 -3.670801824e-07 
0 0 0 0 0 0 0 0 -4.583770245e-07 
0 0 0 0 0 1.602103756e-07 0 1.602103756e-07 -4.734224957e-07 
2.493514938e-07 -1.264926198e-07 -2.152049796e-07 -1.264926198e-07 0 0 -2.152049796e-07 0 -5.16593769e-07 
-2.805359256e-07 0 1.555753036e-07 0 0 0 1.555753036e-07 0 -3.089621433e-07 
2.337489269e-07 0 -1.380263964e-07 0 1.621772107e-07 0 -1.380263964e-07 0 -3.737513661e-07 
0 0 -1.227230215e-07 0 -1.619804628e-07 0 -1.227230215e-07 0 -3.42713601e-07 
0 0 0 0 0 0 0 0 -4.127779562e-07 
0 0 0 0 0 0 0 0 -3.413567547e-07 
2.415502103e-07 0 -1.76615688e-07 0 0 0 -1.76615688e-07 0 -4.451725676e-07 
1.390290634e-07 -1.209378258e-07 -1.689640006e-07 -1.209378258e-07 0 0 -1.689640006e-07 0 -4.29653685e-07 
-1.259146463e-07 0 0 0 0 0 0 0 -3.258378721e-07 
1.312277799e-07 0 -1.303747089e-07 0 0 0 -1.303747089e-07 0 -3.582324836e-07 
5.958646922e-07 0 -3.978443887e-07 0 0 -2.225235511e-07 -3.978443887e-07 -2.225235511e-07 -2.86095592e-07 
-2.543582687e-07 0 1.373974197e-07 0 0 0 1.373974197e-07 0 -2.798900914e-07 
-1.29029399e-07 0 0 0 0 0 0 0 -1.916327378e-07 
-5.828113283e-07 0 3.752787448e-07 0 -2.961221537e-07 2.116493955e-07 3.752787448e-07 2.116493955e-07 -7.76564596e-07 
1.707532117e-07 0 -1.302234845e-07 0 0 -1.651524336e-07 -1.302234845e-07 -1.651524336e-07 -2.829928417e-07 
-1.916938338e-07 0 1.2610897e-07 0 0 0 1.2610897e-07 0 -2.357614146e-07 
2.334176466e-07 0 -1.415119342e-07 0 0 -1.379041422e-07 -1.415119342e-07 -1.379041422e-07 -2.388641649e-07 
0 0 0 0 0 0 0 0 -5.31330094e-07 
-4.185847985e-07 0 2.563380822e-07 0 -1.517728228e-07 0 2.563380822e-07 0 -5.282273437e-07 
-3.559203637e-07 0 2.450496325e-07 0 -1.354835433e-07 0 2.450496325e-07 0 -4.840986669e-07 
-3.143612549e-07 0 1.603278189e-07 0 0 0 1.603278189e-07 0 -2.898494692e-07 
4.837234626e-07 0 -2.962706965e-07 0 1.532506086e-07 0 -2.962706965e-07 0 -3.015713964e-07 
-2.470374558e-07 0 1.295028637e-07 0 0 0 1.295028637e-07 0 -2.488660925e-07 
1.831367007e-07 0 -1.726532645e-07 0 0 0 -1.726532645e-07 0 -1.630530297e-07 
0 0 0 0 0 0 0 0 -2.957104328e-07 
0 0 0 0 0 0 0 0 -2.752187444e-07 
-2.806993553e-07 0 1.449153413e-07 0 0 0 1.449153413e-07 0 -2.693577808e-07 
0 0 0 0 0 0 0 0 -2.264512494e-07 
3.334300816e-07 0 -2.344619805e-07 0 0 0 -2.344619805e-07 0 -2.32312213e-07 
0 0 0 0 0 0 0 0 -2.059595611e-07 
6.170863695e-07 0 -1.486718288e-07 0 2.822065703e-07 1.335953929e-07 -1.486718288e-07 1.335953929e-07 -1.807137813e-07 
-5.386882138e-07 0 0 0 -2.862242153e-07 -2.813369935e-07 0 -2.813369935e-07 5.46795302e-07 
0 0 0 0 2.541713294e-07 6.212421641e-07 0 6.212421641e-07 1.264591349e-07 
1.362037307e-07 0 0 0 1.535165445e-07 2.411404002e-07 0 2.411404002e-07 7.582071611e-07 
0 0 0 0 0 0 0 0 1.830407604e-07 
-2.172236406e-07 0 0 0 0 1.699525853e-07 0 1.699525853e-07 3.366272185e-07 
3.60663651e-07 0 0 0 2.681889498e-07 3.774187785e-07 0 3.774187785e-07 0 
3.766450501e-07 0 0 0 2.178615574e-07 1.873678966e-07 0 1.873678966e-07 2.887466899e-07 
-2.012422416e-07 0 0 0 0 0 0 0 6.525012315e-07 
1.202223316e-07 0 0 0 2.038439369e-07 4.311912822e-07 0 4.311912822e-07 4.42333148e-07 
-3.060997959e-07 0 1.39060324e-07 0 -1.913126954e-07 -2.778380099e-07 1.39060324e-07 -2.778380099e-07 6.418192245e-07 
0 0 -3.234845136e-07 0 0 0 -3.234845136e-07 0 -4.105620505e-07 
0 0 2.987152713e-07 0 2.628292277e-07 6.473399832e-07 2.987152713e-07 6.473399832e-07 0 
0 0 0 0 -2.052358917e-07 -4.264963455e-07 0 -4.264963455e-07 -4.392531772e-07 
-1.254781215e-07 0 0 0 0 0 0 0 0 
0 0 0 0 1.298784923e-07 3.831891389e-07 0 3.831891389e-07 -1.571413868e-07 
0 0 2.188877976e-07 0 0 1.847509867e-07 2.188877976e-07 1.847509867e-07 3.690492507e-07 
-1.904141008e-07 0 0 0 -1.982742936e-07 -3.521671777e-07 0 -3.521671777e-07 0 
0 0 -2.153120821e-07 0 0 -1.537290255e-07 -2.153120821e-07 -1.537290255e-07 -4.249076138e-07 
0 0 0 0 0 0 0 0 -1.714869502e-07 
2.757246924e-07 0 0 0 0 -2.955726837e-07 0 -2.955726837e-07 8.748656941e-07 
0 0 0 0 0 2.088247085e-07 0 2.088247085e-07 -3.698981864e-07 
0 0 0 0 -1.312765404e-07 -2.735449991e-07 0 -2.735449991e-07 7.673116558e-07 
-3.255285687e-07 0 0 0 0 2.595852816e-07 0 2.595852816e-07 5.855882678e-07 
0 0 0 0 0 0 0 0 2.524837538e-07 
0 0 0 0 0 0 0 0 1.987067347e-07 
0 0 0 0 0 -2.845588414e-07 0 -2.845588414e-07 8.210886749e-07 
0 0 0 0 0 0 0 0 7.302269809e-07 
-2.044391086e-07 0 0 0 0 2.342049951e-07 0 2.342049951e-07 0 
-2.022535105e-07 0 0 0 0 0 0 0 6.764499618e-07 
-8.478220085e-07 -2.195001353e-07 -2.110890637e-07 -2.195001353e-07 -3.797441578e-07 1.681743549e-07 -2.110890637e-07 1.681743549e-07 -7.262041873e-07 
5.787658267e-07 0 1.48435766e-07 0 1.752899939e-07 -2.90174323e-07 1.48435766e-07 -2.90174323e-07 1.002717908e-06 
0 0 0 0 0 -2.555876494e-07 0 -2.555876494e-07 8.152609565e-07 
7.053169928e-07 2.510518298e-07 1.620767115e-07 2.510518298e-07 3.076428804e-07 -3.227419028e-07 1.620767115e-07 -3.227419028e-07 0 
-1.345280909e-07 0 0 0 0 0 0 0 1.382568606e-07 
2.979014995e-07 0 0 0 0 -2.728809862e-07 0 -2.728809862e-07 9.089894324e-07 
-4.153924182e-07 0 0 0 -2.236026602e-07 0 0 0 0 
0 0 0 0 0 0 0 0 -3.369898279e-07 
6.420414097e-07 1.800576985e-07 1.552562388e-07 1.800576985e-07 2.414664371e-07 -3.064581129e-07 1.552562388e-07 -3.064581129e-07 5.274712199e-07 
3.611770825e-07 1.258935866e-07 0 1.258935866e-07 1.200908589e-07 -2.891647761e-07 0 -2.891647761e-07 4.337427439e-07 
1.13295653e-06 -2.208100888e-07 -2.876714569e-07 -2.208100888e-07 5.937340742e-07 0 -2.876714569e-07 0 4.68674631e-07 
-1.287667156e-07 0 0 0 0 -1.407983911e-07 0 -1.407983911e-07 -7.253952317e-07 
-8.138227449e-07 1.72747218e-07 2.056623236e-07 1.72747218e-07 -4.67312688e-07 1.442904939e-07 2.056623236e-07 1.442904939e-07 -2.156471092e-07 
-1.796137483e-07 0 0 0 0 -1.382878659e-07 0 -1.382878659e-07 2.205686786e-07 
5.020949072e-07 0 -1.692747292e-07 0 2.892935112e-07 0 -1.692747292e-07 0 -1.283603003e-07 
-4.712947303e-07 0 0 0 -2.412298698e-07 0 0 0 -4.705211704e-07 
1.595668926e-07 0 0 0 0 0 0 0 1.265137609e-07 
4.766713909e-07 0 0 0 3.035189447e-07 0 0 0 3.446216548e-07 
-1.54190232e-07 0 0 0 0 -1.395431285e-07 0 -1.395431285e-07 -2.524132765e-07 
-4.967182466e-07 0 1.594174011e-07 0 -2.270044364e-07 0 1.594174011e-07 0 0 
-2.189702216e-07 0 0 0 0 -1.445434767e-07 0 -1.445434767e-07 -7.617841712e-07 
4.691111012e-07 0 0 0 2.211703598e-07 0 0 0 1.698810781e-07 
0 0 0 0 0 1.702133732e-07 0 1.702133732e-07 1.511476711e-07 
2.354668218e-07 0 0 0 0 1.777752662e-07 0 1.777752662e-07 -7.029104543e-07 
1.250704398e-07 0 0 0 0 0 0 0 -2.959515465e-07 
2.288466084e-07 0 0 0 0 0 0 0 1.605143746e-07 
0 0 0 0 0 0 0 0 -3.0531825e-07 
0 0 0 0 0 0 0 0 -7.323473127e-07 
3.522889615e-07 0 0 0 1.440208478e-07 0 0 0 -2.665146881e-07 
0 0 0 0 0 1.739943197e-07 0 1.739943197e-07 -2.758813916e-07 
6.766256789e-07 0 0 0 3.748142259e-07 -1.456286796e-07 0 -1.456286796e-07 -3.689297402e-07 
-8.606049348e-07 1.898867675e-07 -2.17598164e-07 1.898867675e-07 -4.450743551e-07 0 -2.17598164e-07 0 -4.449008091e-07 
2.195542016e-07 0 0 0 1.328828909e-07 -1.204622115e-07 0 -1.204622115e-07 -7.380178326e-07 
3.296970816e-07 0 1.84000454e-07 0 2.637606998e-07 -1.532394402e-07 1.84000454e-07 -1.532394402e-07 4.433133314e-07 
0 0 -1.218291824e-07 0 0 0 -1.218291824e-07 0 -4.069152747e-07 
-3.205253666e-07 0 -1.518914294e-07 0 -1.560957321e-07 0 -1.518914294e-07 0 -5.914593208e-07 
4.480899402e-07 0 0 0 2.538485584e-07 -1.330454456e-07 0 -1.330454456e-07 -5.534737864e-07 
5.031613802e-07 0 0 0 3.192874629e-07 -1.494340599e-07 0 -1.494340599e-07 0 
-2.654539266e-07 0 0 0 0 0 0 0 0 
2.746256416e-07 0 0 0 1.983217953e-07 -1.368508259e-07 0 -1.368508259e-07 -1.473522506e-07 
0 0 0 0 0 0 0 0 0 
0 0 0 0 0 -1.432796398e-07 0 -1.432796398e-07 -6.988555123e-07 
0 0 0 0 0 -1.230925907e-07 0 -1.230925907e-07 -8.431800404e-07 
-2.503618137e-07 0 1.574375002e-07 0 -1.694473647e-07 1.602335246e-07 1.574375002e-07 1.602335246e-07 -9.527135275e-07 
0 0 0 0 0 0 0 0 -3.917980808e-07 
0 0 0 0 0 -1.331861152e-07 0 -1.331861152e-07 -7.710177764e-07 
0 0 0 0 0 0 0 0 -4.639603449e-07 
-1.596429646e-07 0 0 0 0 0 0 0 -5.187270884e-07 
-1.590594029e-07 0 0 0 0 0 0 0 -8.257845199e-07 
-1.395472761e-07 0 0 0 0 0 0 0 -8.97946784e-07 
3.369231772e-07 0 -1.631325956e-07 0 1.572500326e-07 1.711521913e-07 -1.631325956e-07 1.711521913e-07 -2.229505078e-07 
-4.37970245e-07 0 1.234739988e-07 0 -2.402657351e-07 -3.124411728e-07 1.234739988e-07 -3.124411728e-07 4.539274747e-07 
3.02845664e-07 0 0 0 3.244907344e-07 6.537116492e-07 0 6.537116492e-07 2.650631529e-07 
-1.262311765e-07 0 0 0 0 2.757499917e-07 0 2.757499917e-07 5.429281703e-07 
0 0 0 0 0 0 0 0 0 
0 0 0 0 0 1.706352382e-07 0 1.706352382e-07 3.594953138e-07 
3.198844206e-07 0 0 0 2.408703835e-07 4.124319202e-07 0 4.124319202e-07 0 
0 0 0 0 0 2.234510915e-07 0 2.234510915e-07 1.599888313e-07 
-2.821007108e-07 0 0 0 0 0 0 0 4.984278225e-07 
0 0 0 0 1.805609449e-07 4.647308204e-07 0 4.647308204e-07 4.039956616e-07 
-3.048657248e-07 0 1.470237611e-07 0 -1.902584431e-07 -3.084025254e-07 1.470237611e-07 -3.084025254e-07 5.054803325e-07 
0 0 -3.312669196e-07 0 0 1.528453888e-07 -3.312669196e-07 1.528453888e-07 -3.174832847e-07 
0 0 2.478243788e-07 0 2.29959189e-07 6.791373479e-07 2.478243788e-07 6.791373479e-07 1.473716778e-07 
0 0 0 0 -1.342431049e-07 -4.38611167e-07 0 -4.38611167e-07 -3.319197175e-07 
0 0 0 0 0 0 0 0 0 
0 0 0 0 1.297450162e-07 4.159913683e-07 0 4.159913683e-07 0 
0 0 1.974240699e-07 0 0 1.853674112e-07 1.974240699e-07 1.853674112e-07 3.264260052e-07 
-1.23489572e-07 0 0 0 -1.62250774e-07 -3.735068462e-07 0 -3.735068462e-07 0 
0 0 -2.117888648e-07 0 0 -1.428828891e-07 -2.117888648e-07 -1.428828891e-07 -3.247015011e-07 
0 0 0 0 0 1.202630904e-07 0 1.202630904e-07 0 
1.523287633e-07 0 1.192314163e-07 0 0 -3.255032637e-07 1.192314163e-07 -3.255032637e-07 6.852922938e-07 
-1.235415956e-07 0 0 0 0 2.436660586e-07 0 2.436660586e-07 -3.011566641e-07 
0 0 0 0 0 -3.10249902e-07 0 -3.10249902e-07 5.558075248e-07 
0 0 0 0 0 2.771467907e-07 0 2.771467907e-07 5.898614749e-07 
0 0 0 0 0 0 0 0 1.920678148e-07 
0 0 0 0 0 0 0 0 1.273254303e-07 
0 0 0 0 0 -3.178765829e-07 0 -3.178765829e-07 6.205499093e-07 
0 0 0 0 0 0 0 0 6.375768844e-07 
0 0 0 0 0 2.604064247e-07 0 2.604064247e-07 1.443524054e-07 
0 0 0 0 0 0 0 0 5.728344999e-07 
-4.738892567e-07 0 -2.105503121e-07 0 -1.762263199e-07 2.06959862e-07 -2.105503121e-07 2.06959862e-07 -4.627635448e-07 
3.186547071e-07 0 1.513758936e-07 0 0 -3.200442711e-07 1.513758936e-07 -3.200442711e-07 7.535479054e-07 
1.587842954e-07 0 0 0 0 -2.962024597e-07 0 -2.962024597e-07 6.563889417e-07 
1.705603431e-07 0 1.571234826e-07 0 0 -3.394903769e-07 1.571234826e-07 -3.394903769e-07 -1.219319001e-07 
0 0 0 0 0 0 0 0 1.453921803e-07 
2.387195013e-07 0 1.204419715e-07 0 0 -3.081233654e-07 1.204419715e-07 -3.081233654e-07 7.049684236e-07 
-1.575524806e-07 0 0 0 0 0 0 0 0 
-1.516644568e-07 0 0 0 0 0 0 0 -2.923477224e-07 
2.446075251e-07 0 1.542496881e-07 0 0 -3.29767324e-07 1.542496881e-07 -3.29767324e-07 3.158080027e-07 
1.646723193e-07 0 1.233157661e-07 0 0 -3.178464183e-07 1.233157661e-07 -3.178464183e-07 2.672285208e-07 
-8.268560618e-07 1.530016305e-07 0 1.530016305e-07 -4.125141527e-07 0 0 0 -3.955780296e-07 
0 0 0 0 0 0 0 0 -6.686597563e-07 
7.01993861e-07 0 0 0 3.638032892e-07 0 0 0 -2.790728398e-07 
5.049786747e-07 -1.578345462e-07 0 -1.578345462e-07 3.767109742e-07 0 0 0 5.113017147e-07 
-3.686250254e-07 0 0 0 -1.851548025e-07 0 0 0 -5.32118893e-07 
3.95799936e-07 0 0 0 2.030039185e-07 0 0 0 -4.738662981e-07 
0 0 0 0 0 0 0 0 -3.373254347e-07 
-1.609386935e-07 0 0 0 0 0 0 0 0 
2.972923429e-07 0 0 0 2.09457761e-07 0 0 0 0 
6.034862678e-07 0 0 0 3.702571317e-07 0 0 0 0 
0 0 0 0 0 0 0 0 -5.987225905e-07 
-2.506866065e-07 0 0 0 0 0 0 0 -8.095114378e-07 
0 0 0 0 0 0 0 0 0 
-2.632419856e-07 0 0 0 -1.888865586e-07 1.242921082e-07 0 1.242921082e-07 -8.615487687e-07 
-1.443105018e-07 0 0 0 0 0 0 0 -7.041170141e-07 
0 0 0 0 0 0 0 0 -3.973634968e-07 
0 0 0 0 0 0 0 0 -2.919690732e-07 
-1.505881914e-07 0 0 0 0 0 0 0 -7.301356796e-07 
-2.56964296e-07 0 0 0 -1.379474991e-07 0 0 0 -8.355301032e-07 
0 0 0 0 0 0 0 0 -4.233821623e-07 
2.17265884e-07 0 0 0 1.351426272e-07 0 0 0 -4.91772933e-07 
-1.012361705e-06 2.255408882e-07 1.589222742e-07 2.255408882e-07 -5.634829614e-07 1.198495546e-07 1.589222742e-07 1.198495546e-07 -2.903250841e-07 
8.558719586e-07 -2.010932946e-07 0 -2.010932946e-07 4.65441924e-07 0 0 0 3.7377327e-07 
0 0 0 0 0 0 0 0 2.453463287e-07 
-3.975479103e-07 0 0 0 -2.141701671e-07 0 0 0 -3.910490086e-07 
0 0 0 0 0 0 0 0 0 
5.365689213e-07 0 0 0 3.002922756e-07 0 0 0 0 
0 0 0 0 0 0 0 0 -1.232133022e-07 
-5.562463778e-07 0 0 0 -2.451284751e-07 0 0 0 0 
3.778704538e-07 -1.236420973e-07 0 -1.236420973e-07 2.693339676e-07 0 0 0 3.095597993e-07 
6.136251955e-07 0 0 0 2.852303083e-07 0 0 0 2.507175444e-07 
-1.959600185e-07 0 0 0 0 1.404364608e-07 0 1.404364608e-07 0 
0 0 0 0 0 0 0 0 -6.24179109e-07 
1.99995106e-07 0 0 0 0 1.369335003e-07 0 1.369335003e-07 -6.422617693e-07 
2.088325885e-07 0 0 0 0 0 0 0 1.679790917e-07 
-1.486919395e-07 0 0 0 0 0 0 0 -2.69469235e-07 
2.561006675e-07 0 0 0 1.466321951e-07 0 0 0 -1.867307823e-07 
4.068101508e-07 0 0 0 1.609539736e-07 0 0 0 -1.957721124e-07 
0 0 0 0 0 1.386849806e-07 0 1.386849806e-07 -2.785105651e-07 
0 0 0 0 0 0 0 0 -6.332204392e-07 
9.854358063e-07 -2.081060237e-07 -1.655426209e-07 -2.081060237e-07 5.146762037e-07 0 -1.655426209e-07 0 4.176248731e-07 
0 0 0 0 0 0 0 0 -6.377655997e-07 
-8.930127524e-07 1.838430319e-07 1.844105947e-07 1.838430319e-07 -4.938812285e-07 1.354909566e-07 1.844105947e-07 1.354909566e-07 -2.335590675e-07 
0 0 0 0 0 0 0 0 2.435763702e-07 
4.968453816e-07 0 0 0 2.788699513e-07 0 0 0 0 
-4.423788977e-07 0 0 0 -2.254087648e-07 0 0 0 -4.356623336e-07 
0 0 0 0 0 0 0 0 0 
4.406145018e-07 0 0 0 2.832797517e-07 0 0 0 3.306006216e-07 
0 0 0 0 0 0 0 0 -1.970946148e-07 
-4.986097776e-07 0 0 0 -2.209989644e-07 0 0 0 0 
-1.843337742e-07 0 0 0 0 -1.221896806e-07 0 -1.221896806e-07 -7.163927485e-07 
5.758004348e-07 0 0 0 2.625350339e-07 0 0 0 2.250710332e-07 
0 0 0 0 0 1.62466173e-07 0 1.62466173e-07 1.263713672e-07 
2.216347164e-07 0 0 0 0 1.596342289e-07 0 1.596342289e-07 -6.852385315e-07 
1.957333303e-07 0 0 0 0 0 0 0 -2.456608576e-07 
2.387685743e-07 0 0 0 0 0 0 0 1.757212002e-07 
-1.412985302e-07 0 0 0 0 0 0 0 -2.950106906e-07 
0 0 0 0 0 0 0 0 -7.0081564e-07 
3.987175756e-07 0 0 0 1.549653768e-07 0 0 0 -2.300837491e-07 
0 0 0 0 0 1.610502009e-07 0 1.610502009e-07 -2.794335822e-07 
7.101003408e-07 0 0 0 3.803770208e-07 0 0 0 -3.271899861e-07 
-8.611731318e-07 1.731543863e-07 -1.448736107e-07 1.731543863e-07 -4.431901071e-07 0 -1.448736107e-07 0 -4.241273338e-07 
1.575094521e-07 0 0 0 0 0 0 0 -6.971735117e-07 
4.274214271e-07 -1.266390433e-07 1.506243119e-07 -1.266390433e-07 3.210061172e-07 -1.334856767e-07 1.506243119e-07 -1.334856767e-07 4.740077528e-07 
0 0 0 0 0 0 0 0 -3.756586599e-07 
-3.518318399e-07 0 0 0 -1.767345374e-07 0 0 0 -5.606504227e-07 
4.338048964e-07 0 0 0 2.350490265e-07 0 0 0 -5.121817489e-07 
5.687608839e-07 0 0 0 3.50691569e-07 -1.254697941e-07 0 -1.254697941e-07 0 
-2.168758524e-07 0 0 0 0 0 0 0 0 
2.924654396e-07 0 0 0 2.053635747e-07 -1.205842155e-07 0 -1.205842155e-07 0 
0 0 0 0 0 0 0 0 0 
0 0 0 0 0 -1.208713651e-07 0 -1.208713651e-07 -6.519174604e-07 
-1.264472266e-07 0 0 0 0 0 0 0 -8.162197958e-07 
-2.812244626e-07 0 1.22631856e-07 0 -1.948834666e-07 1.455536911e-07 1.22631856e-07 1.455536911e-07 -9.257347771e-07 
0 0 0 0 0 0 0 0 -3.462451074e-07 
0 0 0 0 0 0 0 0 -7.340686281e-07 
0 0 0 0 0 0 0 0 -4.283962751e-07 
-1.447304781e-07 0 0 0 0 0 0 0 -4.831537658e-07 
-1.565149317e-07 0 0 0 0 0 0 0 -7.888261188e-07 
-2.038358446e-07 0 0 0 0 0 0 0 -8.709772865e-07 
-1.708100185e-07 1.491784827e-07 -1.468574666e-07 1.491784827e-07 -2.955935061e-07 0 -1.468574666e-07 0 4.036149683e-07 
4.758935124e-07 -2.722079208e-07 2.000365764e-07 -2.722079208e-07 6.770272281e-07 3.965538386e-07 2.000365764e-07 3.965538386e-07 8.018293741e-07 
1.901498691e-07 0 1.623549224e-07 0 3.900285627e-07 1.594864958e-07 1.623549224e-07 1.594864958e-07 2.914531881e-07 
-7.59690301e-07 3.79293432e-07 1.314211871e-07 3.79293432e-07 -1.062381041e-06 -2.188072479e-07 1.314211871e-07 -2.188072479e-07 -1.444716602e-07 
1.52541747e-07 0 0 0 1.90716861e-07 1.545687361e-07 0 1.545687361e-07 6.027221712e-07 
3.330216908e-07 -1.733466969e-07 1.811957494e-07 -1.733466969e-07 5.335278954e-07 2.780201672e-07 1.811957494e-07 2.780201672e-07 5.466412811e-07 
0 0 0 0 0 0 0 0 3.475340782e-07 
-4.652501597e-07 2.642359573e-07 0 2.642359573e-07 -6.789872734e-07 -1.531118072e-07 0 -1.531118072e-07 1.295716541e-07 
-1.418983943e-07 0 1.657288817e-07 0 -1.926769062e-07 0 1.657288817e-07 0 3.28678857e-07 
-2.847702159e-07 1.524039795e-07 1.468880547e-07 1.524039795e-07 -3.36176239e-07 0 1.468880547e-07 0 0 
0 0 -1.475456185e-07 0 0 0 -1.475456185e-07 0 4.946051322e-07 
0 0 -1.411019057e-07 0 1.615518358e-07 0 -1.411019057e-07 0 3.384794667e-07 
-1.770521986e-07 0 1.88454341e-07 0 -4.299591358e-07 0 1.88454341e-07 0 0 
0 0 -1.932651508e-07 0 0 0 -1.932651508e-07 0 1.510054029e-07 
0 0 -1.443237621e-07 0 0 0 -1.443237621e-07 0 4.165422995e-07 
0 0 0 0 -1.3420365e-07 0 0 0 1.529601371e-07 
0 0 0 0 -2.040210768e-07 0 0 0 2.310229699e-07 
0 0 -1.704053847e-07 0 0 0 -1.704053847e-07 0 3.228052676e-07 
0 0 -1.671835282e-07 0 0 0 -1.671835282e-07 0 2.447424348e-07 
0 0 0 0 -2.587857738e-07 0 0 0 0 
-1.867432087e-07 0 2.144934246e-07 0 -4.255526484e-07 0 2.144934246e-07 0 0 
-3.515294792e-07 2.101188843e-07 -1.970141786e-07 2.101188843e-07 -5.973571585e-07 0 -1.970141786e-07 0 0 
2.685141225e-07 0 -2.124034523e-07 0 3.500306671e-07 0 -2.124034523e-07 0 6.976127916e-07 
3.997333262e-07 -1.81464944e-07 1.824986245e-07 -1.81464944e-07 6.338247827e-07 -3.165835549e-07 1.824986245e-07 -3.165835549e-07 7.234834156e-07 
-2.69136344e-07 1.270816298e-07 0 1.270816298e-07 -5.114549034e-07 0 0 0 0 
0 0 -2.047088154e-07 0 -1.236632457e-07 0 -2.047088154e-07 0 3.526018678e-07 
0 0 0 0 0 0 0 0 3.269745833e-07 
0 0 1.984960245e-07 0 0 -1.44873609e-07 1.984960245e-07 -1.44873609e-07 3.399098953e-07 
0 0 0 0 0 -1.345947967e-07 0 -1.345947967e-07 3.655371798e-07 
3.341237244e-07 -1.283266094e-07 0 -1.283266094e-07 4.919277249e-07 0 0 0 7.105481036e-07 
3.593029006e-07 0 0 0 1.587697496e-07 1.634516949e-07 0 1.634516949e-07 -2.005793516e-07 
-3.565362515e-07 0 1.450206502e-07 0 -1.774508583e-07 0 1.450206502e-07 0 -6.973042976e-07 
0 0 0 0 0 0 0 0 -6.612765275e-07 
0 -1.455959396e-07 -1.581272701e-07 -1.455959396e-07 2.872280412e-07 1.646472141e-07 -1.581272701e-07 1.646472141e-07 -4.665047283e-07 
0 0 0 0 0 0 0 0 -4.489418246e-07 
-1.406847628e-07 0 0 0 -1.233773167e-07 0 0 0 -6.792904125e-07 
2.172348132e-07 0 0 0 0 0 0 0 -4.309279395e-07 
2.153284885e-07 0 -1.343904868e-07 0 2.229988954e-07 1.640494545e-07 -1.343904868e-07 1.640494545e-07 -3.3354204e-07 
-1.425910875e-07 0 0 0 0 0 0 0 -5.81904513e-07 
0 0 0 0 0 0 0 0 -5.638906279e-07 
2.468598092e-07 0 0 0 -1.212580405e-07 -1.697900084e-07 0 -1.697900084e-07 -5.066670568e-07 
-8.40969679e-07 -5.215546091e-07 -3.876137571e-07 -5.215546091e-07 -9.809163458e-07 0 -3.876137571e-07 0 -9.156880372e-07 
0 2.04901911e-07 6.278687588e-07 2.04901911e-07 6.05172545e-07 5.313479769e-07 6.278687588e-07 5.313479769e-07 -4.644786927e-07 
2.287717575e-07 2.411301763e-07 0 2.411301763e-07 4.0407926e-07 -1.304757702e-07 0 -1.304757702e-07 -3.820497168e-07 
-2.970549349e-07 -2.169937992e-07 -1.945496341e-07 -2.169937992e-07 -5.510871932e-07 -1.228920795e-07 -1.945496341e-07 -1.228920795e-07 -7.11177547e-07 
-4.491176114e-07 -1.58326349e-07 1.201275009e-07 -1.58326349e-07 -1.878719004e-07 2.276769131e-07 1.201275009e-07 2.276769131e-07 -6.90083365e-07 
0 1.462344608e-07 3.131916239e-07 1.462344608e-07 2.419572522e-07 1.807789842e-07 3.131916239e-07 1.807789842e-07 -4.855728748e-07 
2.378157834e-07 1.643485935e-07 0 1.643485935e-07 1.414106098e-07 -1.501328893e-07 0 -1.501328893e-07 -4.443583868e-07 
-3.060989608e-07 -1.402122164e-07 -2.216814786e-07 -1.402122164e-07 -2.884185429e-07 0 -2.216814786e-07 0 -6.48868877e-07 
0 2.230160437e-07 2.860597794e-07 2.230160437e-07 5.046259025e-07 2.004361034e-07 2.860597794e-07 2.004361034e-07 -4.232642048e-07 
-3.590509529e-07 0 0 0 -2.851938662e-07 0 0 0 -6.650529062e-07 
6.899469682e-07 1.231844843e-07 -1.389644496e-07 1.231844843e-07 5.756297456e-07 1.78309003e-07 -1.389644496e-07 1.78309003e-07 0 
-2.711225469e-07 0 0 0 0 0 0 0 -3.622277102e-07 
0 -1.803061081e-07 -1.640842097e-07 -1.803061081e-07 0 2.072883849e-07 -1.640842097e-07 2.072883849e-07 -6.109881472e-07 
1.654480076e-07 0 0 0 1.452179397e-07 0 0 0 -3.528978105e-07 
2.094122107e-07 0 0 0 2.869352864e-07 0 0 0 -2.014852125e-07 
-3.150867499e-07 0 0 0 -1.434765195e-07 0 0 0 -5.136403082e-07 
-2.104902858e-07 0 0 0 -1.749562988e-07 0 0 0 -6.380205267e-07 
3.140086748e-07 0 -1.515243296e-07 0 2.554555071e-07 1.92798694e-07 -1.515243296e-07 1.92798694e-07 -3.25865431e-07 
-1.665260828e-07 0 0 0 0 0 0 0 -4.866079287e-07 
2.223425924e-06 6.331763545e-07 0 6.331763545e-07 1.778080052e-06 3.106178385e-07 0 3.106178385e-07 8.31290127e-07 
-2.838973581e-07 0 0 0 -5.531377782e-07 -2.316857096e-07 0 -2.316857096e-07 -7.954518147e-07 
-2.040908726e-06 -4.920374558e-07 0 -4.920374558e-07 -1.251820366e-06 0 0 0 -1.258772623e-06 
0 0 0 0 -1.7520952e-07 0 0 0 -6.462412271e-07 
9.697642827e-07 2.663722157e-07 0 2.663722157e-07 6.124711371e-07 0 0 0 0 
-1.162403042e-06 -2.962346895e-07 0 -2.962346895e-07 -9.024790721e-07 -1.637915537e-07 0 -1.637915537e-07 -1.027112219e-06 
0 0 0 0 2.631298433e-07 0 0 0 -2.137412482e-07 
1.075437566e-06 3.401869587e-07 0 3.401869587e-07 8.014352663e-07 1.298371424e-07 0 1.298371424e-07 0 
-1.782240748e-07 0 0 0 -3.641736491e-07 -1.413146316e-07 0 -1.413146316e-07 -7.208465209e-07 
-1.056729759e-06 -2.224199464e-07 0 -2.224199464e-07 -7.135149429e-07 0 0 0 -9.525069253e-07 
0 0 0 0 0 2.306423851e-07 0 2.306423851e-07 -7.429396756e-07 
1.990219863e-07 0 0 0 0 1.641712173e-07 0 1.641712173e-07 2.484569355e-07 
2.550778591e-07 0 -1.228381485e-07 0 1.657588143e-07 -1.278463914e-07 -1.228381485e-07 -1.278463914e-07 3.770446399e-07 
-6.082260014e-07 1.250668547e-07 0 1.250668547e-07 -2.629210891e-07 -1.905315237e-07 0 -1.905315237e-07 -9.413208773e-07 
1.556875675e-07 0 0 0 0 1.974068012e-07 0 1.974068012e-07 -2.472413701e-07 
2.270499227e-07 0 0 0 0 0 0 0 3.127507877e-07 
1.837155039e-07 0 0 0 0 0 0 0 -1.829475179e-07 
-2.479364263e-07 0 0 0 -1.270684454e-07 0 0 0 -8.421302765e-07 
-2.046020076e-07 0 0 0 0 0 0 0 -3.464319709e-07 
-1.765740712e-07 0 0 0 0 -1.591889575e-07 0 -1.591889575e-07 -2.821381187e-07 
-4.680770201e-07 0 2.284483855e-07 0 -1.322782102e-07 -1.971781802e-07 2.284483855e-07 -1.971781802e-07 1.271582519e-07 
-1.177529571e-06 2.351911712e-07 2.425154708e-07 2.351911712e-07 -6.290484628e-07 1.460159726e-07 2.425154708e-07 1.460159726e-07 -3.4861239e-07 
3.457445992e-07 0 0 0 0 2.47566457e-07 0 2.47566457e-07 -6.62824098e-07 
1.757802343e-06 -3.571456311e-07 -5.10918035e-07 -3.571456311e-07 8.81575589e-07 0 -5.10918035e-07 0 7.377632819e-07 
-8.228032957e-07 1.228019913e-07 2.354819282e-07 1.228019913e-07 -3.806633365e-07 0 2.354819282e-07 0 0 
-4.158924861e-07 0 0 0 -2.740832549e-07 1.967912148e-07 0 1.967912148e-07 -5.05718244e-07 
0 0 0 0 0 0 0 0 -2.67832923e-07 
6.448626614e-07 -1.733664098e-07 -1.412348247e-07 -1.733664098e-07 3.746486894e-07 0 -1.412348247e-07 0 4.324607669e-07 
2.901363857e-07 0 -1.342012821e-07 0 1.262635631e-07 0 -1.342012821e-07 0 1.94575446e-07 
1.051773471e-06 -1.900505986e-07 -2.583853415e-07 -1.900505986e-07 4.81228771e-07 1.608721657e-07 -2.583853415e-07 1.608721657e-07 0 
4.139933032e-07 0 0 0 2.325675012e-07 -1.293952867e-07 0 -1.293952867e-07 4.392158995e-07 
-3.304009738e-07 0 0 0 -1.288046079e-07 -1.736560571e-07 0 -1.736560571e-07 -8.877656659e-07 
0 0 0 0 0 2.272701951e-07 0 2.272701951e-07 -7.774123917e-07 
0 0 0 0 0 -1.79688668e-07 0 -1.79688668e-07 -6.593606266e-07 
0 0 0 0 0 -1.515256719e-07 0 -1.515256719e-07 -2.242748832e-07 
-1.296997333e-07 0 0 0 0 0 0 0 -8.325890288e-07 
2.424974052e-07 0 0 0 0 0 0 0 -1.690982461e-07 
2.389110551e-07 0 0 0 1.450985843e-07 -1.545419774e-07 0 -1.545419774e-07 0 
-1.332860834e-07 0 0 0 0 -1.766723625e-07 0 -1.766723625e-07 -7.735631462e-07 
0 0 0 0 0 0 0 0 -7.183865091e-07 
2.193477742e-07 0 1.19996964e-07 0 0 2.257455936e-07 1.19996964e-07 2.257455936e-07 -7.137593463e-07 
4.870215494e-07 0 -1.24160195e-07 0 2.824607851e-07 -1.592608572e-07 -1.24160195e-07 -1.592608572e-07 -5.401743205e-07 
1.208777303e-07 0 2.222409213e-07 0 1.229823906e-07 -1.962727187e-07 2.222409213e-07 -1.962727187e-07 3.805229266e-07 
-9.251373699e-07 1.856269048e-07 -2.674464339e-07 1.856269048e-07 -4.780552799e-07 0 -2.674464339e-07 0 -4.798766897e-07 
3.531846618e-07 0 0 0 1.642638497e-07 0 0 0 -6.269668334e-07 
3.039496399e-07 0 0 0 2.027215879e-07 -1.777667879e-07 0 -1.777667879e-07 0 
1.701127522e-07 0 1.711189426e-07 0 0 0 1.711189426e-07 0 -1.666182099e-07 
-3.528947979e-07 0 0 0 -2.159941828e-07 1.273787725e-07 0 1.273787725e-07 -5.96818018e-07 
-2.190579102e-07 0 -1.958033144e-07 0 0 0 -1.958033144e-07 0 -5.100255051e-07 
-4.021298198e-07 0 0 0 -1.775364446e-07 0 0 0 0 
0 0 0 0 0 -2.819027424e-07 0 -2.819027424e-07 6.001355859e-07 
-2.288235949e-07 0 1.441789614e-07 0 -1.365473185e-07 0 1.441789614e-07 0 3.553203341e-07 
5.526626188e-07 -1.860984151e-07 0 -1.860984151e-07 3.031934626e-07 1.850314871e-07 0 1.850314871e-07 3.732271009e-07 
-3.415606275e-07 1.878385765e-07 -2.766732669e-07 1.878385765e-07 -2.433220187e-07 0 -2.766732669e-07 0 0 
0 0 0 0 0 -1.226555843e-07 0 -1.226555843e-07 4.7772796e-07 
1.619195119e-07 0 0 0 0 0 0 0 3.642737175e-07 
2.935290137e-07 0 0 0 2.097273967e-07 0 0 0 4.866813434e-07 
-1.535826095e-07 0 -1.337792551e-07 0 0 -1.975686575e-07 -1.337792551e-07 -1.975686575e-07 3.194783321e-07 
-2.851921112e-07 0 0 0 -1.899346686e-07 0 0 0 1.970707061e-07 
0 0 -1.663770691e-07 0 0 0 -1.663770691e-07 0 2.060240895e-07 
0 0 2.018536973e-07 0 0 0 2.018536973e-07 0 0 
-1.531920737e-07 0 2.315217793e-07 0 -1.507966684e-07 0 2.315217793e-07 0 3.609312431e-07 
0 0 0 0 0 -2.258918639e-07 0 -2.258918639e-07 5.648380943e-07 
0 0 0 0 0 5.037189705e-07 0 5.037189705e-07 6.329125085e-07 
0 0 2.166877383e-07 0 0 0 2.166877383e-07 0 2.229902422e-07 
0 0 0 0 0 -1.273702109e-07 0 -1.273702109e-07 4.628846687e-07 
0 0 0 0 0 0 0 0 3.249436678e-07 
0 0 0 0 0 2.532061956e-07 0 2.532061956e-07 3.589808749e-07 
0 0 0 0 0 2.374352063e-07 0 2.374352063e-07 4.969218758e-07 
0 0 0 0 0 1.389135533e-07 0 1.389135533e-07 5.988753014e-07 
0 0 0 0 0 2.102421053e-07 0 2.102421053e-07 -8.008968903e-07 
0 0 1.283316011e-07 0 0 1.527422076e-07 1.283316011e-07 1.527422076e-07 1.653301329e-07 
3.161561552e-07 0 -1.20518349e-07 0 2.050476591e-07 0 -1.20518349e-07 0 3.983455872e-07 
-4.960450367e-07 0 0 0 -1.897911968e-07 -1.542661993e-07 0 -1.542661993e-07 -9.213146948e-07 
0 0 0 0 0 1.814921564e-07 0 1.814921564e-07 -3.177833787e-07 
1.721496689e-07 0 0 0 0 0 0 0 2.818378601e-07 
2.044103776e-07 0 0 0 0 0 0 0 -2.012756515e-07 
-2.016902183e-07 0 0 0 0 0 0 0 -8.611057926e-07 
-2.33950927e-07 0 0 0 0 0 0 0 -3.779922809e-07 
0 0 0 0 0 -1.32339787e-07 0 -1.32339787e-07 -2.614845538e-07 
-3.932773004e-07 0 1.911467282e-07 0 0 -1.709468648e-07 1.911467282e-07 -1.709468648e-07 1.520348826e-07 
-1.163453405e-06 2.331256884e-07 2.249329267e-07 2.331256884e-07 -6.231622611e-07 1.425966007e-07 2.249329267e-07 1.425966007e-07 -3.53906868e-07 
4.997772859e-07 0 0 0 1.571063955e-07 2.282577787e-07 0 2.282577787e-07 -6.444663258e-07 
1.539570915e-06 -3.136600695e-07 -4.259599365e-07 -3.136600695e-07 7.748802523e-07 0 -4.259599365e-07 0 6.324885548e-07 
-7.783653528e-07 0 2.080398275e-07 0 -3.563973555e-07 0 2.080398275e-07 0 0 
-3.318380596e-07 0 0 0 -2.330279328e-07 1.854271897e-07 0 1.854271897e-07 -4.991865969e-07 
0 0 0 0 0 0 0 0 -2.462157216e-07 
5.731468074e-07 -1.552776365e-07 0 -1.552776365e-07 3.426239012e-07 0 0 0 3.922617187e-07 
1.88058755e-07 0 0 0 0 0 0 0 1.392908434e-07 
1.019674101e-06 -1.878283572e-07 -2.257153651e-07 -1.878283572e-07 4.659933239e-07 1.45562816e-07 -2.257153651e-07 1.45562816e-07 0 
5.150613783e-07 0 -1.242551368e-07 0 2.913969878e-07 0 -1.242551368e-07 0 4.822932468e-07 
-3.655846308e-07 0 0 0 -1.471323052e-07 -1.514998782e-07 0 -1.514998782e-07 -9.643199979e-07 
0 0 0 0 0 2.031890104e-07 0 2.031890104e-07 -8.717248581e-07 
0 0 0 0 0 -1.490783467e-07 0 -1.490783467e-07 -6.766844797e-07 
0 0 0 0 0 -1.310174333e-07 0 -1.310174333e-07 -2.410133755e-07 
-1.978702284e-07 0 0 0 0 0 0 0 -9.18022428e-07 
2.424527761e-07 0 0 0 0 0 0 0 -1.947158056e-07 
3.043606666e-07 0 0 0 1.9296722e-07 -1.298066675e-07 0 -1.298066675e-07 0 
-1.359623379e-07 0 0 0 0 -1.502891124e-07 0 -1.502891124e-07 -8.205022388e-07 
0 0 0 0 0 0 0 0 -7.742046689e-07 
1.532856643e-07 0 0 0 0 2.062206771e-07 0 2.062206771e-07 -7.971849133e-07 
4.806392259e-07 0 0 0 2.748806205e-07 -1.383995746e-07 0 -1.383995746e-07 -6.061953675e-07 
2.150547019e-07 0 1.651696427e-07 0 1.771743666e-07 -1.665341032e-07 1.651696427e-07 -1.665341032e-07 4.151130479e-07 
-8.980263052e-07 1.774626726e-07 -1.767274802e-07 1.774626726e-07 -4.59390396e-07 0 -1.767274802e-07 0 -4.744017592e-07 
3.169624451e-07 0 0 0 1.392623592e-07 0 0 0 -7.016901404e-07 
3.478469639e-07 0 0 0 2.260274935e-07 -1.524668389e-07 0 -1.524668389e-07 0 
1.841701831e-07 0 1.327067126e-07 0 0 0 1.327067126e-07 0 -1.910359327e-07 
-3.723703204e-07 0 0 0 -2.278731491e-07 0 0 0 -6.357933362e-07 
-2.086935396e-07 0 -1.459877215e-07 0 0 0 -1.459877215e-07 0 -5.402985633e-07 
-3.414858017e-07 0 0 0 -1.411080147e-07 0 0 0 0 
-4.047598433e-07 0 1.670054366e-07 0 -3.575717225e-07 0 1.670054366e-07 0 1.656333245e-07 
5.33576899e-07 -1.788123302e-07 0 -1.788123302e-07 3.36765862e-07 2.25116448e-07 0 2.25116448e-07 3.956050641e-07 
2.029629568e-07 0 0 0 2.929265752e-07 -3.602360749e-07 0 -3.602360749e-07 6.347871119e-07 
-3.252220099e-07 1.563497166e-07 -3.515180447e-07 1.563497166e-07 -2.440602579e-07 -1.548930937e-07 -3.515180447e-07 -1.548930937e-07 0 
0 0 0 0 0 1.381974151e-07 0 1.381974151e-07 2.806191943e-07 
3.682699279e-07 -1.262313819e-07 0 -1.262313819e-07 3.148462186e-07 0 0 0 5.15196088e-07 
0 0 0 0 0 -1.544788463e-07 0 -1.544788463e-07 4.002102182e-07 
-3.649909266e-07 1.361847888e-07 0 1.361847888e-07 -3.008159902e-07 0 0 0 0 
0 0 -2.127151739e-07 0 0 0 -2.127151739e-07 0 2.273096264e-07 
0 0 -1.662808045e-07 0 0 -2.575645843e-07 -1.662808045e-07 -2.575645843e-07 3.469006503e-07 
0 0 -1.21454683e-07 0 1.267581125e-07 -2.618517076e-07 -1.21454683e-07 -2.618517076e-07 5.661738426e-07 
0 0 2.224275183e-07 0 0 0 2.224275183e-07 0 1.228066196e-07 
0 0 2.998184582e-07 0 -1.372113013e-07 0 2.998184582e-07 0 3.214729937e-07 
0 0 0 0 0 5.970651741e-07 0 5.970651741e-07 5.688902238e-07 
0 0 0 0 0 -1.231458248e-07 0 -1.231458248e-07 3.444902311e-07 
0 0 2.611229882e-07 0 0 0 2.611229882e-07 0 2.221398066e-07 
0 0 0 0 0 -1.540124112e-07 0 -1.540124112e-07 4.438234182e-07 
0 0 0 0 0 1.676067333e-07 0 1.676067333e-07 5.675320332e-07 
0 0 0 0 0 3.063126161e-07 0 3.063126161e-07 3.458484217e-07 
0 0 1.25620888e-07 0 0 2.754460297e-07 1.25620888e-07 2.754460297e-07 4.451816088e-07 
0 0 -1.375536788e-07 0 0 0 -1.375536788e-07 0 3.959968326e-07 
-3.28262443e-07 1.209765016e-07 2.194960607e-07 1.209765016e-07 -5.091268754e-07 1.785281368e-07 2.194960607e-07 1.785281368e-07 0 
0 0 2.0324828e-07 0 0 0 2.0324828e-07 0 2.060346168e-07 
4.644932926e-07 -2.609448387e-07 3.30477685e-07 -2.609448387e-07 7.99692179e-07 0 3.30477685e-07 0 7.565827827e-07 
-2.159662054e-07 0 0 0 -2.326404826e-07 0 0 0 1.73554688e-07 
0 0 2.113721704e-07 0 -2.253165664e-07 1.345649151e-07 2.113721704e-07 1.345649151e-07 0 
0 0 0 0 0 0 0 0 3.010157247e-07 
1.804116624e-07 0 0 0 4.217690446e-07 0 0 0 5.762898076e-07 
0 0 2.749868729e-07 0 1.452826518e-07 1.344790299e-07 2.749868729e-07 1.344790299e-07 3.53847663e-07 
2.8920309e-07 -1.624684588e-07 2.668629825e-07 -1.624684588e-07 4.290929608e-07 0 2.668629825e-07 0 4.813086997e-07 
0 0 2.196632641e-07 0 0 0 2.196632641e-07 0 1.642780807e-07 
0 0 2.670493651e-07 0 2.820338932e-07 0 2.670493651e-07 0 3.199487728e-07 
0 0 -1.661439352e-07 0 1.30343789e-07 0 -1.661439352e-07 0 4.542300301e-07 
-3.780258167e-07 2.056864146e-07 -1.832312187e-07 2.056864146e-07 -6.433315296e-07 0 -1.832312187e-07 0 -1.377809135e-07 
0 0 2.433563146e-07 0 1.311005518e-07 0 2.433563146e-07 0 2.421134268e-07 
0 0 0 0 2.061888411e-07 0 0 0 3.870894015e-07 
0 0 0 0 0 0 0 0 3.092540554e-07 
-1.624804395e-07 0 0 0 -3.315821596e-07 0 0 0 0 
-1.339772246e-07 0 0 0 -1.806488182e-07 0 0 0 0 
-1.870536697e-07 0 -1.746875769e-07 0 -2.564938703e-07 0 -1.746875769e-07 0 1.582245583e-07 
0 0 1.634724026e-07 0 0 1.457197387e-07 1.634724026e-07 1.457197387e-07 0 
0 0 -1.357319088e-07 0 1.886224844e-07 0 -1.357319088e-07 0 6.270422337e-07 
0 0 0 0 0 -1.52172125e-07 0 -1.52172125e-07 4.556582856e-07 
-2.44051378e-07 0 3.214265943e-07 0 -3.299907464e-07 1.308781433e-07 3.214265943e-07 1.308781433e-07 2.346629251e-07 
0 0 0 0 0 0 0 0 3.730918659e-07 
0 0 0 0 0 -1.342711271e-07 0 -1.342711271e-07 5.413502597e-07 
0 0 0 0 0 0 0 0 2.873998919e-07 
0 0 2.424494985e-07 0 -1.745713722e-07 1.38298941e-07 2.424494985e-07 1.38298941e-07 1.769022117e-07 
0 0 0 0 0 0 0 0 4.308525794e-07 
0 0 0 0 -1.644253607e-07 0 0 0 3.451606054e-07 
1.247839175e-07 0 0 0 0 0 0 0 5.086717043e-07 
-2.249711825e-07 1.822131597e-07 -1.461894123e-07 1.822131597e-07 -3.395425415e-07 0 -1.461894123e-07 0 3.666276146e-07 
0 0 1.736654024e-07 0 0 1.198479922e-07 1.736654024e-07 1.198479922e-07 0 
5.658503863e-07 -2.088392084e-07 -1.676023085e-07 -2.088392084e-07 7.942188099e-07 0 -1.676023085e-07 0 5.506988198e-07 
0 0 -1.267512641e-07 0 -1.394901181e-07 0 -1.267512641e-07 0 4.376496594e-07 
-1.352594607e-07 0 0 0 -2.252730531e-07 0 0 0 2.180090049e-07 
0 0 0 0 0 0 0 0 2.890310498e-07 
3.453171519e-07 -1.356207945e-07 -1.374577122e-07 -1.356207945e-07 4.273905576e-07 0 -1.374577122e-07 0 5.29685262e-07 
1.704396019e-07 0 -1.568958604e-07 0 2.273381342e-07 0 -1.568958604e-07 0 4.586632172e-07 
2.601513237e-07 0 0 0 3.416076225e-07 0 0 0 3.100446075e-07 
0 0 0 0 2.030858472e-07 -3.270540767e-07 0 -3.270540767e-07 6.362205612e-07 
-3.129981703e-07 0 1.542623953e-07 0 -2.361581601e-07 0 1.542623953e-07 0 2.881862719e-07 
5.682780243e-07 -1.844570375e-07 0 -1.844570375e-07 3.181518098e-07 2.13616966e-07 0 2.13616966e-07 3.87701645e-07 
-3.398148112e-07 1.735935505e-07 -3.060099907e-07 1.735935505e-07 -2.356417419e-07 -1.241336032e-07 -3.060099907e-07 -1.241336032e-07 0 
0 0 0 0 0 -1.428686799e-07 0 -1.428686799e-07 4.622034165e-07 
1.27639927e-07 0 0 0 0 1.274668415e-07 0 1.274668415e-07 3.379439584e-07 
3.399560962e-07 0 0 0 2.606188285e-07 0 0 0 5.119611031e-07 
0 0 -1.439147181e-07 0 0 -2.255938399e-07 -1.439147181e-07 -2.255938399e-07 3.430604568e-07 
-3.264064907e-07 1.209715955e-07 0 1.209715955e-07 -2.35899951e-07 0 0 0 1.690433121e-07 
0 0 -1.882618896e-07 0 0 0 -1.882618896e-07 0 2.188009987e-07 
0 0 2.190754132e-07 0 0 0 2.190754132e-07 0 0 
0 0 2.647717377e-07 0 -1.648244682e-07 0 2.647717377e-07 0 3.527828861e-07 
0 0 0 0 0 -2.551072866e-07 0 -2.551072866e-07 5.808372625e-07 
0 0 0 0 0 5.505147419e-07 0 5.505147419e-07 6.267827354e-07 
0 0 2.419235754e-07 0 0 0 2.419235754e-07 0 2.225465748e-07 
0 0 0 0 0 -1.480299959e-07 0 -1.480299959e-07 4.668100743e-07 
0 0 0 0 0 -1.226415008e-07 0 -1.226415008e-07 3.36573763e-07 
0 0 0 0 0 2.801695135e-07 0 2.801695135e-07 3.595464994e-07 
0 0 0 0 0 2.547810184e-07 0 2.547810184e-07 4.897828107e-07 
0 0 0 0 0 1.477037277e-07 0 1.477037277e-07 6.038099989e-07 
0 0 0 0 0 0 0 0 5.525460057e-07 
0 0 -1.417127628e-07 0 0 0 -1.417127628e-07 0 3.701934624e-07 
-1.349729118e-07 0 1.595289904e-07 0 -2.300634256e-07 0 1.595289904e-07 0 0 
1.30304224e-07 0 -1.793060242e-07 0 0 0 -1.793060242e-07 0 2.444876792e-07 
0 0 -1.265500163e-07 0 0 0 -1.265500163e-07 0 4.613697341e-07 
0 0 0 0 0 0 0 0 2.303192188e-07 
0 0 0 0 0 0 0 0 3.214954905e-07 
0 0 -1.45346647e-07 0 0 0 -1.45346647e-07 0 3.985168425e-07 
0 0 -1.605093935e-07 0 0 0 -1.605093935e-07 0 3.073405708e-07 
0 0 0 0 -1.445615833e-07 0 0 0 1.674663272e-07 
-1.495154396e-07 0 1.946072188e-07 0 -2.7238059e-07 0 1.946072188e-07 0 0 
0 1.304732127e-07 -1.787759832e-07 1.304732127e-07 -2.215682731e-07 0 -1.787759832e-07 0 2.556124357e-07 
2.019999855e-07 0 -1.864258208e-07 0 1.649849155e-07 1.26590722e-07 -1.864258208e-07 1.26590722e-07 6.743188783e-07 
0 0 1.673198415e-07 0 2.308757715e-07 -2.825532998e-07 1.673198415e-07 -2.825532998e-07 5.605369193e-07 
0 0 0 0 -2.469744316e-07 0 0 0 1.582210416e-07 
0 0 -1.82600902e-07 0 0 0 -1.82600902e-07 0 4.64965657e-07 
0 0 0 0 0 0 0 0 3.675742629e-07 
0 0 1.809635302e-07 0 0 -1.475631842e-07 1.809635302e-07 -1.475631842e-07 3.106832833e-07 
0 0 0 0 0 -1.347242377e-07 0 -1.347242377e-07 4.080746775e-07 
1.592528028e-07 0 0 0 1.979303435e-07 0 0 0 6.174278988e-07 
6.665601114e-07 -2.149477368e-07 0 -2.149477368e-07 3.556647999e-07 1.724606357e-07 0 1.724606357e-07 4.275149724e-07 
0 0 0 0 0 -2.762914264e-07 0 -2.762914264e-07 5.362922133e-07 
-2.144353512e-07 0 1.409704846e-07 0 0 0 1.409704846e-07 0 3.492022509e-07 
-4.101075355e-07 2.066856083e-07 -2.328720531e-07 2.066856083e-07 -2.971324956e-07 0 -2.328720531e-07 0 0 
3.180235713e-07 0 0 0 2.256150843e-07 0 0 0 4.819035929e-07 
-1.2247416e-07 0 0 0 0 -1.24382432e-07 0 -1.24382432e-07 4.427472321e-07 
2.260623801e-07 0 0 0 1.19546022e-07 0 0 0 3.883586116e-07 
1.28226288e-07 0 -1.452872355e-07 0 0 0 -1.452872355e-07 0 2.108034566e-07 
-2.203102521e-07 1.229978627e-07 0 1.229978627e-07 0 -1.724951726e-07 0 -1.724951726e-07 2.65192077e-07 
-3.122714433e-07 0 0 0 -2.068526258e-07 0 0 0 1.716470958e-07 
0 0 0 0 0 -2.475797905e-07 0 -2.475797905e-07 5.147325394e-07 
0 0 2.157378724e-07 0 0 0 2.157378724e-07 0 0 
-1.553890963e-07 0 1.785329476e-07 0 0 0 1.785329476e-07 0 3.612334831e-07 
1.733821688e-07 -1.379721002e-07 -1.441954644e-07 -1.379721002e-07 1.234268426e-07 4.892591206e-07 -1.441954644e-07 4.892591206e-07 6.146894509e-07 
0 0 0 0 0 -1.325339136e-07 0 -1.325339136e-07 2.81199849e-07 
0 0 1.9713541e-07 0 0 0 1.9713541e-07 0 2.044503209e-07 
0 0 0 0 0 -1.242429588e-07 0 -1.242429588e-07 4.379830113e-07 
0 0 0 0 0 1.20839665e-07 0 1.20839665e-07 5.647109951e-07 
0 0 0 0 0 2.358855419e-07 0 2.358855419e-07 3.311783047e-07 
0 0 0 0 0 2.441764968e-07 0 2.441764968e-07 4.87961467e-07 
5.829937777e-07 -2.604253686e-07 0 -2.604253686e-07 9.783080907e-07 -1.832079358e-07 0 -1.832079358e-07 6.66780084e-07 
-2.768902141e-07 1.434385149e-07 0 1.434385149e-07 -4.109969131e-07 0 0 0 0 
0 0 2.81573149e-07 0 -1.888419547e-07 0 2.81573149e-07 0 1.211430041e-07 
-3.661494368e-07 1.524856038e-07 -2.359098823e-07 1.524856038e-07 -3.886446209e-07 0 -2.359098823e-07 0 0 
1.530517818e-07 0 0 0 2.836555888e-07 0 0 0 3.893792026e-07 
-1.274713035e-07 0 1.679968784e-07 0 -2.999194339e-07 0 1.679968784e-07 0 0 
3.024706924e-07 -1.513290404e-07 0 -1.513290404e-07 3.94733068e-07 0 0 0 3.939615441e-07 
0 0 -1.695500045e-07 0 2.948317349e-07 0 -1.695500045e-07 0 3.67063227e-07 
-3.215198255e-07 1.479620593e-07 0 1.479620593e-07 -3.99820767e-07 0 0 0 0 
-1.721009149e-07 0 0 0 -2.887432878e-07 0 0 0 0 
0 0 3.193694037e-07 0 0 3.545147243e-07 3.193694037e-07 3.545147243e-07 -5.458975877e-07 
1.932607978e-07 0 2.828600879e-07 0 0 0 2.828600879e-07 0 3.79132163e-07 
0 0 0 0 0 0 0 0 1.249172318e-07 
-1.785664365e-07 0 -3.193107468e-07 0 -1.811033882e-07 -4.519915723e-07 -3.193107468e-07 -4.519915723e-07 0 
0 0 3.011147458e-07 0 0 1.631143683e-07 3.011147458e-07 1.631143683e-07 0 
0 0 1.932140009e-07 0 0 0 1.932140009e-07 0 2.520246974e-07 
0 0 2.114686588e-07 0 0 1.97054121e-07 2.114686588e-07 1.97054121e-07 -2.10490178e-07 
-1.471826252e-07 0 0 0 -1.306919871e-07 0 0 0 -2.805960175e-07 
0 0 0 0 0 -2.4013878e-07 0 -2.4013878e-07 1.819188578e-07 
0 0 0 0 0 -2.061990273e-07 0 -2.061990273e-07 0 
0 0 -2.524210668e-07 0 -3.340195017e-07 5.783623221e-07 -2.524210668e-07 5.783623221e-07 0 
0 3.741080505e-07 -3.204212723e-07 3.741080505e-07 -1.752659042e-07 1.523886938e-07 -3.204212723e-07 1.523886938e-07 -6.466610482e-07 
-1.980179448e-07 1.981997286e-07 -2.182249626e-07 1.981997286e-07 -5.227770162e-07 6.680169455e-07 -2.182249626e-07 6.680169455e-07 -7.545485613e-07 
-6.157905267e-07 -1.737199505e-07 2.561317878e-07 -1.737199505e-07 -4.056158575e-07 -4.534659308e-07 2.561317878e-07 -4.534659308e-07 -6.166067932e-07 
0 2.262805659e-07 -2.864211695e-07 2.262805659e-07 -2.54642703e-07 3.653755079e-07 -2.864211695e-07 3.653755079e-07 -3.147691472e-07 
0 2.861538896e-07 -2.693231174e-07 2.861538896e-07 -3.490214602e-07 4.102028196e-07 -2.693231174e-07 4.102028196e-07 -7.006048048e-07 
0 1.383264049e-07 -2.353230147e-07 1.383264049e-07 -4.28398259e-07 6.231896338e-07 -2.353230147e-07 6.231896338e-07 -3.687129037e-07 
-2.888052801e-07 0 0 0 -3.698176796e-07 0 0 0 -2.997420197e-07 
-2.699401743e-07 0 0 0 -2.904408808e-07 -1.505386185e-07 0 -1.505386185e-07 -6.316339207e-07 
-4.069042357e-07 0 0 0 -4.641964368e-07 0 0 0 -6.855776773e-07 
0 0 0 0 0 2.95831321e-07 0 2.95831321e-07 -2.518324433e-07 
1.507900002e-07 0 0 0 0 -2.488618667e-07 0 -2.488618667e-07 -1.296776561e-07 
0 0 0 0 0 3.353893617e-07 0 3.353893617e-07 -1.509678348e-07 
0 0 0 0 0 2.027112033e-07 0 2.027112033e-07 0 
0 0 0 0 0 0 0 0 -1.907550497e-07 
0 0 0 0 0 0 0 0 -1.403227454e-07 
0 0 0 0 0 3.156103413e-07 0 3.156103413e-07 -2.014001391e-07 
0 0 0 0 0 2.492712621e-07 0 2.492712621e-07 -1.435337455e-07 
0 0 0 0 0 0 0 0 0 
0 0 0 0 0 2.690502825e-07 0 2.690502825e-07 0 
0 0 0 0 0 -2.330272976e-07 0 -2.330272976e-07 0 
0 0 0 0 0 3.279723756e-07 0 3.279723756e-07 0 
0 0 0 0 0 -3.034962882e-07 0 -3.034962882e-07 0 
0 0 0 0 0 -2.754548398e-07 0 -2.754548398e-07 -1.748534801e-07 
0 0 0 0 0 0 0 0 0 
0 0 0 0 0 0 0 0 0 
0 0 0 0 0 -2.682617929e-07 0 -2.682617929e-07 0 
0 0 0 0 0 -2.542410687e-07 0 -2.542410687e-07 0 
0 0 0 0 0 0 0 0 0 
0 0 0 0 0 -2.89475564e-07 0 -2.89475564e-07 0 
-4.631256855e-07 0 -2.141840697e-07 0 -2.164945095e-07 2.400188303e-07 -2.141840697e-07 2.400188303e-07 -3.318149058e-07 
0 0 0 0 -1.25774651e-07 3.078500324e-07 0 3.078500324e-07 2.264244262e-07 
0 0 0 0 0 3.434633478e-07 0 3.434633478e-07 0 
3.50001419e-07 0 2.27408871e-07 0 2.20654641e-07 -3.775540239e-07 2.27408871e-07 -3.775540239e-07 3.311032891e-07 
-1.925232869e-07 0 -1.294545505e-07 0 -1.711345802e-07 2.739344313e-07 -1.294545505e-07 2.739344313e-07 0 
0 0 0 0 0 3.256566901e-07 0 3.256566901e-07 0 
-2.523290951e-07 0 -1.344064594e-07 0 -1.426066747e-07 2.91741089e-07 -1.344064594e-07 2.91741089e-07 -2.060651538e-07 
0 0 0 0 0 0 0 0 0 
2.140402653e-07 0 0 0 0 0 0 0 2.787638576e-07 
1.542344571e-07 0 0 0 0 0 0 0 1.253939436e-07 
0 0 -2.315549385e-07 0 0 -3.787666641e-07 -2.315549385e-07 -3.787666641e-07 0 
0 0 0 0 0 1.994721665e-07 0 1.994721665e-07 0 
0 0 -3.83536195e-07 0 0 -4.184632818e-07 -3.83536195e-07 -4.184632818e-07 1.221812917e-07 
0 0 -1.520860049e-07 0 0 -2.309939431e-07 -1.520860049e-07 -2.309939431e-07 0 
0 0 0 0 0 0 0 0 0 
0 0 -1.414639349e-07 0 0 0 -1.414639349e-07 0 0 
0 0 -3.075455668e-07 0 0 -3.98614973e-07 -3.075455668e-07 -3.98614973e-07 0 
0 0 -1.918204717e-07 0 0 -3.048803036e-07 -1.918204717e-07 -3.048803036e-07 0 
0 0 0 0 0 0 0 0 0 
0 0 -2.678111e-07 0 0 -3.247286125e-07 -2.678111e-07 -3.247286125e-07 0 
3.465079642e-07 -4.69313574e-07 3.31209482e-07 -4.69313574e-07 0 0 3.31209482e-07 0 0 
-9.417011915e-07 -3.152883111e-07 2.076144514e-07 -3.152883111e-07 -1.512437222e-06 8.819426295e-07 2.076144514e-07 8.819426295e-07 -1.349917235e-06 
4.764129819e-07 2.408610751e-07 0 2.408610751e-07 1.148480771e-06 -9.696781226e-07 0 -9.696781226e-07 -2.371605926e-07 
1.659923961e-07 0 3.620087789e-07 0 3.740775636e-07 -6.655889933e-07 3.620087789e-07 -6.655889933e-07 7.772147395e-07 
-2.975966137e-07 -3.923009426e-07 2.694119667e-07 -3.923009426e-07 -8.145133711e-07 4.635809101e-07 2.694119667e-07 4.635809101e-07 -7.060856465e-07 
-2.326441048e-07 0 1.420831031e-07 0 -1.819782254e-07 0 1.420831031e-07 0 -7.935389137e-07 
4.114604731e-07 0 2.038806184e-07 0 5.159456252e-07 -4.62229466e-07 2.038806184e-07 -4.62229466e-07 -1.497073254e-07 
2.562501802e-07 -2.200176729e-07 3.466091304e-07 -2.200176729e-07 1.287440216e-07 -3.101849013e-07 3.466091304e-07 -3.101849013e-07 3.574803406e-07 
-3.878543977e-07 -1.430050415e-07 2.848116151e-07 -1.430050415e-07 -5.69179829e-07 0 2.848116151e-07 0 -2.863512476e-07 
3.21202689e-07 1.350696517e-07 2.192802668e-07 1.350696517e-07 7.612791673e-07 -8.176335579e-07 2.192802668e-07 -8.176335579e-07 2.700270734e-07 
-4.878753026e-07 1.270220137e-07 -2.989176544e-07 1.270220137e-07 -6.327407061e-07 1.465304883e-07 -2.989176544e-07 1.465304883e-07 -2.495152711e-07 
4.072652853e-07 -2.179974542e-07 -1.349793463e-07 -2.179974542e-07 7.164108527e-07 -2.591524809e-07 -1.349793463e-07 -2.591524809e-07 4.005504053e-07 
4.506731471e-07 -1.486755207e-07 2.843178087e-07 -1.486755207e-07 5.758695455e-07 0 2.843178087e-07 0 3.586037337e-07 
-3.511581926e-07 2.128507186e-07 1.229947407e-07 2.128507186e-07 -5.14949705e-07 1.517970887e-07 1.229947407e-07 1.517970887e-07 -1.237333275e-07 
0 0 -2.169485004e-07 0 0 0 -2.169485004e-07 0 0 
4.289692162e-07 -1.833364874e-07 0 -1.833364874e-07 6.461401991e-07 -1.252886157e-07 0 -1.252886157e-07 3.795770695e-07 
0 0 0 0 0 0 0 0 0 
-4.195167476e-07 1.699363661e-07 0 1.699363661e-07 -5.738452055e-07 1.491637885e-07 0 1.491637885e-07 -1.866242993e-07 
0 0 0 0 0 0 0 0 1.384085389e-07 
0 0 2.036562747e-07 0 0 0 2.036562747e-07 0 0 
-1.202252374e-07 0 0 0 0 -2.486132282e-07 0 -2.486132282e-07 -2.936510115e-07 
0 0 0 0 0 1.970828129e-07 0 1.970828129e-07 0 
-2.513069582e-07 0 -4.688136544e-07 0 -1.474961999e-07 0 -4.688136544e-07 0 0 
2.728307336e-07 0 3.167543606e-07 0 1.499505996e-07 -2.808271998e-07 3.167543606e-07 -2.808271998e-07 2.835342133e-07 
0 0 0 0 0 0 0 0 0 
0 0 -1.800713682e-07 0 0 1.270610907e-07 -1.800713682e-07 1.270610907e-07 0 
-1.857660978e-07 0 -2.644474646e-07 0 0 0 -2.644474646e-07 0 -2.063595617e-07 
0 0 1.283365429e-07 0 0 -2.64720214e-07 1.283365429e-07 -2.64720214e-07 0 
1.854669836e-07 0 2.127126393e-07 0 0 0 2.127126393e-07 0 1.956531415e-07 
0 0 0 0 0 0 0 0 0 
-2.827665866e-07 0 2.835996225e-07 0 -2.563123498e-07 0 2.835996225e-07 0 -3.234230266e-07 
7.123729055e-07 3.0842071e-07 0 3.0842071e-07 7.683090794e-07 -5.161784944e-07 0 -5.161784944e-07 4.930076464e-07 
-1.314146456e-07 0 -2.945798884e-07 0 0 5.254465108e-07 -2.945798884e-07 5.254465108e-07 0 
-3.013706906e-07 -1.809201368e-07 0 -1.809201368e-07 -4.087304703e-07 0 0 0 -3.462122211e-07 
2.148031595e-07 0 0 0 2.559983648e-07 -2.672891163e-07 0 -2.672891163e-07 0 
2.9047913e-07 0 -2.047785259e-07 0 3.627182074e-07 0 -2.047785259e-07 0 2.107311572e-07 
-2.070906161e-07 0 0 0 -1.495925072e-07 2.535233863e-07 0 2.535233863e-07 -1.974841793e-07 
-2.920686386e-07 -1.392267376e-07 1.935353173e-07 -1.392267376e-07 -3.325214101e-07 0 1.935353173e-07 0 -3.348176239e-07 
2.055011075e-07 0 0 0 1.797893045e-07 -2.758370466e-07 0 -2.758370466e-07 0 
-2.163926681e-07 -1.278827454e-07 0 -1.278827454e-07 -2.258015674e-07 2.44975456e-07 0 2.44975456e-07 -2.088787766e-07 
1.664660385e-07 0 0 0 0 2.907777755e-07 0 2.907777755e-07 0 
0 0 0 0 0 -3.693985911e-07 0 -3.693985911e-07 2.744977842e-07 
0 0 -1.36273863e-07 0 0 7.007898663e-07 -1.36273863e-07 7.007898663e-07 -1.297839015e-07 
0 0 0 0 0 -4.029163377e-07 0 -4.029163377e-07 0 
0 0 0 0 0 0 0 0 1.768229014e-07 
0 0 0 0 0 1.656956376e-07 0 1.656956376e-07 0 
0 0 0 0 0 4.957838209e-07 0 4.957838209e-07 0 
0 0 0 0 0 0 0 0 0 
0 0 0 0 0 -3.861574644e-07 0 -3.861574644e-07 1.419319163e-07 
0 0 0 0 0 1.489367643e-07 0 1.489367643e-07 0 
-1.285785234e-07 0 1.801007374e-07 0 -1.623133213e-07 -2.559262556e-07 1.801007374e-07 -2.559262556e-07 -4.96072472e-07 
-1.662989832e-07 0 1.478588553e-07 0 0 -3.193314572e-07 1.478588553e-07 -3.193314572e-07 0 
0 0 -2.213796496e-07 0 0 3.926038718e-07 -2.213796496e-07 3.926038718e-07 0 
2.042227133e-07 0 0 0 1.257153942e-07 -1.863696309e-07 0 -1.863696309e-07 2.239080955e-07 
-1.474387533e-07 0 1.639797963e-07 0 0 -2.876288564e-07 1.639797963e-07 -2.876288564e-07 -2.874287631e-07 
0 0 0 0 0 0 0 0 0 
0 0 0 0 0 0 0 0 -2.589524308e-07 
0 0 0 0 0 -2.211479433e-07 0 -2.211479433e-07 -1.360821883e-07 
0 0 0 0 0 -2.52850544e-07 0 -2.52850544e-07 0 
1.528742518e-07 0 -1.202958611e-07 0 0 0 -1.202958611e-07 0 0 
0 0 0 0 0 -2.207847755e-07 0 -2.207847755e-07 0 
0 0 0 0 0 3.275175315e-07 0 3.275175315e-07 -2.16366409e-07 
0 0 1.222676987e-07 0 0 3.523538524e-07 1.222676987e-07 3.523538524e-07 0 
0 0 0 0 0 0 0 0 0 
0 0 0 0 0 0 0 0 -1.51616949e-07 
0 0 0 0 0 3.399356919e-07 0 3.399356919e-07 -1.354707152e-07 
0 0 0 0 0 0 0 0 0 
0 0 0 0 0 -1.385479515e-07 0 -1.385479515e-07 0 
0 0 0 0 0 1.356032021e-07 0 1.356032021e-07 0 
0 0 0 0 0 1.480213625e-07 0 1.480213625e-07 0 
6.953226505e-07 3.250320363e-07 0 3.250320363e-07 7.684300257e-07 -4.282510996e-07 0 -4.282510996e-07 3.849285001e-07 
-3.055548062e-07 -1.579969298e-07 0 -1.579969298e-07 -3.83118845e-07 0 0 0 -3.27396254e-07 
0 0 -3.715340879e-07 0 0 3.680282852e-07 -3.715340879e-07 3.680282852e-07 -1.307594564e-07 
-3.690586075e-07 0 2.966941867e-07 0 -3.080928647e-07 0 2.966941867e-07 0 -3.724535742e-07 
1.948839221e-07 0 0 0 1.926555904e-07 -2.25367324e-07 0 -2.25367324e-07 0 
-1.540634006e-07 0 -1.468504929e-07 0 -2.053503759e-07 1.727723684e-07 -1.468504929e-07 1.727723684e-07 -2.290778552e-07 
3.463753277e-07 1.254749697e-07 -2.083620901e-07 1.254749697e-07 3.704240595e-07 0 -2.083620901e-07 0 1.270845218e-07 
1.631320215e-07 0 1.257520472e-07 0 2.301685805e-07 -1.943712389e-07 1.257520472e-07 -1.943712389e-07 0 
-3.373067069e-07 -1.359655645e-07 1.872636444e-07 -1.359655645e-07 -3.456058549e-07 0 1.872636444e-07 0 -3.499249141e-07 
-1.858153013e-07 0 0 0 -1.678373858e-07 2.037684535e-07 0 2.037684535e-07 -2.516065153e-07 
0 0 -1.350187788e-07 0 0 -2.313809108e-07 -1.350187788e-07 -2.313809108e-07 0 
0 0 0 0 0 -3.011117641e-07 0 -3.011117641e-07 0 
0 0 -1.474263263e-07 0 0 -2.726726436e-07 -1.474263263e-07 -2.726726436e-07 -2.469117951e-07 
0 0 1.304425642e-07 0 0 2.746763367e-07 1.304425642e-07 2.746763367e-07 0 
0 0 0 0 0 -2.662463375e-07 0 -2.662463375e-07 0 
0 0 0 0 0 -2.868922039e-07 0 -2.868922039e-07 -1.416761195e-07 
0 0 -1.412225526e-07 0 0 -2.520267772e-07 -1.412225526e-07 -2.520267772e-07 -1.29828304e-07 
0 0 0 0 0 0 0 0 0 
0 0 0 0 0 0 0 0 0 
0 0 0 0 0 0 0 0 0 
1.462593259e-06 5.991589773e-07 3.323752966e-07 5.991589773e-07 2.368422991e-06 0 3.323752966e-07 0 1.511321909e-06 
1.767048124e-07 -2.22869613e-07 -2.602903665e-07 -2.22869613e-07 3.52006764e-07 -1.181889965e-06 -2.602903665e-07 -1.181889965e-06 7.397094687e-07 
-1.097995424e-06 -1.95320702e-07 3.394558642e-07 -1.95320702e-07 -2.481696e-06 1.224486162e-06 3.394558642e-07 1.224486162e-06 -1.052637615e-06 
2.102222451e-07 -6.188382089e-07 1.394552871e-07 -6.188382089e-07 5.870956274e-07 -7.163827331e-07 1.394552871e-07 -7.163827331e-07 -1.040626425e-06 
8.196490357e-07 1.881446821e-07 0 1.881446821e-07 1.360214878e-06 -5.916675605e-07 0 -5.916675605e-07 1.125515689e-06 
-4.606453059e-07 -2.090951575e-07 0 -2.090951575e-07 -1.064844618e-06 0 0 0 -1.56464073e-07 
1.822989174e-07 2.019191376e-07 3.359155804e-07 2.019191376e-07 0 6.115205026e-07 3.359155804e-07 6.115205026e-07 2.293421471e-07 
8.36407752e-07 0 2.359152919e-07 0 1.477759309e-06 -3.589139447e-07 2.359152919e-07 -3.589139447e-07 2.353477417e-07 
1.934635287e-07 -4.20853911e-07 0 -4.20853911e-07 4.695511957e-07 -9.491363489e-07 0 -9.491363489e-07 -1.504584784e-07 
-4.438865896e-07 -4.070794554e-07 2.394555757e-07 -4.070794554e-07 -9.473001862e-07 2.540517143e-07 2.394555757e-07 2.540517143e-07 -1.04663202e-06 
1.726518074e-07 0 0 0 0 -1.373287456e-07 0 -1.373287456e-07 -3.545131864e-07 
-1.513509006e-07 0 0 0 0 2.493788912e-07 0 2.493788912e-07 3.415470601e-07 
0 0 0 0 0 -4.991810049e-07 0 -4.991810049e-07 0 
-2.282125933e-07 0 -3.717366269e-07 0 0 -1.637103019e-07 -3.717366269e-07 -1.637103019e-07 2.787509798e-07 
0 0 0 0 0 0 0 0 0 
0 0 0 0 0 -1.249010569e-07 0 -1.249010569e-07 1.697226863e-07 
0 0 0 0 0 -3.182548753e-07 0 -3.182548753e-07 -1.783074369e-07 
0 0 -1.632139007e-07 0 0 -1.505195238e-07 -1.632139007e-07 -1.505195238e-07 0 
-1.897817469e-07 0 -1.894573553e-07 0 0 0 -1.894573553e-07 0 3.101490199e-07 
-1.380961119e-07 0 -1.865876933e-07 0 0 -3.314456534e-07 -1.865876933e-07 -3.314456534e-07 1.383246461e-07 
-7.584052191e-07 2.312362633e-07 -3.73525158e-07 2.312362633e-07 -5.934299776e-07 4.236933404e-07 -3.73525158e-07 4.236933404e-07 -9.023715935e-07 
-1.271735072e-07 0 0 0 -4.153836282e-07 4.838742262e-07 0 4.838742262e-07 0 
1.30198675e-07 0 0 0 -2.940256872e-07 6.294733477e-07 0 6.294733477e-07 0 
8.382168822e-07 -2.212036635e-07 3.916118483e-07 -2.212036635e-07 5.330803916e-07 -4.40984855e-07 3.916118483e-07 -4.40984855e-07 1.048311266e-06 
-4.427893631e-07 1.537013666e-07 -2.360777049e-07 1.537013666e-07 -5.044068029e-07 4.537837833e-07 -2.360777049e-07 4.537837833e-07 -3.924000689e-07 
0 0 0 0 -3.547046577e-07 5.566737869e-07 0 5.566737869e-07 0 
-3.14103272e-07 1.264034202e-07 -2.171697592e-07 1.264034202e-07 -4.437278324e-07 5.26583344e-07 -2.171697592e-07 5.26583344e-07 -4.636993844e-07 
0 0 0 0 0 0 0 0 0 
3.555216875e-07 0 1.464907982e-07 0 0 0 1.464907982e-07 0 5.829413611e-07 
4.842077786e-07 0 1.653987439e-07 0 1.195273522e-07 0 1.653987439e-07 0 5.116420455e-07 
0 0 0 0 1.344392218e-07 2.320731466e-07 0 2.320731466e-07 2.00312479e-07 
0 0 0 0 0 -2.554887776e-07 0 -2.554887776e-07 1.392072401e-07 
0 0 0 0 0 -3.002705224e-07 0 -3.002705224e-07 0 
0 0 0 0 0 1.37610245e-07 0 1.37610245e-07 -1.526978051e-07 
0 0 0 0 0 0 0 0 1.697598596e-07 
0 0 0 0 0 -2.7787965e-07 0 -2.7787965e-07 0 
0 0 0 0 0 0 0 0 0 
0 0 0 0 0 1.848416958e-07 0 1.848416958e-07 0 
0 0 0 0 0 0 0 0 0 
0 0 0 0 0 0 0 0 0 
2.235237889e-07 0 1.597686249e-07 0 0 0 1.597686249e-07 0 2.700574864e-07 
-2.17751912e-07 0 -3.939115857e-07 0 0 -1.29037605e-07 -3.939115857e-07 -1.29037605e-07 -3.394864484e-07 
0 0 -3.490359542e-07 0 0 9.168990481e-07 -3.490359542e-07 9.168990481e-07 4.044377182e-07 
0 -1.385584965e-07 -3.16199822e-07 -1.385584965e-07 -1.230255714e-07 -8.670876016e-07 -3.16199822e-07 -8.670876016e-07 -1.594806654e-07 
0 0 0 0 0 0 0 0 0 
0 0 -3.714737699e-07 0 0 3.939307216e-07 -3.714737699e-07 3.939307216e-07 0 
1.218565695e-07 0 0 0 0 4.161300197e-07 0 4.161300197e-07 3.372476023e-07 
0 0 0 0 0 -4.758633052e-07 0 -4.758633052e-07 0 
-1.59802172e-07 0 -3.550557038e-07 0 0 -4.980626033e-07 -3.550557038e-07 -4.980626033e-07 -2.494835569e-07 
0 0 -3.326178881e-07 0 0 0 -3.326178881e-07 0 1.224785264e-07 
0 0 -5.519892791e-07 0 0 0 -5.519892791e-07 0 0 
-4.563742205e-07 -1.650907896e-07 -1.389293313e-07 -1.650907896e-07 -4.689601321e-07 4.79779145e-07 -1.389293313e-07 4.79779145e-07 -5.477045554e-07 
9.802468637e-07 3.987023711e-07 0 3.987023711e-07 1.261223489e-06 -4.690871867e-07 0 -4.690871867e-07 6.971425554e-07 
-7.140139661e-07 -2.699634481e-07 1.374363283e-07 -2.699634481e-07 -1.037963848e-06 5.679690784e-07 1.374363283e-07 5.679690784e-07 -7.71396532e-07 
-1.971820076e-07 0 -3.454593052e-07 0 -1.951633304e-07 2.948016875e-07 -3.454593052e-07 2.948016875e-07 -2.458510648e-07 
2.619363216e-07 0 0 0 3.961316783e-07 0 0 0 0 
5.211285345e-07 2.049180337e-07 -3.249846113e-07 2.049180337e-07 6.6992848e-07 -1.796314783e-07 -3.249846113e-07 -1.796314783e-07 3.765724906e-07 
-3.260018804e-07 -1.294148758e-07 -2.072764754e-07 -1.294148758e-07 -4.796651883e-07 3.388966542e-07 -2.072764754e-07 3.388966542e-07 -3.576970531e-07 
-5.851940933e-07 -2.175271188e-07 0 -2.175271188e-07 -7.5346199e-07 5.238741117e-07 0 5.238741117e-07 -6.595505437e-07 
1.331164488e-07 0 0 0 0 0 0 0 0 
0 0 6.172030102e-07 0 -2.00798673e-07 -1.406590691e-07 6.172030102e-07 -1.406590691e-07 -5.621630957e-07 
-2.251224946e-07 0 -7.152529593e-07 0 1.224063095e-07 0 -7.152529593e-07 0 0 
1.300512426e-07 -2.472673487e-07 1.564044966e-07 -2.472673487e-07 0 -4.224974055e-07 1.564044966e-07 -4.224974055e-07 -3.629811665e-07 
0 0 -5.113684555e-07 0 0 0 -5.113684555e-07 0 2.950828103e-07 
-1.436943719e-07 0 0 0 0 0 0 0 -2.623544816e-07 
0 -1.402897979e-07 -2.794242313e-07 -1.402897979e-07 0 -2.08145554e-07 -2.794242313e-07 -2.08145554e-07 -1.62763517e-07 
0 -1.395930641e-07 3.868037534e-07 -1.395930641e-07 0 -2.815782373e-07 3.868037534e-07 -2.815782373e-07 -4.625721311e-07 
0 0 0 0 -1.401046197e-07 0 0 0 -1.335401427e-07 
-1.574224787e-07 0 -6.133107074e-07 0 0 0 -6.133107074e-07 0 1.662684714e-07 
0 0 -1.774819794e-07 0 0 -2.219095897e-07 -1.774819794e-07 -2.219095897e-07 0 
5.647452434e-07 0 1.916355558e-07 0 2.139918534e-07 -3.466942316e-07 1.916355558e-07 -3.466942316e-07 0 
-3.538059683e-07 -1.623992378e-07 1.632212759e-07 -1.623992378e-07 -1.421806067e-07 -2.437426046e-07 1.632212759e-07 -2.437426046e-07 0 
4.921175515e-07 0 -2.440790786e-07 0 0 3.845271227e-07 -2.440790786e-07 3.845271227e-07 0 
-5.055681282e-07 0 -1.657043988e-07 0 0 3.126551316e-07 -1.657043988e-07 3.126551316e-07 -4.490113637e-07 
0 0 1.774284159e-07 0 0 -2.952184181e-07 1.774284159e-07 -2.952184181e-07 0 
0 0 0 0 0 0 0 0 0 
5.284313975e-07 0 0 0 1.568337526e-07 0 0 0 0 
0 0 0 0 0 0 0 0 -2.268516298e-07 
-4.296870482e-07 0 0 0 -1.264853526e-07 0 0 0 -2.784466817e-07 
0 0 -2.048917387e-07 0 0 3.485911272e-07 -2.048917387e-07 3.485911272e-07 -2.741536617e-07 
0 0 0 0 0 2.392076196e-07 0 2.392076196e-07 0 
0 0 4.844651153e-07 0 0 2.597511211e-07 4.844651153e-07 2.597511211e-07 0 
0 0 0 0 0 -2.713557381e-07 0 -2.713557381e-07 -2.304711578e-07 
0 0 0 0 0 1.768152011e-07 0 1.768152011e-07 0 
0 0 2.464287383e-07 0 0 2.494793704e-07 2.464287383e-07 2.494793704e-07 0 
0 0 2.093177464e-07 0 0 0 2.093177464e-07 0 -1.741031569e-07 
0 0 0 0 0 0 0 0 0 
0 0 0 0 0 2.080114104e-07 0 2.080114104e-07 0 
0 0 2.078915984e-07 0 0 2.182831611e-07 2.078915984e-07 2.182831611e-07 0 
0 0 0 0 0 0 0 0 0 
-5.412512478e-07 -1.660766716e-07 -2.797584119e-07 -1.660766716e-07 -9.076655385e-07 2.246857145e-07 -2.797584119e-07 2.246857145e-07 -4.541670731e-07 
1.493202653e-07 1.53913512e-07 -9.841669702e-07 1.53913512e-07 9.749566445e-07 -4.177196374e-07 -9.841669702e-07 -4.177196374e-07 1.463438613e-07 
9.363876942e-07 3.444927944e-07 4.916568714e-07 3.444927944e-07 1.342701209e-06 0 4.916568714e-07 0 5.804627325e-07 
-7.320032296e-07 -4.307446005e-07 5.202352234e-07 -4.307446005e-07 -1.437280672e-06 0 5.202352234e-07 0 -5.455702752e-07 
-1.959654912e-07 0 -6.31962691e-07 0 0 0 -6.31962691e-07 0 -1.539116059e-07 
5.428539797e-07 2.492031532e-07 -2.462550494e-07 2.492031532e-07 1.158828927e-06 -1.677789176e-07 -2.462550494e-07 -1.677789176e-07 3.634032969e-07 
1.975682232e-07 0 0 0 2.175178355e-07 1.534237584e-07 0 1.534237584e-07 0 
-6.366272387e-07 -2.98410636e-07 1.202384058e-07 -2.98410636e-07 -1.172473105e-06 1.619682064e-07 1.202384058e-07 1.619682064e-07 -4.998686741e-07 
-2.913414821e-07 -1.384155442e-07 -2.319658734e-07 -1.384155442e-07 -2.311620137e-07 -1.592344696e-07 -2.319658734e-07 -1.592344696e-07 -1.996132069e-07 
0 0 5.059460474e-07 0 0 0 5.059460474e-07 0 0 
0 -2.653254678e-07 -3.957409816e-07 -2.653254678e-07 -7.419219273e-07 1.169258901e-06 -3.957409816e-07 1.169258901e-06 -1.013914191e-06 
9.062401065e-07 0 -3.866700891e-07 0 1.004390312e-06 -5.333458012e-07 -3.866700891e-07 -5.333458012e-07 1.505853999e-07 
0 2.81776841e-07 5.035246061e-07 2.81776841e-07 4.089794305e-07 -6.310878006e-07 5.035246061e-07 -6.310878006e-07 3.611967248e-07 
-8.141384594e-07 -1.322117341e-07 5.118169403e-07 -1.322117341e-07 1.473840019e-07 -7.277006086e-07 5.118169403e-07 -7.277006086e-07 8.302879386e-07 
4.589381907e-07 -1.898433673e-07 -3.912055354e-07 -1.898433673e-07 1.312341924e-07 3.179565499e-07 -3.912055354e-07 3.179565499e-07 -4.316643954e-07 
3.936307396e-07 0 0 0 7.066848713e-07 -5.822168009e-07 0 -5.822168009e-07 2.558910624e-07 
0 0 0 0 -1.664712484e-07 2.690855502e-07 0 2.690855502e-07 -3.263587329e-07 
-4.012510923e-07 -1.987686009e-07 0 -1.987686009e-07 -2.972689627e-07 2.207791462e-07 0 2.207791462e-07 0 
0 -1.232865004e-07 0 -1.232865004e-07 5.758871569e-07 -6.305232049e-07 0 -6.305232049e-07 4.904366693e-07 
-4.665585434e-07 0 5.076707732e-07 0 2.781817162e-07 -6.793942046e-07 5.076707732e-07 -6.793942046e-07 5.957423317e-07 
2.840198261e-07 0 0 0 0 2.557766916e-07 0 2.557766916e-07 0 
0 0 2.988795692e-07 0 0 -4.134944644e-07 2.988795692e-07 -4.134944644e-07 1.740005486e-07 
-1.24275157e-07 0 1.597437388e-07 0 0 -3.277894606e-07 1.597437388e-07 -3.277894606e-07 0 
-3.820082425e-07 0 -1.381945817e-07 0 0 -4.494677902e-07 -1.381945817e-07 -4.494677902e-07 -1.727199652e-07 
1.712939673e-07 0 1.346006344e-07 0 0 0 1.346006344e-07 0 0 
0 0 2.29311654e-07 0 0 -3.706419625e-07 2.29311654e-07 -3.706419625e-07 0 
0 0 0 0 0 0 0 0 0 
0 0 0 0 0 0 0 0 0 
-1.61720067e-07 0 0 0 0 -4.314811273e-07 0 -4.314811273e-07 0 
-2.531416997e-07 0 0 0 0 -3.886286254e-07 0 -3.886286254e-07 -1.222062273e-07 
-8.234695355e-07 0 -2.302627035e-07 0 -4.097010048e-07 2.392737128e-07 -2.302627035e-07 2.392737128e-07 -4.949777447e-07 
-1.743617752e-07 0 1.986433929e-07 0 0 -3.558432034e-07 1.986433929e-07 -3.558432034e-07 0 
3.908296586e-07 0 0 0 0 3.144510742e-07 0 3.144510742e-07 3.659330646e-07 
5.629641056e-07 0 1.380942006e-07 0 3.437983812e-07 -3.977246835e-07 1.380942006e-07 -3.977246835e-07 4.437632591e-07 
-4.989156554e-07 0 0 0 -2.115448164e-07 0 0 0 -2.616556089e-07 
0 0 0 0 0 0 0 0 1.687997958e-07 
-2.163199385e-07 0 0 0 -1.797639156e-07 2.768623935e-07 0 2.768623935e-07 0 
-1.302527149e-07 0 0 0 0 0 0 0 0 
1.943011652e-07 0 1.683687968e-07 0 1.652048766e-07 -3.767839435e-07 1.683687968e-07 -3.767839435e-07 2.07714893e-07 
4.768968821e-07 0 0 0 1.969857774e-07 0 0 0 4.048481618e-07 
2.253365266e-07 1.290328438e-07 0 1.290328438e-07 0 3.039937372e-07 0 3.039937372e-07 3.152979469e-07 
0 0 0 0 0 -4.041384003e-07 0 -4.041384003e-07 1.395725763e-07 
0 -1.33581598e-07 0 -1.33581598e-07 0 -3.782107899e-07 0 -3.782107899e-07 0 
0 1.652628288e-07 0 1.652628288e-07 2.070542306e-07 -4.834675124e-07 0 -4.834675124e-07 5.122490074e-07 
0 0 0 0 0 0 0 0 2.274352616e-07 
0 -1.217298619e-07 0 -1.217298619e-07 0 -3.911745951e-07 0 -3.911745951e-07 0 
0 0 0 0 0 0 0 0 1.59793865e-07 
1.396952815e-07 1.471478363e-07 0 1.471478363e-07 1.212012115e-07 0 0 0 4.137734772e-07 
0 0 0 0 0 -4.438029564e-07 0 -4.438029564e-07 3.259107918e-07 
0 0 0 0 0 -4.308391511e-07 0 -4.308391511e-07 2.582693953e-07 
0 -6.351467874e-07 -3.593181442e-07 -6.351467874e-07 5.891130234e-07 -8.135942449e-07 -3.593181442e-07 -8.135942449e-07 -4.284530241e-07 
0 4.480488247e-07 2.762539709e-07 4.480488247e-07 -8.722976622e-07 1.312725243e-06 2.762539709e-07 1.312725243e-06 -4.021228706e-07 
-6.932753871e-07 -8.22369412e-07 0 -8.22369412e-07 3.457633193e-07 -9.99433229e-07 0 -9.99433229e-07 4.250410018e-07 
1.083251003e-06 7.069664042e-07 4.173869979e-07 7.069664042e-07 1.547761443e-06 -1.96503678e-07 4.173869979e-07 -1.96503678e-07 1.010469047e-06 
0 0 0 0 -1.415923194e-07 2.495654991e-07 0 2.495654991e-07 -4.152879474e-07 
-3.713894629e-07 -1.871602937e-07 0 -1.871602937e-07 -2.632671715e-07 1.566460071e-07 0 1.566460071e-07 0 
-3.655262723e-07 -7.287580997e-07 -2.058036025e-07 -7.287580997e-07 4.674381713e-07 -9.065137369e-07 -2.058036025e-07 -9.065137369e-07 0 
5.227369229e-07 0 0 0 1.068437233e-06 -5.050489615e-07 0 -5.050489615e-07 2.910080116e-07 
5.168737323e-07 5.775076144e-07 3.468204844e-07 5.775076144e-07 3.377318902e-07 5.581107825e-07 3.468204844e-07 5.581107825e-07 3.041730884e-07 
1.949878081e-07 0 1.825489685e-07 0 9.467623809e-07 -5.979684535e-07 1.825489685e-07 -5.979684535e-07 7.177550246e-07 
6.891510741e-07 3.311328863e-07 0 3.311328863e-07 7.346687951e-07 -3.810993637e-07 0 -3.810993637e-07 2.767843647e-07 
-4.151203345e-07 0 2.743641703e-07 0 -3.108848566e-07 0 2.743641703e-07 0 -4.01808293e-07 
-3.072216802e-07 -1.426142878e-07 0 -1.426142878e-07 -3.576027446e-07 0 0 0 -3.204223595e-07 
0 0 -3.353870962e-07 0 0 3.622584635e-07 -3.353870962e-07 3.622584635e-07 -2.138079048e-07 
1.370153698e-07 0 1.329976593e-07 0 2.118919693e-07 -1.695223992e-07 1.329976593e-07 -1.695223992e-07 0 
-3.611710073e-07 -1.269035398e-07 1.526934548e-07 -1.269035398e-07 -3.342438006e-07 0 1.526934548e-07 0 -3.611153263e-07 
1.909646969e-07 0 0 0 1.885330252e-07 -2.21129299e-07 0 -2.21129299e-07 0 
3.8266762e-07 1.224838573e-07 -1.71877974e-07 1.224838573e-07 3.607789731e-07 0 -1.71877974e-07 0 0 
-1.694680843e-07 0 0 0 -1.619978527e-07 2.021565143e-07 0 2.021565143e-07 -3.078080989e-07 
0 0 -1.521821785e-07 0 -1.853567968e-07 1.505496145e-07 -1.521821785e-07 1.505496145e-07 -2.671151321e-07 
0 0 0 0 0 -2.995910722e-07 0 -2.995910722e-07 0 
0 0 0 0 0 3.141482914e-07 0 3.141482914e-07 0 
0 0 0 0 0 2.524999474e-07 0 2.524999474e-07 0 
0 0 0 0 0 2.748797775e-07 0 2.748797775e-07 0 
0 0 0 0 0 0 0 0 0 
0 0 0 0 0 2.833241194e-07 0 2.833241194e-07 0 
0 0 0 0 0 0 0 0 0 
0 0 0 0 0 0 0 0 0 
0 0 0 0 0 2.945140344e-07 0 2.945140344e-07 0 
0 0 0 0 0 2.636898625e-07 0 2.636898625e-07 0 
4.795173086e-07 3.06961022e-07 -3.11049665e-07 3.06961022e-07 7.951054821e-07 0 -3.11049665e-07 0 4.950570333e-07 
-8.985211899e-07 -3.30754585e-07 -7.384844031e-07 -3.30754585e-07 -1.257023876e-06 0 -7.384844031e-07 0 -4.158693371e-07 
1.041629411e-06 2.955198382e-07 3.249944658e-07 2.955198382e-07 1.684064395e-06 -4.590976945e-07 3.249944658e-07 -4.590976945e-07 8.932719379e-07 
-5.656399014e-07 -3.107660887e-07 5.506442818e-07 -3.107660887e-07 -1.309379163e-06 3.724975372e-07 5.506442818e-07 3.724975372e-07 -6.961568197e-07 
-2.095019407e-07 0 -5.247670341e-07 0 -2.309591969e-07 0 -5.247670341e-07 0 0 
0 0 -2.067449686e-07 0 2.135202593e-07 -1.949646838e-07 -2.067449686e-07 -1.949646838e-07 2.387013004e-07 
7.605733597e-07 3.012404301e-07 0 3.012404301e-07 1.239584938e-06 -2.012809354e-07 0 -2.012809354e-07 6.941644856e-07 
0 0 1.197973084e-07 0 -2.571368403e-07 2.145166805e-07 1.197973084e-07 2.145166805e-07 0 
-7.320805457e-07 -3.207603369e-07 0 -3.207603369e-07 -1.283201519e-06 2.208329321e-07 0 2.208329321e-07 -5.560130784e-07 
2.379947548e-07 0 4.378193738e-07 0 1.87342616e-07 0 4.378193738e-07 0 0 
0 0 0 0 0 -1.775363062e-07 0 -1.775363062e-07 2.595650949e-07 
-1.211967639e-07 -1.349372898e-07 -1.402323047e-07 -1.349372898e-07 -1.327064707e-07 -3.174940743e-07 -1.402323047e-07 -3.174940743e-07 -1.985246771e-07 
0 0 0 0 0 1.437643018e-07 0 1.437643018e-07 -1.317302038e-07 
0 0 0 0 0 -1.327488844e-07 0 -1.327488844e-07 -2.462729465e-07 
0 0 0 0 0 -2.475151903e-07 0 -2.475151903e-07 0 
0 0 0 0 0 0 0 0 -1.651274405e-07 
0 0 0 0 0 0 0 0 0 
0 0 0 0 0 -1.551425953e-07 0 -1.551425953e-07 0 
0 0 0 0 0 -2.251214793e-07 0 -2.251214793e-07 -2.223988118e-07 
0 0 0 0 0 0 0 0 -1.890015752e-07 
0 0 0 0 0 3.54370577e-07 0 3.54370577e-07 0 
0 0 -1.736222701e-07 0 0 -2.780339611e-07 -1.736222701e-07 -2.780339611e-07 0 
0 0 0 0 0 0 0 0 0 
0 0 1.488777929e-07 0 0 2.431540939e-07 1.488777929e-07 2.431540939e-07 0 
0 0 0 0 0 0 0 0 0 
0 0 0 0 0 -1.844410017e-07 0 -1.844410017e-07 0 
0 0 0 0 0 1.317612674e-07 0 1.317612674e-07 0 
0 0 0 0 0 2.987623354e-07 0 2.987623354e-07 0 
0 0 0 0 0 0 0 0 0 
0 0 0 0 0 0 0 0 0 
0 0 0 0 0 -2.345842205e-07 0 -2.345842205e-07 0 
0 0 0 0 -1.273198003e-07 -1.658871168e-07 0 -1.658871168e-07 0 
0 0 0 0 0 3.296243498e-07 0 3.296243498e-07 1.428354024e-07 
0 0 0 0 0 -2.732138294e-07 0 -2.732138294e-07 0 
0 0 0 0 0 -2.002356686e-07 0 -2.002356686e-07 0 
0 0 0 0 0 0 0 0 0 
0 0 0 0 0 0 0 0 0 
0 0 0 0 0 -2.538990249e-07 0 -2.538990249e-07 0 
0 0 0 0 -1.216523954e-07 -2.195504731e-07 0 -2.195504731e-07 0 
0 0 0 0 0 0 0 0 0 
0 0 0 0 0 3.368116598e-07 0 3.368116598e-07 1.61944586e-07 
0 0 1.277484578e-07 0 0 2.103379363e-07 1.277484578e-07 2.103379363e-07 1.572459132e-07 
0 0 0 0 0 -2.28838837e-07 0 -2.28838837e-07 0 
0 0 0 0 -1.391995085e-07 -2.721134487e-07 0 -2.721134487e-07 0 
0 0 0 0 0 2.73574798e-07 0 2.73574798e-07 1.595952496e-07 
0 0 0 0 0 0 0 0 0 
0 0 0 0 0 0 0 0 0 
0 0 0 0 0 0 0 0 0 
0 0 0 0 0 0 0 0 0 
0 0 0 0 0 -2.504761428e-07 0 -2.504761428e-07 0 
0 0 1.906047218e-07 0 0 -2.807374824e-07 1.906047218e-07 -2.807374824e-07 -2.342531406e-07 
0 0 0 0 0 -2.985253709e-07 0 -2.985253709e-07 0 
0 0 2.082916328e-07 0 -1.367900443e-07 -3.378943369e-07 2.082916328e-07 -3.378943369e-07 -2.940624678e-07 
0 1.543504814e-07 -1.447169298e-07 1.543504814e-07 1.445024314e-07 3.373488257e-07 -1.447169298e-07 3.373488257e-07 -1.95342719e-07 
0 0 1.406682807e-07 0 0 -2.896314267e-07 1.406682807e-07 -2.896314267e-07 0 
0 0 1.495117362e-07 0 0 -3.182098539e-07 1.495117362e-07 -3.182098539e-07 0 
0 0 1.994481773e-07 0 0 -3.093159097e-07 1.994481773e-07 -3.093159097e-07 -2.641578042e-07 
0 0 0 0 0 0 0 0 -2.147979298e-07 
0 0 0 0 1.195901374e-07 0 0 0 0 
0 0 0 0 0 0 0 0 -2.447025934e-07 
0 0 6.664011504e-07 0 2.67916515e-07 1.042373269e-06 6.664011504e-07 1.042373269e-06 -1.441610756e-07 
0 0 4.930937988e-07 0 0 1.90499967e-07 4.930937988e-07 1.90499967e-07 -2.030739989e-07 
1.975494054e-07 0 4.788179218e-07 0 2.494226967e-07 2.428755687e-07 4.788179218e-07 2.428755687e-07 0 
0 -1.279827314e-07 -2.039573208e-06 -1.279827314e-07 -3.326863087e-07 -1.43048933e-06 -2.039573208e-06 -1.43048933e-06 -2.580761139e-07 
0 0 5.797474746e-07 0 0 6.164366178e-07 5.797474746e-07 6.164366178e-07 -1.736175372e-07 
0 0 4.859558603e-07 0 0 2.166877679e-07 4.859558603e-07 2.166877679e-07 0 
0 0 5.726095361e-07 0 2.586696058e-07 6.426244187e-07 5.726095361e-07 6.426244187e-07 0 
0 0 -6.865860287e-07 0 0 -1.940580307e-07 -6.865860287e-07 -1.940580307e-07 -2.011185947e-07 
0 0 -7.732397045e-07 0 -2.095265192e-07 -6.199946815e-07 -7.732397045e-07 -6.199946815e-07 -2.305750564e-07 
0 0 -7.80377643e-07 0 0 -5.938068807e-07 -7.80377643e-07 -5.938068807e-07 -1.222007788e-07 
0 0 0 0 0 2.218944923e-07 0 2.218944923e-07 1.620289714e-07 
0 0 0 0 0 2.714515323e-07 0 2.714515323e-07 3.114387138e-07 
0 0 0 0 0 -2.527729396e-07 0 -2.527729396e-07 1.638298571e-07 
0 0 0 0 0 1.391156718e-07 0 1.391156718e-07 -1.701019308e-07 
0 0 0 0 0 2.466730123e-07 0 2.466730123e-07 2.367338426e-07 
0 0 0 0 0 0 0 0 2.376342854e-07 
0 0 0 0 0 0 0 0 1.629294142e-07 
0 0 0 0 0 1.805050821e-07 0 1.805050821e-07 0 
0 0 0 0 0 2.05283602e-07 0 2.05283602e-07 0 
0 0 0 0 0 0 0 0 0 
3.29529092e-07 0 1.365745248e-07 0 2.391189576e-07 -3.924403973e-07 1.365745248e-07 -3.924403973e-07 0 
8.464095279e-07 0 1.203424773e-07 0 1.860867563e-07 3.679741515e-07 1.203424773e-07 3.679741515e-07 0 
-4.385876755e-07 0 -1.588311139e-07 0 -1.776747767e-07 3.741955175e-07 -1.588311139e-07 3.741955175e-07 2.794262998e-07 
-9.339330062e-07 0 -1.566072498e-07 0 -2.12884547e-07 -4.723858221e-07 -1.566072498e-07 -4.723858221e-07 1.448202716e-07 
5.8796931e-07 0 1.28458501e-07 0 2.12602857e-07 0 1.28458501e-07 0 0 
2.039109262e-07 0 0 0 0 3.710848345e-07 0 3.710848345e-07 1.373813312e-07 
0 0 0 0 0 0 0 0 0 
-3.022019571e-07 0 0 0 0 -4.324131097e-07 0 -4.324131097e-07 0 
0 0 0 0 0 0 0 0 0 
-6.862603408e-07 0 -1.577191819e-07 0 -1.952796618e-07 0 -1.577191819e-07 0 2.121232857e-07 
0 0 3.80158703e-07 0 0 0 3.80158703e-07 0 7.516464064e-07 
1.225502604e-07 0 0 0 1.649017061e-07 0 0 0 0 
0 0 4.337493339e-07 0 -1.80311756e-07 0 4.337493339e-07 0 -6.024776125e-07 
-2.397988073e-07 0 -1.597454575e-07 0 -1.751586598e-07 0 -1.597454575e-07 0 -6.470965255e-07 
0 0 1.783592359e-07 0 1.28840364e-07 0 1.783592359e-07 0 3.301580247e-07 
0 0 2.051545514e-07 0 0 0 2.051545514e-07 0 -3.469039848e-07 
0 0 4.069540185e-07 0 0 0 4.069540185e-07 0 0 
0 0 0 0 0 0 0 0 0 
0 0 0 0 0 0 0 0 -3.692134413e-07 
0 0 1.370019382e-07 0 -1.777352079e-07 0 1.370019382e-07 0 -6.24787069e-07 
0 -1.496699959e-07 -1.50978394e-07 -1.496699959e-07 -2.009063385e-07 3.223423312e-07 -1.50978394e-07 3.223423312e-07 -3.021223364e-07 
0 0 2.207587877e-07 0 1.266554379e-07 -3.825200485e-07 2.207587877e-07 -3.825200485e-07 -2.122103725e-07 
0 -2.575417792e-07 2.106786972e-07 -2.575417792e-07 0 -4.631859188e-07 2.106786972e-07 -4.631859188e-07 -2.705149351e-07 
0 1.365672099e-07 0 1.365672099e-07 2.524858767e-07 -4.677384186e-07 0 -4.677384186e-07 5.359585565e-07 
0 0 0 0 0 0 0 0 -2.571663544e-07 
0 0 2.157187425e-07 0 0 -4.228529837e-07 2.157187425e-07 -4.228529837e-07 -2.413626538e-07 
0 -2.036058876e-07 0 -2.036058876e-07 -1.470351291e-07 0 0 0 -2.863186357e-07 
0 0 -1.218921358e-07 0 0 0 -1.218921358e-07 0 0 
0 1.256827843e-07 0 1.256827843e-07 1.895706573e-07 -4.251292336e-07 0 -4.251292336e-07 1.61874092e-07 
0 0 0 0 0 -4.654621687e-07 0 -4.654621687e-07 1.327218107e-07 
-1.952056659e-07 4.213871524e-07 -4.039331302e-07 4.213871524e-07 -7.466786815e-07 5.621344588e-07 -4.039331302e-07 5.621344588e-07 -6.475967277e-07 
6.288363728e-07 -2.596826718e-07 5.336479861e-07 -2.596826718e-07 1.635357482e-07 -4.503296205e-07 5.336479861e-07 -4.503296205e-07 1.206836692e-06 
-3.255911722e-07 -1.208742401e-07 -1.750358018e-07 -1.208742401e-07 1.733494959e-07 2.793736177e-07 -1.750358018e-07 2.793736177e-07 -1.324617177e-06 
0 -5.925491785e-07 2.388239268e-07 -5.925491785e-07 1.044325668e-06 -5.482327824e-07 2.388239268e-07 -5.482327824e-07 -9.117650265e-07 
2.168153535e-07 0 0 0 -2.915714667e-07 0 0 0 2.796199822e-07 
1.516226003e-07 -1.902784559e-07 1.793060921e-07 -1.902784559e-07 1.684426221e-07 0 1.793060921e-07 0 0 
-2.603984191e-07 1.502564561e-07 -2.89484466e-07 1.502564561e-07 -2.866645928e-07 4.207540383e-07 -2.89484466e-07 4.207540383e-07 -9.861069521e-07 
0 0 0 0 1.488234933e-07 0 0 0 -7.796808771e-07 
2.949630874e-07 -4.261159252e-07 3.862359564e-07 -4.261159252e-07 6.039307082e-07 -4.992812015e-07 3.862359564e-07 -4.992812015e-07 1.475358328e-07 
-1.822506852e-07 -3.567117093e-07 0 -3.567117093e-07 6.08837582e-07 -1.344295824e-07 0 -1.344295824e-07 -1.118191102e-06 
0 0 0 0 0 -1.892847696e-07 0 -1.892847696e-07 2.350595291e-07 
0 0 0 0 0 1.598430084e-07 0 1.598430084e-07 0 
0 0 1.231607007e-07 0 0 2.884262924e-07 1.231607007e-07 2.884262924e-07 3.036480197e-07 
0 0 0 0 3.086617983e-07 3.602518276e-07 0 3.602518276e-07 -1.859560947e-07 
0 0 0 0 0 0 0 0 0 
0 0 0 0 0 2.241346504e-07 0 2.241346504e-07 0 
0 0 0 0 0 0 0 0 2.693537744e-07 
0 0 0 0 0 0 0 0 0 
0 0 0 0 1.537318441e-07 2.60047418e-07 0 2.60047418e-07 -1.41749803e-07 
0 0 0 0 1.728948448e-07 3.2433906e-07 0 3.2433906e-07 0 
0 0 0 0 0 1.367284668e-07 0 1.367284668e-07 0 
0 1.948683366e-07 1.612549597e-07 1.948683366e-07 1.811791727e-07 3.1885872e-07 1.612549597e-07 3.1885872e-07 -2.341736472e-07 
0 0 0 0 0 -1.536859755e-07 0 -1.536859755e-07 2.62464892e-07 
0 0 0 0 0 -1.208620809e-07 0 -1.208620809e-07 -3.071221718e-07 
0 0 0 0 1.203920675e-07 2.277935934e-07 0 2.277935934e-07 -1.527492517e-07 
0 0 0 0 0 0 0 0 0 
0 0 0 0 0 0 0 0 0 
0 0 0 0 0 0 0 0 -1.89223514e-07 
0 1.474734513e-07 0 1.474734513e-07 0 0 0 0 -2.706479095e-07 
0 0 0 0 0 -1.372740282e-07 0 -1.372740282e-07 0 
-6.818153815e-07 2.898448669e-07 -5.35300542e-07 2.898448669e-07 -8.847857277e-07 4.47554383e-07 -5.35300542e-07 4.47554383e-07 -8.80138649e-07 
0 0 -2.139910622e-07 0 -1.571432123e-07 1.874291639e-07 -2.139910622e-07 1.874291639e-07 -1.366064534e-06 
7.428314093e-07 -1.545170794e-07 6.04197622e-07 -1.545170794e-07 7.132370854e-07 -3.395858378e-07 6.04197622e-07 -3.395858378e-07 1.438465564e-06 
0 2.305562452e-07 -1.531682112e-07 2.305562452e-07 1.781684304e-07 1.680297578e-07 -1.531682112e-07 1.680297578e-07 9.246197224e-07 
-3.636646078e-07 0 -3.746458021e-07 0 -5.2096447e-07 3.174917735e-07 -3.746458021e-07 3.174917735e-07 -1.123101591e-06 
3.486587875e-07 -1.252546496e-07 1.951032799e-07 -1.252546496e-07 2.780469366e-07 0 1.951032799e-07 0 0 
0 0 0 0 0 0 0 0 2.791634576e-07 
-3.590043622e-07 2.60200556e-07 -3.442343766e-07 2.60200556e-07 -3.533086487e-07 3.077920704e-07 -3.442343766e-07 3.077920704e-07 0 
0 0 -1.835796367e-07 0 0 1.777294609e-07 -1.835796367e-07 1.777294609e-07 -2.207224056e-07 
3.533190332e-07 0 2.255147054e-07 0 4.457027579e-07 0 2.255147054e-07 0 1.181542643e-06 
0 0 9.395860537e-07 0 -4.080350281e-07 -9.092800899e-07 9.395860537e-07 -9.092800899e-07 -4.43371836e-07 
0 1.944094693e-07 -1.99094326e-07 1.944094693e-07 0 8.623374843e-07 -1.99094326e-07 8.623374843e-07 1.687055982e-07 
-2.446101284e-07 0 -3.890718723e-07 0 -1.238692176e-07 -2.23438384e-07 -3.890718723e-07 -2.23438384e-07 -3.127474387e-07 
2.544403879e-07 0 0 0 3.829269568e-07 4.533110901e-07 0 4.533110901e-07 3.601495958e-07 
0 0 3.702458639e-07 0 -2.056504274e-07 0 3.702458639e-07 0 -1.373331189e-07 
-1.388502885e-07 0 -2.940830991e-07 0 0 3.194495502e-07 -2.940830991e-07 3.194495502e-07 0 
0 0 2.752570907e-07 0 -2.659521229e-07 -5.66359237e-07 2.752570907e-07 -5.66359237e-07 -3.780596373e-07 
1.53729146e-07 0 4.623099172e-07 0 0 -2.279844999e-07 4.623099172e-07 -2.279844999e-07 0 
0 0 0 0 1.898305651e-07 6.578242872e-07 0 6.578242872e-07 2.64427597e-07 
0 0 -2.020190458e-07 0 1.295288696e-07 0 -2.020190458e-07 0 0 
0 0 0 0 0 -2.309064498e-07 0 -2.309064498e-07 0 
0 0 0 0 0 3.184107157e-07 0 3.184107157e-07 1.270326906e-07 
0 0 0 0 1.923131399e-07 2.609440716e-07 0 2.609440716e-07 0 
0 0 0 0 0 2.229938509e-07 0 2.229938509e-07 1.769113798e-07 
0 0 0 0 0 0 0 0 0 
0 0 0 0 0 2.896773937e-07 0 2.896773937e-07 0 
0 0 0 0 0 0 0 0 0 
0 0 0 0 0 0 0 0 0 
0 0 0 0 0 2.707022833e-07 0 2.707022833e-07 1.519720352e-07 
0 0 0 0 0 2.419689613e-07 0 2.419689613e-07 0 
-2.019802676e-07 0 -5.337953211e-07 0 0 1.526247914e-07 -5.337953211e-07 1.526247914e-07 0 
1.527138e-07 0 9.102042333e-07 0 0 8.303373135e-07 9.102042333e-07 8.303373135e-07 0 
4.869634133e-07 0 -4.444303323e-07 0 3.30002127e-07 -5.628651001e-07 -4.444303323e-07 -5.628651001e-07 4.57781126e-07 
-3.002864977e-07 0 0 0 0 -4.143241918e-07 0 -4.143241918e-07 -1.632467631e-07 
0 0 1.882044561e-07 0 0 4.914810525e-07 1.882044561e-07 4.914810525e-07 0 
3.198386066e-07 0 2.328869505e-07 0 1.848358986e-07 1.337361067e-07 2.328869505e-07 1.337361067e-07 2.56720406e-07 
1.424915728e-07 0 -4.891128267e-07 0 0 -2.051201543e-07 -4.891128267e-07 -2.051201543e-07 1.897972646e-07 
-2.511333826e-07 0 -2.513275228e-07 0 0 -1.308497002e-07 -2.513275228e-07 -1.308497002e-07 -1.207166799e-07 
0 0 4.706722544e-07 0 0 2.080065609e-07 4.706722544e-07 2.080065609e-07 0 
0 0 -2.066450284e-07 0 0 -4.885946459e-07 -2.066450284e-07 -4.885946459e-07 1.472671814e-07 
0 0 0 0 -1.40520941e-07 0 0 0 1.323023797e-07 
2.085017023e-07 0 2.24526845e-07 0 3.254038007e-07 3.26007826e-07 2.24526845e-07 3.26007826e-07 6.080279074e-07 
0 0 0 0 1.557700231e-07 -1.333002148e-07 0 -1.333002148e-07 5.40009054e-07 
0 0 -1.462312853e-07 0 0 -1.903505205e-07 -1.462312853e-07 -1.903505205e-07 -7.161330074e-07 
0 0 1.292859328e-07 0 0 1.782157119e-07 1.292859328e-07 1.782157119e-07 3.701651436e-07 
1.577383956e-07 0 0 0 2.405869119e-07 0 0 0 5.740184807e-07 
0 0 0 0 0 0 0 0 3.361557169e-07 
0 0 0 0 0 0 0 0 -2.919153138e-07 
0 0 0 0 1.480191705e-07 0 0 0 0 
0 0 0 0 0 -1.618253677e-07 0 -1.618253677e-07 0 
0 0 0 0 0 2.650700355e-07 0 2.650700355e-07 -1.199752117e-07 
0 0 -1.478621475e-07 0 0 6.696661598e-07 -1.478621475e-07 6.696661598e-07 -1.677417779e-07 
4.808071588e-07 0 0 0 2.470357295e-07 2.459972518e-07 0 2.459972518e-07 3.144384025e-07 
-3.340137979e-07 0 0 0 0 -4.188188687e-07 0 -4.188188687e-07 -1.812749942e-07 
0 0 0 0 0 4.673680977e-07 0 4.673680977e-07 -1.438584948e-07 
2.492306455e-07 0 0 0 0 4.578317058e-07 0 4.578317058e-07 0 
1.915917711e-07 0 0 0 0 2.555336437e-07 0 2.555336437e-07 0 
-2.158187073e-07 0 0 0 0 0 0 0 -1.50625103e-07 
-1.581798328e-07 0 0 0 0 1.254236455e-07 0 1.254236455e-07 -1.745083861e-07 
0 0 0 0 0 0 0 0 0 
0 0 0 0 0 -2.204383931e-07 0 -2.204383931e-07 0 
0 0 0 0 0 0 0 0 0 
0 0 1.293060333e-07 0 0 3.433342249e-07 1.293060333e-07 3.433342249e-07 0 
0 0 -1.386049386e-07 0 0 -2.841468963e-07 -1.386049386e-07 -2.841468963e-07 0 
0 0 0 0 0 -1.447908408e-07 0 -1.447908408e-07 0 
0 0 0 0 0 1.370954682e-07 0 1.370954682e-07 0 
0 0 0 0 0 0 0 0 0 
0 0 0 0 0 -2.522926447e-07 0 -2.522926447e-07 0 
0 0 0 0 0 -1.766450924e-07 0 -1.766450924e-07 0 
0 0 0 0 0 0 0 0 0 
1.908235641e-07 0 2.596274623e-07 0 2.039600868e-07 2.896699769e-07 2.596274623e-07 2.896699769e-07 5.587096588e-07 
-1.280103974e-07 0 -1.921196551e-07 0 -1.238958403e-07 -1.501481961e-07 -1.921196551e-07 -1.501481961e-07 -7.535353848e-07 
0 0 0 0 1.760943509e-07 0 0 0 2.890853497e-07 
0 2.204216458e-07 2.979901374e-07 2.204216458e-07 0 1.245456712e-07 2.979901374e-07 1.245456712e-07 -6.92038993e-07 
0 0 0 0 0 0 0 0 0 
0 0 0 0 0 0 0 0 -2.322250176e-07 
1.545360949e-07 0 1.439756981e-07 0 1.900272188e-07 1.653411832e-07 1.439756981e-07 1.653411832e-07 4.238975043e-07 
1.40477501e-07 1.652395917e-07 2.788087998e-07 1.652395917e-07 0 2.071078241e-07 2.788087998e-07 2.071078241e-07 0 
0 1.653463557e-07 0 1.653463557e-07 0 0 0 0 -7.227871889e-07 
0 0 1.631570356e-07 0 0 0 1.631570356e-07 0 -2.014768216e-07 
0 0 0 0 0 -3.012742071e-07 0 -3.012742071e-07 0 
0 0 0 0 0 -2.705644117e-07 0 -2.705644117e-07 -1.89152467e-07 
0 0 0 0 0 3.402735666e-07 0 3.402735666e-07 0 
0 0 1.658360896e-07 0 0 2.468471072e-07 1.658360896e-07 2.468471072e-07 0 
0 0 0 0 0 -2.859193094e-07 0 -2.859193094e-07 0 
0 0 0 0 0 0 0 0 0 
0 0 0 0 0 0 0 0 0 
0 0 0 0 0 0 0 0 0 
0 0 0 0 0 0 0 0 -1.311059032e-07 
0 0 0 0 0 2.935603369e-07 0 2.935603369e-07 0 
-1.270608122e-07 0 0 0 0 0 0 0 0 
0 0 2.416833343e-07 0 0 0 2.416833343e-07 0 -5.703100849e-07 
4.662811305e-07 0 4.558127316e-07 0 0 -1.276022617e-07 4.558127316e-07 -1.276022617e-07 8.421825249e-07 
-3.395962938e-07 0 -5.245450922e-07 0 0 0 -5.245450922e-07 0 0 
0 0 1.655304886e-07 0 0 0 1.655304886e-07 0 -3.075435928e-07 
2.13696147e-07 0 3.487480329e-07 0 0 0 3.487480329e-07 0 1.3593622e-07 
1.696101591e-07 0 2.725951873e-07 0 0 0 2.725951873e-07 0 3.98702712e-07 
-2.33328553e-07 0 -2.175837246e-07 0 0 0 -2.175837246e-07 0 0 
-1.892425651e-07 0 -1.41430879e-07 0 0 0 -1.41430879e-07 0 -3.070862772e-07 
0 0 0 0 0 0 0 0 3.991600277e-07 
0 0 0 0 0 3.209742573e-07 0 3.209742573e-07 -2.180213848e-07 
0 0 0 0 0 0 0 0 0 
0 0 0 0 0 -2.614637387e-07 0 -2.614637387e-07 -2.732341897e-07 
0 0 0 0 0 2.261982159e-07 0 2.261982159e-07 0 
0 0 0 0 0 1.29711757e-07 0 1.29711757e-07 0 
0 0 0 0 0 -1.61507241e-07 0 -1.61507241e-07 -1.283020972e-07 
0 0 0 0 0 0 0 0 -2.456277872e-07 
0 0 0 0 0 2.735862366e-07 0 2.735862366e-07 0 
0 0 0 0 0 0 0 0 0 
0 0 0 0 0 0 0 0 0 
1.582346684e-07 0 1.332939481e-07 0 -2.722441977e-07 0 1.332939481e-07 0 0 
-1.626638715e-07 0 -1.627788623e-07 0 3.358749647e-07 0 -1.627788623e-07 0 9.792139536e-07 
2.300722156e-07 0 5.033293038e-07 0 -1.857372817e-07 0 5.033293038e-07 0 -1.033940474e-06 
2.085485443e-07 0 4.960687823e-07 0 3.753231085e-07 0 4.960687823e-07 0 1.076022265e-06 
0 0 0 0 0 0 0 0 4.707775639e-07 
0 0 1.702752208e-07 0 0 0 1.702752208e-07 0 0 
1.94153442e-07 0 3.18311626e-07 0 -2.289907397e-07 0 3.18311626e-07 0 -5.3579965e-07 
1.833916064e-07 0 3.146813652e-07 0 0 0 3.146813652e-07 0 5.191817196e-07 
0 0 1.6664496e-07 0 3.555990366e-07 0 1.6664496e-07 0 1.027618109e-06 
2.1931038e-07 0 4.99699043e-07 0 0 0 4.99699043e-07 0 0 
0 0 0 0 -2.064071242e-07 -3.09225963e-07 0 -3.09225963e-07 -5.342957596e-07 
0 0 0 0 1.226187433e-07 2.200630948e-07 0 2.200630948e-07 2.23506272e-07 
0 0 5.111135523e-07 0 0 2.199304207e-07 5.111135523e-07 2.199304207e-07 -4.668883306e-07 
0 0 -4.518732502e-07 0 0 -3.529895033e-07 -4.518732502e-07 -3.529895033e-07 0 
0 0 0 0 0 0 0 0 -1.553947438e-07 
0 0 2.14995134e-07 0 0 2.199967577e-07 2.14995134e-07 2.199967577e-07 -1.216910293e-07 
0 0 2.353838245e-07 0 -1.549205209e-07 0 2.353838245e-07 0 -5.005920451e-07 
0 0 -2.461095767e-07 0 -1.235741623e-07 -3.311077332e-07 -2.461095767e-07 -3.311077332e-07 -2.487585751e-07 
0 0 -2.664982673e-07 0 0 0 -2.664982673e-07 0 1.301424407e-07 
0 0 0 0 0 0 0 0 -2.150548606e-07 
0 0 -1.575599275e-07 0 0 3.405915439e-07 -1.575599275e-07 3.405915439e-07 0 
0 0 2.481599717e-07 0 -6.033382647e-07 -4.85978204e-07 2.481599717e-07 -4.85978204e-07 0 
6.965687962e-07 0 3.848190573e-07 0 1.42780655e-06 3.365390552e-07 3.848190573e-07 3.365390552e-07 5.68190943e-07 
-5.500231891e-07 0 -6.486446969e-07 0 -8.419781374e-07 0 -6.486446969e-07 0 -4.884919511e-07 
0 0 0 0 -2.860213494e-07 0 0 0 0 
3.267196481e-07 0 3.164895145e-07 0 4.122341424e-07 0 3.164895145e-07 0 2.498395948e-07 
3.09118005e-07 0 0 0 7.295510577e-07 3.385652996e-07 0 3.385652996e-07 2.678926212e-07 
-3.141779876e-07 0 -4.031023122e-07 0 -4.053412857e-07 1.56496779e-07 -4.031023122e-07 1.56496779e-07 -2.604488258e-07 
-2.965763446e-07 0 -2.002423626e-07 0 -7.22658201e-07 -2.56788095e-07 -2.002423626e-07 -2.56788095e-07 -2.785018522e-07 
0 0 -1.319128198e-07 0 2.929142061e-07 1.544705346e-07 -1.319128198e-07 1.544705346e-07 0 
-2.985903931e-07 3.972532131e-07 5.042258e-07 3.972532131e-07 2.070368011e-07 -7.334219579e-07 5.042258e-07 -7.334219579e-07 -4.015801441e-07 
3.370888527e-07 -5.624027828e-07 0 -5.624027828e-07 3.005991144e-07 -1.951525895e-07 0 -1.951525895e-07 0 
-5.42898133e-07 5.115589637e-07 0 5.115589637e-07 -5.696274129e-07 4.4041782e-07 0 4.4041782e-07 -9.409366929e-07 
2.325659762e-07 -3.800710025e-07 -1.91358615e-07 -3.800710025e-07 2.61188922e-07 -7.497446049e-07 -1.91358615e-07 -7.497446049e-07 9.570395097e-07 
0 0 2.671923461e-07 0 2.538179578e-07 -4.642872737e-07 2.671923461e-07 -4.642872737e-07 -2.218883664e-07 
0 0 0 0 -1.345141493e-07 1.226326152e-07 0 1.226326152e-07 -4.915666408e-07 
-4.20744263e-07 4.544060884e-07 3.036898941e-07 4.544060884e-07 -1.812953059e-07 -1.465020689e-07 3.036898941e-07 -1.465020689e-07 -6.712584185e-07 
0 0 1.564335925e-07 0 2.341128616e-07 -7.415832814e-07 1.564335925e-07 -7.415832814e-07 2.777296828e-07 
2.848274144e-07 -4.712368927e-07 0 -4.712368927e-07 2.808940182e-07 -4.724485972e-07 0 -4.724485972e-07 4.574214605e-07 
-1.551660784e-07 0 0 0 -1.542192454e-07 -1.546633925e-07 0 -1.546633925e-07 0 
0 0 -1.808214263e-07 0 0 -2.141324984e-07 -1.808214263e-07 -2.141324984e-07 0 
0 0 0 0 0 2.134656329e-07 0 2.134656329e-07 0 
0 0 -2.233953741e-07 0 0 -3.476542676e-07 -2.233953741e-07 -3.476542676e-07 0 
0 0 3.889876923e-07 0 0 4.283143099e-07 3.889876923e-07 4.283143099e-07 0 
0 0 0 0 0 0 0 0 0 
0 0 0 0 0 0 0 0 0 
0 0 -2.021084002e-07 0 0 -2.80893383e-07 -2.021084002e-07 -2.80893383e-07 0 
0 0 0 0 0 0 0 0 0 
0 0 2.350772867e-07 0 0 3.208899714e-07 2.350772867e-07 3.208899714e-07 0 
0 0 0 0 0 0 0 0 0 
0 -2.354443384e-07 0 -2.354443384e-07 3.353136845e-07 -6.79027143e-07 0 -6.79027143e-07 0 
0 -2.634547039e-07 4.396177051e-07 -2.634547039e-07 -2.23850508e-07 -2.553055484e-07 4.396177051e-07 -2.553055484e-07 -1.140465489e-06 
1.37155498e-07 3.253629272e-07 0 3.253629272e-07 0 4.060141248e-07 0 4.060141248e-07 1.053241376e-06 
-1.940657637e-07 0 0 0 -2.449981494e-07 0 0 0 -9.998978023e-07 
0 -2.494495212e-07 1.670623697e-07 -2.494495212e-07 0 -4.671663457e-07 1.670623697e-07 -4.671663457e-07 -5.744071274e-07 
0 0 2.248080089e-07 0 0 0 2.248080089e-07 0 0 
0 0 0 0 1.778479414e-07 -1.365065091e-07 0 -1.365065091e-07 5.22446305e-07 
0 -1.30247637e-07 0 -1.30247637e-07 0 -2.84734689e-07 0 -2.84734689e-07 -5.041232839e-07 
0 -1.442528198e-07 1.796900388e-07 -1.442528198e-07 -2.344243287e-07 0 1.796900388e-07 0 -1.070181646e-06 
0 1.501559958e-07 0 1.501559958e-07 0 2.57785945e-07 0 2.57785945e-07 0 
0 0 0 0 -1.376628488e-07 -2.560827876e-07 0 -2.560827876e-07 -1.256773465e-07 
0 0 0 0 0 2.682522466e-07 0 2.682522466e-07 0 
0 0 0 0 0 2.529634359e-07 0 2.529634359e-07 0 
0 0 0 0 0 1.639533825e-07 0 1.639533825e-07 0 
0 0 0 0 0 0 0 0 0 
0 0 0 0 0 2.606078413e-07 0 2.606078413e-07 0 
0 0 0 0 0 0 0 0 0 
0 0 0 0 0 0 0 0 0 
0 0 0 0 0 2.161028145e-07 0 2.161028145e-07 0 
0 0 0 0 0 2.084584092e-07 0 2.084584092e-07 0 
-1.604183299e-07 0 -1.550308658e-07 0 0 -1.517595947e-07 -1.550308658e-07 -1.517595947e-07 1.886016401e-07 
-1.911170396e-07 0 2.49644503e-07 0 -4.010458111e-07 1.69845719e-07 2.49644503e-07 1.69845719e-07 0 
-2.325176825e-07 0 -2.06707658e-07 0 -3.845256079e-07 0 -2.06707658e-07 0 0 
5.345575151e-07 -2.133774409e-07 3.995164204e-07 -2.133774409e-07 7.987494447e-07 1.372757591e-07 3.995164204e-07 1.372757591e-07 6.227648572e-07 
-1.757676848e-07 0 0 0 -2.221658871e-07 0 0 0 0 
-2.118173611e-07 0 0 0 -3.927857095e-07 0 0 0 0 
-1.964680062e-07 0 -1.808692619e-07 0 -2.139057855e-07 0 -1.808692619e-07 0 0 
1.870695926e-07 0 1.222427773e-07 0 3.777317408e-07 0 1.222427773e-07 0 4.056832486e-07 
1.717202377e-07 0 3.245804617e-07 0 1.988518168e-07 1.53560739e-07 3.245804617e-07 1.53560739e-07 2.86090245e-07 
1.510199163e-07 0 0 0 2.071119184e-07 0 0 0 2.667359015e-07 
0 0 -2.08321079e-07 0 0 -3.521184754e-07 -2.08321079e-07 -3.521184754e-07 0 
0 0 0 0 -1.660840171e-07 0 0 0 -4.515336482e-07 
0 0 2.067125307e-07 0 0 3.969277235e-07 2.067125307e-07 3.969277235e-07 -4.450338094e-07 
0 0 0 0 1.36893933e-07 1.666497294e-07 0 1.666497294e-07 4.650937077e-07 
0 0 0 0 0 -2.273803558e-07 0 -2.273803558e-07 -2.378692742e-07 
0 0 0 0 0 1.471427437e-07 0 1.471427437e-07 -4.482837288e-07 
0 0 0 0 0 0 0 0 -2.346193548e-07 
0 0 0 0 0 0 0 0 2.204444038e-07 
0 0 0 0 0 0 0 0 0 
0 0 1.56384951e-07 0 0 2.817887264e-07 1.56384951e-07 2.817887264e-07 0 
0 0 0 0 -1.46549586e-07 -2.555054653e-07 0 -2.555054653e-07 -1.414459315e-07 
0 0 0 0 0 -2.583363967e-07 0 -2.583363967e-07 0 
0 0 1.331052604e-07 0 0 2.601089572e-07 1.331052604e-07 2.601089572e-07 1.206748075e-07 
0 0 0 0 0 1.823914794e-07 0 1.823914794e-07 0 
0 0 0 0 -1.238187314e-07 -2.56920931e-07 0 -2.56920931e-07 0 
0 0 0 0 0 0 0 0 0 
0 0 0 0 0 0 0 0 0 
0 0 0 0 0 0 0 0 0 
0 0 0 0 0 0 0 0 0 
0 0 0 0 0 2.212502183e-07 0 2.212502183e-07 0 
0 0 0 0 0 -1.560908066e-07 0 -1.560908066e-07 0 
-2.444836183e-07 0 -2.37304046e-07 0 -1.575345676e-07 -2.814182457e-07 -2.37304046e-07 -2.814182457e-07 -2.392457033e-07 
1.66629578e-07 0 1.712654645e-07 0 1.566418125e-07 2.581334089e-07 1.712654645e-07 2.581334089e-07 1.368355928e-07 
-1.257396536e-07 0 -2.498491045e-07 0 -1.94471572e-07 -3.409545594e-07 -2.498491045e-07 -3.409545594e-07 -3.226928594e-07 
-1.302882384e-07 0 0 0 -1.269707445e-07 -2.187545261e-07 0 -2.187545261e-07 -1.629053744e-07 
0 0 0 0 0 0 0 0 0 
0 0 1.349708334e-07 0 0 0 1.349708334e-07 0 0 
0 0 0 0 -1.454392467e-07 -2.48522683e-07 0 -2.48522683e-07 -2.046289524e-07 
-1.851116359e-07 0 -2.435765752e-07 0 -1.760030698e-07 -3.111864026e-07 -2.435765752e-07 -3.111864026e-07 -2.809692813e-07 
0 0 0 0 0 0 0 0 0 
0 0 0 0 0 0 0 0 0 
-1.325439024e-07 0 -2.052506507e-07 0 0 -3.529986544e-07 -2.052506507e-07 -3.529986544e-07 0 
0 0 1.847391228e-07 0 0 4.125047106e-07 1.847391228e-07 4.125047106e-07 -4.280935582e-07 
2.111231217e-07 0 1.60346955e-07 0 0 1.483118849e-07 1.60346955e-07 1.483118849e-07 5.115817612e-07 
0 0 0 0 0 -1.250781013e-07 0 -1.250781013e-07 0 
0 0 0 0 0 0 0 0 -2.428648484e-07 
0 0 1.281337335e-07 0 0 2.576735812e-07 1.281337335e-07 2.576735812e-07 -2.199779661e-07 
0 0 0 0 0 1.255771683e-07 0 1.255771683e-07 2.498596936e-07 
0 0 0 0 0 0 0 0 2.269728113e-07 
1.228446628e-07 0 1.725430389e-07 0 0 2.804082978e-07 1.725430389e-07 2.804082978e-07 0 
4.36529302e-07 -2.611497711e-07 2.429020262e-07 -2.611497711e-07 -3.064820245e-07 7.127349164e-07 2.429020262e-07 7.127349164e-07 5.945149108e-07 
-5.087583042e-07 3.635225192e-07 -5.519379434e-07 3.635225192e-07 -7.352344973e-07 1.126011406e-06 -5.519379434e-07 1.126011406e-06 -1.183832897e-06 
-2.570295894e-07 3.072685002e-07 -2.60148284e-07 3.072685002e-07 -6.243574917e-07 7.350598938e-07 -2.60148284e-07 7.350598938e-07 -1.218439632e-07 
5.120339662e-07 -5.081462559e-07 5.009990335e-07 -5.081462559e-07 5.459368214e-07 -7.047863279e-07 5.009990335e-07 -7.047863279e-07 1.26359317e-06 
0 0 -1.545179586e-07 0 -5.208582609e-07 9.19373161e-07 -1.545179586e-07 9.19373161e-07 -2.946589932e-07 
-3.828939468e-07 3.353955097e-07 -4.060431137e-07 3.353955097e-07 -6.797959945e-07 9.305356497e-07 -4.060431137e-07 9.305356497e-07 -6.528384301e-07 
0 0 0 0 -4.654197581e-07 7.238974051e-07 0 7.238974051e-07 2.363354738e-07 
4.742816341e-07 -3.846480135e-07 3.719505298e-07 -3.846480135e-07 1.197273984e-07 0 3.719505298e-07 0 9.290540405e-07 
0 0 0 0 0 2.106125388e-07 0 2.106125388e-07 0 
1.275021884e-07 0 1.204253747e-07 0 0 0 1.204253747e-07 0 5.708746035e-07 
1.07825456e-06 -6.415003788e-07 6.265137485e-07 -6.415003788e-07 1.100500086e-06 -8.043488821e-07 6.265137485e-07 -8.043488821e-07 1.422833955e-06 
-3.821344206e-07 1.470584863e-07 -3.342828485e-07 1.470584863e-07 -1.719956371e-07 6.897811366e-07 -3.342828485e-07 6.897811366e-07 -8.786678645e-07 
5.686110832e-07 -1.256234061e-07 0 -1.256234061e-07 -2.667520543e-07 4.197125358e-07 0 4.197125358e-07 6.328402093e-07 
-8.19781634e-07 3.726266352e-07 -4.515388957e-07 3.726266352e-07 -1.31873128e-06 1.099601338e-06 -4.515388957e-07 1.099601338e-06 -1.033286509e-06 
3.480600698e-07 -2.472209462e-07 1.4611545e-07 -2.472209462e-07 4.642522244e-07 0 1.4611545e-07 0 2.720830453e-07 
0 0 -1.706755849e-07 0 -2.193738457e-07 5.547468362e-07 -1.706755849e-07 5.547468362e-07 -1.229138276e-07 
8.234328217e-07 -3.835618924e-07 3.097227135e-07 -3.835618924e-07 4.168740158e-07 -1.923181731e-07 3.097227135e-07 -1.923181731e-07 1.027837082e-06 
1.292364631e-07 -1.344368718e-07 0 -1.344368718e-07 0 1.47626228e-07 0 1.47626228e-07 1.94773723e-07 
-6.009580273e-07 2.598425607e-07 -3.929108721e-07 2.598425607e-07 -7.453634583e-07 8.946912373e-07 -3.929108721e-07 8.946912373e-07 -9.559771867e-07 
-1.255852754e-07 1.235016146e-07 -2.293036085e-07 1.235016146e-07 -7.927416669e-07 7.596569369e-07 -2.293036085e-07 7.596569369e-07 -2.002231498e-07 
0 0 3.595290103e-07 0 1.33235138e-06 -7.703744603e-07 3.595290103e-07 -7.703744603e-07 1.119258763e-06 
0 -6.105722852e-07 -2.110159562e-07 -6.105722852e-07 6.552844247e-07 -7.705194791e-07 -2.110159562e-07 -7.705194791e-07 -3.278785057e-07 
0 -4.418977017e-07 -4.528449333e-07 -4.418977017e-07 -6.35417998e-07 5.533213936e-07 -4.528449333e-07 5.533213936e-07 -9.66209012e-07 
0 5.205002383e-07 0 5.205002383e-07 -8.53482858e-07 1.255669233e-06 0 1.255669233e-06 -5.013738662e-07 
0 -3.125657456e-07 0 -3.125657456e-07 9.938179024e-07 -7.704469697e-07 0 -7.704469697e-07 3.956901287e-07 
0 -5.262349934e-07 -3.319304447e-07 -5.262349934e-07 0 0 -3.319304447e-07 0 -6.470437589e-07 
0 -2.282284539e-07 0 -2.282284539e-07 3.484666911e-07 0 0 0 0 
0 2.529705161e-07 1.914462619e-07 2.529705161e-07 2.394342611e-07 2.426473866e-07 1.914462619e-07 2.426473866e-07 3.089424485e-07 
0 0 0 0 0 2.425748772e-07 0 2.425748772e-07 -4.146261859e-07 
0 0 -2.147407099e-07 0 -7.44450428e-07 9.044953135e-07 -2.147407099e-07 9.044953135e-07 -7.337914391e-07 
-2.200989054e-07 -1.900122606e-07 -6.790908354e-07 -1.900122606e-07 -8.157155481e-07 1.13871428e-06 -6.790908354e-07 1.13871428e-06 -1.105572831e-06 
2.602551676e-07 2.992095338e-07 6.884477358e-07 2.992095338e-07 5.732888029e-07 -6.111534094e-07 6.884477358e-07 -6.111534094e-07 5.242596751e-07 
3.587197939e-07 4.700862984e-07 4.487959642e-07 4.700862984e-07 -3.399432727e-07 8.207831687e-07 4.487959642e-07 8.207831687e-07 0 
-1.994621754e-07 -3.554540393e-07 -1.346581488e-07 -3.554540393e-07 3.358549754e-07 -7.973894969e-07 -1.346581488e-07 -7.973894969e-07 1.071232116e-06 
0 0 0 0 -1.212133726e-07 2.637804355e-07 0 2.637804355e-07 -2.906565779e-07 
3.094874807e-07 3.846479161e-07 5.6862185e-07 3.846479161e-07 0 0 5.6862185e-07 0 2.895542485e-07 
0 1.400370189e-07 0 1.400370189e-07 -5.778294104e-07 9.797487246e-07 0 9.797487246e-07 -5.253620045e-07 
-2.097805404e-07 -2.7273315e-07 -4.068744921e-07 -2.7273315e-07 -2.399302864e-07 1.706623918e-07 -4.068744921e-07 1.706623918e-07 0 
0 0 2.768947935e-07 0 4.545718891e-07 -7.042714532e-07 2.768947935e-07 -7.042714532e-07 7.977458955e-07 
0 0 1.570689077e-07 0 0 0 1.570689077e-07 0 5.630404689e-07 
0 0 8.430078404e-07 0 0 8.057556244e-07 8.430078404e-07 8.057556244e-07 -1.378855466e-07 
0 0 -3.274355229e-07 0 0 -4.63228235e-07 -3.274355229e-07 -4.63228235e-07 -2.116792932e-07 
0 0 -6.537296683e-07 0 0 -6.236134958e-07 -6.537296683e-07 -6.236134958e-07 -1.768704805e-07 
0 0 1.994141632e-07 0 0 -3.51090838e-07 1.994141632e-07 -3.51090838e-07 4.609213313e-07 
0 0 2.577861588e-07 0 0 1.712636947e-07 2.577861588e-07 1.712636947e-07 -1.747824199e-07 
0 0 -4.905825956e-07 0 0 -5.434208654e-07 -4.905825956e-07 -5.434208654e-07 -1.942748869e-07 
0 0 0 0 0 0 0 0 -1.573780136e-07 
0 0 5.212110018e-07 0 0 2.273323932e-07 5.212110018e-07 2.273323932e-07 1.615178923e-07 
0 0 0 0 0 -4.071595365e-07 0 -4.071595365e-07 1.24621019e-07 
0 0 -2.271577526e-07 0 0 -4.873521669e-07 -2.271577526e-07 -4.873521669e-07 1.420254254e-07 
0 0 0 0 0 3.123385978e-07 0 3.123385978e-07 -3.285508964e-07 
-1.768135144e-07 0 0 0 -1.683564336e-07 2.803590308e-07 0 2.803590308e-07 -4.957334525e-07 
2.733074526e-07 0 0 0 0 -2.355319425e-07 0 -2.355319425e-07 -2.06539875e-07 
-2.377170525e-07 0 0 0 -1.196749395e-07 1.946722841e-07 0 1.946722841e-07 0 
0 0 0 0 0 2.963488143e-07 0 2.963488143e-07 -4.121421744e-07 
0 0 0 0 0 0 0 0 -3.511366637e-07 
1.819258858e-07 0 0 0 0 0 0 0 -2.675453857e-07 
0 0 0 0 0 2.535054409e-07 0 2.535054409e-07 -1.772720051e-07 
-2.072652834e-07 0 0 0 -1.440156865e-07 2.375156575e-07 0 2.375156575e-07 -2.608632831e-07 
0 0 0 0 0 0 0 0 0 
1.205466097e-07 0 -2.886461647e-07 0 1.271463884e-07 4.057465771e-07 -2.886461647e-07 4.057465771e-07 -1.89211285e-07 
0 0 0 0 0 -1.624365875e-07 0 -1.624365875e-07 -4.234954167e-07 
-5.060997935e-07 0 3.136697151e-07 0 -3.982597823e-07 0 3.136697151e-07 0 -5.965839345e-07 
3.765989837e-07 0 -3.320933315e-07 0 4.114416233e-07 2.917005097e-07 -3.320933315e-07 2.917005097e-07 1.543228832e-07 
0 0 -1.950478249e-07 0 0 1.216549948e-07 -1.950478249e-07 1.216549948e-07 -3.063533508e-07 
-2.375851742e-07 0 0 0 -2.468982414e-07 0 0 0 -5.100396756e-07 
-1.927765919e-07 0 0 0 -1.35556697e-07 1.835680166e-07 0 1.835680166e-07 -3.928976097e-07 
2.485727967e-07 0 -3.103697481e-07 0 2.692940059e-07 3.487235434e-07 -3.103697481e-07 3.487235434e-07 0 
2.037642144e-07 0 -2.167714084e-07 0 1.579524615e-07 0 -2.167714084e-07 0 -1.345862668e-07 
0 0 0 0 0 1.265449829e-07 0 1.265449829e-07 -2.211305256e-07 
-2.339252091e-07 -1.574077036e-07 3.516815986e-07 -1.574077036e-07 -2.88284082e-07 0 3.516815986e-07 0 -3.427630938e-07 
1.319527205e-07 0 -2.957880071e-07 0 2.760472345e-07 1.640557337e-07 -2.957880071e-07 1.640557337e-07 1.474147466e-07 
0 0 -5.589315972e-07 0 1.759023367e-07 1.584594208e-07 -5.589315972e-07 1.584594208e-07 0 
0 0 0 0 -2.177964844e-07 1.753483773e-07 0 1.753483773e-07 -3.579574096e-07 
0 0 0 0 0 0 0 0 0 
0 0 -4.273598022e-07 0 2.259747856e-07 1.612575772e-07 -4.273598022e-07 1.612575772e-07 0 
-1.260091192e-07 0 0 0 0 0 0 0 -1.393758508e-07 
-1.310401128e-07 0 1.99501034e-07 0 -2.530402832e-07 0 1.99501034e-07 0 -3.503602517e-07 
0 0 -1.242337688e-07 0 0 1.697020555e-07 -1.242337688e-07 1.697020555e-07 0 
0 0 -2.558055639e-07 0 0 1.66903899e-07 -2.558055639e-07 1.66903899e-07 -1.469730087e-07 
-2.300394692e-07 0 -2.661896648e-07 0 0 6.746503156e-07 -2.661896648e-07 6.746503156e-07 -1.495836968e-07 
0 0 0 0 0 3.05094326e-07 0 3.05094326e-07 0 
0 0 0 0 0 3.039124538e-07 0 3.039124538e-07 4.266141014e-07 
1.420246814e-07 0 0 0 0 -3.598658612e-07 0 -3.598658612e-07 3.91643028e-07 
-1.238922493e-07 0 0 0 0 4.898723208e-07 0 4.898723208e-07 0 
0 0 0 0 0 3.045033899e-07 0 3.045033899e-07 2.343498949e-07 
0 0 -1.542664287e-07 0 0 4.892813847e-07 -1.542664287e-07 4.892813847e-07 1.385152023e-07 
0 0 0 0 0 1.573922272e-07 0 1.573922272e-07 1.210296656e-07 
0 0 0 0 0 0 0 0 2.168643582e-07 
1.258566753e-07 0 0 0 0 0 0 0 4.091285647e-07 
0 0 -2.196946568e-07 0 0 0 -2.196946568e-07 0 -1.377687247e-07 
0 0 -2.29776156e-07 0 -1.517516259e-07 0 -2.29776156e-07 0 -1.375015587e-07 
-2.560780284e-07 -1.345296033e-07 2.912406199e-07 -1.345296033e-07 -6.058588388e-07 0 2.912406199e-07 0 -3.484806091e-07 
0 0 -3.097883673e-07 0 2.488779581e-07 0 -3.097883673e-07 0 2.149647018e-07 
0 0 -2.247354064e-07 0 0 0 -2.247354064e-07 0 -1.376351417e-07 
-1.670025691e-07 0 0 0 -3.788052324e-07 0 0 0 -2.429910839e-07 
0 0 0 0 -2.573305407e-07 0 0 0 -2.431246669e-07 
0 0 -2.64741512e-07 0 1.700378577e-07 0 -2.64741512e-07 0 0 
0 0 -2.697822617e-07 0 0 0 -2.697822617e-07 0 0 
0 0 0 0 -1.784904404e-07 0 0 0 0 
-6.10942834e-07 -2.898105136e-07 -7.377398936e-07 -2.898105136e-07 -5.63254724e-07 -2.349491235e-07 -7.377398936e-07 -2.349491235e-07 -6.573187638e-07 
0 0 4.108878694e-07 0 0 0 4.108878694e-07 0 -1.394181874e-07 
3.369753432e-07 1.410214244e-07 0 1.410214244e-07 3.362691987e-07 4.05694755e-07 0 4.05694755e-07 0 
1.94254675e-07 0 -2.272092615e-07 0 2.570829126e-07 2.199005272e-07 -2.272092615e-07 2.199005272e-07 0 
-3.011974661e-07 -1.446678279e-07 -1.634260121e-07 -1.446678279e-07 -3.047771846e-07 -1.666242254e-07 -1.634260121e-07 -1.666242254e-07 -3.983684756e-07 
1.727616225e-07 0 2.549312605e-07 0 1.449847767e-07 1.536977139e-07 2.549312605e-07 1.536977139e-07 0 
-1.369837454e-07 0 -3.193826209e-07 0 0 0 -3.193826209e-07 0 -3.410420833e-07 
-2.083440795e-07 0 -4.824745775e-07 0 -1.530859057e-07 0 -4.824745775e-07 0 -3.409101233e-07 
0 0 0 0 0 0 0 0 0 
2.656150091e-07 1.197578082e-07 0 1.197578082e-07 2.966760556e-07 3.127976411e-07 0 3.127976411e-07 0 
-9.849583053e-07 -3.188259969e-07 -8.588969271e-07 -3.188259969e-07 -7.431508239e-07 -1.976941668e-07 -8.588969271e-07 -1.976941668e-07 -7.784834076e-07 
0 0 -2.766425747e-07 0 0 2.170630238e-07 -2.766425747e-07 2.170630238e-07 0 
3.353027916e-07 0 4.437873347e-07 0 3.786790755e-07 0 4.437873347e-07 0 1.697262339e-07 
5.363765753e-07 2.26733046e-07 2.094769571e-07 2.26733046e-07 4.535217116e-07 4.380151577e-07 2.094769571e-07 4.380151577e-07 2.764146139e-07 
-5.182101871e-07 -1.357161567e-07 -5.677697509e-07 -1.357161567e-07 -4.20759597e-07 0 -5.677697509e-07 0 -4.296012845e-07 
1.419203614e-07 0 0 0 1.401553527e-07 0 0 0 0 
-3.248277568e-07 -1.238251892e-07 -2.075547962e-07 -1.238251892e-07 -1.822358742e-07 0 -2.075547962e-07 0 -3.043785868e-07 
-2.24290865e-07 0 -3.24709985e-07 0 -1.448145561e-07 1.201604954e-07 -3.24709985e-07 1.201604954e-07 -2.510343968e-07 
2.424572532e-07 1.370633648e-07 0 1.370633648e-07 1.775766708e-07 3.275390908e-07 0 3.275390908e-07 0 
4.358396835e-07 1.489543322e-07 3.266321459e-07 1.489543322e-07 4.161003935e-07 2.251202001e-07 3.266321459e-07 2.251202001e-07 2.230704239e-07 
0 0 4.949406486e-07 0 -8.899289576e-07 8.882785663e-07 4.949406486e-07 8.882785663e-07 0 
3.406704329e-07 0 2.157760146e-07 0 6.92743485e-07 -5.46615404e-07 2.157760146e-07 -5.46615404e-07 0 
-2.397147462e-07 0 -1.4503204e-07 0 -5.449143274e-07 5.81021219e-07 -1.4503204e-07 5.81021219e-07 0 
0 1.94725257e-07 -5.899228602e-07 1.94725257e-07 4.188879658e-07 -8.505976734e-07 -5.899228602e-07 -8.505976734e-07 5.083676292e-07 
1.361385805e-07 0 3.553583316e-07 0 0 1.708315812e-07 3.553583316e-07 1.708315812e-07 0 
0 0 0 0 0 0 0 0 0 
-1.54054009e-07 0 1.749543043e-07 0 -7.174216425e-07 7.346498927e-07 1.749543043e-07 7.346498927e-07 0 
0 0 0 0 -2.355204959e-07 0 0 0 2.655707608e-07 
1.6068074e-07 0 -1.870734228e-07 0 5.558157254e-07 -6.986065387e-07 -1.870734228e-07 -6.986065387e-07 2.407512137e-07 
-1.295118496e-07 0 -3.674774501e-07 0 0 -1.347882272e-07 -3.674774501e-07 -1.347882272e-07 2.17060191e-07 
1.815891629e-07 0 0 0 1.453944589e-07 -3.238583843e-07 0 -3.238583843e-07 0 
0 0 0 0 0 -1.826496628e-07 0 -1.826496628e-07 0 
-2.084024525e-07 0 -3.21926115e-07 0 -1.332177796e-07 5.01468623e-07 -3.21926115e-07 5.01468623e-07 0 
0 0 -2.114463291e-07 0 0 4.136674538e-07 -2.114463291e-07 4.136674538e-07 0 
1.212882195e-07 0 0 0 0 -2.532540236e-07 0 -2.532540236e-07 0 
0 0 0 0 0 1.594094801e-07 0 1.594094801e-07 0 
0 0 -1.226695503e-07 0 0 0 -1.226695503e-07 0 0 
0 0 0 0 0 0 0 0 0 
0 0 0 0 0 0 0 0 0 
0 0 -2.666862221e-07 0 0 4.575680384e-07 -2.666862221e-07 4.575680384e-07 0 
-2.719443193e-07 0 -2.086262011e-07 0 0 2.552150996e-07 -2.086262011e-07 2.552150996e-07 -2.594428545e-07 
0 0 0 0 0 2.897618041e-07 0 2.897618041e-07 3.836831752e-07 
1.376885567e-07 0 0 0 0 3.020813076e-07 0 3.020813076e-07 2.608628345e-07 
1.236662394e-07 0 1.713058973e-07 0 0 -3.257739056e-07 1.713058973e-07 -3.257739056e-07 3.091655959e-07 
-1.389801125e-07 0 -1.311759917e-07 0 0 2.724884518e-07 -1.311759917e-07 2.724884518e-07 0 
0 0 0 0 0 2.959215559e-07 0 2.959215559e-07 3.222730048e-07 
0 0 0 0 0 2.786482036e-07 0 2.786482036e-07 0 
0 0 0 0 0 0 0 0 0 
0 0 0 0 0 0 0 0 3.464243855e-07 
1.30677398e-07 0 0 0 0 0 0 0 2.850142152e-07 
2.979906167e-07 0 -1.424251503e-07 0 2.24627444e-07 4.946372215e-07 -1.424251503e-07 4.946372215e-07 0 
0 0 -6.255901151e-07 0 0 -4.322673493e-07 -6.255901151e-07 -4.322673493e-07 2.122929241e-07 
0 0 -3.076699562e-07 0 -1.682833473e-07 3.814992496e-07 -3.076699562e-07 3.814992496e-07 -4.201854979e-07 
-2.832883831e-07 0 6.329014371e-07 0 -1.487139593e-07 3.553622039e-07 6.329014371e-07 3.553622039e-07 -2.112884735e-07 
1.491190318e-07 0 -3.840076327e-07 0 1.542297678e-07 0 -3.840076327e-07 0 1.513115128e-07 
0 0 -4.666300357e-07 0 0 0 -4.666300357e-07 0 0 
0 0 -2.250475532e-07 0 0 4.380682356e-07 -2.250475532e-07 4.380682356e-07 -1.649276982e-07 
0 0 2.452381434e-07 0 0 4.249997127e-07 2.452381434e-07 4.249997127e-07 0 
-1.415204681e-07 0 0 0 0 0 0 0 0 
-1.913521459e-07 0 1.626157404e-07 0 -1.584986533e-07 3.684307268e-07 1.626157404e-07 3.684307268e-07 -3.157369857e-07 
0 0 -1.762107943e-07 0 0 4.487966504e-07 -1.762107943e-07 4.487966504e-07 0 
-1.849802501e-07 0 1.280719076e-07 0 -2.307082379e-07 -3.004134104e-07 1.280719076e-07 -3.004134104e-07 -4.441546145e-07 
0 0 1.194025841e-07 0 0 -1.77194676e-07 1.194025841e-07 -1.77194676e-07 0 
0 0 0 0 0 -1.225537996e-07 0 -1.225537996e-07 0 
0 0 0 0 0 0 0 0 -2.374073819e-07 
0 0 1.237372458e-07 0 0 -2.388040432e-07 1.237372458e-07 -2.388040432e-07 -2.415923135e-07 
0 0 0 0 0 1.358009872e-07 0 1.358009872e-07 0 
0 0 0 0 0 1.631214254e-07 0 1.631214254e-07 0 
0 0 0 0 0 -2.11483605e-07 0 -2.11483605e-07 -1.852859829e-07 
0 0 0 0 0 -1.498742378e-07 0 -1.498742378e-07 0 
-1.613155467e-07 -1.223543759e-07 -3.274931845e-07 -1.223543759e-07 -1.391554024e-07 4.053832681e-07 -3.274931845e-07 4.053832681e-07 -2.323330634e-07 
0 0 -1.982576412e-07 0 0 4.420663772e-07 -1.982576412e-07 4.420663772e-07 0 
1.368911147e-07 0 0 0 0 -2.992802357e-07 0 -2.992802357e-07 0 
0 0 0 0 0 -1.327785332e-07 0 -1.327785332e-07 0 
0 0 -2.628754129e-07 0 0 4.237248227e-07 -2.628754129e-07 4.237248227e-07 -1.717492735e-07 
0 0 0 0 0 0 0 0 0 
0 0 -1.258683887e-07 0 0 0 -1.258683887e-07 0 -1.354367963e-07 
0 0 0 0 0 1.363023675e-07 0 1.363023675e-07 -1.418070741e-07 
0 0 0 0 0 1.54643922e-07 0 1.54643922e-07 0 
0 0 0 0 0 -2.160293845e-07 0 -2.160293845e-07 0 
0 0 0 0 0 0 0 0 0 
0 0 -6.348174168e-07 0 0 2.277067299e-07 -6.348174168e-07 2.277067299e-07 -3.332438132e-07 
6.009442976e-07 2.012623422e-07 3.849114534e-07 2.012623422e-07 5.555938704e-07 0 3.849114534e-07 0 2.738415033e-07 
-5.250550313e-07 -1.851344177e-07 -3.81699489e-07 -1.851344177e-07 -4.690707742e-07 2.133735174e-07 -3.81699489e-07 2.133735174e-07 -5.194719017e-07 
0 0 -2.826241135e-07 0 0 1.285844876e-07 -2.826241135e-07 1.285844876e-07 -1.30705732e-07 
3.319329487e-07 1.257465614e-07 -1.249529817e-07 1.257465614e-07 2.953396249e-07 1.212721675e-07 -1.249529817e-07 1.212721675e-07 0 
2.882595161e-07 0 2.272403216e-07 0 2.298261575e-07 0 2.272403216e-07 0 1.728369263e-07 
-2.747401484e-07 -1.399086665e-07 -1.560651496e-07 -1.399086665e-07 -2.825061648e-07 1.214178813e-07 -1.560651496e-07 1.214178813e-07 -2.238197763e-07 
-2.310667157e-07 0 -5.082584529e-07 0 -2.169926974e-07 2.205401236e-07 -5.082584529e-07 2.205401236e-07 -4.263578575e-07 
0 0 0 0 0 0 0 0 -1.228151992e-07 
-1.255396908e-07 0 -2.083889658e-07 0 0 4.259149656e-07 -2.083889658e-07 4.259149656e-07 -3.686474115e-07 
0 1.230051565e-07 2.72905003e-07 1.230051565e-07 1.727214588e-07 -1.974241239e-07 2.72905003e-07 -1.974241239e-07 -2.507332348e-07 
0 0 2.805197658e-07 0 -1.346740367e-07 -1.880716426e-07 2.805197658e-07 -1.880716426e-07 -2.188804185e-07 
0 0 0 0 0 0 0 0 -1.460365216e-07 
0 0 0 0 0 0 0 0 -3.096903231e-07 
0 0 2.767123844e-07 0 0 -1.927478833e-07 2.767123844e-07 -1.927478833e-07 -2.348068266e-07 
0 0 0 0 0 0 0 0 -2.93763915e-07 
0 0 0 0 0 1.851012348e-07 0 1.851012348e-07 -2.573419666e-07 
0 0 1.69702765e-07 0 0 -1.2656831e-07 1.69702765e-07 -1.2656831e-07 -1.983848782e-07 
0 0 1.735101464e-07 0 0 -1.218920693e-07 1.735101464e-07 -1.218920693e-07 -1.8245847e-07 
0 0 -5.656530742e-07 0 1.396948132e-07 0 -5.656530742e-07 0 0 
0 0 0 0 0 2.382463353e-07 0 2.382463353e-07 -3.911229494e-07 
-2.93245151e-07 -1.297154373e-07 3.846837681e-07 -1.297154373e-07 -3.728391189e-07 0 3.846837681e-07 0 -4.785982313e-07 
2.080608559e-07 0 -2.996010355e-07 0 3.225007512e-07 1.26956984e-07 -2.996010355e-07 1.26956984e-07 0 
0 0 -2.68176939e-07 0 0 1.617190725e-07 -2.68176939e-07 1.617190725e-07 -1.966389282e-07 
-1.597753704e-07 0 2.069914822e-07 0 -2.444085925e-07 0 2.069914822e-07 0 -4.348605904e-07 
-1.249834649e-07 0 0 0 0 0 0 0 -2.403765691e-07 
1.256695385e-07 0 -4.326270549e-07 0 2.310977822e-07 0 -4.326270549e-07 0 0 
0 0 -1.351509196e-07 0 0 1.826016596e-07 -1.351509196e-07 1.826016596e-07 -1.401917138e-07 
0 0 0 0 0 0 0 0 -1.839293547e-07 
-1.39361468e-07 0 2.877004689e-07 0 -3.561348527e-07 0 2.877004689e-07 0 -2.316233173e-07 
0 0 -2.421339213e-07 0 0 0 -2.421339213e-07 0 0 
0 0 -2.211199477e-07 0 -1.975025101e-07 0 -2.211199477e-07 0 -1.894758481e-07 
0 0 -3.193874427e-07 0 1.586808687e-07 0 -3.193874427e-07 0 1.240394516e-07 
0 0 0 0 -1.198923806e-07 0 0 0 -1.406001785e-07 
0 0 -2.316269345e-07 0 0 0 -2.316269345e-07 0 -1.195264439e-07 
-1.266849179e-07 0 0 0 -2.768186814e-07 0 0 0 -2.105495827e-07 
0 0 0 0 0 0 0 0 0 
0 0 -2.80760682e-07 0 1.375154801e-07 0 -2.80760682e-07 0 0 
0 0 -2.702536952e-07 0 0 0 -2.702536952e-07 0 0 
3.827620872e-07 1.423493084e-07 0 1.423493084e-07 4.225369739e-07 4.26727739e-07 0 4.26727739e-07 0 
-5.532898156e-07 -3.346896766e-07 -7.228253052e-07 -3.346896766e-07 -6.591854597e-07 -2.974152174e-07 -7.228253052e-07 -2.974152174e-07 -7.325654359e-07 
0 0 4.120335939e-07 0 0 0 4.120335939e-07 0 -2.429006256e-07 
2.384352952e-07 0 -2.044422916e-07 0 2.823097676e-07 2.102268558e-07 -2.044422916e-07 2.102268558e-07 0 
0 0 -3.186492761e-07 0 0 0 -3.186492761e-07 0 -4.066792238e-07 
-3.291306244e-07 -1.773834455e-07 -1.553958557e-07 -1.773834455e-07 -3.865439889e-07 -1.907637352e-07 -1.553958557e-07 -1.907637352e-07 -4.877330308e-07 
1.38895327e-07 0 2.487801734e-07 0 1.543172278e-07 1.713077431e-07 2.487801734e-07 1.713077431e-07 -1.618468187e-07 
3.105986912e-07 0 0 0 3.524233707e-07 3.184772974e-07 0 3.184772974e-07 0 
-1.574272602e-07 -1.231139913e-07 -4.636337984e-07 -1.231139913e-07 -1.88437846e-07 0 -4.636337984e-07 0 -4.029140172e-07 
0 0 0 0 0 0 0 0 -1.58081612e-07 
-6.683887989e-07 -2.530745882e-07 -7.06644338e-07 -2.530745882e-07 -4.929582677e-07 0 -7.06644338e-07 0 -5.936965294e-07 
0 0 3.950274197e-07 0 0 0 3.950274197e-07 0 0 
3.13438122e-07 1.477727594e-07 0 1.477727594e-07 2.71550592e-07 3.523351351e-07 0 3.523351351e-07 0 
1.567639669e-07 0 -2.511265495e-07 0 2.216118221e-07 2.12751493e-07 -2.511265495e-07 2.12751493e-07 0 
-3.000509513e-07 -1.266832982e-07 -1.558084592e-07 -1.266832982e-07 -2.508683727e-07 0 -1.558084592e-07 0 -3.369536685e-07 
1.908625092e-07 0 2.405043004e-07 0 1.313860571e-07 1.199081298e-07 2.405043004e-07 1.199081298e-07 0 
-1.774753384e-07 0 -3.103315785e-07 0 0 1.218911606e-07 -3.103315785e-07 1.218911606e-07 -2.860951055e-07 
-2.55812416e-07 0 -4.788854437e-07 0 -1.356732228e-07 0 -4.788854437e-07 0 -2.812858606e-07 
0 0 0 0 0 0 0 0 0 
2.351010444e-07 1.314450262e-07 0 1.314450262e-07 2.46581207e-07 2.82543314e-07 0 2.82543314e-07 0 
-3.546281069e-07 0 3.706441705e-07 0 -3.956899747e-07 0 3.706441705e-07 0 -5.920152807e-07 
1.615683438e-07 0 -5.227034752e-07 0 1.663163725e-07 0 -5.227034752e-07 0 0 
0 0 0 0 0 2.193793216e-07 0 2.193793216e-07 -4.796302817e-07 
2.571953044e-07 0 -2.869336062e-07 0 3.22883517e-07 0 -2.869336062e-07 0 0 
0 0 0 0 0 0 0 0 -3.222054772e-07 
0 0 -2.577516333e-07 0 0 1.64633233e-07 -2.577516333e-07 1.64633233e-07 -2.660129777e-07 
-2.055918876e-07 0 1.889221896e-07 0 -2.391768523e-07 0 1.889221896e-07 0 -5.358227812e-07 
0 0 0 0 0 0 0 0 -2.530867554e-07 
2.093818241e-07 0 -4.048185407e-07 0 2.445999448e-07 0 -4.048185407e-07 0 0 
0 0 -1.398666988e-07 0 1.201098936e-07 1.594764096e-07 -1.398666988e-07 1.594764096e-07 -1.968942559e-07 
-3.63924364e-07 0 -3.216890982e-07 0 0 6.534036383e-07 -3.216890982e-07 6.534036383e-07 -2.126264559e-07 
0 0 0 0 0 3.020875694e-07 0 3.020875694e-07 1.218266684e-07 
1.51400615e-07 0 0 0 1.333260947e-07 3.006861284e-07 0 3.006861284e-07 5.569154512e-07 
2.616680975e-07 0 0 0 0 -3.444271466e-07 0 -3.444271466e-07 5.284417192e-07 
-2.016968509e-07 0 0 0 0 4.777456039e-07 0 4.777456039e-07 0 
0 0 0 0 0 3.013868489e-07 0 3.013868489e-07 3.393710598e-07 
0 0 -1.737532249e-07 0 0 4.770448834e-07 -1.737532249e-07 4.770448834e-07 1.721444976e-07 
0 0 -1.579317991e-07 0 0 1.544882459e-07 -1.579317991e-07 1.544882459e-07 1.579076316e-07 
0 0 0 0 0 0 0 0 3.251341938e-07 
2.065343562e-07 0 0 0 0 0 0 0 5.426785852e-07 
-1.514261816e-07 0 3.884921672e-07 0 -1.324604452e-07 5.29828053e-07 3.884921672e-07 5.29828053e-07 -1.63896964e-07 
1.903079542e-07 0 2.158881991e-07 0 1.842032894e-07 1.357218634e-07 2.158881991e-07 1.357218634e-07 2.346053908e-07 
3.677119583e-07 0 2.295588861e-07 0 2.074655902e-07 0 2.295588861e-07 0 3.782176896e-07 
-3.270921364e-07 0 -2.900747544e-07 0 -1.956835244e-07 -1.728352455e-07 -2.900747544e-07 -1.728352455e-07 0 
0 0 3.021901832e-07 0 0 3.327749582e-07 3.021901832e-07 3.327749582e-07 0 
2.790099563e-07 0 2.227235426e-07 0 1.958344398e-07 0 2.227235426e-07 0 3.064115402e-07 
0 0 3.090255267e-07 0 0 2.88748262e-07 3.090255267e-07 2.88748262e-07 0 
-2.39259159e-07 0 0 0 -1.640719848e-07 1.784964037e-07 0 1.784964037e-07 0 
0 0 0 0 0 0 0 0 1.236678184e-07 
0 0 0 0 0 0 0 0 1.954739678e-07 
1.789310092e-07 2.035571746e-07 -6.138722991e-07 2.035571746e-07 5.550318003e-07 5.074819015e-07 -6.138722991e-07 5.074819015e-07 2.764063676e-07 
0 0 4.114278898e-07 0 0 -2.159538302e-07 4.114278898e-07 -2.159538302e-07 0 
0 0 -3.183568713e-07 0 2.185838046e-07 1.216803667e-07 -3.183568713e-07 1.216803667e-07 0 
-4.021539519e-07 0 -2.654718599e-07 0 -7.058952339e-07 1.490262302e-07 -2.654718599e-07 1.490262302e-07 -2.337155567e-07 
1.248682599e-07 0 0 0 2.225501456e-07 1.457640356e-07 0 1.457640356e-07 1.389661383e-07 
0 0 0 0 0 0 0 0 0 
1.207276652e-07 1.382975434e-07 -4.661145852e-07 1.382975434e-07 3.868078024e-07 3.145811341e-07 -4.661145852e-07 3.145811341e-07 1.530678807e-07 
0 0 -4.396720795e-07 0 0 3.282540658e-07 -4.396720795e-07 3.282540658e-07 0 
-1.656742207e-07 0 0 0 -4.079133715e-07 0 0 0 0 
-1.698148154e-07 0 -2.919143656e-07 0 -2.436557146e-07 1.353532984e-07 -2.919143656e-07 1.353532984e-07 0 
3.331339759e-07 0 0 0 2.577655619e-07 5.441535634e-07 0 5.441535634e-07 0 
-2.485415912e-07 0 -4.467305281e-07 0 -2.030165228e-07 2.865197515e-07 -4.467305281e-07 2.865197515e-07 -4.504958113e-07 
-2.461710391e-07 0 -1.509138178e-07 0 -2.521457475e-07 -5.37033046e-07 -1.509138178e-07 -5.37033046e-07 -4.166592247e-07 
1.840155188e-07 0 3.100897934e-07 0 2.433724609e-07 1.399534259e-07 3.100897934e-07 1.399534259e-07 0 
0 0 -2.568588273e-07 0 0 4.153366574e-07 -2.568588273e-07 4.153366574e-07 -1.764738109e-07 
-2.473563151e-07 0 -2.98822173e-07 0 -2.275811351e-07 -1.252566473e-07 -2.98822173e-07 -1.252566473e-07 -4.33577518e-07 
0 0 0 0 0 0 0 0 -1.595555176e-07 
2.585747474e-07 0 1.215513334e-07 0 2.505690114e-07 3.420534946e-07 1.215513334e-07 3.420534946e-07 0 
0 0 0 0 0 2.132365887e-07 0 2.132365887e-07 -1.743970793e-07 
0 0 0 0 0 -1.985398101e-07 0 -1.985398101e-07 -1.57478786e-07 
0 0 0 0 0 -2.117019669e-07 0 -2.117019669e-07 0 
0 0 0 0 0 -2.601538438e-07 0 -2.601538438e-07 -2.708373877e-07 
0 0 0 0 0 3.216705917e-07 0 3.216705917e-07 -1.921711454e-07 
0 0 0 0 0 0 0 0 0 
0 0 0 0 0 -2.359279053e-07 0 -2.359279053e-07 -1.900152907e-07 
0 0 0 0 0 0 0 0 -2.315042666e-07 
0 0 0 0 0 0 0 0 -1.506821696e-07 
0 0 0 0 0 -1.360399747e-07 0 -1.360399747e-07 0 
0 0 0 0 0 -1.602659131e-07 0 -1.602659131e-07 0 
0 0 0 0 0 1.306463046e-07 0 1.306463046e-07 0 
-2.750759361e-07 0 -1.369892012e-07 0 -1.625675608e-07 3.85078035e-07 -1.369892012e-07 3.85078035e-07 3.290452841e-07 
2.557638985e-07 0 2.361843037e-07 0 2.470595424e-07 -3.711745073e-07 2.361843037e-07 -3.711745073e-07 0 
0 1.83176512e-07 0 1.83176512e-07 0 2.664440417e-07 0 2.664440417e-07 -3.057741834e-07 
1.424611335e-07 0 -1.710330079e-07 0 -1.267372674e-07 2.928408715e-07 -1.710330079e-07 2.928408715e-07 -2.618719982e-07 
0 0 0 0 0 0 0 0 0 
0 1.464599368e-07 0 1.464599368e-07 1.525362907e-07 0 0 0 -2.002205709e-07 
-1.647790762e-07 0 0 0 0 3.257610383e-07 0 3.257610383e-07 0 
0 0 -1.540111045e-07 0 -1.446524141e-07 3.389594532e-07 -1.540111045e-07 3.389594532e-07 0 
1.99112516e-07 0 0 0 0 0 0 0 -1.782694784e-07 
0 0 -1.25802598e-07 0 0 2.796424566e-07 -1.25802598e-07 2.796424566e-07 -2.838230908e-07 
0 0 0 0 0 3.176399796e-07 0 3.176399796e-07 1.361769737e-07 
-2.136046505e-07 0 -1.780882669e-07 0 0 2.838044847e-07 -1.780882669e-07 2.838044847e-07 -2.069954075e-07 
0 0 0 0 0 2.925682136e-07 0 2.925682136e-07 2.698847099e-07 
1.502665082e-07 0 1.651845692e-07 0 0 -3.347889582e-07 1.651845692e-07 -3.347889582e-07 2.182655565e-07 
0 0 0 0 0 3.007222321e-07 0 3.007222321e-07 0 
-1.197161196e-07 0 -1.203286575e-07 0 0 2.881863491e-07 -1.203286575e-07 2.881863491e-07 0 
0 0 0 0 0 3.051040966e-07 0 3.051040966e-07 2.030308418e-07 
1.248459323e-07 0 0 0 0 0 0 0 1.772212651e-07 
0 0 0 0 0 0 0 0 0 
0 0 0 0 0 0 0 0 2.440751332e-07 
0 0 2.198516372e-07 0 0 -3.546728691e-07 2.198516372e-07 -3.546728691e-07 3.107313743e-07 
0 0 -7.419980066e-07 0 0 -6.881416684e-07 -7.419980066e-07 -6.881416684e-07 0 
0 0 8.119578736e-07 0 0 8.00460785e-07 8.119578736e-07 8.00460785e-07 -1.369392792e-07 
0 0 1.343483669e-07 0 0 -3.978807983e-07 1.343483669e-07 -3.978807983e-07 0 
0 0 -2.610731847e-07 0 0 -5.214072688e-07 -2.610731847e-07 -5.214072688e-07 0 
0 0 0 0 0 0 0 0 -1.238748036e-07 
0 0 5.159047554e-07 0 0 2.22893958e-07 5.159047554e-07 2.22893958e-07 0 
0 0 1.771000021e-07 0 0 -3.762768337e-07 1.771000021e-07 -3.762768337e-07 1.899979819e-07 
0 0 -3.038248198e-07 0 0 -5.430112333e-07 -3.038248198e-07 -5.430112333e-07 0 
0 0 4.731531202e-07 0 0 2.012899934e-07 4.731531202e-07 2.012899934e-07 0 
-1.866239674e-07 0 -8.856715655e-07 0 0 1.305739452e-07 -8.856715655e-07 1.305739452e-07 -1.465298355e-07 
0 0 0 0 0 -3.455455494e-07 0 -3.455455494e-07 0 
0 0 -1.825631495e-07 0 0 -1.77659288e-07 -1.825631495e-07 -1.77659288e-07 0 
0 0 7.203527729e-07 0 0 -3.745599238e-07 7.203527729e-07 -3.745599238e-07 0 
0 0 -3.842892047e-07 0 0 0 -3.842892047e-07 0 0 
0 0 0 0 0 -2.616024187e-07 0 -2.616024187e-07 0 
0 0 -5.341173575e-07 0 0 0 -5.341173575e-07 0 0 
-1.420343966e-07 0 0 0 0 -1.219929893e-07 0 -1.219929893e-07 0 
0 0 4.187229645e-07 0 0 -3.600527366e-07 4.187229645e-07 -3.600527366e-07 0 
0 0 2.688948117e-07 0 0 -2.761096059e-07 2.688948117e-07 -2.761096059e-07 0 
0 0 -1.437830027e-07 0 -1.26839693e-07 2.671912413e-07 -1.437830027e-07 2.671912413e-07 2.346729889e-07 
7.559367118e-07 4.808962813e-07 -3.339118588e-07 4.808962813e-07 1.132485682e-06 -6.581730978e-07 -3.339118588e-07 -6.581730978e-07 1.67173332e-07 
-3.763381591e-07 0 -3.292265765e-07 0 -4.104686958e-07 4.290904354e-07 -3.292265765e-07 4.290904354e-07 -4.674530519e-07 
-7.651817307e-07 -3.54280052e-07 4.038291117e-07 -3.54280052e-07 -1.036563919e-06 0 4.038291117e-07 0 -7.101168143e-07 
3.737720769e-07 2.426142061e-07 -2.388474307e-07 2.426142061e-07 5.028229945e-07 -1.954909282e-07 -2.388474307e-07 -1.954909282e-07 2.009231604e-07 
1.897992763e-07 2.638271886e-07 -3.315692176e-07 2.638271886e-07 3.610084931e-07 0 -3.315692176e-07 0 -1.5013986e-07 
-1.923653585e-07 0 -2.365047896e-07 0 -2.686541944e-07 3.481408383e-07 -2.365047896e-07 3.481408383e-07 0 
-3.867871443e-07 -1.749739606e-07 1.300230545e-07 -1.749739606e-07 -5.817018062e-07 1.615825212e-07 1.300230545e-07 1.615825212e-07 -2.377219127e-07 
0 0 0 0 0 -3.010996483e-07 0 -3.010996483e-07 -2.714717412e-07 
-5.707599449e-07 -1.53760978e-07 0 -1.53760978e-07 -7.235163076e-07 2.425321183e-07 0 2.425321183e-07 -5.887849331e-07 
0 0 -8.081483632e-07 0 2.344695032e-07 0 -8.081483632e-07 0 2.395962011e-07 
0 1.273840969e-07 -2.505075963e-07 1.273840969e-07 3.724321784e-07 1.761201907e-07 -2.505075963e-07 1.761201907e-07 3.03552872e-07 
-2.290647916e-07 0 -2.208317976e-07 0 -3.651248436e-07 3.939099614e-07 -2.208317976e-07 3.939099614e-07 -4.281636795e-07 
0 0 3.162163133e-07 0 -4.196473589e-07 0 3.162163133e-07 0 -4.216079835e-07 
0 0 -5.293279797e-07 0 3.034508408e-07 0 -5.293279797e-07 0 2.715745365e-07 
0 0 -2.356696969e-07 0 0 2.850150761e-07 -2.356696969e-07 2.850150761e-07 0 
-1.27169552e-07 0 -5.144900804e-07 0 0 1.805611683e-07 -5.144900804e-07 1.805611683e-07 0 
0 0 -2.459660249e-07 0 0 0 -2.459660249e-07 0 0 
0 0 0 0 0 0 0 0 0 
-1.347834941e-07 0 0 0 -3.923861012e-07 1.844496434e-07 0 1.844496434e-07 -4.248858315e-07 
0 0 -5.699909143e-07 0 0 1.64587303e-07 -5.699909143e-07 1.64587303e-07 -3.848521474e-07 
2.720338065e-07 0 2.749679145e-07 0 1.211037022e-07 -1.366402548e-07 2.749679145e-07 -1.366402548e-07 0 
1.832399218e-07 0 2.561736538e-07 0 1.623359192e-07 1.682491875e-07 2.561736538e-07 1.682491875e-07 1.513706201e-07 
-3.643793612e-07 -1.221804624e-07 -4.038332102e-07 -1.221804624e-07 -2.71694094e-07 2.301677263e-07 -4.038332102e-07 2.301677263e-07 -3.706290791e-07 
0 0 -1.475114999e-07 0 0 0 -1.475114999e-07 0 -2.021852763e-07 
2.276368641e-07 0 2.655707841e-07 0 1.417198107e-07 0 2.655707841e-07 0 0 
0 0 -1.569086303e-07 0 0 1.664182453e-07 -1.569086303e-07 1.664182453e-07 0 
-2.005607672e-07 0 -4.869120622e-07 0 -1.656245963e-07 1.973775146e-07 -4.869120622e-07 1.973775146e-07 -3.777406133e-07 
0 0 0 0 0 0 0 0 -1.950737421e-07 
0 0 0 0 0 1.992084569e-07 0 1.992084569e-07 0 
0 0 0 0 0 0 0 0 -1.468282811e-07 
0 0 2.943413993e-07 0 -1.926415843e-07 -2.687696642e-07 2.943413993e-07 -2.687696642e-07 -1.710912777e-07 
1.874513503e-07 0 2.770427872e-07 0 2.133215441e-07 -2.47084608e-07 2.770427872e-07 -2.47084608e-07 0 
0 0 0 0 0 6.61183793e-07 0 6.61183793e-07 -1.336690369e-07 
0 0 1.712158878e-07 0 -1.38394756e-07 -1.795442841e-07 1.712158878e-07 -1.795442841e-07 -1.589597794e-07 
0 0 2.856920932e-07 0 0 -2.579271361e-07 2.856920932e-07 -2.579271361e-07 0 
0 0 1.625665818e-07 0 0 -1.68701756e-07 1.625665818e-07 -1.68701756e-07 0 
0 0 0 0 0 2.854324445e-07 0 2.854324445e-07 -1.40248659e-07 
0 0 0 0 0 1.962070644e-07 0 1.962070644e-07 -1.523801573e-07 
0 0 0 0 1.411680296e-07 2.070495925e-07 0 2.070495925e-07 0 
2.874569067e-07 0 0 0 2.413859335e-07 0 0 0 0 
-7.720131332e-07 -2.753460436e-07 2.977608903e-07 -2.753460436e-07 -7.323170667e-07 0 2.977608903e-07 0 -7.08584998e-07 
-5.882800499e-07 -1.957475502e-07 -2.724417242e-07 -1.957475502e-07 -5.158707638e-07 4.321919824e-07 -2.724417242e-07 4.321919824e-07 -5.482131116e-07 
9.279056132e-07 3.688520434e-07 -3.955553995e-07 3.688520434e-07 9.544588085e-07 1.955970599e-07 -3.955553995e-07 1.955970599e-07 4.52067648e-07 
-2.422781133e-07 0 1.520167753e-07 0 -2.454655666e-07 0 1.520167753e-07 0 -3.825257389e-07 
-6.801465916e-07 -2.355467969e-07 0 -2.355467969e-07 -6.240939153e-07 2.23259949e-07 0 2.23259949e-07 -6.283990548e-07 
-1.504115716e-07 0 -1.33084532e-07 0 -1.372424151e-07 1.994778397e-07 -1.33084532e-07 1.994778397e-07 -3.023397958e-07 
6.0768126e-07 2.412535431e-07 -1.946413696e-07 2.412535431e-07 5.97922371e-07 0 -1.946413696e-07 0 1.97800584e-07 
0 0 0 0 0 0 0 0 -1.28258675e-07 
1.698127816e-07 0 -3.339985618e-07 0 2.192940224e-07 3.138945211e-07 -3.339985618e-07 3.138945211e-07 0 
0 0 -3.286460707e-07 0 0 5.047558737e-07 -3.286460707e-07 5.047558737e-07 0 
0 0 -1.771894052e-07 0 0 -1.85820251e-07 -1.771894052e-07 -1.85820251e-07 -3.151097147e-07 
-4.596078624e-07 0 3.401735683e-07 0 -3.534725209e-07 0 3.401735683e-07 0 -4.074779079e-07 
4.540398461e-07 1.4415236e-07 -3.439797084e-07 1.4415236e-07 4.215801298e-07 2.774808613e-07 -3.439797084e-07 2.774808613e-07 2.102457231e-07 
0 0 -2.529177379e-07 0 0 1.594678114e-07 -2.529177379e-07 1.594678114e-07 -1.340195903e-07 
-2.510032378e-07 0 0 0 -2.290097423e-07 -1.219507579e-07 0 -1.219507579e-07 -3.612938113e-07 
-1.800720078e-07 0 0 0 -1.355491279e-07 2.233373044e-07 0 2.233373044e-07 -1.802036869e-07 
2.767518464e-07 0 -3.363128896e-07 0 2.519771974e-07 3.911183675e-07 -3.363128896e-07 3.911183675e-07 1.286581286e-07 
2.058206164e-07 0 -2.605845568e-07 0 1.585165831e-07 0 -2.605845568e-07 0 0 
0 0 0 0 0 0 0 0 0 
-1.698402902e-07 0 -3.03585302e-07 0 -1.699184522e-07 -6.681356699e-07 -3.03585302e-07 -6.681356699e-07 -4.1205308e-07 
4.53130378e-07 1.370565985e-07 0 1.370565985e-07 3.097872771e-07 5.808207543e-07 0 5.808207543e-07 1.326459774e-07 
-3.470900436e-07 0 -5.304823151e-07 0 -3.046995247e-07 3.363462983e-07 -5.304823151e-07 3.363462983e-07 -5.166136289e-07 
0 0 4.244313377e-07 0 2.298492502e-07 1.827555988e-07 4.244313377e-07 1.827555988e-07 1.375385518e-07 
1.416450439e-07 0 -1.515109197e-07 0 0 0 -1.515109197e-07 0 -1.397035513e-07 
0 0 -2.649594262e-07 0 0 4.585835263e-07 -2.649594262e-07 4.585835263e-07 -1.919838258e-07 
-2.584651669e-07 0 -4.170338086e-07 0 -2.373089885e-07 -1.658946858e-07 -4.170338086e-07 -1.658946858e-07 -4.643333544e-07 
0 0 0 0 0 -2.426900356e-07 0 -2.426900356e-07 -1.372572641e-07 
2.819046855e-07 0 2.124974002e-07 0 2.698182636e-07 3.817881765e-07 2.124974002e-07 3.817881765e-07 1.350922646e-07 
0 0 0 0 0 2.595509485e-07 0 2.595509485e-07 -1.895375385e-07 
1.26358748e-07 -1.313047046e-07 4.168611072e-07 -1.313047046e-07 0 -1.858458096e-07 4.168611072e-07 -1.858458096e-07 2.955551604e-07 
2.280803567e-07 0 4.891583019e-07 0 0 0 4.891583019e-07 0 0 
5.384402196e-07 2.212187954e-07 4.647059935e-07 2.212187954e-07 5.001392073e-07 0 4.647059935e-07 0 0 
-6.166115221e-07 -2.113560978e-07 -9.906432013e-07 -2.113560978e-07 -3.948580114e-07 -5.298681945e-07 -9.906432013e-07 -5.298681945e-07 -3.563560303e-07 
1.772195524e-07 0 4.530097046e-07 0 0 0 4.530097046e-07 0 1.835226757e-07 
3.832602882e-07 1.294899849e-07 4.769321477e-07 1.294899849e-07 2.581447797e-07 0 4.769321477e-07 0 0 
3.323994838e-07 0 4.407835504e-07 0 3.009238414e-07 0 4.407835504e-07 0 1.562786185e-07 
-2.45126387e-07 -1.713304012e-07 -2.86891047e-07 -1.713304012e-07 -1.46574768e-07 -3.57857002e-07 -2.86891047e-07 -3.57857002e-07 0 
-1.942655827e-07 0 -2.507424497e-07 0 -1.893538296e-07 -2.53644024e-07 -2.507424497e-07 -2.53644024e-07 -1.424329196e-07 
0 0 -2.629686039e-07 0 0 -2.215932391e-07 -2.629686039e-07 -2.215932391e-07 -1.696769768e-07 
-1.75266525e-07 0 7.131753744e-07 0 0 3.738548452e-07 7.131753744e-07 3.738548452e-07 0 
1.657204613e-07 0 0 0 1.86884921e-07 5.245315287e-07 0 5.245315287e-07 0 
-3.260409132e-07 -1.286653385e-07 -2.717360651e-07 -1.286653385e-07 -3.759860834e-07 5.091629827e-07 -2.717360651e-07 5.091629827e-07 -5.778974522e-07 
1.713708401e-07 0 -7.751061102e-07 0 2.322955915e-07 -5.531819121e-07 -7.751061102e-07 -5.531819121e-07 4.551103706e-07 
0 0 3.166113247e-07 0 0 4.49193187e-07 3.166113247e-07 4.49193187e-07 0 
0 0 -1.758443951e-07 0 0 5.168472557e-07 -1.758443951e-07 5.168472557e-07 -2.765179832e-07 
-2.506537191e-07 0 2.207196547e-07 0 -2.045184952e-07 4.41508914e-07 2.207196547e-07 4.41508914e-07 -3.278011522e-07 
0 0 0 0 0 0 0 0 1.887027592e-07 
1.685456507e-07 0 -4.275294176e-07 0 2.095902563e-07 0 -4.275294176e-07 0 2.399859282e-07 
0 0 -5.234210876e-07 0 0 0 -5.234210876e-07 0 0 
-3.756935219e-07 0 -2.164115254e-07 0 -1.193730467e-07 2.296544992e-07 -2.164115254e-07 2.296544992e-07 -3.287627546e-07 
0 0 0 0 0 2.86779468e-07 0 2.86779468e-07 4.870479671e-07 
2.04566101e-07 0 0 0 1.63852971e-07 2.935918133e-07 0 2.935918133e-07 4.236735125e-07 
1.205029416e-07 0 1.657200266e-07 0 0 -3.090973546e-07 1.657200266e-07 -3.090973546e-07 4.41028454e-07 
-1.852650428e-07 0 -1.339899603e-07 0 0 2.582169836e-07 -1.339899603e-07 2.582169836e-07 0 
0 0 0 0 0 2.901856406e-07 0 2.901856406e-07 4.553607398e-07 
0 0 0 0 0 2.616231562e-07 0 2.616231562e-07 0 
-1.275952901e-07 0 0 0 0 0 0 0 0 
0 0 0 0 0 0 0 0 4.640382105e-07 
1.625345213e-07 0 0 0 0 0 0 0 4.323509832e-07 
3.658935519e-07 1.66253419e-07 0 1.66253419e-07 2.336975891e-07 -2.249993217e-07 0 -2.249993217e-07 0 
0 0 3.730395229e-07 0 0 2.447899803e-07 3.730395229e-07 2.447899803e-07 0 
0 0 -5.484801043e-07 0 0 0 -5.484801043e-07 0 -4.644624582e-07 
-2.16878756e-07 -1.411931086e-07 -3.346210463e-07 -1.411931086e-07 -2.265434591e-07 2.871591619e-07 -3.346210463e-07 2.871591619e-07 -3.710878489e-07 
1.503429417e-07 0 2.349968569e-07 0 1.414922855e-07 0 2.349968569e-07 0 0 
0 0 0 0 0 1.791897366e-07 0 1.791897366e-07 -2.814165729e-07 
2.130965324e-07 0 -2.257629567e-07 0 0 0 -2.257629567e-07 0 -2.720837222e-07 
0 0 0 0 0 0 0 0 -2.253964176e-07 
-1.410432122e-07 0 0 0 0 2.659745711e-07 0 2.659745711e-07 -2.347292683e-07 
0 0 -4.415505753e-07 0 0 2.003743274e-07 -4.415505753e-07 2.003743274e-07 -4.177751536e-07 
3.256301046e-07 1.281088999e-07 1.929787842e-07 1.281088999e-07 1.73659141e-07 -1.762715741e-07 1.929787842e-07 -1.762715741e-07 0 
0 0 3.31223934e-07 0 1.573562565e-07 2.055228343e-07 3.31223934e-07 2.055228343e-07 0 
0 0 -5.725282546e-07 0 0 1.295005243e-07 -5.725282546e-07 1.295005243e-07 -4.190689233e-07 
-3.720482938e-07 -1.611501652e-07 -3.664976528e-07 -1.611501652e-07 -3.16802628e-07 2.696587839e-07 -3.664976528e-07 2.696587839e-07 -3.981743462e-07 
2.171298186e-07 0 2.621013591e-07 0 1.655076988e-07 0 2.621013591e-07 0 0 
0 0 -1.206521603e-07 0 0 1.675116793e-07 -1.206521603e-07 1.675116793e-07 -1.756409847e-07 
1.709550698e-07 0 -1.897747352e-07 0 0 0 -1.897747352e-07 0 -2.301473688e-07 
0 0 0 0 0 0 0 0 -2.197000803e-07 
-1.317093807e-07 0 0 0 0 2.375908091e-07 0 2.375908091e-07 -1.651936961e-07 
-1.778841294e-07 0 -4.695129537e-07 0 -1.785690929e-07 1.995796541e-07 -4.695129537e-07 1.995796541e-07 -4.086216347e-07 
0 0 -3.247938915e-07 0 0 4.152042752e-07 -3.247938915e-07 4.152042752e-07 0 
0 0 0 0 0 -1.535957511e-07 0 -1.535957511e-07 -3.412626739e-07 
-5.281376903e-07 -1.25668132e-07 3.256194385e-07 -1.25668132e-07 -4.160193316e-07 0 3.256194385e-07 0 -5.197372354e-07 
4.277491092e-07 0 -3.381967001e-07 0 4.311664659e-07 2.93581456e-07 -3.381967001e-07 2.93581456e-07 2.083345661e-07 
0 0 -2.107666181e-07 0 0 1.30804262e-07 -2.107666181e-07 1.30804262e-07 -2.172875035e-07 
-2.586025603e-07 0 0 0 -2.437654305e-07 0 0 0 -4.304999546e-07 
-2.109807438e-07 0 0 0 -1.644672659e-07 1.863465782e-07 0 1.863465782e-07 -3.065247843e-07 
2.669626559e-07 0 -3.314952958e-07 0 2.591256328e-07 3.543928656e-07 -3.314952958e-07 3.543928656e-07 0 
2.193408394e-07 0 -2.174680225e-07 0 1.798274683e-07 0 -2.174680225e-07 0 0 
0 0 0 0 0 1.255351687e-07 0 1.255351687e-07 -1.557013346e-07 
1.440640209e-07 0 -2.576047738e-07 0 0 4.356136756e-07 -2.576047738e-07 4.356136756e-07 0 
-2.084521258e-07 -1.315544627e-07 -2.673507421e-07 -1.315544627e-07 -1.43666293e-07 4.229969084e-07 -2.673507421e-07 4.229969084e-07 -1.928781575e-07 
0 0 0 0 0 0 0 0 -2.597524976e-07 
1.952751132e-07 0 0 0 0 -1.490849846e-07 0 -1.490849846e-07 0 
0 0 -2.62477758e-07 0 0 4.29305292e-07 -2.62477758e-07 4.29305292e-07 -1.483032352e-07 
-1.518851089e-07 0 -1.364710637e-07 0 0 2.0527064e-07 -1.364710637e-07 2.0527064e-07 -2.263153276e-07 
0 0 -1.315980795e-07 0 0 2.115790236e-07 -1.315980795e-07 2.115790236e-07 -1.817404053e-07 
1.696695671e-07 0 0 0 0 1.432643455e-07 0 1.432643455e-07 0 
0 0 0 0 0 1.369559619e-07 0 1.369559619e-07 -1.276601985e-07 
0 0 0 0 0 0 0 0 -1.610973685e-07 
0 0 4.644760714e-07 0 1.38694141e-07 2.390228727e-07 4.644760714e-07 2.390228727e-07 0 
-1.281762515e-07 0 -2.101336191e-06 0 -2.183810189e-07 -1.465622575e-06 -2.101336191e-06 -1.465622575e-06 -2.438029943e-07 
1.688299976e-07 0 6.813643746e-07 0 2.890956032e-07 1.080113241e-06 6.813643746e-07 1.080113241e-06 0 
0 0 5.201866861e-07 0 0 1.906479268e-07 5.201866861e-07 1.906479268e-07 -1.978933834e-07 
0 0 -8.184300596e-07 0 0 -6.132998513e-07 -8.184300596e-07 -6.132998513e-07 -1.482394486e-07 
0 0 -7.09985908e-07 0 0 -1.927546671e-07 -7.09985908e-07 -1.927546671e-07 0 
1.283254217e-07 0 5.72920223e-07 0 2.138948721e-07 6.595680568e-07 5.72920223e-07 6.595680568e-07 0 
0 0 4.923313787e-07 0 0 2.148353997e-07 4.923313787e-07 2.148353997e-07 -1.252846432e-07 
0 0 -7.905747522e-07 0 -1.585200352e-07 -6.374873242e-07 -7.905747522e-07 -6.374873242e-07 -2.208481888e-07 
0 0 6.007755304e-07 0 0 6.353805839e-07 6.007755304e-07 6.353805839e-07 0 
0 0 -5.79453101e-07 0 0 -5.792993139e-07 -5.79453101e-07 -5.792993139e-07 -1.450175684e-07 
0 0 -3.638184498e-07 0 -1.718624754e-07 -4.751558776e-07 -3.638184498e-07 -4.751558776e-07 -2.693003093e-07 
0 0 2.046502791e-07 0 0 -3.281868325e-07 2.046502791e-07 -3.281868325e-07 5.07335075e-07 
0 0 8.11633437e-07 0 0 7.845059938e-07 8.11633437e-07 7.845059938e-07 0 
0 0 -4.716357754e-07 0 -1.408923142e-07 -5.272275957e-07 -4.716357754e-07 -5.272275957e-07 -2.071589388e-07 
0 0 0 0 0 -4.01671355e-07 0 -4.01671355e-07 0 
0 0 -1.87401411e-07 0 0 -4.537430732e-07 -1.87401411e-07 -4.537430732e-07 1.811587533e-07 
0 0 0 0 0 0 0 0 0 
0 0 2.239074936e-07 0 0 1.546750581e-07 2.239074936e-07 1.546750581e-07 -1.756556105e-07 
0 0 5.081418581e-07 0 0 2.281595806e-07 5.081418581e-07 2.281595806e-07 2.126620817e-07 
0 0 -3.016268186e-07 0 0 3.561151408e-07 -3.016268186e-07 3.561151408e-07 -3.79234133e-07 
2.855717055e-07 0 0 0 2.307591844e-07 5.158140333e-07 0 5.158140333e-07 0 
0 0 -5.507904013e-07 0 0 -3.819957369e-07 -5.507904013e-07 -3.819957369e-07 1.602640647e-07 
-4.327202327e-07 0 5.003918316e-07 0 -2.950533493e-07 2.552331797e-07 5.003918316e-07 2.552331797e-07 -3.335708721e-07 
1.755638059e-07 0 -2.05314778e-07 0 0 4.35964587e-07 -2.05314778e-07 4.35964587e-07 -1.689863578e-07 
1.579744484e-07 0 -3.298965694e-07 0 1.540173001e-07 0 -3.298965694e-07 0 0 
0 0 -4.2620861e-07 0 0 0 -4.2620861e-07 0 0 
-1.835821632e-07 0 0 0 -1.525296919e-07 3.056741603e-07 0 3.056741603e-07 -3.564025026e-07 
0 0 1.956945471e-07 0 0 3.855236065e-07 1.956945471e-07 3.855236065e-07 -1.461547274e-07 
-2.011715207e-07 0 0 0 0 0 0 0 0 
-2.581985628e-07 0 -1.387754512e-07 0 -2.917000364e-07 -4.842496107e-07 -1.387754512e-07 -4.842496107e-07 -4.477010239e-07 
3.242518902e-07 0 0 0 2.901348004e-07 5.257276314e-07 0 5.257276314e-07 0 
-2.308723078e-07 0 -4.355251705e-07 0 -1.625325737e-07 2.653230352e-07 -4.355251705e-07 2.653230352e-07 -4.880235371e-07 
2.056146187e-07 0 3.219328116e-07 0 2.455161861e-07 1.345337037e-07 3.219328116e-07 1.345337037e-07 0 
0 0 0 0 0 0 0 0 -1.901390726e-07 
0 0 -2.636513463e-07 0 0 3.955253333e-07 -2.636513463e-07 3.955253333e-07 -2.103003292e-07 
-2.445354353e-07 0 -2.871503109e-07 0 -2.271163051e-07 0 -2.871503109e-07 0 -4.678622805e-07 
0 0 0 0 0 -1.748579535e-07 0 -1.748579535e-07 -1.981939715e-07 
2.649332545e-07 0 0 0 2.678254932e-07 3.301306675e-07 0 3.301306675e-07 0 
0 0 0 0 0 1.999283694e-07 0 1.999283694e-07 -2.183552281e-07 
0 -1.382043828e-07 -3.195903721e-07 -1.382043828e-07 0 3.684822359e-07 -3.195903721e-07 3.684822359e-07 -2.968686906e-07 
0 0 -1.951036721e-07 0 0 4.458581846e-07 -1.951036721e-07 4.458581846e-07 -1.228953151e-07 
0 0 0 0 0 -2.684771072e-07 0 -2.684771072e-07 -1.744468892e-07 
0 0 0 0 0 0 0 0 0 
0 0 -2.573470221e-07 0 0 4.071702103e-07 -2.573470221e-07 4.071702103e-07 -2.098820029e-07 
0 0 0 0 0 0 0 0 -1.486711021e-07 
0 0 0 0 0 0 0 0 -2.356577899e-07 
0 0 0 0 0 1.326688699e-07 0 1.326688699e-07 -1.931197139e-07 
0 0 0 0 0 1.713568442e-07 0 1.713568442e-07 0 
0 0 0 0 0 -1.858108017e-07 0 -1.858108017e-07 -1.319088131e-07 
1.833064772e-07 0 -2.508473748e-07 0 1.677285364e-07 4.283552815e-07 -2.508473748e-07 4.283552815e-07 0 
-2.251940682e-07 -1.530283514e-07 -2.699760845e-07 -1.530283514e-07 -1.496519277e-07 3.92083734e-07 -2.699760845e-07 3.92083734e-07 -3.084361175e-07 
-1.213755014e-07 0 0 0 0 0 0 0 -2.606090508e-07 
2.666671881e-07 0 0 0 1.551981381e-07 -1.349312702e-07 0 -1.349312702e-07 0 
0 0 -2.604117296e-07 0 0 4.102195078e-07 -2.604117296e-07 4.102195078e-07 -2.047894353e-07 
-1.732847848e-07 0 -1.383099169e-07 0 0 1.877555586e-07 -1.383099169e-07 1.877555586e-07 -2.845225841e-07 
0 0 -1.28745562e-07 0 0 2.058913323e-07 -1.28745562e-07 2.058913323e-07 -1.808759019e-07 
2.249868327e-07 0 0 0 1.614633372e-07 1.467120057e-07 0 1.467120057e-07 0 
0 0 -1.216540481e-07 0 0 1.285762319e-07 -1.216540481e-07 1.285762319e-07 -1.739809911e-07 
0 0 0 0 0 0 0 0 -1.500674578e-07 
-1.309439279e-07 0 8.471832657e-07 0 0 8.095405155e-07 8.471832657e-07 8.095405155e-07 -2.442296376e-07 
0 0 -2.30277059e-07 0 0 -4.426998898e-07 -2.30277059e-07 -4.426998898e-07 -1.348917227e-07 
0 0 -6.735230546e-07 0 0 -6.696545672e-07 -6.735230546e-07 -6.696545672e-07 -1.856766934e-07 
0 0 1.50989572e-07 0 0 -3.737676013e-07 1.50989572e-07 -3.737676013e-07 4.236150907e-07 
0 0 3.084531033e-07 0 0 1.834203128e-07 3.084531033e-07 1.834203128e-07 -1.895606802e-07 
0 0 -4.519000568e-07 0 0 -5.561772285e-07 -4.519000568e-07 -5.561772285e-07 -1.602842081e-07 
-1.226894574e-07 0 0 0 0 0 0 0 -2.149531655e-07 
0 0 4.990864188e-07 0 0 2.178864571e-07 4.990864188e-07 2.178864571e-07 0 
0 0 0 0 0 -4.082337455e-07 0 -4.082337455e-07 1.44361684e-07 
0 0 -2.612667413e-07 0 0 -5.217110842e-07 -2.612667413e-07 -5.217110842e-07 0 
-1.210170734e-07 0 -2.216215484e-07 0 0 6.849622125e-07 -2.216215484e-07 6.849622125e-07 -1.287447812e-07 
0 0 0 0 0 2.893896458e-07 0 2.893896458e-07 0 
0 0 0 0 0 3.220384073e-07 0 3.220384073e-07 3.196620457e-07 
0 0 0 0 0 -3.6389196e-07 0 -3.6389196e-07 3.202542887e-07 
0 0 0 0 0 4.871759291e-07 0 4.871759291e-07 0 
0 0 0 0 0 3.057140265e-07 0 3.057140265e-07 1.567107922e-07 
0 0 -1.29242439e-07 0 0 5.035003099e-07 -1.29242439e-07 5.035003099e-07 0 
0 0 0 0 0 1.605351262e-07 0 1.605351262e-07 0 
0 0 0 0 0 0 0 0 1.570069137e-07 
0 0 0 0 0 0 0 0 3.199581672e-07 
0 0 -1.717818216e-07 0 1.249927165e-07 4.549038727e-07 -1.717818216e-07 4.549038727e-07 0 
0 0 0 0 0 -1.550040739e-07 0 -1.550040739e-07 0 
0 0 0 0 0 -1.303730173e-07 0 -1.303730173e-07 0 
-2.051920511e-07 0 0 0 -2.828033016e-07 -2.990286429e-07 0 -2.990286429e-07 -4.726357455e-07 
0 0 0 0 0 1.499498994e-07 0 1.499498994e-07 0 
0 0 0 0 0 -1.426885456e-07 0 -1.426885456e-07 0 
0 0 0 0 0 1.622654277e-07 0 1.622654277e-07 0 
0 0 0 0 0 0 0 0 -2.599892271e-07 
0 0 0 0 0 -2.270163584e-07 0 -2.270163584e-07 -2.632227289e-07 
0 0 0 0 -1.419223137e-07 -2.147008301e-07 0 -2.147008301e-07 -2.357949221e-07 
2.070197331e-07 0 3.83047134e-07 0 2.042537394e-07 -1.37769257e-07 3.83047134e-07 -1.37769257e-07 0 
1.274044895e-07 0 3.676311623e-07 0 1.413807706e-07 -1.68251451e-07 3.676311623e-07 -1.68251451e-07 0 
-1.613839014e-07 0 3.686818542e-07 0 0 -1.331493436e-07 3.686818542e-07 -1.331493436e-07 -1.5044098e-07 
-2.577845832e-07 0 -2.897922176e-07 0 -3.871337577e-07 1.493840972e-07 -2.897922176e-07 1.493840972e-07 -2.931610919e-07 
1.672121113e-07 0 3.753391482e-07 0 1.72817255e-07 -1.53010354e-07 3.753391482e-07 -1.53010354e-07 0 
0 0 3.681565082e-07 0 0 -1.507003973e-07 3.681565082e-07 -1.507003973e-07 0 
0 0 3.758644941e-07 0 0 -1.354593003e-07 3.758644941e-07 -1.354593003e-07 0 
0 0 0 0 0 0 0 0 -1.72857271e-07 
0 0 0 0 -1.228764936e-07 0 0 0 -1.414862543e-07 
-2.095842423e-07 0 0 0 -2.202151875e-07 0 0 0 -2.21801036e-07 
0 0 1.374097781e-07 0 0 -4.297661213e-07 1.374097781e-07 -4.297661213e-07 0 
0 0 1.965679423e-07 0 0 -3.415328749e-07 1.965679423e-07 -3.415328749e-07 0 
0 0 0 0 0 2.802541982e-07 0 2.802541982e-07 0 
-2.043895399e-07 0 0 0 0 -3.81028539e-07 0 -3.81028539e-07 0 
0 0 1.669888602e-07 0 0 -3.856494981e-07 1.669888602e-07 -3.856494981e-07 0 
0 0 0 0 0 0 0 0 0 
0 0 0 0 0 0 0 0 0 
0 0 0 0 0 -4.053973302e-07 0 -4.053973302e-07 0 
0 0 0 0 0 -3.612807069e-07 0 -3.612807069e-07 0 
0 0 0 0 0 0 0 0 0 
1.341590825e-07 0 0 0 0 1.94344843e-07 0 1.94344843e-07 1.617997345e-07 
1.262948053e-07 0 0 0 0 -1.723111361e-07 0 -1.723111361e-07 2.257956286e-07 
-2.968703505e-07 0 0 0 -1.452626651e-07 -2.62844791e-07 0 -2.62844791e-07 -4.942694913e-07 
0 0 0 0 0 -2.883038982e-07 0 -2.883038982e-07 0 
1.302269439e-07 0 0 0 0 0 0 0 1.937976816e-07 
0 0 0 0 0 -2.175779636e-07 0 -2.175779636e-07 -1.342369313e-07 
0 0 0 0 0 0 0 0 -1.662348784e-07 
0 0 0 0 0 0 0 0 1.218903824e-07 
0 0 0 0 0 -2.303075171e-07 0 -2.303075171e-07 1.538883295e-07 
-1.998810967e-07 0 0 0 -1.210683671e-07 -2.755743446e-07 0 -2.755743446e-07 -2.061442305e-07 
-1.498601614e-07 0 -3.262415116e-07 0 -2.404327698e-07 0 -3.262415116e-07 0 0 
0 0 3.802901566e-07 0 0 0 3.802901566e-07 0 0 
0 0 4.130352249e-07 0 0 0 4.130352249e-07 0 0 
0 0 2.97126085e-07 0 0 0 2.97126085e-07 0 0 
0 0 0 0 0 0 0 0 0 
0 0 3.966626908e-07 0 0 0 3.966626908e-07 0 0 
0 0 0 0 0 0 0 0 0 
0 0 0 0 -1.545302337e-07 0 0 0 0 
0 0 3.387081208e-07 0 0 0 3.387081208e-07 0 0 
0 0 3.550806549e-07 0 0 0 3.550806549e-07 0 0 
1.318812651e-07 0 3.289237059e-07 0 0 -1.497323037e-07 3.289237059e-07 -1.497323037e-07 -2.02657374e-07 
0 0 3.474154357e-07 0 0 0 3.474154357e-07 0 -1.23847349e-07 
0 0 3.58415304e-07 0 0 -1.456130209e-07 3.58415304e-07 -1.456130209e-07 0 
0 0 -2.624970251e-07 0 -4.025299939e-07 1.292811437e-07 -2.624970251e-07 1.292811437e-07 -2.840339736e-07 
0 0 3.381695708e-07 0 0 -1.322293466e-07 3.381695708e-07 -1.322293466e-07 -1.632523615e-07 
0 0 3.529153699e-07 0 0 -1.301697052e-07 3.529153699e-07 -1.301697052e-07 0 
0 0 3.436695049e-07 0 0 -1.476726623e-07 3.436695049e-07 -1.476726623e-07 -1.517778376e-07 
0 0 0 0 -1.455854082e-07 0 0 0 -2.433456738e-07 
0 0 0 0 -1.703678717e-07 0 0 0 -2.039406613e-07 
0 0 0 0 -1.633805345e-07 0 0 0 -1.924661374e-07 
-2.105879299e-07 0 -1.561337668e-07 0 -1.581199329e-07 -1.436710924e-07 -1.561337668e-07 -1.436710924e-07 1.38193832e-07 
2.65801927e-07 -1.40529565e-07 -2.158649087e-07 -1.40529565e-07 4.573018926e-07 0 -2.158649087e-07 0 2.893391961e-07 
0 0 -1.638078224e-07 0 0 -1.619911443e-07 -1.638078224e-07 -1.619911443e-07 3.464315859e-07 
0 0 4.042719271e-07 0 0 1.402747512e-07 4.042719271e-07 1.402747512e-07 2.427928699e-07 
0 0 -1.859993377e-07 0 1.495909798e-07 0 -1.859993377e-07 0 2.13766514e-07 
1.476247798e-07 0 -1.898363655e-07 0 2.212902027e-07 0 -1.898363655e-07 0 3.17885391e-07 
0 0 -1.599707946e-07 0 0 -1.528311183e-07 -1.599707946e-07 -1.528311183e-07 2.42312709e-07 
0 0 1.240690802e-07 0 0 0 1.240690802e-07 0 1.904933509e-07 
1.510766506e-07 0 0 0 2.109667032e-07 0 0 0 2.66066033e-07 
0 0 1.202320524e-07 0 0 0 1.202320524e-07 0 2.946122279e-07 
0 0 2.608066097e-07 0 -1.239494063e-07 0 2.608066097e-07 0 0 
2.130148664e-07 0 2.366114078e-07 0 2.243473906e-07 6.600526974e-07 2.366114078e-07 6.600526974e-07 4.493929345e-07 
0 0 3.250744055e-07 0 0 0 3.250744055e-07 0 0 
0 0 -2.40959911e-07 0 0 -1.839790805e-07 -2.40959911e-07 -1.839790805e-07 1.351521994e-07 
0 0 2.487090087e-07 0 0 3.735346129e-07 2.487090087e-07 3.735346129e-07 1.833655004e-07 
0 0 2.808429067e-07 0 0 3.229636369e-07 2.808429067e-07 3.229636369e-07 2.308248562e-07 
0 0 2.929405076e-07 0 0 0 2.929405076e-07 0 0 
0 0 0 0 0 0 0 0 0 
0 0 0 0 1.347771511e-07 2.380368084e-07 0 2.380368084e-07 2.922725669e-07 
0 0 0 0 0 0 0 0 0 
1.650828052e-07 0 5.808253644e-07 0 0 -3.480433145e-07 5.808253644e-07 -3.480433145e-07 1.424759268e-07 
-2.619517147e-07 0 -6.106773578e-07 0 -1.855417653e-07 0 -6.106773578e-07 0 -1.550180714e-07 
0 0 -2.357793617e-07 0 0 -1.514638682e-07 -2.357793617e-07 -1.514638682e-07 -2.299953184e-07 
0 0 2.036205896e-07 0 0 -3.499192045e-07 2.036205896e-07 -3.499192045e-07 0 
0 0 0 0 0 -1.415137388e-07 0 -1.415137388e-07 0 
-1.534727792e-07 0 -4.232283598e-07 0 0 0 -4.232283598e-07 0 -1.925066949e-07 
0 0 1.725230013e-07 0 0 -2.497535913e-07 1.725230013e-07 -2.497535913e-07 0 
0 0 3.92222977e-07 0 0 -3.489812595e-07 3.92222977e-07 -3.489812595e-07 1.225723919e-07 
0 0 -2.035283841e-07 0 0 -1.424516838e-07 -2.035283841e-07 -1.424516838e-07 0 
0 0 0 0 0 -2.506915363e-07 0 -2.506915363e-07 0 
-3.587410789e-07 1.712426299e-07 -1.904371008e-07 1.712426299e-07 -2.751859504e-07 0 -1.904371008e-07 0 0 
2.144261395e-07 -1.843815213e-07 3.358409083e-07 -1.843815213e-07 0 2.593252536e-07 3.358409083e-07 2.593252536e-07 3.400055826e-07 
0 0 0 0 1.364829922e-07 0 0 0 3.725264074e-07 
-1.535993171e-07 0 2.598848262e-07 0 -2.085329842e-07 1.253303135e-07 2.598848262e-07 1.253303135e-07 0 
0 0 0 0 0 0 0 0 2.1870882e-07 
1.333016207e-07 0 2.029691151e-07 0 1.223014463e-07 1.248645569e-07 2.029691151e-07 1.248645569e-07 3.56265995e-07 
-1.532819886e-07 0 0 0 0 0 0 0 2.349692324e-07 
-2.56170198e-07 1.346190367e-07 0 1.346190367e-07 -2.418594673e-07 0 0 0 0 
0 0 2.978628673e-07 0 0 1.923277835e-07 2.978628673e-07 1.923277835e-07 2.030069719e-07 
0 0 1.64991074e-07 0 0 0 1.64991074e-07 0 2.192673843e-07 
0 0 -2.219618138e-07 0 2.934998528e-07 0 -2.219618138e-07 0 0 
-1.839252366e-07 -1.619062261e-07 -1.374167799e-07 -1.619062261e-07 -3.675880141e-07 0 -1.374167799e-07 0 0 
0 0 3.198599789e-07 0 -1.504977366e-07 0 3.198599789e-07 0 0 
0 0 -3.254158421e-07 0 3.579142592e-07 0 -3.254158421e-07 0 1.628758267e-07 
0 0 -1.796892968e-07 0 0 0 -1.796892968e-07 0 0 
0 0 0 0 -2.590428753e-07 0 0 0 0 
0 0 0 0 0 0 0 0 0 
0 0 -2.736888279e-07 0 3.25707056e-07 0 -2.736888279e-07 0 0 
0 0 -2.31416311e-07 0 0 0 -2.31416311e-07 0 0 
0 0 0 0 0 0 0 0 0 
1.53566912e-07 0 0 0 0 -2.326444154e-07 0 -2.326444154e-07 -3.524201206e-07 
-1.933074562e-07 0 0 0 -1.600258601e-07 3.074693051e-07 0 3.074693051e-07 -6.375521436e-07 
2.774571014e-07 0 1.20264279e-07 0 1.435616944e-07 2.987052024e-07 1.20264279e-07 2.987052024e-07 -3.284116686e-07 
-1.264617696e-07 0 0 0 0 0 0 0 0 
0 0 0 0 0 0 0 0 -4.949861321e-07 
0 0 0 0 0 3.030872537e-07 0 3.030872537e-07 -4.829819061e-07 
2.155120067e-07 0 0 0 1.288177426e-07 0 0 0 -3.404158946e-07 
0 0 0 0 0 -1.310044556e-07 0 -1.310044556e-07 -1.901531424e-07 
-1.598846129e-07 0 0 0 0 1.390524047e-07 0 1.390524047e-07 -3.327191539e-07 
0 0 0 0 0 1.346703533e-07 0 1.346703533e-07 -1.781489164e-07 
0 0 -2.143686842e-07 0 -1.45627245e-07 -3.697007609e-07 -2.143686842e-07 -3.697007609e-07 0 
0 0 0 0 0 1.95130645e-07 0 1.95130645e-07 1.477427704e-07 
0 0 -3.755045097e-07 0 0 -3.891782035e-07 -3.755045097e-07 -3.891782035e-07 2.103339984e-07 
0 0 -1.535303364e-07 0 0 -2.504137736e-07 -1.535303364e-07 -2.504137736e-07 1.280065904e-07 
0 0 0 0 0 0 0 0 0 
0 0 -1.422008255e-07 0 0 0 -1.422008255e-07 0 1.790383844e-07 
0 0 -2.949365969e-07 0 0 -3.794394822e-07 -2.949365969e-07 -3.794394822e-07 1.414911987e-07 
0 0 -1.839495103e-07 0 0 -3.100572673e-07 -1.839495103e-07 -3.100572673e-07 0 
0 0 0 0 0 0 0 0 1.378746804e-07 
0 0 -2.64517423e-07 0 0 -3.197959886e-07 -2.64517423e-07 -3.197959886e-07 1.691702944e-07 
1.937080357e-07 0 3.519069835e-07 0 0 -1.46061505e-07 3.519069835e-07 -1.46061505e-07 0 
0 0 3.663201048e-07 0 0 -1.245841078e-07 3.663201048e-07 -1.245841078e-07 0 
0 0 3.650103474e-07 0 1.238306041e-07 -1.623654107e-07 3.650103474e-07 -1.623654107e-07 0 
-1.611849645e-07 0 -2.892290991e-07 0 -3.744654463e-07 1.327026619e-07 -2.892290991e-07 1.327026619e-07 -2.47746996e-07 
0 0 3.591135442e-07 0 0 -1.353228064e-07 3.591135442e-07 -1.353228064e-07 0 
0 0 3.656652261e-07 0 0 -1.434747592e-07 3.656652261e-07 -1.434747592e-07 0 
0 0 3.584586655e-07 0 0 -1.542134579e-07 3.584586655e-07 -1.542134579e-07 0 
0 0 0 0 -1.328026135e-07 0 0 0 -1.73996374e-07 
0 0 0 0 -1.642228878e-07 0 0 0 -1.578478306e-07 
0 0 0 0 -1.253174211e-07 0 0 0 -1.433595258e-07 
-2.946744447e-07 1.194496125e-07 -2.026588435e-07 1.194496125e-07 -1.756723179e-07 0 -2.026588435e-07 0 0 
2.447735023e-07 -1.513016481e-07 3.543780887e-07 -1.513016481e-07 1.810680827e-07 2.957983442e-07 3.543780887e-07 2.957983442e-07 2.877511054e-07 
0 0 0 0 0 0 0 0 2.817505234e-07 
-1.494053622e-07 0 2.531251396e-07 0 -2.876060888e-07 1.485472594e-07 2.531251396e-07 1.485472594e-07 0 
0 0 0 0 0 1.256576767e-07 0 1.256576767e-07 1.72637702e-07 
1.27097028e-07 0 2.243055201e-07 0 1.373070152e-07 1.302042521e-07 2.243055201e-07 1.302042521e-07 2.847508144e-07 
-1.426269455e-07 0 0 0 0 0 0 0 1.69637411e-07 
-2.220399034e-07 0 0 0 -2.316392033e-07 0 0 0 0 
0 0 3.037516141e-07 0 0 2.221728018e-07 3.037516141e-07 2.221728018e-07 1.455873338e-07 
0 0 1.736790456e-07 0 0 0 1.736790456e-07 0 1.425870429e-07 
1.5102487e-07 0 1.265303548e-07 0 0 3.355522702e-07 1.265303548e-07 3.355522702e-07 -1.953580916e-07 
0 0 0 0 0 -2.260008063e-07 0 -2.260008063e-07 -2.246992345e-07 
-1.230147713e-07 0 0 0 0 3.283947408e-07 0 3.283947408e-07 -4.52796305e-07 
0 0 0 0 0 0 0 0 0 
1.211096478e-07 0 0 0 0 0 0 0 -2.100286631e-07 
0 0 0 0 0 0 0 0 -3.387477698e-07 
0 0 0 0 0 3.319735055e-07 0 3.319735055e-07 -3.240771983e-07 
0 0 0 0 0 1.42619743e-07 0 1.42619743e-07 0 
0 0 0 0 0 -1.381567953e-07 0 -1.381567953e-07 0 
0 0 0 0 0 1.390409783e-07 0 1.390409783e-07 -2.145402667e-07 
3.744998126e-07 -1.454784752e-07 0 -1.454784752e-07 2.076955209e-07 2.292729406e-07 0 2.292729406e-07 -5.816343223e-07 
4.189439515e-07 0 0 0 2.283129865e-07 -2.048628886e-07 0 -2.048628886e-07 -3.811405006e-07 
-6.177911643e-07 0 0 0 -3.382083216e-07 1.800444816e-07 0 1.800444816e-07 0 
-3.726618724e-07 1.225741422e-07 0 1.225741422e-07 -3.154899712e-07 2.423375005e-07 0 2.423375005e-07 -8.547246141e-07 
3.96721882e-07 0 0 0 2.180042537e-07 0 0 0 -4.813874114e-07 
0 0 0 0 0 0 0 0 -2.415413364e-07 
-1.216456759e-07 0 0 0 0 2.046587111e-07 0 2.046587111e-07 -3.417882472e-07 
0 0 0 0 0 2.358052206e-07 0 2.358052206e-07 -7.181794682e-07 
0 0 0 0 0 0 0 0 -6.179325573e-07 
-4.952265183e-07 0 0 0 -3.268491464e-07 2.111909911e-07 0 2.111909911e-07 -4.783333931e-07 
2.840310362e-07 -1.196120331e-07 0 -1.196120331e-07 1.850174402e-07 2.661475037e-07 0 2.661475037e-07 -4.62181647e-07 
-3.870977205e-07 1.281448166e-07 0 1.281448166e-07 -3.183008051e-07 2.517812144e-07 0 2.517812144e-07 -7.210776447e-07 
4.017907695e-07 0 0 0 1.99738687e-07 -2.28500859e-07 0 -2.28500859e-07 -2.581276724e-07 
-4.526534812e-07 0 0 0 -2.486437493e-07 1.848125764e-07 0 1.848125764e-07 0 
0 0 0 0 0 2.589643591e-07 0 2.589643591e-07 -5.916296459e-07 
0 0 0 0 0 0 0 0 -4.896026586e-07 
3.429109028e-07 0 0 0 1.923780636e-07 0 0 0 -3.601546597e-07 
0 0 0 0 0 2.2548004e-07 0 2.2548004e-07 -2.677682913e-07 
-4.198756008e-07 0 0 0 -2.834722772e-07 2.182968954e-07 0 2.182968954e-07 -3.972162902e-07 
0 0 0 0 0 0 0 0 -1.65741304e-07 
0 0 2.476286486e-07 0 0 0 2.476286486e-07 0 0 
0 0 0 0 0 6.843787749e-07 0 6.843787749e-07 4.762130031e-07 
0 0 3.224073307e-07 0 0 0 3.224073307e-07 0 1.881900103e-07 
0 0 -1.843149017e-07 0 0 -2.509097725e-07 -1.843149017e-07 -2.509097725e-07 3.252187835e-07 
0 0 1.537497416e-07 0 0 3.666100811e-07 1.537497416e-07 3.666100811e-07 2.847204377e-07 
0 0 1.911390827e-07 0 0 3.250494149e-07 1.911390827e-07 3.250494149e-07 3.322015067e-07 
0 0 2.850179897e-07 0 0 0 2.850179897e-07 0 1.407089413e-07 
0 0 0 0 0 0 0 0 2.092233279e-07 
0 0 0 0 0 2.167345012e-07 0 2.167345012e-07 4.007158933e-07 
0 0 0 0 0 -1.425948588e-07 0 -1.425948588e-07 2.567043969e-07 
0 0 -7.481445026e-07 0 0 0 -7.481445026e-07 0 0 
0 0 -2.308614817e-07 0 0 -1.584216327e-07 -2.308614817e-07 -1.584216327e-07 -1.43944484e-07 
0 0 0 0 0 -2.390785151e-07 0 -2.390785151e-07 -2.783086809e-07 
2.194780527e-07 0 8.41741915e-07 0 0 -3.943022486e-07 8.41741915e-07 -3.943022486e-07 1.795924969e-07 
0 0 -4.895029921e-07 0 0 0 -4.895029921e-07 0 0 
0 0 -1.644423868e-07 0 0 -1.987500739e-07 -1.644423868e-07 -1.987500739e-07 -2.111265825e-07 
0 0 -4.230838973e-07 0 0 0 -4.230838973e-07 0 0 
1.512014288e-07 0 0 0 0 -1.385296009e-07 0 -1.385296009e-07 1.244981868e-07 
0 0 3.054402167e-07 0 0 -2.763619407e-07 3.054402167e-07 -2.763619407e-07 0 
0 0 3.718593115e-07 0 0 -3.166903818e-07 3.718593115e-07 -3.166903818e-07 0 
-3.140900414e-07 0 -2.257944942e-07 0 -2.493749397e-07 0 -2.257944942e-07 0 0 
2.387345066e-07 -1.257984999e-07 3.762858832e-07 -1.257984999e-07 1.534739366e-07 3.326546341e-07 3.762858832e-07 3.326546341e-07 1.95839713e-07 
0 0 0 0 0 0 0 0 1.721767291e-07 
0 0 2.75223952e-07 0 0 0 2.75223952e-07 0 0 
0 0 0 0 0 1.549802292e-07 0 1.549802292e-07 0 
0 0 2.450913158e-07 0 0 1.427626521e-07 2.450913158e-07 1.427626521e-07 1.840082211e-07 
-1.730251872e-07 0 0 0 0 0 0 0 0 
-1.67902109e-07 0 0 0 -1.432009056e-07 0 0 0 0 
0 0 3.257549176e-07 0 0 2.230467981e-07 3.257549176e-07 2.230467981e-07 1.390137924e-07 
0 0 1.945603502e-07 0 0 0 1.945603502e-07 0 1.271823005e-07 
2.067505936e-07 0 0 0 1.237352456e-07 -1.619585817e-07 0 -1.619585817e-07 3.048836986e-07 
-6.034157222e-07 0 0 0 -2.779685704e-07 -2.697247186e-07 0 -2.697247186e-07 -7.369631811e-07 
2.688484239e-07 0 0 0 0 1.886745252e-07 0 1.886745252e-07 2.626982961e-07 
-2.039295462e-07 0 0 0 -1.556055194e-07 -2.673364775e-07 0 -2.673364775e-07 0 
-1.983325643e-07 0 0 0 0 -2.158416502e-07 0 -2.158416502e-07 -2.160397412e-07 
-1.672836492e-07 0 0 0 0 0 0 0 -2.371324425e-07 
2.377995088e-07 0 0 0 0 0 0 0 2.837909974e-07 
0 0 0 0 0 -2.146475296e-07 0 -2.146475296e-07 2.073985929e-07 
-4.036726342e-07 0 0 0 -2.167870449e-07 -2.685305981e-07 0 -2.685305981e-07 -3.135248469e-07 
0 0 0 0 0 0 0 0 1.863058917e-07 
-1.327807717e-07 0 3.751786886e-07 0 0 4.925279423e-07 3.751786886e-07 4.925279423e-07 0 
1.359147622e-07 0 2.09148699e-07 0 1.261690679e-07 1.26176854e-07 2.09148699e-07 1.26176854e-07 2.462768076e-07 
4.05418211e-07 0 2.095780617e-07 0 1.724907956e-07 0 2.095780617e-07 0 4.45908924e-07 
-3.399204898e-07 0 -2.709353902e-07 0 -1.917184054e-07 -1.839363686e-07 -2.709353902e-07 -1.839363686e-07 0 
0 0 2.921636938e-07 0 0 3.093523982e-07 2.921636938e-07 3.093523982e-07 0 
2.706664866e-07 0 2.093633804e-07 0 1.493299318e-07 0 2.093633804e-07 0 3.460928658e-07 
1.363187196e-07 0 2.923783752e-07 0 0 2.763312898e-07 2.923783752e-07 2.763312898e-07 1.960673922e-07 
-2.363506307e-07 0 0 0 -1.304175063e-07 1.542957868e-07 0 1.542957868e-07 0 
0 0 0 0 0 0 0 0 1.752859966e-07 
0 0 0 0 0 0 0 0 2.751020548e-07 
3.444745774e-07 0 0 0 1.446060184e-07 2.556644359e-07 0 2.556644359e-07 -5.236365909e-07 
2.568479428e-07 0 0 0 1.786012977e-07 -2.178284536e-07 0 -2.178284536e-07 -4.847694733e-07 
-2.199569936e-07 0 0 0 -1.898469092e-07 2.867923494e-07 0 2.867923494e-07 -8.160867957e-07 
-2.897115022e-07 0 0 0 0 0 0 0 0 
3.006612601e-07 0 0 0 1.61603658e-07 0 0 0 -5.042030321e-07 
0 0 0 0 0 0 0 0 -6.504281345e-07 
0 0 0 0 0 2.712283926e-07 0 2.712283926e-07 -6.698616933e-07 
0 0 0 0 0 0 0 0 -3.199413655e-07 
0 0 0 0 0 -1.255474531e-07 0 -1.255474531e-07 -3.005078067e-07 
-2.548342479e-07 0 0 0 -1.507488182e-07 1.267629485e-07 0 1.267629485e-07 -4.661664679e-07 
-1.916432785e-07 0 2.669218966e-07 0 0 -2.91374065e-07 2.669218966e-07 -2.91374065e-07 1.235275474e-07 
1.017656231e-06 -2.032846849e-07 5.322527167e-07 -2.032846849e-07 5.521417113e-07 -2.947181607e-07 5.322527167e-07 -2.947181607e-07 6.895298244e-07 
-4.4600423e-07 0 -3.023947908e-07 0 -1.7989305e-07 -1.288855294e-07 -3.023947908e-07 -1.288855294e-07 -7.744233615e-07 
-5.419103366e-07 1.980269757e-07 -5.658819204e-07 1.980269757e-07 -3.398471272e-07 0 -5.658819204e-07 0 -2.627122312e-07 
4.130064764e-07 0 3.995873066e-07 0 2.452031706e-07 -2.930461129e-07 3.995873066e-07 -2.930461129e-07 4.065286859e-07 
2.858260006e-07 0 0 0 1.861243307e-07 -2.118018451e-07 0 -2.118018451e-07 0 
-3.188237542e-07 0 0 0 -1.208142101e-07 -2.101297972e-07 0 -2.101297972e-07 -3.25447907e-07 
-3.667768075e-07 0 -1.494800119e-07 0 -2.007912487e-07 0 -1.494800119e-07 0 0 
2.378729473e-07 0 0 0 0 0 0 0 2.134087966e-07 
-4.939572833e-07 1.374575064e-07 -4.341383556e-07 1.374575064e-07 -2.598700886e-07 0 -4.341383556e-07 0 -5.185677963e-07 
0 0 -2.339797178e-07 0 1.773523216e-07 0 -2.339797178e-07 0 0 
0 0 -2.120641328e-07 0 -1.68591276e-07 0 -2.120641328e-07 0 -2.325799216e-07 
-1.869438727e-07 0 2.858690347e-07 0 -3.915686431e-07 0 2.858690347e-07 0 -3.097049808e-07 
0 0 -2.941831652e-07 0 0 0 -2.941831652e-07 0 1.280798962e-07 
0 0 -2.230219253e-07 0 0 0 -2.230219253e-07 0 -1.468561326e-07 
-1.318338312e-07 0 0 0 -2.800799596e-07 0 0 0 -2.711424512e-07 
0 0 0 0 0 0 0 0 -1.854186622e-07 
0 0 -2.640814415e-07 0 1.43669589e-07 0 -2.640814415e-07 0 0 
0 0 -2.53123649e-07 0 0 0 -2.53123649e-07 0 0 
0 0 0 0 -1.407908934e-07 0 0 0 0 
6.201321914e-07 -1.255129978e-07 5.906272586e-07 -1.255129978e-07 3.072781652e-07 -3.329936451e-07 5.906272586e-07 -3.329936451e-07 4.224643072e-07 
-2.385939505e-07 0 -3.033325746e-07 0 0 -1.357605456e-07 -3.033325746e-07 -1.357605456e-07 -4.715183903e-07 
0 0 2.373617486e-07 0 0 -3.163611034e-07 2.373617486e-07 -3.163611034e-07 0 
-4.490928558e-07 1.554027775e-07 -5.839591165e-07 1.554027775e-07 -2.978607472e-07 0 -5.839591165e-07 0 -2.278469002e-07 
1.907691205e-07 0 1.43647342e-07 0 0 -2.343770954e-07 1.43647342e-07 -2.343770954e-07 0 
-1.431779792e-07 0 0 0 0 -2.260608245e-07 0 -2.260608245e-07 -1.784881349e-07 
2.861850917e-07 0 4.139945036e-07 0 1.539970496e-07 -3.246773743e-07 4.139945036e-07 -3.246773743e-07 2.685032139e-07 
0 0 0 0 0 -1.194733189e-07 0 -1.194733189e-07 0 
-3.438434031e-07 0 -4.436458456e-07 0 -1.998765154e-07 0 -4.436458456e-07 0 -3.496826453e-07 
-2.484274319e-07 0 -1.732986839e-07 0 -1.485724066e-07 0 -1.732986839e-07 0 0 
-2.778839076e-07 -1.578280195e-07 2.958903074e-07 -1.578280195e-07 -7.242346377e-07 0 2.958903074e-07 0 -3.424988503e-07 
0 0 -2.25279077e-07 0 0 0 -2.25279077e-07 0 0 
0 0 -2.325189916e-07 0 0 0 -2.325189916e-07 0 0 
0 0 -3.255007622e-07 0 3.745211024e-07 0 -3.255007622e-07 0 2.267002173e-07 
-1.467513127e-07 0 0 0 -3.565534937e-07 0 0 0 -2.291110669e-07 
0 0 -2.288990343e-07 0 0 0 -2.288990343e-07 0 0 
-1.775280143e-07 0 0 0 -4.103556832e-07 0 0 0 -2.020202739e-07 
0 0 0 0 -1.748567677e-07 0 0 0 0 
0 0 -2.753899196e-07 0 1.928243763e-07 0 -2.753899196e-07 0 0 
0 0 -2.790098769e-07 0 1.390221869e-07 0 -2.790098769e-07 0 0 
-6.299311278e-07 2.349017401e-07 -2.329199983e-07 2.349017401e-07 -9.229916797e-07 0 -2.329199983e-07 0 -3.68982885e-07 
2.793029861e-07 -1.365736988e-07 -2.684731004e-07 -1.365736988e-07 6.26663585e-07 0 -2.684731004e-07 0 4.323215234e-07 
-3.086981811e-07 1.447706299e-07 2.486185539e-07 1.447706299e-07 -7.243474588e-07 1.207112459e-07 2.486185539e-07 1.207112459e-07 -2.601388016e-07 
5.562032788e-07 -2.438886389e-07 2.053541126e-07 -2.438886389e-07 8.759791947e-07 -2.492475628e-07 2.053541126e-07 -2.492475628e-07 5.294600665e-07 
-1.753140709e-07 0 -2.506965494e-07 0 -1.481640473e-07 0 -2.506965494e-07 0 0 
0 0 0 0 0 0 0 0 0 
-4.693146545e-07 1.89836185e-07 0 1.89836185e-07 -8.236695693e-07 0 0 0 -3.145608433e-07 
0 0 0 0 0 0 0 0 0 
4.177531325e-07 -1.902311688e-07 0 -1.902311688e-07 7.513213899e-07 0 0 0 4.808907949e-07 
1.237525489e-07 0 2.269863333e-07 0 0 0 2.269863333e-07 0 1.346606325e-07 
1.828163908e-07 0 3.520917148e-07 0 0 0 3.520917148e-07 0 0 
0 0 3.824079429e-07 0 0 -1.433497164e-07 3.824079429e-07 -1.433497164e-07 0 
0 0 3.752935119e-07 0 1.70869634e-07 -1.885774719e-07 3.752935119e-07 -1.885774719e-07 0 
-1.561331651e-07 0 -3.086274908e-07 0 -2.960451979e-07 1.309078626e-07 -3.086274908e-07 1.309078626e-07 -1.573154098e-07 
1.247419714e-07 0 3.672498289e-07 0 0 -1.293732117e-07 3.672498289e-07 -1.293732117e-07 0 
0 0 3.788507274e-07 0 0 -1.659635942e-07 3.788507274e-07 -1.659635942e-07 0 
0 0 3.636926134e-07 0 0 -1.519870895e-07 3.636926134e-07 -1.519870895e-07 0 
0 0 0 0 -1.332430276e-07 0 0 0 0 
0 0 0 0 -1.435455719e-07 0 0 0 0 
0 0 0 0 0 0 0 0 0 
0 0 2.541503307e-07 0 -3.262800967e-07 0 2.541503307e-07 0 0 
0 0 -2.052651525e-07 0 0 0 -2.052651525e-07 0 0 
0 0 -1.911332503e-07 0 0 0 -1.911332503e-07 0 0 
0 0 -2.39045077e-07 0 1.498727052e-07 0 -2.39045077e-07 0 1.558557284e-07 
0 0 0 0 -1.692001544e-07 0 0 0 0 
0 0 -1.981992014e-07 0 0 0 -1.981992014e-07 0 0 
0 0 0 0 -1.954925972e-07 0 0 0 0 
0 0 0 0 0 0 0 0 0 
0 0 -2.221551148e-07 0 0 0 -2.221551148e-07 0 0 
0 0 -2.150891637e-07 0 0 0 -2.150891637e-07 0 0 
-1.233903509e-07 0 -2.282716451e-07 0 -2.310731487e-07 0 -2.282716451e-07 0 0 
0 0 1.657924467e-07 0 0 0 1.657924467e-07 0 1.299240463e-07 
-1.784240621e-07 0 -1.770944073e-07 0 0 0 -1.770944073e-07 0 0 
1.920871422e-07 -1.599169298e-07 -2.479766939e-07 -1.599169298e-07 3.186751652e-07 -3.714152683e-07 -2.479766939e-07 -3.714152683e-07 3.317028257e-07 
0 0 0 0 0 0 0 0 0 
0 0 0 0 0 0 0 0 0 
-1.509072065e-07 0 -2.026830262e-07 0 -1.572498005e-07 0 -2.026830262e-07 0 0 
0 0 -2.381241695e-07 0 0 -2.189800624e-07 -2.381241695e-07 -2.189800624e-07 1.636931396e-07 
0 0 0 0 1.840736177e-07 -1.553134891e-07 0 -1.553134891e-07 2.30813436e-07 
0 0 -2.125355506e-07 0 0 -2.398147682e-07 -2.125355506e-07 -2.398147682e-07 1.456094335e-07 
-1.804157607e-07 0 -3.395987988e-07 0 -2.203982835e-07 0 -3.395987988e-07 0 0 
0 0 4.005110597e-07 0 0 0 4.005110597e-07 0 0 
0 0 4.26831985e-07 0 0 0 4.26831985e-07 0 0 
0 0 2.892535476e-07 0 0 0 2.892535476e-07 0 0 
0 0 0 0 0 0 0 0 0 
0 0 4.136715224e-07 0 0 0 4.136715224e-07 0 0 
0 0 0 0 0 0 0 0 0 
0 0 0 0 0 0 0 0 0 
0 0 3.448823037e-07 0 0 0 3.448823037e-07 0 0 
0 0 3.580427663e-07 0 0 0 3.580427663e-07 0 0 
0 0 0 0 0 -2.503720435e-07 0 -2.503720435e-07 0 
0 0 0 0 0 1.903813797e-07 0 1.903813797e-07 0 
0 0 -1.794792871e-07 0 -1.359063783e-07 -2.393325409e-07 -1.794792871e-07 -2.393325409e-07 -1.530867078e-07 
0 0 0 0 0 -2.107584398e-07 0 -2.107584398e-07 0 
0 0 0 0 0 0 0 0 0 
0 0 -1.262836064e-07 0 0 0 -1.262836064e-07 0 0 
0 0 0 0 0 -2.448522922e-07 0 -2.448522922e-07 0 
0 0 0 0 0 -2.305652416e-07 0 -2.305652416e-07 0 
0 0 0 0 0 0 0 0 0 
0 0 0 0 0 -2.250454903e-07 0 -2.250454903e-07 0 
0 0 0 0 0 1.607640379e-07 0 1.607640379e-07 -1.682339057e-07 
0 0 0 0 0 -2.563148739e-07 0 -2.563148739e-07 1.757792186e-07 
0 0 0 0 0 -2.958633471e-07 0 -2.958633471e-07 0 
-1.803124415e-07 0 0 0 -1.590549447e-07 -2.600297061e-07 0 -2.600297061e-07 -3.824868172e-07 
0 0 0 0 0 0 0 0 0 
0 0 0 0 0 -2.760891105e-07 0 -2.760891105e-07 0 
0 0 0 0 0 0 0 0 0 
0 0 0 0 0 0 0 0 -2.753603615e-07 
0 0 0 0 -1.222454538e-07 -2.5817229e-07 0 -2.5817229e-07 0 
0 0 0 0 0 -2.779465266e-07 0 -2.779465266e-07 -1.781016086e-07 
0 0 -2.436836965e-07 0 0 0 -2.436836965e-07 0 0 
0 0 -2.211778353e-07 0 0 0 -2.211778353e-07 0 0 
-1.359241401e-07 0 2.788936818e-07 0 -3.79030807e-07 0 2.788936818e-07 0 -1.79617107e-07 
0 0 -3.348504303e-07 0 3.245414142e-07 0 -3.348504303e-07 0 1.657429241e-07 
0 0 -2.324307659e-07 0 0 0 -2.324307659e-07 0 0 
-1.209614456e-07 0 0 0 -2.288275016e-07 0 0 0 -1.346821125e-07 
0 0 0 0 -1.714113191e-07 0 0 0 0 
0 0 -2.892670634e-07 0 1.803747915e-07 0 -2.892670634e-07 0 0 
0 0 -2.780141328e-07 0 1.22958609e-07 0 -2.780141328e-07 0 0 
0 0 0 0 0 0 0 0 0 
0 0 0 0 0 1.983295223e-07 0 1.983295223e-07 0 
0 0 0 0 0 -1.850811166e-07 0 -1.850811166e-07 1.551170854e-07 
0 0 0 0 0 -2.538142899e-07 0 -2.538142899e-07 -2.848278415e-07 
0 0 0 0 0 -2.929663248e-07 0 -2.929663248e-07 0 
0 0 0 0 0 0 0 0 1.228489463e-07 
0 0 0 0 0 -2.194477032e-07 0 -2.194477032e-07 0 
0 0 0 0 0 0 0 0 0 
0 0 0 0 0 0 0 0 0 
0 0 0 0 0 -2.390237207e-07 0 -2.390237207e-07 0 
0 0 0 0 0 -2.733903074e-07 0 -2.733903074e-07 -1.232663782e-07 
0 0 -2.131741507e-07 0 0 0 -2.131741507e-07 0 0 
0 0 2.431826218e-07 0 -4.034920385e-07 0 2.431826218e-07 0 0 
0 0 -1.783581529e-07 0 0 0 -1.783581529e-07 0 0 
0 0 -2.063387655e-07 0 2.060316726e-07 0 -2.063387655e-07 0 2.058164197e-07 
0 0 0 0 -2.324877513e-07 0 0 0 0 
0 0 0 0 -2.064392303e-07 0 0 0 0 
0 0 -1.957661518e-07 0 0 0 -1.957661518e-07 0 0 
0 0 -2.097564581e-07 0 0 0 -2.097564581e-07 0 0 
0 0 0 0 0 0 0 0 0 
0 0 -1.923484592e-07 0 0 0 -1.923484592e-07 0 0 
0 0 -1.431404754e-07 0 0 0 -1.431404754e-07 0 4.749926681e-07 
0 -2.350588081e-07 -4.102031278e-07 -2.350588081e-07 1.47089794e-07 -2.274919286e-07 -4.102031278e-07 -2.274919286e-07 2.810607781e-07 
0 0 0 0 0 0 0 0 1.902592329e-07 
0 0 0 0 -1.933321087e-07 -2.777193451e-07 0 -2.777193451e-07 -7.587597008e-07 
0 0 -2.766718016e-07 0 0 -1.437283445e-07 -2.766718016e-07 -1.437283445e-07 3.780267231e-07 
0 -1.345282868e-07 -2.020293127e-07 -1.345282868e-07 0 0 -2.020293127e-07 0 2.356600055e-07 
0 0 0 0 0 0 0 0 3.326259505e-07 
0 0 0 0 -1.367806412e-07 -1.688420527e-07 0 -1.688420527e-07 -1.418835163e-07 
0 0 -2.363728579e-07 0 0 -2.526056368e-07 -2.363728579e-07 -2.526056368e-07 -2.388494613e-07 
0 0 0 0 0 0 0 0 -2.842502339e-07 
1.286093254e-07 0 0 0 7.836088803e-07 -5.916559845e-07 0 -5.916559845e-07 3.375259582e-07 
3.844839314e-07 0 4.053259948e-07 0 0 0 4.053259948e-07 0 0 
3.194323087e-07 0 4.809694143e-07 0 0 -1.679657955e-07 4.809694143e-07 -1.679657955e-07 1.555432878e-07 
-2.917805561e-07 0 -2.036864639e-07 0 -4.898753265e-07 2.112273709e-07 -2.036864639e-07 2.112273709e-07 -2.05091546e-07 
2.565466284e-07 0 2.384605931e-07 0 4.070666233e-07 -3.4148612e-07 2.384605931e-07 -3.4148612e-07 2.09558756e-07 
3.5195812e-07 0 4.431477046e-07 0 0 -1.296410254e-07 4.431477046e-07 -1.296410254e-07 0 
2.24020817e-07 0 2.762823029e-07 0 4.483935589e-07 -3.7981089e-07 2.762823029e-07 -3.7981089e-07 2.46534623e-07 
0 0 0 0 1.468667769e-07 -1.902143068e-07 0 -1.902143068e-07 0 
0 0 0 0 -2.2967548e-07 0 0 0 0 
0 0 1.386414752e-07 0 -1.883485444e-07 0 1.386414752e-07 0 0 
0 0 -2.240943877e-07 0 0 0 -2.240943877e-07 0 0 
0 0 0 0 2.335103205e-07 2.306997363e-07 0 2.306997363e-07 0 
0 0 2.369947951e-07 0 -1.985897103e-07 1.246768724e-07 2.369947951e-07 1.246768724e-07 0 
0 0 2.487886308e-07 0 -2.548662756e-07 0 2.487886308e-07 0 0 
0 0 0 0 1.59858987e-07 0 0 0 0 
0 0 1.225860508e-07 0 0 1.776883043e-07 1.225860508e-07 1.776883043e-07 0 
0 0 0 0 0 0 0 0 0 
0 0 0 0 0 0 0 0 0 
0 0 1.284829687e-07 0 0 0 1.284829687e-07 0 0 
0 0 2.42891713e-07 0 -2.267279929e-07 0 2.42891713e-07 0 0 
0 0 1.850219477e-07 0 -1.504291893e-07 0 1.850219477e-07 0 -5.279079556e-07 
-2.400389981e-07 0 0 0 -1.461059878e-07 6.737966104e-07 0 6.737966104e-07 -8.645831559e-07 
0 0 0 0 0 -1.47764854e-07 0 -1.47764854e-07 3.388051173e-07 
0 -1.972672306e-07 -5.62232647e-07 -1.972672306e-07 1.300225073e-07 -6.861671542e-07 -5.62232647e-07 -6.861671542e-07 3.622843688e-07 
-1.52599514e-07 0 0 0 -1.482675886e-07 3.393969284e-07 0 3.393969284e-07 -6.962455557e-07 
0 0 0 0 0 2.630158782e-07 0 2.630158782e-07 -2.628890193e-07 
0 0 0 0 0 0 0 0 0 
0 0 -1.886053496e-07 0 0 -3.405849539e-07 -1.886053496e-07 -3.405849539e-07 0 
-1.666771519e-07 0 -3.3309957e-07 0 0 0 -3.3309957e-07 0 -2.511493936e-07 
0 0 -3.377176702e-07 0 0 -4.169660041e-07 -3.377176702e-07 -4.169660041e-07 3.50544743e-07 
-2.620382247e-07 0 -2.18037639e-07 0 -2.525028478e-07 0 -2.18037639e-07 0 0 
1.470091006e-07 0 4.176733609e-07 0 0 3.395050015e-07 4.176733609e-07 3.395050015e-07 0 
0 0 1.553486898e-07 0 0 0 1.553486898e-07 0 0 
2.245046942e-07 0 2.530673238e-07 0 3.045460636e-07 0 2.530673238e-07 0 2.228691229e-07 
0 0 0 0 0 1.37207687e-07 0 1.37207687e-07 0 
0 0 2.865110253e-07 0 0 2.027766384e-07 2.865110253e-07 2.027766384e-07 0 
-1.593334013e-07 0 0 0 -1.274081563e-07 0 0 0 0 
0 0 0 0 0 0 0 0 0 
1.857568974e-07 0 3.353703423e-07 0 1.773234753e-07 2.197554646e-07 3.353703423e-07 2.197554646e-07 1.488741986e-07 
0 0 2.042080068e-07 0 1.511162994e-07 0 2.042080068e-07 0 1.640015122e-07 
0 0 -1.566209935e-07 0 0 0 -1.566209935e-07 0 0 
0 0 2.774041536e-07 0 -3.983049168e-07 0 2.774041536e-07 0 0 
0 0 -2.034497396e-07 0 0 0 -2.034497396e-07 0 0 
-1.394175143e-07 0 -2.137081792e-07 0 0 0 -2.137081792e-07 0 1.207971495e-07 
0 0 0 0 -1.810377671e-07 0 0 0 0 
0 0 0 0 -1.954866292e-07 0 0 0 0 
0 0 -1.800353666e-07 0 0 0 -1.800353666e-07 0 0 
0 0 -1.851645864e-07 0 0 0 -1.851645864e-07 0 0 
0 0 0 0 -2.143905752e-07 0 0 0 0 
0 0 -2.085789594e-07 0 0 0 -2.085789594e-07 0 0 
-1.645636557e-07 0 -2.012104986e-07 0 -2.239040096e-07 -3.580103705e-07 -2.012104986e-07 -3.580103705e-07 0 
1.884764106e-07 0 0 0 0 1.746681288e-07 0 1.746681288e-07 2.322299174e-07 
0 0 -3.189435387e-07 0 1.357337102e-07 -3.362869139e-07 -3.189435387e-07 -3.362869139e-07 2.814313185e-07 
0 0 -1.612499067e-07 0 0 -2.527464516e-07 -1.612499067e-07 -2.527464516e-07 2.731275911e-07 
0 0 0 0 0 0 0 0 1.67848173e-07 
1.454024485e-07 0 -1.245762666e-07 0 0 0 -1.245762666e-07 0 2.568306179e-07 
0 0 -2.600770186e-07 0 0 -3.471486422e-07 -2.600770186e-07 -3.471486422e-07 1.924488735e-07 
0 0 -1.812302026e-07 0 0 -3.05378411e-07 -1.812302026e-07 -3.05378411e-07 1.882970098e-07 
0 0 0 0 0 0 0 0 2.526787542e-07 
0 0 -2.400967227e-07 0 0 -2.945166827e-07 -2.400967227e-07 -2.945166827e-07 2.772794548e-07 
0 0 4.049980196e-07 0 1.78357878e-07 -1.34363038e-07 4.049980196e-07 -1.34363038e-07 -2.333245539e-07 
0 0 3.285907441e-07 0 1.625638352e-07 -1.503047469e-07 3.285907441e-07 -1.503047469e-07 0 
-3.213159158e-07 0 3.374806549e-07 0 0 0 3.374806549e-07 0 -3.139079715e-07 
-1.927802525e-07 0 -2.567980964e-07 0 -4.292266181e-07 1.253425535e-07 -2.567980964e-07 1.253425535e-07 -3.992804064e-07 
0 0 3.667943818e-07 0 1.704608566e-07 -1.423338925e-07 3.667943818e-07 -1.423338925e-07 -1.508673564e-07 
0 0 3.330356995e-07 0 0 -1.249363843e-07 3.330356995e-07 -1.249363843e-07 -1.911590652e-07 
0 0 3.712393372e-07 0 0 0 3.712393372e-07 0 -2.736162627e-07 
0 0 0 0 -1.2543437e-07 0 0 0 -3.163024802e-07 
0 0 0 0 -1.333313914e-07 0 0 0 -2.338452827e-07 
-2.570480841e-07 0 0 0 -2.654700793e-07 0 0 0 -3.56594189e-07 
1.455393223e-07 0 2.933535644e-07 0 1.487234843e-07 0 2.933535644e-07 0 0 
0 0 4.146156676e-07 0 0 0 4.146156676e-07 0 0 
0 0 4.101167724e-07 0 0 0 4.101167724e-07 0 0 
-1.45894976e-07 0 -3.228463695e-07 0 -1.924681715e-07 0 -3.228463695e-07 0 0 
0 0 3.53984616e-07 0 0 0 3.53984616e-07 0 0 
0 0 4.1236622e-07 0 0 0 4.1236622e-07 0 0 
0 0 3.517351684e-07 0 0 0 3.517351684e-07 0 0 
0 0 0 0 0 0 0 0 0 
0 0 0 0 0 0 0 0 0 
0 0 0 0 0 0 0 0 0 
1.50753244e-07 0 3.131009714e-07 0 0 0 3.131009714e-07 0 0 
4.193055434e-07 0 4.34262905e-07 0 3.40828919e-07 -1.768126938e-07 4.34262905e-07 -1.768126938e-07 2.942037553e-07 
0 -1.905770733e-07 4.042111842e-07 -1.905770733e-07 0 -3.132324621e-07 4.042111842e-07 -3.132324621e-07 0 
-2.164941765e-07 0 -2.822578721e-07 0 -4.292323348e-07 1.329518853e-07 -2.822578721e-07 1.329518853e-07 0 
2.850293937e-07 0 3.736819382e-07 0 2.225446163e-07 -1.246078875e-07 3.736819382e-07 -1.246078875e-07 2.06056453e-07 
1.589138819e-07 0 4.192370446e-07 0 1.288037458e-07 -2.450225779e-07 4.192370446e-07 -2.450225779e-07 1.416822269e-07 
0 -1.233391062e-07 3.586560778e-07 -1.233391062e-07 0 -1.928177716e-07 3.586560778e-07 -1.928177716e-07 0 
0 0 0 0 -1.624860107e-07 0 0 0 0 
0 0 0 0 0 0 0 0 0 
-1.58985978e-07 0 0 0 -2.562268811e-07 0 0 0 0 
-3.722652918e-07 0 -6.178652016e-07 0 -1.646873913e-07 -1.284447527e-06 -6.178652016e-07 -1.284447527e-06 -5.857879409e-07 
6.288018913e-07 1.85879383e-07 0 1.85879383e-07 6.414174707e-07 1.603751634e-06 0 1.603751634e-06 1.205849708e-06 
-2.991013232e-07 0 -1.473065699e-07 0 -3.31337644e-07 -4.956202149e-07 -1.473065699e-07 -4.956202149e-07 -4.359688538e-07 
4.011336627e-07 0 2.411438595e-07 0 2.632354757e-07 5.086663714e-07 2.411438595e-07 5.086663714e-07 5.929145977e-07 
1.282682998e-07 0 -3.078703082e-07 0 2.383650397e-07 1.596520534e-07 -3.078703082e-07 1.596520534e-07 3.100308836e-07 
1.648502841e-07 0 0 0 1.550399133e-07 5.540657096e-07 0 5.540657096e-07 3.849404271e-07 
-3.356833075e-07 0 -3.825858857e-07 0 -2.480125176e-07 -8.900338711e-07 -3.825858857e-07 -8.900338711e-07 -5.108783973e-07 
0 0 -1.883606711e-07 0 0 -3.878905779e-07 -1.883606711e-07 -3.878905779e-07 0 
5.14967777e-07 1.456403342e-07 1.216342223e-07 1.456403342e-07 4.523264732e-07 1.056209003e-06 1.216342223e-07 1.056209003e-06 8.993821529e-07 
0 0 0 0 0 0 0 0 0 
-5.36337488e-07 -2.051244964e-07 3.246275724e-07 -2.051244964e-07 -1.377702929e-06 0 3.246275724e-07 0 -5.1007068e-07 
0 0 -1.192252733e-07 0 0 1.425707844e-07 -1.192252733e-07 1.425707844e-07 1.915663004e-07 
0 0 -1.8715473e-07 0 1.567895644e-07 0 -1.8715473e-07 0 0 
3.468696177e-07 1.604232265e-07 -6.747417961e-07 1.604232265e-07 1.144789899e-06 -2.006345936e-07 -6.747417961e-07 -2.006345936e-07 4.074634412e-07 
-2.314493418e-07 0 0 0 -6.498259952e-07 0 0 0 -1.592521898e-07 
0 0 -1.531900017e-07 0 0 0 -1.531900017e-07 0 1.386438125e-07 
-2.984207225e-07 -1.428570068e-07 0 -1.428570068e-07 -6.104566824e-07 0 0 0 -2.121746777e-07 
0 0 -1.750571118e-07 0 0 -1.410798816e-07 -1.750571118e-07 -1.410798816e-07 0 
2.10154211e-07 0 -3.969835347e-07 0 6.114204191e-07 0 -3.969835347e-07 0 2.995148708e-07 
1.431828304e-07 0 -4.30948263e-07 0 6.507897319e-07 0 -4.30948263e-07 0 2.465923829e-07 
2.688655346e-07 0 3.682794531e-07 0 4.801589333e-07 0 3.682794531e-07 0 0 
2.530670559e-07 0 2.732270299e-07 0 0 -2.394280795e-07 2.732270299e-07 -2.394280795e-07 2.807147456e-07 
2.137717982e-07 0 4.474187494e-07 0 0 -5.961925508e-07 4.474187494e-07 -5.961925508e-07 2.42267269e-07 
-2.105853671e-07 0 -5.6720653e-07 0 -3.271830317e-07 8.418651906e-07 -5.6720653e-07 8.418651906e-07 0 
2.609662953e-07 0 3.207532415e-07 0 2.401511543e-07 0 3.207532415e-07 0 1.699836367e-07 
2.33419427e-07 0 3.603228897e-07 0 0 -4.178103151e-07 3.603228897e-07 -4.178103151e-07 2.614910073e-07 
2.413186664e-07 0 4.078491013e-07 0 2.128541324e-07 -2.839377541e-07 4.078491013e-07 -2.839377541e-07 1.507598984e-07 
0 0 0 0 0 4.350911165e-07 0 4.350911165e-07 0 
0 0 -1.4698975e-07 0 -1.635198282e-07 3.012185555e-07 -1.4698975e-07 3.012185555e-07 1.75124165e-07 
0 0 0 0 -1.908168501e-07 1.228363199e-07 0 1.228363199e-07 1.559004267e-07 
-1.675963481e-07 0 -4.747158744e-07 0 0 0 -4.747158744e-07 0 0 
0 0 0 0 1.21992269e-07 4.798271721e-07 0 4.798271721e-07 0 
1.301330852e-07 2.078606714e-07 7.676944719e-07 2.078606714e-07 -3.137706516e-07 -1.847577259e-07 7.676944719e-07 -1.847577259e-07 2.801455956e-07 
1.877112802e-07 0 0 0 3.248188695e-07 1.882260864e-07 0 1.882260864e-07 0 
0 0 -2.165627135e-07 0 0 2.81473412e-07 -2.165627135e-07 2.81473412e-07 0 
0 1.196447849e-07 4.046424597e-07 1.196447849e-07 0 1.475347231e-07 4.046424597e-07 1.475347231e-07 1.889737023e-07 
0 0 1.464892988e-07 0 -1.875643428e-07 0 1.464892988e-07 0 1.466117941e-07 
0 0 -2.081664835e-07 0 1.317304178e-07 1.356728692e-07 -2.081664835e-07 1.356728692e-07 0 
1.25824743e-07 0 0 0 2.234055693e-07 3.340266293e-07 0 3.340266293e-07 0 
1.589221827e-07 0 4.130386896e-07 0 0 0 4.130386896e-07 0 1.788742392e-07 
-3.34684182e-07 -1.583847529e-07 -2.914117535e-07 -1.583847529e-07 -2.839980459e-07 -6.635344613e-07 -2.914117535e-07 -6.635344613e-07 -1.111238378e-06 
8.162625162e-07 2.983449399e-07 0 2.983449399e-07 1.249274502e-06 0 0 0 5.413650338e-07 
2.054869677e-07 0 -4.231858569e-07 0 6.364301705e-07 0 -4.231858569e-07 0 1.668734734e-07 
-5.796722372e-07 -1.716351774e-07 1.278492349e-07 -1.716351774e-07 -8.963194156e-07 8.864033898e-07 1.278492349e-07 8.864033898e-07 5.993273841e-07 
2.407891671e-07 0 0 0 4.826382279e-07 -3.765321105e-07 0 -3.765321105e-07 -2.849366723e-07 
5.10874742e-07 1.778310985e-07 -1.792586256e-07 1.778310985e-07 9.428523361e-07 0 -1.792586256e-07 0 3.541192536e-07 
0 0 -3.572988052e-07 0 1.762160623e-07 -3.549585105e-07 -3.572988052e-07 -3.549585105e-07 -4.721824525e-07 
-4.571782096e-07 -1.650099651e-07 0 -1.650099651e-07 -5.901587308e-07 0 0 0 -2.559554971e-07 
0 0 0 0 1.76477543e-07 3.984368151e-07 0 3.984368151e-07 5.70346209e-07 
-1.870926347e-07 0 -1.47668311e-07 0 -1.299446226e-07 4.20010415e-07 -1.47668311e-07 4.20010415e-07 3.831004288e-07 
0 0 2.879350056e-07 0 0 0 2.879350056e-07 0 0 
0 0 3.923240563e-07 0 0 0 3.923240563e-07 0 0 
0 0 3.824096588e-07 0 0 0 3.824096588e-07 0 0 
-1.231166962e-07 0 -3.080036875e-07 0 -2.597510277e-07 0 -3.080036875e-07 0 0 
0 0 3.401295309e-07 0 0 0 3.401295309e-07 0 0 
0 0 3.873668575e-07 0 0 0 3.873668575e-07 0 0 
0 0 3.351723322e-07 0 0 0 3.351723322e-07 0 0 
0 0 0 0 0 0 0 0 0 
0 0 0 0 -1.388958037e-07 0 0 0 0 
0 0 0 0 -1.446049234e-07 0 0 0 0 
1.570991236e-07 0 4.014443102e-07 0 2.119015097e-07 -1.342225173e-07 4.014443102e-07 -1.342225173e-07 -1.334891906e-07 
0 0 3.479562156e-07 0 1.368670992e-07 -1.568647248e-07 3.479562156e-07 -1.568647248e-07 0 
-2.122095095e-07 0 3.538341891e-07 0 0 0 3.538341891e-07 0 -2.278276589e-07 
-2.1660176e-07 0 -2.773979374e-07 0 -4.330145063e-07 1.371706189e-07 -2.773979374e-07 1.371706189e-07 -3.561838103e-07 
1.33925442e-07 0 3.747002629e-07 0 1.743843044e-07 -1.455436211e-07 3.747002629e-07 -1.455436211e-07 0 
0 0 3.508952024e-07 0 0 -1.366600293e-07 3.508952024e-07 -1.366600293e-07 -1.342497669e-07 
0 0 3.776392497e-07 0 0 -1.253389255e-07 3.776392497e-07 -1.253389255e-07 -1.806584248e-07 
0 0 0 0 0 0 0 0 -2.448365005e-07 
0 0 0 0 -1.480737035e-07 0 0 0 -1.984278426e-07 
-2.144056348e-07 0 0 0 -2.541035815e-07 0 0 0 -2.920057346e-07 
-2.819030643e-07 -1.19420337e-07 2.878574139e-07 -1.19420337e-07 -5.963412957e-07 0 2.878574139e-07 0 -3.852084956e-07 
0 0 -2.068463047e-07 0 1.427531495e-07 0 -2.068463047e-07 0 -1.573194525e-07 
0 -1.264468946e-07 -2.152177815e-07 -1.264468946e-07 -2.14274695e-07 0 -2.152177815e-07 0 -1.903159986e-07 
1.474052354e-07 0 -2.818365726e-07 0 2.220929701e-07 0 -2.818365726e-07 0 2.609918716e-07 
0 0 0 0 -2.267940731e-07 0 0 0 -2.712639741e-07 
0 0 -2.110320431e-07 0 0 0 -2.110320431e-07 0 -1.738177256e-07 
-1.748449476e-07 -1.229336158e-07 0 -1.229336158e-07 -4.053079954e-07 0 0 0 -2.877622471e-07 
0 0 0 0 -1.871241628e-07 0 0 0 0 
1.220403437e-07 0 -2.443414386e-07 0 1.824230598e-07 0 -2.443414386e-07 0 0 
0 0 -2.48527177e-07 0 0 0 -2.48527177e-07 0 0 
0 0 -2.716150606e-07 0 -3.769096309e-07 0 -2.716150606e-07 0 0 
0 0 3.336782039e-07 0 0 0 3.336782039e-07 0 0 
0 0 3.545332683e-07 0 0 0 3.545332683e-07 0 1.771921112e-07 
0 0 2.887581479e-07 0 0 0 2.887581479e-07 0 -1.939568093e-07 
0 0 0 0 -1.883677032e-07 0 0 0 0 
0 0 3.441057361e-07 0 0 0 3.441057361e-07 0 1.246490828e-07 
0 0 0 0 -1.322689233e-07 0 0 0 0 
0 0 0 0 -1.834467331e-07 0 0 0 0 
0 0 3.112181759e-07 0 0 0 3.112181759e-07 0 0 
0 0 3.216457081e-07 0 0 0 3.216457081e-07 0 0 
5.386168845e-07 -2.060258655e-07 3.62994456e-07 -2.060258655e-07 8.530624414e-07 2.122847093e-07 3.62994456e-07 2.122847093e-07 6.522759639e-07 
0 0 2.452567392e-07 0 -1.270439382e-07 0 2.452567392e-07 0 0 
0 0 2.99472929e-07 0 0 0 2.99472929e-07 0 1.380896959e-07 
-3.031022889e-07 0 -1.745214467e-07 0 -4.420365219e-07 0 -1.745214467e-07 0 -1.374269458e-07 
2.524791913e-07 0 3.041255976e-07 0 3.630092516e-07 1.467428327e-07 3.041255976e-07 1.467428327e-07 3.405369882e-07 
0 0 2.723648341e-07 0 0 0 2.723648341e-07 0 0 
2.789294849e-07 0 3.312336925e-07 0 4.621498695e-07 1.456309796e-07 3.312336925e-07 1.456309796e-07 3.951828299e-07 
0 0 0 0 2.055129598e-07 0 0 0 2.57424509e-07 
-1.683803954e-07 0 0 0 -2.8454023e-07 0 0 0 0 
-1.419301018e-07 0 0 0 -1.853996121e-07 0 0 0 0 
-2.569680912e-07 0 -3.995833843e-07 0 -2.040896375e-07 -1.940411324e-07 -3.995833843e-07 -1.940411324e-07 0 
4.294319035e-07 -1.557059491e-07 0 -1.557059491e-07 3.224388688e-07 2.441240117e-07 0 2.441240117e-07 3.651718074e-07 
-4.008825665e-07 1.425568477e-07 1.805986742e-07 1.425568477e-07 -4.120454114e-07 0 1.805986742e-07 0 0 
2.078148057e-07 0 0 0 2.816406695e-07 -3.858389401e-07 0 -3.858389401e-07 5.396097046e-07 
0 0 -2.33649296e-07 0 0 0 -2.33649296e-07 0 2.213933907e-07 
0 0 0 0 0 1.517448935e-07 0 1.517448935e-07 2.165771079e-07 
-3.289253289e-07 1.254347919e-07 0 1.254347919e-07 -3.080675245e-07 0 0 0 0 
0 0 -1.881735158e-07 0 0 -2.899400363e-07 -1.881735158e-07 -2.899400363e-07 3.086123393e-07 
3.186233546e-07 -1.25364834e-07 0 -1.25364834e-07 3.020397691e-07 0 0 0 4.52390756e-07 
0 0 0 0 0 -1.632365825e-07 0 -1.632365825e-07 3.037960565e-07 
4.041630125e-07 -1.754031366e-07 -1.456166468e-07 -1.754031366e-07 8.019576915e-07 -1.289133804e-07 -1.456166468e-07 -1.289133804e-07 5.135360998e-07 
0 0 -2.536750426e-07 0 -1.460356245e-07 0 -2.536750426e-07 0 2.051473226e-07 
0 0 2.560286162e-07 0 -2.743486743e-07 -3.808522559e-07 2.560286162e-07 -3.808522559e-07 0 
-1.408901021e-07 0 -2.312533821e-07 0 -1.639439224e-07 0 -2.312533821e-07 0 0 
1.821499399e-07 0 -1.996458447e-07 0 3.279610335e-07 0 -1.996458447e-07 0 3.593417112e-07 
0 0 0 0 -2.101921494e-07 -1.489270801e-07 0 -1.489270801e-07 1.514930144e-07 
1.460443189e-07 0 0 0 2.638045086e-07 -2.548828181e-07 0 -2.548828181e-07 3.05687403e-07 
1.316364552e-07 0 -1.884350145e-07 0 3.190068846e-07 0 -1.884350145e-07 0 3.109095558e-07 
0 0 -2.424642123e-07 0 -1.549897734e-07 0 -2.424642123e-07 0 1.567151672e-07 
-1.264822383e-07 0 0 0 -2.191462983e-07 -1.73771541e-07 0 -1.73771541e-07 0 
-2.875676977e-07 0 -1.963217196e-07 0 -4.1461843e-07 0 -1.963217196e-07 0 0 
0 0 2.718061842e-07 0 0 0 2.718061842e-07 0 0 
1.399694399e-07 0 2.890739692e-07 0 0 0 2.890739692e-07 0 1.671987401e-07 
3.826857923e-07 -1.445882674e-07 0 -1.445882674e-07 6.655763054e-07 0 0 0 5.410293108e-07 
-1.619167093e-07 0 0 0 -1.869063227e-07 0 0 0 0 
0 0 2.804400767e-07 0 0 0 2.804400767e-07 0 0 
0 0 0 0 -2.174643095e-07 0 0 0 0 
0 0 0 0 1.254789377e-07 0 0 0 2.204658692e-07 
1.732100356e-07 0 1.668343693e-07 0 3.53191045e-07 0 1.668343693e-07 0 3.021338885e-07 
2.613276161e-07 0 1.754682618e-07 0 3.226330582e-07 0 1.754682618e-07 0 3.541140255e-07 
-3.343148424e-07 0 -1.897506683e-07 0 -4.793491026e-07 0 -1.897506683e-07 0 0 
0 0 2.739926435e-07 0 1.47205569e-07 0 2.739926435e-07 0 1.221885346e-07 
0 0 2.900412279e-07 0 -1.403180576e-07 0 2.900412279e-07 0 1.435858629e-07 
3.91256759e-07 -1.472995563e-07 0 -1.472995563e-07 6.382365044e-07 0 0 0 6.09407979e-07 
-1.680881955e-07 0 0 0 -1.660717668e-07 0 0 0 0 
0 0 2.820169357e-07 0 0 0 2.820169357e-07 0 1.328871987e-07 
-1.565409804e-07 0 0 0 -3.098335801e-07 0 0 0 0 
0 0 0 0 0 0 0 0 2.600160029e-07 
1.946976051e-07 0 1.634842482e-07 0 3.927210367e-07 0 1.634842482e-07 0 3.657982568e-07 
2.062448203e-07 0 1.715085403e-07 0 2.489592234e-07 0 1.715085403e-07 0 3.76496921e-07 
0 0 -1.412344102e-07 0 0 0 -1.412344102e-07 0 1.497980261e-07 
0 0 2.649639457e-07 0 -4.085166679e-07 0 2.649639457e-07 0 0 
0 0 -1.916074598e-07 0 1.461315894e-07 0 -1.916074598e-07 0 1.639854232e-07 
0 0 -1.835013882e-07 0 0 0 -1.835013882e-07 0 2.947157689e-07 
0 0 0 0 -2.481505083e-07 0 0 0 0 
0 0 0 0 -1.311925392e-07 0 0 0 0 
0 0 -1.66420935e-07 0 0 0 -1.66420935e-07 0 1.568917247e-07 
0 0 -1.623678992e-07 0 0 0 -1.623678992e-07 0 2.222568975e-07 
0 0 0 0 -2.259284182e-07 0 0 0 1.481854089e-07 
0 0 -1.87554424e-07 0 0 0 -1.87554424e-07 0 2.293505961e-07 
0 0 3.61790809e-07 0 0 4.386589313e-07 3.61790809e-07 4.386589313e-07 0 
0 0 1.893481263e-07 0 0 0 1.893481263e-07 0 2.781011315e-07 
4.469683932e-07 0 1.869397245e-07 0 1.846015095e-07 0 1.869397245e-07 0 5.355173367e-07 
-4.29076304e-07 1.228723005e-07 -2.64945012e-07 1.228723005e-07 -2.516435197e-07 -1.69143807e-07 -2.64945012e-07 -1.69143807e-07 1.500861782e-07 
0 0 2.755694676e-07 0 0 2.736648397e-07 2.755694676e-07 2.736648397e-07 1.637926466e-07 
2.800783933e-07 0 1.881439254e-07 0 1.35704852e-07 0 1.881439254e-07 0 4.068092341e-07 
1.658006098e-07 0 2.743652667e-07 0 0 2.49125022e-07 2.743652667e-07 2.49125022e-07 2.925007492e-07 
-2.722217388e-07 0 0 0 -1.355554927e-07 1.347575621e-07 0 1.347575621e-07 0 
-1.579439553e-07 0 0 0 0 0 0 0 2.140936549e-07 
0 0 0 0 0 0 0 0 3.428017575e-07 
-2.683796587e-07 0 1.949373514e-07 0 -5.091681053e-07 -2.715989398e-07 1.949373514e-07 -2.715989398e-07 0 
0 0 -2.256737604e-07 0 -1.387045089e-07 0 -2.256737604e-07 0 2.158869824e-07 
6.75752258e-07 -2.890104068e-07 0 -2.890104068e-07 1.202963463e-06 -2.058513394e-07 0 -2.058513394e-07 7.596481655e-07 
-1.550695008e-07 0 -2.435627378e-07 0 -3.26331318e-07 0 -2.435627378e-07 0 1.971683038e-07 
-1.899221633e-07 0 0 0 -3.239363071e-07 0 0 0 1.362705462e-07 
2.821437951e-07 -1.351001284e-07 -1.585047634e-07 -1.351001284e-07 5.321294773e-07 0 -1.585047634e-07 0 4.87767574e-07 
2.036862996e-07 0 0 0 3.46897679e-07 -2.387251396e-07 0 -2.387251396e-07 4.081511378e-07 
-2.117245797e-07 0 0 0 -4.177497117e-07 0 0 0 1.269112069e-07 
-1.332670843e-07 0 -2.346182491e-07 0 -2.325179134e-07 0 -2.346182491e-07 0 2.065276431e-07 
2.603413786e-07 0 -1.674492521e-07 0 4.383160727e-07 0 -1.674492521e-07 0 4.784082347e-07 
-1.246852401e-07 0 -2.13716796e-07 0 -1.958188617e-07 0 -2.13716796e-07 0 1.758096775e-07 
-1.741763806e-07 0 1.558314338e-07 0 -3.184723123e-07 -1.720376101e-07 1.558314338e-07 -1.720376101e-07 0 
2.382383124e-07 0 3.366343728e-07 0 3.381605749e-07 4.328661657e-07 3.366343728e-07 4.328661657e-07 4.097482012e-07 
0 0 2.372887468e-07 0 0 1.404380966e-07 2.372887468e-07 1.404380966e-07 0 
-1.494308104e-07 0 0 0 -2.57145587e-07 0 0 0 0 
0 0 2.462329033e-07 0 0 1.304142778e-07 2.462329033e-07 1.304142778e-07 2.136973938e-07 
0 0 0 0 0 1.895948354e-07 0 1.895948354e-07 2.927789393e-07 
0 0 0 0 0 0 0 0 1.192314841e-07 
0 0 1.965600903e-07 0 -1.518803202e-07 0 1.965600903e-07 0 0 
0 0 2.869615598e-07 0 1.764361234e-07 2.866521311e-07 2.869615598e-07 2.866521311e-07 2.362007459e-07 
0 0 -2.128030717e-07 0 0 0 -2.128030717e-07 0 0 
0 0 2.518756233e-07 0 -3.87024994e-07 0 2.518756233e-07 0 0 
0 0 -1.753887068e-07 0 0 0 -1.753887068e-07 0 1.192537736e-07 
0 0 -2.095144902e-07 0 0 0 -2.095144902e-07 0 2.048285012e-07 
0 0 0 0 -2.316316246e-07 0 0 0 0 
0 0 0 0 -1.404213302e-07 0 0 0 0 
0 0 -1.940958892e-07 0 0 0 -1.940958892e-07 0 0 
0 0 -2.111587809e-07 0 0 0 -2.111587809e-07 0 0 
0 0 0 0 -1.910328392e-07 0 0 0 0 
0 0 -1.924515985e-07 0 0 0 -1.924515985e-07 0 1.620411374e-07 
-1.748368498e-07 0 0 0 -1.471679062e-07 3.120222607e-07 0 3.120222607e-07 1.432585949e-07 
1.725745919e-07 0 9.045634381e-07 0 1.887505863e-07 0 9.045634381e-07 0 2.607750241e-07 
0 0 0 0 0 1.754032291e-07 0 1.754032291e-07 1.558430605e-07 
-2.077659801e-07 0 -4.633193781e-07 0 0 -1.370513474e-07 -4.633193781e-07 -1.370513474e-07 0 
0 0 4.083055751e-07 0 0 1.240079561e-07 4.083055751e-07 1.240079561e-07 2.020168095e-07 
0 0 4.544224888e-07 0 0 0 4.544224888e-07 0 2.083090423e-07 
0 0 0 0 0 2.437127449e-07 0 2.437127449e-07 1.495508277e-07 
-1.913014149e-07 0 -2.75635833e-07 0 0 0 -2.75635833e-07 0 1.268115953e-07 
0 0 2.2062203e-07 0 0 0 2.2062203e-07 0 1.855698099e-07 
0 0 -2.295189193e-07 0 0 0 -2.295189193e-07 0 1.331038281e-07 
0 0 -2.710116605e-07 0 0 -3.098439134e-07 -2.710116605e-07 -3.098439134e-07 1.994181008e-07 
1.910236108e-07 0 -1.996461809e-07 0 0 -1.640753922e-07 -1.996461809e-07 -1.640753922e-07 4.184500432e-07 
-1.214702825e-07 0 -2.43175039e-07 0 0 -1.45634738e-07 -2.43175039e-07 -1.45634738e-07 4.391891329e-07 
0 0 0 0 -3.048527597e-07 0 0 0 2.063516253e-07 
0 0 -2.353289207e-07 0 0 -2.369596528e-07 -2.353289207e-07 -2.369596528e-07 3.08934072e-07 
0 0 -2.214106099e-07 0 0 -1.548550651e-07 -2.214106099e-07 -1.548550651e-07 4.28819588e-07 
0 0 -2.570933497e-07 0 0 -2.277393257e-07 -2.570933497e-07 -2.277393257e-07 3.193036169e-07 
0 0 0 0 -1.509787068e-07 0 0 0 2.028848631e-07 
0 0 0 0 -1.383996686e-07 0 0 0 3.124008342e-07 
0 0 0 0 0 0 0 0 3.227703791e-07 
0 0 -3.177808556e-07 0 0 -4.642052474e-07 -3.177808556e-07 -4.642052474e-07 0 
0 0 -2.332344672e-07 0 0 -1.510452949e-07 -2.332344672e-07 -1.510452949e-07 2.11328046e-07 
0 0 0 0 -2.36081395e-07 1.596409329e-07 0 1.596409329e-07 0 
0 0 -2.42616072e-07 0 0 -1.54655768e-07 -2.42616072e-07 -1.54655768e-07 1.612630641e-07 
0 0 -2.755076614e-07 0 0 -3.076252711e-07 -2.755076614e-07 -3.076252711e-07 1.641240788e-07 
0 0 0 0 -1.194164479e-07 0 0 0 1.427275698e-07 
0 0 0 0 -1.1977492e-07 -1.522821573e-07 0 -1.522821573e-07 0 
0 0 -2.801984638e-07 0 0 -3.094305077e-07 -2.801984638e-07 -3.094305077e-07 1.390915879e-07 
0 0 -2.379252696e-07 0 0 -1.528505315e-07 -2.379252696e-07 -1.528505315e-07 1.862955551e-07 
0 0 0 0 0 0 0 0 0 
0 0 2.548317204e-07 0 0 0 2.548317204e-07 0 0 
0 0 1.555176005e-07 0 1.548659756e-07 6.736743426e-07 1.555176005e-07 6.736743426e-07 4.648162261e-07 
0 0 3.34007677e-07 0 0 0 3.34007677e-07 0 1.324774924e-07 
0 0 -2.215103064e-07 0 0 -2.187390333e-07 -2.215103064e-07 -2.187390333e-07 2.280362334e-07 
0 0 2.051746605e-07 0 0 3.764919086e-07 2.051746605e-07 3.764919086e-07 2.375550431e-07 
0 0 2.447626387e-07 0 0 3.224646027e-07 2.447626387e-07 3.224646027e-07 2.986468592e-07 
0 0 2.944196987e-07 0 0 0 2.944196987e-07 0 0 
0 0 0 0 0 0 0 0 0 
0 0 0 0 0 2.274676547e-07 0 2.274676547e-07 3.464262297e-07 
0 0 0 0 0 -1.237420852e-07 0 -1.237420852e-07 1.802568629e-07 
6.460159698e-07 -2.866845839e-07 1.957654571e-07 -2.866845839e-07 9.994125205e-07 -2.641157734e-07 1.957654571e-07 -2.641157734e-07 6.686653522e-07 
-6.363295539e-07 2.513095794e-07 -2.225997173e-07 2.513095794e-07 -9.210968122e-07 0 -2.225997173e-07 0 -3.445970107e-07 
-2.171371206e-07 0 2.555783986e-07 0 -5.654748981e-07 0 2.555783986e-07 0 -1.683628959e-07 
1.37297877e-07 0 -2.763316913e-07 0 3.370434044e-07 0 -2.763316913e-07 0 3.925627679e-07 
0 0 0 0 0 0 0 0 1.620341708e-07 
-4.267333373e-07 1.695975419e-07 0 1.695975419e-07 -7.432858552e-07 0 0 0 -2.564799533e-07 
2.144394246e-07 0 2.256719278e-07 0 2.169688112e-07 0 2.256719278e-07 0 2.501512281e-07 
3.916569234e-07 -1.716880423e-07 0 -1.716880423e-07 6.682279625e-07 0 0 0 5.306140601e-07 
-2.495158384e-07 0 -2.494657043e-07 0 -2.920267039e-07 0 -2.494657043e-07 0 0 
0 0 0 0 0 0 0 0 0 
-3.072073381e-07 1.528907689e-07 0 1.528907689e-07 -4.645473999e-07 0 0 0 0 
0 0 2.839083454e-07 0 -2.245615119e-07 0 2.839083454e-07 0 0 
6.518498448e-07 -2.954576923e-07 0 -2.954576923e-07 1.117843128e-06 -1.895774207e-07 0 -1.895774207e-07 6.759674213e-07 
-3.910448011e-07 1.496934013e-07 -2.682115261e-07 1.496934013e-07 -3.950317443e-07 1.19825989e-07 -2.682115261e-07 1.19825989e-07 0 
-1.384714575e-07 0 1.840493368e-07 0 -3.445544559e-07 0 1.840493368e-07 0 0 
3.41057134e-07 -1.587650578e-07 0 -1.587650578e-07 4.466408082e-07 0 0 0 3.734279124e-07 
1.723212533e-07 0 0 0 3.266478642e-07 0 0 0 3.485693634e-07 
-3.491260696e-07 1.512920851e-07 0 1.512920851e-07 -4.297895721e-07 0 0 0 0 
-1.80390189e-07 0 0 0 -3.097966281e-07 0 0 0 0 
1.304025218e-07 0 -1.936461441e-07 0 3.61405692e-07 0 -1.936461441e-07 0 3.245454832e-07 
0 0 -1.960901187e-07 0 0 0 -1.960901187e-07 0 1.226957849e-07 
0 0 -1.563461134e-07 0 0 0 -1.563461134e-07 0 1.45327714e-07 
0 0 2.684560071e-07 0 -3.803397675e-07 0 2.684560071e-07 0 0 
-2.022119169e-07 0 -1.987180681e-07 0 -1.848050354e-07 0 -1.987180681e-07 0 1.518647908e-07 
0 0 -1.76218116e-07 0 0 0 -1.76218116e-07 0 1.340117494e-07 
0 0 0 0 -1.800349219e-07 0 0 0 0 
0 0 0 0 -1.355586938e-07 0 0 0 0 
0 0 -1.974040934e-07 0 0 0 -1.974040934e-07 0 1.372802878e-07 
0 0 -1.775320907e-07 0 0 0 -1.775320907e-07 0 1.485962524e-07 
-1.299739825e-07 0 0 0 -2.825724015e-07 0 0 0 0 
0 0 -2.930852438e-07 0 0 -3.775147025e-07 -2.930852438e-07 -3.775147025e-07 1.6395793e-07 
0 0 -2.439921326e-07 0 0 -1.47653453e-07 -2.439921326e-07 -1.47653453e-07 2.233423281e-07 
-1.596664418e-07 0 -2.367936422e-07 0 0 -1.646266277e-07 -2.367936422e-07 -1.646266277e-07 2.660340956e-07 
0 0 0 0 0 1.28259497e-07 0 1.28259497e-07 2.667206012e-07 
0 0 -2.685386882e-07 0 0 -2.625840777e-07 -2.685386882e-07 -2.625840777e-07 1.936501291e-07 
0 0 -2.403928874e-07 0 0 -1.561400403e-07 -2.403928874e-07 -1.561400403e-07 2.446882119e-07 
0 0 -2.64939443e-07 0 0 -2.710706651e-07 -2.64939443e-07 -2.710706651e-07 2.149960128e-07 
0 0 0 0 0 -1.246276028e-07 0 -1.246276028e-07 2.153392656e-07 
0 0 0 0 0 0 0 0 2.450314646e-07 
0 0 0 0 0 0 0 0 2.663773484e-07 
0 0 -2.204397726e-07 0 -1.483934215e-07 0 -2.204397726e-07 0 0 
0 0 1.505068632e-07 0 0 0 1.505068632e-07 0 0 
0 0 3.809462056e-07 0 0 4.269532361e-07 3.809462056e-07 4.269532361e-07 1.963875623e-07 
0 0 2.482375994e-07 0 1.212759275e-07 0 2.482375994e-07 0 0 
0 0 0 0 0 0 0 0 0 
0 0 2.657265344e-07 0 0 1.584557158e-07 2.657265344e-07 1.584557158e-07 1.402122585e-07 
0 0 0 0 0 1.957075663e-07 0 1.957075663e-07 1.518987111e-07 
0 0 0 0 0 0 0 0 0 
0 0 1.993722313e-07 0 0 0 1.993722313e-07 0 0 
0 0 3.145919025e-07 0 0 2.69040042e-07 3.145919025e-07 2.69040042e-07 1.500041997e-07 
-2.751463414e-07 1.417351852e-07 0 1.417351852e-07 -3.440058025e-07 2.087014281e-07 0 2.087014281e-07 0 
0 0 -2.070276824e-07 0 0 -1.356148001e-07 -2.070276824e-07 -1.356148001e-07 1.450230365e-07 
1.554241061e-07 -1.230871716e-07 -3.113581348e-07 -1.230871716e-07 1.248193682e-07 -5.058050019e-07 -3.113581348e-07 -5.058050019e-07 0 
-1.3754063e-07 0 -2.085186254e-07 0 0 -1.473266024e-07 -2.085186254e-07 -1.473266024e-07 0 
0 0 0 0 -1.199604832e-07 0 0 0 0 
1.332889493e-07 0 -2.591929086e-07 0 0 -3.20709901e-07 -2.591929086e-07 -3.20709901e-07 1.236274557e-07 
0 0 -1.276799861e-07 0 0 -1.485517869e-07 -1.276799861e-07 -1.485517869e-07 0 
-2.063434857e-07 0 0 0 -2.208632737e-07 0 0 0 0 
0 0 -2.077731539e-07 0 0 -1.414707013e-07 -2.077731539e-07 -1.414707013e-07 0 
0 0 -2.599383801e-07 0 0 -3.265658022e-07 -2.599383801e-07 -3.265658022e-07 0 
2.043630462e-07 -1.373038473e-07 -2.67883947e-07 -1.373038473e-07 4.642110187e-07 3.650976299e-07 -2.67883947e-07 3.650976299e-07 3.030056493e-07 
0 0 -6.004165648e-07 0 -1.599774654e-07 -2.202592914e-07 -6.004165648e-07 -2.202592914e-07 0 
0 0 2.149862138e-07 0 0 -5.266551234e-07 2.149862138e-07 -5.266551234e-07 -3.513100751e-07 
-2.29197852e-07 1.326617111e-07 0 1.326617111e-07 -2.589292476e-07 0 0 0 1.656316867e-07 
0 0 -4.341502559e-07 0 1.521167767e-07 0 -4.341502559e-07 0 0 
0 0 -1.927151755e-07 0 0 -3.734572074e-07 -1.927151755e-07 -3.734572074e-07 -2.088842717e-07 
1.454201896e-07 0 0 0 1.970984252e-07 0 0 0 0 
0 0 -1.913164818e-07 0 0 1.893293672e-07 -1.913164818e-07 1.893293672e-07 2.34318668e-07 
-1.210124159e-07 0 -3.575827907e-07 0 -2.094533565e-07 0 -3.575827907e-07 0 0 
0 0 0 0 -1.644717079e-07 -2.565470095e-07 0 -2.565470095e-07 0 
-2.036678396e-07 0 -1.816997781e-07 0 0 -2.78883887e-07 -1.816997781e-07 -2.78883887e-07 0 
2.098704808e-07 0 2.052825224e-07 0 3.820790722e-07 -4.911274756e-07 2.052825224e-07 -4.911274756e-07 1.708467129e-07 
-2.575694564e-07 2.097892656e-07 -1.226110412e-07 2.097892656e-07 -2.451657737e-07 6.892514958e-07 -1.226110412e-07 6.892514958e-07 0 
3.409736791e-07 -2.591977234e-07 -3.394768893e-07 -2.591977234e-07 6.185691289e-07 -2.680231204e-07 -3.394768893e-07 -2.680231204e-07 3.320144259e-07 
0 0 0 0 1.336506237e-07 -3.850056813e-07 0 -3.850056813e-07 0 
0 0 0 0 0 0 0 0 0 
-2.30618648e-07 1.302832619e-07 -1.521554097e-07 1.302832619e-07 -1.799717992e-07 2.051838044e-07 -1.521554097e-07 2.051838044e-07 0 
0 0 -2.605883337e-07 0 2.518956521e-07 -2.734535037e-07 -2.605883337e-07 -2.734535037e-07 0 
2.754220799e-07 -1.794907688e-07 0 -1.794907688e-07 5.003241005e-07 -3.79575298e-07 0 -3.79575298e-07 2.514305694e-07 
0 0 -2.310439653e-07 0 1.867016776e-07 2.106141877e-07 -2.310439653e-07 2.106141877e-07 1.342610213e-07 
0 0 4.273830671e-07 0 -1.566735284e-07 3.849347708e-07 4.273830671e-07 3.849347708e-07 0 
1.509954086e-07 0 1.724810188e-07 0 1.950827488e-07 1.35266687e-07 1.724810188e-07 1.35266687e-07 1.459045207e-07 
1.893188357e-07 0 1.953079148e-07 0 1.547585564e-07 0 1.953079148e-07 0 2.328925631e-07 
-2.282070792e-07 0 -2.763197157e-07 0 -2.091910487e-07 -1.310633957e-07 -2.763197157e-07 -1.310633957e-07 0 
0 0 2.99932043e-07 0 0 2.601007289e-07 2.99932043e-07 2.601007289e-07 0 
1.701571221e-07 0 1.838944668e-07 0 1.749206526e-07 0 1.838944668e-07 0 1.893985419e-07 
0 0 3.11345491e-07 0 0 2.347526819e-07 3.11345491e-07 2.347526819e-07 0 
-1.461385338e-07 0 0 0 -1.829322885e-07 1.269356876e-07 0 1.269356876e-07 0 
0 0 0 0 0 0 0 0 0 
0 0 0 0 0 0 0 0 0 
3.500467305e-07 0 3.051205183e-07 0 3.795404896e-07 -2.019717731e-07 3.051205183e-07 -2.019717731e-07 3.92727974e-07 
-6.312096937e-07 2.144858038e-07 -3.333681776e-07 2.144858038e-07 -9.9980469e-07 1.421319039e-07 -3.333681776e-07 1.421319039e-07 -4.293768153e-07 
-1.503441777e-07 0 1.205018881e-07 0 0 0 1.205018881e-07 0 0 
3.063688336e-07 -2.247200703e-07 -4.368890163e-07 -2.247200703e-07 5.651238821e-07 0 -4.368890163e-07 0 3.555352835e-07 
-1.405814816e-07 0 0 0 -3.101321002e-07 0 0 0 0 
-3.907769357e-07 1.629868456e-07 0 1.629868456e-07 -5.435902767e-07 0 0 0 -2.69174191e-07 
0 0 2.128112032e-07 0 1.460823131e-07 0 2.128112032e-07 0 1.418782036e-07 
3.282077821e-07 -1.644795667e-07 0 -1.644795667e-07 4.723321858e-07 0 0 0 3.741316288e-07 
-1.6242043e-07 0 -3.851285969e-07 0 -2.17340404e-07 0 -3.851285969e-07 0 0 
0 0 -1.581935641e-07 0 2.388740093e-07 0 -1.581935641e-07 0 1.232818584e-07 
0 1.23148256e-07 2.251852595e-07 1.23148256e-07 -1.782777391e-07 5.734261621e-07 2.251852595e-07 5.734261621e-07 0 
1.33926575e-07 0 0 0 1.906670539e-07 -4.547448143e-07 0 -4.547448143e-07 0 
-1.846381159e-07 0 -1.883268517e-07 0 0 -1.999850788e-07 -1.883268517e-07 -1.999850788e-07 0 
0 0 -1.995697367e-07 0 0 0 -1.995697367e-07 0 1.280852367e-07 
0 0 0 0 0 0 0 0 0 
0 0 -1.441772811e-07 0 0 -3.273649465e-07 -1.441772811e-07 -3.273649465e-07 0 
-1.415014708e-07 0 0 0 -1.423565862e-07 1.867205417e-07 0 1.867205417e-07 0 
0 0 0 0 -1.344077341e-07 3.297526364e-07 0 3.297526364e-07 0 
0 0 -1.497987236e-07 0 0 -1.843328518e-07 -1.497987236e-07 -1.843328518e-07 0 
0 0 -1.939482942e-07 0 0 0 -1.939482942e-07 0 0 
-5.037841307e-07 1.743766566e-07 -2.92773887e-07 1.743766566e-07 -5.755971923e-07 1.487924553e-07 -2.92773887e-07 1.487924553e-07 -2.072002184e-07 
5.767556403e-07 -2.773052097e-07 -1.231166755e-07 -2.773052097e-07 1.006585984e-06 -1.906427309e-07 -1.231166755e-07 -1.906427309e-07 5.808980148e-07 
2.068120613e-07 0 2.94842465e-07 0 0 0 2.94842465e-07 0 1.864982784e-07 
-3.093906491e-07 1.51078846e-07 0 1.51078846e-07 -4.98256814e-07 0 0 0 0 
0 0 -2.079452813e-07 0 2.154943956e-07 0 -2.079452813e-07 0 1.868488982e-07 
3.917838508e-07 -1.736886864e-07 0 -1.736886864e-07 5.517254223e-07 0 0 0 3.836981466e-07 
-1.484860347e-07 0 0 0 -2.393661656e-07 0 0 0 0 
-4.065873899e-07 1.627277513e-07 0 1.627277513e-07 -5.369270031e-07 0 0 0 -1.350572303e-07 
1.336824956e-07 0 0 0 2.541645848e-07 0 0 0 2.589918864e-07 
0 0 1.977666788e-07 0 -2.006959765e-07 0 1.977666788e-07 0 0 
-2.042374348e-07 0 -2.286470645e-07 0 -1.818493552e-07 0 -2.286470645e-07 0 0 
0 0 -2.360928254e-07 0 0 0 -2.360928254e-07 0 1.506576827e-07 
2.697412268e-07 -1.357663338e-07 -1.691592551e-07 -1.357663338e-07 5.592487537e-07 0 -1.691592551e-07 0 3.67184744e-07 
0 0 2.72892271e-07 0 -2.23781092e-07 -3.84814908e-07 2.72892271e-07 -3.84814908e-07 0 
0 0 -2.323699449e-07 0 -1.334930102e-07 0 -2.323699449e-07 0 0 
1.38078057e-07 0 -2.026260402e-07 0 2.370560443e-07 0 -2.026260402e-07 0 2.589212134e-07 
0 0 -1.989031598e-07 0 1.886996992e-07 0 -1.989031598e-07 0 1.753444794e-07 
-1.483843297e-07 0 0 0 -2.028152236e-07 -1.889100884e-07 0 -1.889100884e-07 0 
0 0 0 0 -1.544588786e-07 -1.722240977e-07 0 -1.722240977e-07 0 
0 0 0 0 1.677338308e-07 -2.370501018e-07 0 -2.370501018e-07 2.037042225e-07 
0 0 0 0 0 4.410082162e-07 0 4.410082162e-07 2.286811911e-07 
4.357197334e-07 -2.647179115e-07 9.219218175e-07 -2.647179115e-07 0 -2.357995669e-06 9.219218175e-07 -2.357995669e-06 4.74750335e-07 
-8.163946262e-07 2.954800523e-07 -9.52621618e-07 2.954800523e-07 -7.476136768e-07 1.311839731e-06 -9.52621618e-07 1.311839731e-06 -6.952319067e-07 
4.498358046e-07 -1.779336423e-07 0 -1.779336423e-07 5.133169195e-07 1.833681676e-07 0 1.833681676e-07 4.620750656e-07 
2.732092494e-07 0 4.389219068e-07 0 0 -9.584937266e-07 4.389219068e-07 -9.584937266e-07 3.51715763e-07 
-1.903374464e-07 0 0 0 -3.308481493e-07 -5.230779694e-07 0 -5.230779694e-07 0 
-3.528479304e-07 1.861696369e-07 -4.98349811e-07 1.861696369e-07 -3.582797253e-07 8.764239734e-07 -4.98349811e-07 8.764239734e-07 -2.332753578e-07 
2.80267285e-07 0 0 0 2.721855729e-07 3.121881919e-07 0 3.121881919e-07 3.453781283e-07 
4.42777769e-07 -2.213257769e-07 5.032743876e-07 -2.213257769e-07 2.996171489e-07 -1.087313751e-06 5.032743876e-07 -1.087313751e-06 4.684127003e-07 
-1.832794108e-07 0 -4.339973302e-07 0 0 7.476039491e-07 -4.339973302e-07 7.476039491e-07 0 
-2.237733457e-07 0 -1.342952559e-07 0 -3.977503351e-07 1.72166512e-07 -1.342952559e-07 1.72166512e-07 -1.676677287e-07 
4.20264526e-07 -2.874085438e-07 4.926894181e-07 -2.874085438e-07 4.952695232e-07 -1.253085319e-07 4.926894181e-07 -1.253085319e-07 2.190008625e-07 
0 1.749148205e-07 4.075962625e-07 1.749148205e-07 -3.946377553e-07 -1.347595143e-07 4.075962625e-07 -1.347595143e-07 0 
1.358582454e-07 0 1.954095317e-07 0 0 2.932417405e-07 1.954095317e-07 2.932417405e-07 0 
0 -2.004734943e-07 1.791970811e-07 -2.004734943e-07 0 0 1.791970811e-07 0 0 
1.810988316e-07 0 4.501428403e-07 0 0 -1.300340231e-07 4.501428403e-07 -1.300340231e-07 0 
-1.409201042e-07 0 1.366505033e-07 0 -3.961940452e-07 0 1.366505033e-07 0 -1.330462532e-07 
0 0 0 0 -2.050846134e-07 2.327041263e-07 0 2.327041263e-07 0 
2.780613857e-07 -1.240713505e-07 3.440494749e-07 -1.240713505e-07 2.414253158e-07 0 3.440494749e-07 0 0 
0 0 3.015028971e-07 0 -2.035283235e-07 0 3.015028971e-07 0 0 
1.598273801e-07 0 3.312648766e-07 0 1.951263241e-07 0 3.312648766e-07 0 1.384820343e-07 
1.424730297e-07 1.244957112e-07 4.752816495e-07 1.244957112e-07 0 -1.363937386e-07 4.752816495e-07 -1.363937386e-07 0 
0 0 4.264121583e-07 0 0 0 4.264121583e-07 0 0 
0 0 -3.284133733e-07 0 0 0 -3.284133733e-07 0 0 
1.511502049e-07 0 4.032732631e-07 0 0 0 4.032732631e-07 0 0 
0 0 4.508469039e-07 0 0 0 4.508469039e-07 0 0 
0 0 3.788385174e-07 0 0 0 3.788385174e-07 0 0 
0 0 0 0 0 0 0 0 0 
0 0 0 0 0 0 0 0 0 
0 0 0 0 0 0 0 0 0 
-2.590580694e-07 0 -1.908341603e-07 0 -3.551304405e-07 0 -1.908341603e-07 0 0 
0 0 2.631434078e-07 0 0 0 2.631434078e-07 0 0 
1.325728366e-07 0 2.913815196e-07 0 0 0 2.913815196e-07 0 0 
2.951781762e-07 0 0 0 5.067464075e-07 0 0 0 3.946234536e-07 
-1.426560066e-07 0 0 0 -1.81660758e-07 0 0 0 0 
0 0 2.772624637e-07 0 0 0 2.772624637e-07 0 0 
0 0 0 0 -2.045045757e-07 0 0 0 0 
0 0 0 0 0 0 0 0 1.443112416e-07 
1.344621162e-07 0 1.661332451e-07 0 2.49277666e-07 0 1.661332451e-07 0 2.144890975e-07 
2.138755064e-07 0 1.802523009e-07 0 2.264338482e-07 0 1.802523009e-07 0 2.560375877e-07 
0 0 -3.035159419e-07 0 -2.318258537e-07 0 -3.035159419e-07 0 0 
0 0 3.542415419e-07 0 0 0 3.542415419e-07 0 0 
0 0 3.879842217e-07 0 0 0 3.879842217e-07 0 0 
0 0 2.97914857e-07 0 0 0 2.97914857e-07 0 -1.536637065e-07 
0 0 0 0 -1.241044825e-07 0 0 0 0 
0 0 3.711128818e-07 0 0 0 3.711128818e-07 0 0 
0 0 0 0 -1.361857547e-07 0 0 0 0 
0 0 0 0 -1.398767142e-07 0 0 0 0 
0 0 3.260781994e-07 0 0 0 3.260781994e-07 0 0 
0 0 3.429495393e-07 0 0 0 3.429495393e-07 0 0 
-3.274080983e-07 0 -3.049909635e-07 0 -5.71614991e-07 1.806761721e-07 -3.049909635e-07 1.806761721e-07 -3.058029718e-07 
0 0 3.802795813e-07 0 0 -1.464927103e-07 3.802795813e-07 -1.464927103e-07 0 
2.29648741e-07 0 3.498514481e-07 0 0 -2.003213202e-07 3.498514481e-07 -2.003213202e-07 0 
3.773411194e-07 0 3.853026671e-07 0 5.200534939e-07 0 3.853026671e-07 0 0 
-2.023781403e-07 0 0 0 -3.437060518e-07 0 0 0 -1.978909609e-07 
0 0 3.650655147e-07 0 0 -1.734070152e-07 3.650655147e-07 -1.734070152e-07 0 
0 0 0 0 -2.495929357e-07 0 0 0 0 
0 0 0 0 0 0 0 0 0 
1.499964686e-07 0 3.827911242e-07 0 2.021281906e-07 -1.256159723e-07 3.827911242e-07 -1.256159723e-07 0 
3.034949302e-07 0 3.675770576e-07 0 2.962413067e-07 -1.525302772e-07 3.675770576e-07 -1.525302772e-07 0 
-2.345585382e-07 0 0 0 -1.527893075e-07 -3.693569595e-07 0 -3.693569595e-07 0 
0 0 1.995564876e-07 0 0 -3.447235566e-07 1.995564876e-07 -3.447235566e-07 0 
0 0 1.312847649e-07 0 0 -4.004504712e-07 1.312847649e-07 -4.004504712e-07 0 
1.22274763e-07 0 0 0 0 2.631311614e-07 0 2.631311614e-07 0 
0 0 0 0 0 -3.57040258e-07 0 -3.57040258e-07 0 
0 0 1.654206262e-07 0 0 -3.725870139e-07 1.654206262e-07 -3.725870139e-07 0 
-1.265806958e-07 0 0 0 0 -3.849037153e-07 0 -3.849037153e-07 0 
0 0 0 0 0 0 0 0 0 
0 0 0 0 0 0 0 0 0 
0 0 0 0 0 0 0 0 0 
0 0 -1.742228336e-07 0 0 4.810411589e-07 -1.742228336e-07 4.810411589e-07 -2.771386838e-07 
0 0 2.933413176e-07 0 1.966021831e-07 -1.993302902e-07 2.933413176e-07 -1.993302902e-07 -1.472360215e-07 
0 0 2.851020671e-07 0 -1.492331617e-07 -2.349667795e-07 2.851020671e-07 -2.349667795e-07 -1.948217152e-07 
0 0 0 0 0 0 0 0 0 
0 0 0 0 0 1.408554344e-07 0 1.408554344e-07 -2.121873526e-07 
0 0 2.892216924e-07 0 0 -2.171485348e-07 2.892216924e-07 -2.171485348e-07 -1.710288683e-07 
0 0 0 0 0 1.230371897e-07 0 1.230371897e-07 -2.359801995e-07 
0 0 0 0 0 2.113583047e-07 0 2.113583047e-07 -1.93910488e-07 
0 0 1.686656637e-07 0 0 -1.288274199e-07 1.686656637e-07 -1.288274199e-07 -1.289591569e-07 
0 0 1.645460385e-07 0 0 -1.466456646e-07 1.645460385e-07 -1.466456646e-07 -1.527520037e-07 
0 0 2.836730048e-07 0 0 0 2.836730048e-07 0 0 
0 0 3.66901223e-07 0 0 0 3.66901223e-07 0 0 
0 0 3.530334362e-07 0 0 0 3.530334362e-07 0 0 
0 0 -2.845594227e-07 0 -2.45925363e-07 0 -2.845594227e-07 0 0 
0 0 3.252871139e-07 0 0 0 3.252871139e-07 0 0 
0 0 3.599673296e-07 0 0 0 3.599673296e-07 0 0 
0 0 3.183532205e-07 0 0 0 3.183532205e-07 0 0 
0 0 0 0 0 0 0 0 0 
0 0 0 0 0 0 0 0 0 
0 0 0 0 -1.692016055e-07 0 0 0 0 
-2.376996774e-07 0 0 0 0 -3.750460282e-07 0 -3.750460282e-07 2.783121549e-07 
1.779456386e-07 0 0 0 1.335472726e-07 6.524791716e-07 0 6.524791716e-07 1.59036063e-07 
1.559454161e-07 0 0 0 0 2.761290246e-07 0 2.761290246e-07 -1.903099394e-07 
-1.922057358e-07 0 0 0 0 3.034137681e-07 0 3.034137681e-07 2.743492702e-07 
0 0 0 0 0 1.387165717e-07 0 1.387165717e-07 2.18674109e-07 
1.669455273e-07 0 0 0 0 4.643040981e-07 0 4.643040981e-07 0 
0 0 0 0 0 0 0 0 0 
-2.149527066e-07 0 0 0 0 0 0 0 2.763307126e-07 
0 0 0 0 0 4.779464698e-07 0 4.779464698e-07 2.166926666e-07 
0 0 0 0 0 2.897713963e-07 0 2.897713963e-07 0 
0 0 -2.326990139e-07 0 0 2.590370174e-07 -2.326990139e-07 2.590370174e-07 -2.029501356e-07 
0 0 0 0 0 6.61483608e-07 0 6.61483608e-07 0 
-2.281766595e-07 0 1.286379471e-07 0 0 -3.702555525e-07 1.286379471e-07 -3.702555525e-07 2.756351998e-07 
0 0 0 0 0 -3.949577541e-07 0 -3.949577541e-07 -2.226244554e-07 
0 0 -1.254193919e-07 0 0 4.602603127e-07 -1.254193919e-07 4.602603127e-07 0 
0 0 0 0 0 1.456140278e-07 0 1.456140278e-07 1.934328278e-07 
0 0 0 0 0 0 0 0 0 
0 0 0 0 0 0 0 0 -2.127872955e-07 
0 0 0 0 0 1.33262927e-07 0 1.33262927e-07 0 
0 0 0 0 0 -3.826066533e-07 0 -3.826066533e-07 0 
0 0 0 0 0 3.085463793e-07 0 3.085463793e-07 -1.876480549e-07 
0 0 0 0 0 -3.493822312e-07 0 -3.493822312e-07 1.264935661e-07 
1.254694814e-07 0 0 0 0 -3.837268162e-07 0 -3.837268162e-07 3.852604285e-07 
0 0 0 0 0 2.915413922e-07 0 2.915413922e-07 3.387685219e-07 
0 0 0 0 0 0 0 0 0 
0 0 0 0 0 -3.665545237e-07 0 -3.665545237e-07 2.558769973e-07 
0 0 0 0 0 0 0 0 0 
0 0 0 0 0 3.000438858e-07 0 3.000438858e-07 0 
0 0 0 0 0 0 0 0 2.32631044e-07 
0 0 0 0 0 0 0 0 3.620144752e-07 
1.354142821e-07 0 1.422428902e-07 0 0 -3.789325601e-07 1.422428902e-07 -3.789325601e-07 3.851775039e-07 
1.793372879e-07 0 0 0 0 -3.4335896e-07 0 -3.4335896e-07 2.460987863e-07 
-2.015759417e-07 0 -1.985568605e-07 0 0 2.852513283e-07 -1.985568605e-07 2.852513283e-07 -2.245919726e-07 
0 0 1.550020491e-07 0 0 -3.439714647e-07 1.550020491e-07 -3.439714647e-07 -1.2105461e-07 
1.57375785e-07 0 1.245254311e-07 0 0 -3.611457601e-07 1.245254311e-07 -3.611457601e-07 3.156381451e-07 
0 0 0 0 0 0 0 0 0 
0 0 0 0 0 0 0 0 0 
0 0 1.486224696e-07 0 0 -3.614520124e-07 1.486224696e-07 -3.614520124e-07 1.320614469e-07 
0 0 1.309050106e-07 0 0 -3.436652124e-07 1.309050106e-07 -3.436652124e-07 0 
-1.391332829e-07 0 0 0 0 0 0 0 -1.728232913e-07 
1.580396614e-07 0 0 0 0 -3.718132572e-07 0 -3.718132572e-07 2.124030108e-07 
1.869354094e-07 0 2.231735169e-07 0 0 -3.257115455e-07 2.231735169e-07 -3.257115455e-07 4.900691829e-07 
-1.6464876e-07 0 7.619481648e-07 0 0 7.780120455e-07 7.619481648e-07 7.780120455e-07 -1.700499383e-07 
-1.8649631e-07 0 -6.37535784e-07 0 -1.821961471e-07 -6.040658424e-07 -6.37535784e-07 -6.040658424e-07 -2.365948818e-07 
1.724875354e-07 0 0 0 0 -3.487624013e-07 0 -3.487624013e-07 3.512360969e-07 
0 0 4.925608408e-07 0 0 2.2615025e-07 4.925608408e-07 2.2615025e-07 1.600096223e-07 
0 0 3.885560614e-07 0 0 2.030993941e-07 3.885560614e-07 2.030993941e-07 0 
0 0 -3.11185913e-07 0 0 -4.879395498e-07 -3.11185913e-07 -4.879395498e-07 0 
0 0 -2.071811336e-07 0 0 -4.64888694e-07 -2.071811336e-07 -4.64888694e-07 1.267371505e-07 
-1.75572535e-07 0 0 0 0 0 0 0 -2.033224101e-07 
-1.902996736e-07 0 0 0 0 6.91608285e-07 0 6.91608285e-07 -1.896450434e-07 
0 0 0 0 0 -3.38556087e-07 0 -3.38556087e-07 3.816353786e-07 
1.712510974e-07 0 0 0 0 -3.682923378e-07 0 -3.682923378e-07 2.199936793e-07 
0 0 0 0 0 2.861235587e-07 0 2.861235587e-07 2.001243278e-07 
-1.306560012e-07 0 0 0 0 1.76526099e-07 0 1.76526099e-07 0 
0 0 0 0 0 -3.534242124e-07 0 -3.534242124e-07 3.008145289e-07 
0 0 0 0 0 1.616579736e-07 0 1.616579736e-07 0 
0 0 0 0 0 4.888659218e-07 0 4.888659218e-07 0 
0 0 0 0 0 0 0 0 2.908798532e-07 
1.352564375e-07 0 0 0 0 0 0 0 2.100590036e-07 
2.74312626e-07 0 7.804896809e-07 0 2.476308847e-07 7.820171141e-07 7.804896809e-07 7.820171141e-07 0 
-3.314114928e-07 -1.420751821e-07 -4.73650085e-07 -1.420751821e-07 -1.224274258e-07 1.892883814e-07 -4.73650085e-07 1.892883814e-07 -1.738817078e-07 
-2.37496697e-07 0 0 0 -1.653769092e-07 -3.596269328e-07 0 -3.596269328e-07 0 
3.364587096e-07 0 -3.702330901e-07 0 1.572019833e-07 -4.949143217e-07 -3.702330901e-07 -4.949143217e-07 2.049165598e-07 
0 0 1.534197979e-07 0 0 4.856527478e-07 1.534197979e-07 4.856527478e-07 0 
-2.844540949e-07 0 -2.286580745e-07 0 -1.439021675e-07 0 -2.286580745e-07 0 0 
0 0 3.984118085e-07 0 0 2.111950907e-07 3.984118085e-07 2.111950907e-07 0 
3.053856678e-07 0 2.051282954e-07 0 2.02416434e-07 1.435513962e-07 2.051282954e-07 1.435513962e-07 0 
0 0 -4.219415875e-07 0 0 -1.528129702e-07 -4.219415875e-07 -1.528129702e-07 0 
0 0 -1.76949577e-07 0 0 -4.272706272e-07 -1.76949577e-07 -4.272706272e-07 1.379828542e-07 
-2.423661657e-07 0 0 0 -1.549537182e-07 -3.520733032e-07 0 -3.520733032e-07 0 
2.725810813e-07 0 0 0 2.050038988e-07 2.751501796e-07 0 2.751501796e-07 1.698007536e-07 
1.943724693e-07 0 -1.995773849e-07 0 1.260795935e-07 6.28115195e-07 -1.995773849e-07 6.28115195e-07 -1.630022016e-07 
-1.959172938e-07 0 0 0 0 2.767462389e-07 0 2.767462389e-07 0 
0 0 0 0 0 0 0 0 1.238006629e-07 
2.334767753e-07 0 0 0 1.655417462e-07 4.516326873e-07 0 4.516326873e-07 0 
0 0 0 0 0 1.380209459e-07 0 1.380209459e-07 0 
-2.191417298e-07 0 0 0 0 0 0 0 0 
0 0 0 0 0 2.759482092e-07 0 2.759482092e-07 0 
0 0 -1.499671447e-07 0 0 4.52430717e-07 -1.499671447e-07 4.52430717e-07 0 
-8.359697697e-07 -3.093484187e-07 0 -3.093484187e-07 -8.990832034e-07 -3.586147336e-07 0 -3.586147336e-07 -7.446011693e-07 
0 0 -9.009555154e-07 0 0 -1.959507869e-07 -9.009555154e-07 -1.959507869e-07 0 
1.697713016e-07 1.969934124e-07 0 1.969934124e-07 3.657192647e-07 -2.968193698e-07 0 -2.968193698e-07 -1.890143824e-07 
4.756928314e-07 2.183564752e-07 1.353150852e-06 2.183564752e-07 4.767690154e-07 1.082744344e-06 1.353150852e-06 1.082744344e-06 0 
-3.855794047e-07 -1.856414413e-07 -4.820898822e-07 -1.856414413e-07 -4.376411492e-07 -2.772827603e-07 -4.820898822e-07 -2.772827603e-07 -4.224210343e-07 
0 0 -4.464183666e-07 0 1.947600848e-07 -2.463850783e-07 -4.464183666e-07 -2.463850783e-07 -1.446276409e-07 
-3.330992341e-07 0 0 0 -2.666819693e-07 -3.277170517e-07 0 -3.277170517e-07 -4.668077759e-07 
-1.801384692e-07 0 6.449633012e-07 0 -2.11157094e-07 3.620648051e-07 6.449633012e-07 3.620648051e-07 -3.742208838e-07 
2.702518958e-07 0 2.260976681e-07 0 2.502849602e-07 4.433967784e-07 2.260976681e-07 4.433967784e-07 0 
3.227320665e-07 2.076749438e-07 6.806348168e-07 2.076749438e-07 4.212441401e-07 3.92962487e-07 6.806348168e-07 3.92962487e-07 0 
4.643358877e-07 2.120106263e-07 0 2.120106263e-07 2.638121375e-07 -3.755327171e-07 0 -3.755327171e-07 -1.312315167e-07 
-1.916002705e-07 -1.283565672e-07 -1.597482351e-07 -1.283565672e-07 0 4.616137217e-07 -1.597482351e-07 4.616137217e-07 -2.116194016e-07 
3.484204006e-07 1.517451054e-07 2.502831356e-07 1.517451054e-07 2.239137999e-07 0 2.502831356e-07 0 0 
-7.414387877e-07 -1.960765647e-07 0 -1.960765647e-07 -4.588851605e-07 0 0 0 -4.324779723e-07 
1.363678086e-07 0 -1.201710156e-07 0 0 0 -1.201710156e-07 0 -1.714254592e-07 
0 0 0 0 0 1.905639979e-07 0 1.905639979e-07 -1.319768177e-07 
4.063781441e-07 1.818778659e-07 0 1.818778659e-07 2.438629687e-07 -2.280092215e-07 0 -2.280092215e-07 0 
-1.3855145e-07 0 0 0 0 -2.438765492e-07 0 -2.438765492e-07 -2.818547445e-07 
-4.665195291e-07 -1.622165659e-07 0 -1.622165659e-07 -2.75167467e-07 1.746966701e-07 0 1.746966701e-07 -3.220486869e-07 
-1.965091936e-07 0 1.728877564e-07 0 0 0 1.728877564e-07 0 -2.424061031e-07 
0 0 0 0 0 1.95637295e-07 0 1.95637295e-07 1.443323928e-07 
0 0 0 0 1.234652929e-07 -3.482232639e-07 0 -3.482232639e-07 2.727449434e-07 
0 0 -2.866147214e-07 0 0 -1.71118892e-07 -2.866147214e-07 -1.71118892e-07 2.551361483e-07 
-1.561067939e-07 0 -2.362763555e-07 0 -2.04442845e-07 -3.650366452e-07 -2.362763555e-07 -3.650366452e-07 0 
0 0 0 0 0 0 0 0 2.085386681e-07 
0 0 -1.874046883e-07 0 0 -2.596710779e-07 -1.874046883e-07 -2.596710779e-07 2.639405459e-07 
0 0 0 0 0 0 0 0 1.997342705e-07 
0 0 0 0 0 0 0 0 0 
0 0 -1.622355054e-07 0 0 -3.566299546e-07 -1.622355054e-07 -3.566299546e-07 1.688038934e-07 
0 0 -2.614455384e-07 0 0 -2.680777686e-07 -2.614455384e-07 -2.680777686e-07 1.599994959e-07 
0 0 -1.619039976e-07 0 1.316013104e-07 -2.631160016e-07 -1.619039976e-07 -2.631160016e-07 3.377786575e-07 
-1.343351562e-07 0 -1.403959848e-07 0 -1.373924285e-07 -3.098860559e-07 -1.403959848e-07 -3.098860559e-07 1.22269665e-07 
0 0 3.518160867e-07 0 0 0 3.518160867e-07 0 0 
0 0 0 0 0 8.890457255e-07 0 8.890457255e-07 1.877461141e-07 
0 0 -1.511499912e-07 0 0 -2.865010288e-07 -1.511499912e-07 -2.865010288e-07 2.300241613e-07 
0 0 0 0 0 -1.558938152e-07 0 -1.558938152e-07 0 
0 0 0 0 0 -1.32508788e-07 0 -1.32508788e-07 2.183886623e-07 
0 0 -1.212204726e-07 0 0 3.12964862e-07 -1.212204726e-07 3.12964862e-07 2.627623858e-07 
0 0 0 0 0 2.895798348e-07 0 2.895798348e-07 1.550078895e-07 
0 0 1.356395695e-07 0 0 4.435720755e-07 1.356395695e-07 4.435720755e-07 1.433723905e-07 
0 0 0 0 0 -2.012649032e-07 0 -2.012649032e-07 0 
0 0 0 0 0 -2.671302463e-07 0 -2.671302463e-07 -1.846166526e-07 
0 0 0 0 0 2.030583718e-07 0 2.030583718e-07 0 
0 0 0 0 0 3.488818379e-07 0 3.488818379e-07 -1.544657245e-07 
0 0 0 0 0 -2.341975748e-07 0 -2.341975748e-07 -1.473091631e-07 
0 0 0 0 0 0 0 0 0 
0 0 0 0 0 0 0 0 0 
0 0 0 0 0 0 0 0 -1.32233699e-07 
0 0 0 0 0 0 0 0 -1.695411885e-07 
0 0 0 0 0 2.759701048e-07 0 2.759701048e-07 0 
-1.60267089e-07 0 1.652766394e-07 0 0 1.722512719e-07 1.652766394e-07 1.722512719e-07 0 
1.398768607e-07 0 0 0 0 -2.375309724e-07 0 -2.375309724e-07 -1.218608848e-07 
0 0 0 0 0 -2.011108292e-07 0 -2.011108292e-07 0 
0 0 0 0 0 -2.808928936e-07 0 -2.808928936e-07 0 
0 0 0 0 0 0 0 0 0 
0 0 0 0 0 -2.193209008e-07 0 -2.193209008e-07 0 
0 0 0 0 0 0 0 0 0 
0 0 0 0 0 0 0 0 0 
0 0 0 0 0 -2.59211933e-07 0 -2.59211933e-07 0 
0 0 0 0 0 -2.410018614e-07 0 -2.410018614e-07 0 
1.332427449e-07 0 0 0 0 2.138551519e-07 0 2.138551519e-07 1.245618965e-07 
0 0 0 0 0 0 0 0 0 
0 0 0 0 0 -2.088623423e-07 0 -2.088623423e-07 -2.456977614e-07 
-1.347869374e-07 0 0 0 0 3.428462262e-07 0 3.428462262e-07 -2.802664433e-07 
0 0 0 0 0 0 0 0 0 
0 0 0 0 0 -1.434346333e-07 0 -1.434346333e-07 -1.23540531e-07 
0 0 0 0 0 0 0 0 0 
0 0 0 0 0 2.78350689e-07 0 2.78350689e-07 0 
0 0 0 0 0 1.32419651e-07 0 1.32419651e-07 -1.408248719e-07 
-1.239213234e-07 0 0 0 0 0 0 0 -2.629821023e-07 
0 0 0 0 0 -2.132510201e-07 0 -2.132510201e-07 -2.504118837e-07 
0 0 -2.297911248e-07 0 0 0 -2.297911248e-07 0 0 
0 0 0 0 0 1.858250862e-07 0 1.858250862e-07 0 
1.503290792e-07 0 0 0 0 -2.719035551e-07 0 -2.719035551e-07 1.363837315e-07 
0 0 0 0 0 -1.216657584e-07 0 -1.216657584e-07 -1.421766e-07 
0 0 0 0 0 0 0 0 0 
0 0 0 0 0 0 0 0 0 
0 0 0 0 0 -2.425772876e-07 0 -2.425772876e-07 0 
0 0 -1.721725704e-07 0 0 -1.509920259e-07 -1.721725704e-07 -1.509920259e-07 0 
0 0 0 0 0 0 0 0 0 
2.993295942e-07 0 3.133383784e-07 0 5.865144305e-07 -1.516553616e-07 3.133383784e-07 -1.516553616e-07 2.601719668e-07 
0 0 -3.290739991e-07 0 1.643043805e-07 0 -3.290739991e-07 0 0 
-2.563932904e-07 1.332018911e-07 -5.2685865e-07 1.332018911e-07 -5.264834172e-07 8.055009506e-07 -5.2685865e-07 8.055009506e-07 0 
-1.449617802e-07 0 4.566169049e-07 0 -6.864693462e-07 -3.680976225e-07 4.566169049e-07 -3.680976225e-07 -2.976240587e-07 
1.348333198e-07 0 0 0 3.754094055e-07 0 0 0 1.576283976e-07 
-1.430281225e-07 0 -4.279663245e-07 0 -1.810895183e-07 3.949008452e-07 -4.279663245e-07 3.949008452e-07 0 
0 0 0 0 0 3.269227945e-07 0 3.269227945e-07 0 
0 0 3.849776416e-07 0 0 -2.59876492e-07 3.849776416e-07 -2.59876492e-07 0 
0 0 0 0 -2.610824828e-07 -1.918984413e-07 0 -1.918984413e-07 -1.212696152e-07 
-2.006775353e-07 0 0 0 -6.064763817e-07 2.187016641e-07 0 2.187016641e-07 -1.850466589e-07 
-4.900919117e-07 -2.315556516e-07 -6.108079922e-07 -2.315556516e-07 -9.303077697e-07 -2.728861814e-07 -6.108079922e-07 -2.728861814e-07 -1.787456674e-07 
-5.788104509e-07 0 -3.145650681e-07 0 -1.162323798e-06 1.955576208e-07 -3.145650681e-07 1.955576208e-07 -5.233395903e-07 
3.474077672e-07 0 3.333396548e-07 0 6.362533176e-07 1.233682372e-07 3.333396548e-07 1.233682372e-07 2.678844485e-07 
6.589479999e-07 0 -1.421143831e-07 0 1.508959303e-06 0 -1.421143831e-07 0 7.098004911e-07 
-5.344511813e-07 0 -4.626865302e-07 0 -1.046315784e-06 0 -4.626865302e-07 0 -3.510426289e-07 
0 0 0 0 -2.630352402e-07 1.59462929e-07 0 1.59462929e-07 -1.277275709e-07 
0 0 -1.387341687e-07 0 -1.47027226e-07 0 -1.387341687e-07 0 0 
0 0 -3.764611876e-07 0 2.893257669e-07 -1.383296187e-07 -3.764611876e-07 -1.383296187e-07 2.655274118e-07 
0 0 -2.283397256e-07 0 1.733177527e-07 0 -2.283397256e-07 0 0 
5.031778836e-07 0 0 0 1.07260631e-06 0 0 0 4.888424698e-07 
0 1.762093547e-07 -5.584153989e-07 1.762093547e-07 1.596205255e-07 8.905617848e-07 -5.584153989e-07 8.905617848e-07 1.313065218e-07 
-1.619330517e-07 0 3.469404995e-07 0 -5.888363757e-07 0 3.469404995e-07 0 -1.545796988e-07 
1.22259721e-07 -1.207478189e-07 3.379642593e-07 -1.207478189e-07 0 -2.105216769e-07 3.379642593e-07 -2.105216769e-07 0 
3.071258976e-07 0 4.813449291e-07 0 2.768518595e-07 -4.730229191e-07 4.813449291e-07 -4.730229191e-07 1.534980943e-07 
0 0 0 0 -2.146079251e-07 4.376010729e-07 0 4.376010729e-07 0 
0 0 3.424523794e-07 0 -2.527900744e-07 0 3.424523794e-07 0 0 
0 0 0 0 1.214383762e-07 3.40020054e-07 0 3.40020054e-07 1.203642399e-07 
1.477095843e-07 0 0 0 2.182361925e-07 2.087694329e-07 0 2.087694329e-07 1.42402308e-07 
0 0 4.141427143e-07 0 -1.559922581e-07 -2.441912791e-07 4.141427143e-07 -2.441912791e-07 0 
2.146928093e-07 0 4.096545942e-07 0 1.800540432e-07 -3.41772298e-07 4.096545942e-07 -3.41772298e-07 1.314600261e-07 
-2.613779666e-07 -1.668726892e-07 3.39793015e-07 -1.668726892e-07 -7.994662856e-07 -1.958391932e-07 3.39793015e-07 -1.958391932e-07 -2.704234652e-07 
3.034070562e-07 0 3.476226046e-07 0 4.005902882e-07 0 3.476226046e-07 0 2.818670376e-07 
3.647093038e-07 0 -6.137587592e-07 0 1.124392932e-06 4.418706611e-07 -6.137587592e-07 4.418706611e-07 5.317979852e-07 
-2.798048878e-07 0 -1.451842865e-07 0 -7.045909465e-07 -1.27609695e-07 -1.451842865e-07 -1.27609695e-07 -1.985371957e-07 
0 0 3.437078098e-07 0 -1.994379987e-07 0 3.437078098e-07 0 0 
3.3405818e-07 0 -1.330680773e-07 0 7.624916103e-07 2.154877162e-07 -1.330680773e-07 2.154877162e-07 4.068325114e-07 
0 0 -1.369828721e-07 0 1.624633234e-07 1.23015734e-07 -1.369828721e-07 1.23015734e-07 1.3068726e-07 
-2.705914272e-07 0 0 0 -7.520286161e-07 -1.617244441e-07 0 -1.617244441e-07 -2.344803305e-07 
0 0 0 0 -1.520003292e-07 0 0 0 0 
0 0 -3.794715228e-07 0 2.099009929e-07 1.571304831e-07 -3.794715228e-07 1.571304831e-07 1.666303947e-07 
0 0 3.322789564e-07 0 0 0 3.322789564e-07 0 1.342670066e-07 
0 0 -1.474210258e-07 0 0 -2.733829133e-07 -1.474210258e-07 -2.733829133e-07 3.968217179e-07 
0 0 -1.304397783e-07 0 0 -2.981583399e-07 -1.304397783e-07 -2.981583399e-07 2.486336308e-07 
0 0 0 0 0 8.49291977e-07 0 8.49291977e-07 2.776851669e-07 
0 0 0 0 0 -1.455274502e-07 0 -1.455274502e-07 2.655443622e-07 
0 0 -1.38930402e-07 0 0 -2.857706266e-07 -1.38930402e-07 -2.857706266e-07 3.227276743e-07 
0 0 0 0 0 -1.579151635e-07 0 -1.579151635e-07 1.914503187e-07 
0 0 0 0 0 4.15809995e-07 0 4.15809995e-07 2.059760867e-07 
0 0 -1.303085651e-07 0 0 2.879545318e-07 -1.303085651e-07 2.879545318e-07 3.372534424e-07 
0 0 -1.218179413e-07 0 0 2.755668186e-07 -1.218179413e-07 2.755668186e-07 2.631593988e-07 
1.446227047e-07 0 0 0 1.536335096e-07 -3.433184514e-07 0 -3.433184514e-07 3.836060169e-07 
0 0 -2.897538113e-07 0 0 -1.68537455e-07 -2.897538113e-07 -1.68537455e-07 3.377878656e-07 
2.411482507e-07 0 0 0 1.334579541e-07 1.904597637e-07 0 1.904597637e-07 2.781094252e-07 
-3.766670975e-07 1.590180296e-07 -2.074349842e-07 1.590180296e-07 -3.5965242e-07 -3.522584051e-07 -2.074349842e-07 -3.522584051e-07 0 
0 0 -1.793319222e-07 0 0 -2.559279532e-07 -1.793319222e-07 -2.559279532e-07 3.606969413e-07 
0 0 -1.202233321e-07 0 0 0 -1.202233321e-07 0 3.079486454e-07 
1.928854777e-07 0 0 0 1.435457319e-07 0 0 0 3.308577211e-07 
0 0 -1.381725087e-07 0 0 -3.477884282e-07 -1.381725087e-07 -3.477884282e-07 1.997341276e-07 
-2.171675412e-07 0 -2.485943978e-07 0 -1.661508782e-07 -2.603979301e-07 -2.485943978e-07 -2.603979301e-07 1.76825052e-07 
0 0 0 0 0 0 0 0 1.469858318e-07 
1.662889809e-07 0 0 0 1.904626573e-07 0 0 0 6.557304482e-07 
0 0 -4.067147663e-07 0 1.506194992e-07 -3.120603596e-07 -4.067147663e-07 -3.120603596e-07 0 
0 0 2.134757761e-07 0 -1.894489841e-07 4.224061946e-07 2.134757761e-07 4.224061946e-07 -3.794526306e-07 
-2.884994806e-07 0 -2.844688129e-07 0 -4.065631675e-07 -5.510603246e-07 -2.844688129e-07 -5.510603246e-07 -5.960553425e-07 
0 0 -1.973517122e-07 0 1.705410782e-07 -1.717074407e-07 -1.973517122e-07 -1.717074407e-07 2.874387974e-07 
0 0 0 0 0 0 0 0 -2.30152742e-07 
0 0 0 0 0 1.955258364e-07 0 1.955258364e-07 1.381389088e-07 
0 0 -1.362287355e-07 0 0 -2.912074232e-07 -1.362287355e-07 -2.912074232e-07 0 
-1.972468407e-07 0 -3.455917896e-07 0 -1.279718341e-07 -4.315603421e-07 -3.455917896e-07 -4.315603421e-07 -3.384540979e-07 
-1.493158198e-07 0 0 0 -2.980060758e-07 0 0 0 -4.877539865e-07 
1.826002003e-07 0 5.720869493e-07 0 0 -2.930267671e-07 5.720869493e-07 -2.930267671e-07 -4.498121821e-07 
-6.394714375e-07 1.873123722e-07 -6.255318151e-07 1.873123722e-07 -5.567255446e-07 1.296495925e-07 -6.255318151e-07 1.296495925e-07 -3.408677348e-07 
2.818217385e-07 0 1.948642385e-07 0 1.65565313e-07 -4.077812975e-07 1.948642385e-07 -4.077812975e-07 5.911744812e-07 
3.385422492e-07 0 1.459989005e-07 0 5.069813891e-07 3.118075712e-07 1.459989005e-07 3.118075712e-07 5.998211854e-07 
-2.284356186e-07 0 0 0 -2.931530514e-07 0 0 0 -3.953399584e-07 
-1.788248495e-07 0 -2.153337883e-07 0 -1.955801158e-07 -1.390658525e-07 -2.153337883e-07 -1.390658525e-07 1.251533732e-07 
2.322109694e-07 0 3.834755939e-07 0 0 -3.504040323e-07 3.834755939e-07 -3.504040323e-07 0 
2.605712248e-07 0 3.590429249e-07 0 2.387004154e-07 0 3.590429249e-07 0 0 
-1.504645941e-07 0 -2.397664573e-07 0 0 2.207285818e-07 -2.397664573e-07 2.207285818e-07 1.294767253e-07 
3.101819938e-07 0 1.704315695e-07 0 3.362733511e-07 0 1.704315695e-07 0 5.954978333e-07 
2.16221226e-07 0 2.164350745e-07 0 0 4.408462816e-07 2.164350745e-07 4.408462816e-07 1.791689236e-07 
1.743614865e-07 0 3.664853697e-07 0 2.735016243e-07 3.944868017e-07 3.664853697e-07 3.944868017e-07 2.414512158e-07 
0 0 0 0 0 0 0 0 0 
-1.791677887e-07 0 -2.800279822e-07 0 -2.762489519e-07 -4.997188862e-07 -2.800279822e-07 -4.997188862e-07 -3.524586926e-07 
1.952913563e-07 0 2.914602221e-07 0 1.482680855e-07 4.176665416e-07 2.914602221e-07 4.176665416e-07 2.103100697e-07 
0 0 1.931072506e-07 0 1.220096757e-07 1.80913476e-07 1.931072506e-07 1.80913476e-07 1.388030624e-07 
0 0 0 0 0 2.04093216e-07 0 2.04093216e-07 0 
0 0 0 0 -1.266072026e-07 0 0 0 0 
0 0 0 0 0 0 0 0 0 
-1.310012809e-07 0 -1.301494253e-07 0 -1.528656124e-07 -2.661893679e-07 -1.301494253e-07 -2.661893679e-07 -1.581518918e-07 
0 0 -1.653872934e-07 0 -2.60512484e-07 2.882089656e-07 -1.653872934e-07 2.882089656e-07 3.876650231e-07 
1.54213229e-07 1.223362496e-07 2.395399033e-07 1.223362496e-07 1.548946971e-07 6.64460037e-07 2.395399033e-07 6.64460037e-07 5.301782744e-07 
1.217750112e-07 0 4.567342086e-07 0 0 0 4.567342086e-07 0 -4.443505623e-07 
2.322971016e-07 0 2.901065437e-07 0 1.334661846e-07 0 2.901065437e-07 0 4.459991554e-07 
0 0 0 0 0 4.763345013e-07 0 4.763345013e-07 4.589216487e-07 
1.379941201e-07 0 3.48137056e-07 0 0 2.978561103e-07 3.48137056e-07 2.978561103e-07 0 
0 0 1.456734576e-07 0 0 0 1.456734576e-07 0 0 
0 0 0 0 0 1.598126076e-07 0 1.598126076e-07 4.168320893e-07 
1.932551653e-07 0 2.648232235e-07 0 1.441804408e-07 3.479381433e-07 2.648232235e-07 3.479381433e-07 4.880887149e-07 
1.770360564e-07 0 3.734203761e-07 0 0 0 3.734203761e-07 0 0 
-8.08673497e-07 -3.134300468e-07 0 -3.134300468e-07 -8.558318476e-07 -4.013118204e-07 0 -4.013118204e-07 -6.405734931e-07 
0 0 -8.972819052e-07 0 0 -1.831093228e-07 -8.972819052e-07 -1.831093228e-07 0 
1.40892371e-07 1.8121381e-07 0 1.8121381e-07 3.598929119e-07 -2.652228597e-07 0 -2.652228597e-07 0 
5.701541157e-07 2.044087946e-07 1.355376485e-06 2.044087946e-07 3.972160963e-07 1.083287348e-06 1.355376485e-06 1.083287348e-06 0 
-3.931817476e-07 -1.71059049e-07 -4.850222364e-07 -1.71059049e-07 -3.991247082e-07 -2.922105716e-07 -4.850222364e-07 -2.922105716e-07 -3.577236944e-07 
0 0 -4.185374669e-07 0 2.087376716e-07 -2.241660912e-07 -4.185374669e-07 -2.241660912e-07 0 
-3.33890563e-07 0 0 0 -2.479694679e-07 -3.3326734e-07 0 -3.3326734e-07 -3.754053084e-07 
-1.192596907e-07 0 6.413069587e-07 0 -2.293078757e-07 3.40987764e-07 6.413069587e-07 3.40987764e-07 -2.722917415e-07 
2.962320588e-07 0 2.290472899e-07 0 2.273992638e-07 4.500890128e-07 2.290472899e-07 4.500890128e-07 0 
3.555232433e-07 1.928113023e-07 7.077917282e-07 1.928113023e-07 3.785545041e-07 4.090322443e-07 7.077917282e-07 4.090322443e-07 0 
4.475918188e-07 2.039889385e-07 0 2.039889385e-07 2.813130771e-07 -3.66324551e-07 0 -3.66324551e-07 0 
-2.393911222e-07 0 -1.971634642e-07 0 -1.350026511e-07 4.378108056e-07 -1.971634642e-07 4.378108056e-07 -2.110572775e-07 
2.60058516e-07 0 2.788401401e-07 0 1.512747067e-07 0 2.788401401e-07 0 0 
-5.073670503e-07 -1.342060252e-07 0 -1.342060252e-07 -2.951191384e-07 -1.398434103e-07 0 -1.398434103e-07 -2.848797773e-07 
0 0 -1.254709876e-07 0 0 0 -1.254709876e-07 0 -1.264376014e-07 
0 0 0 0 0 1.741641628e-07 0 1.741641628e-07 0 
3.538251674e-07 1.525009814e-07 0 1.525009814e-07 2.162938919e-07 -2.279035154e-07 0 -2.279035154e-07 0 
0 0 0 0 0 -2.530839807e-07 0 -2.530839807e-07 -1.633488513e-07 
-3.733790863e-07 -1.251359987e-07 0 -1.251359987e-07 -2.150608948e-07 1.489836976e-07 0 1.489836976e-07 -2.479685274e-07 
-1.236542672e-07 0 1.853635271e-07 0 0 0 1.853635271e-07 0 -1.513251182e-07 
0 0 0 0 0 0 0 0 0 
0 0 0 0 0 1.593231203e-07 0 1.593231203e-07 0 
0 0 1.344512722e-07 0 0 2.479950108e-07 1.344512722e-07 2.479950108e-07 0 
1.591226815e-07 0 1.818501356e-07 0 1.848095978e-07 4.460808145e-07 1.818501356e-07 4.460808145e-07 0 
0 0 0 0 0 0 0 0 0 
0 0 0 0 0 2.036590656e-07 0 2.036590656e-07 0 
0 0 0 0 0 0 0 0 0 
1.248445273e-07 0 0 0 0 1.740964605e-07 0 1.740964605e-07 0 
0 0 1.381712726e-07 0 0 3.027019674e-07 1.381712726e-07 3.027019674e-07 0 
0 0 1.581507039e-07 0 0 3.470379126e-07 1.581507039e-07 3.470379126e-07 0 
2.403964879e-07 0 2.379120289e-07 0 1.992252206e-07 0 2.379120289e-07 0 0 
0 0 -1.348507154e-07 0 -1.544301749e-07 0 -1.348507154e-07 0 -1.357253558e-07 
1.476191991e-07 0 -1.649865368e-07 0 2.240897748e-07 4.686834723e-07 -1.649865368e-07 4.686834723e-07 0 
-3.960848602e-07 0 0 0 -3.434304811e-07 -4.87691497e-07 0 -4.87691497e-07 -4.10686597e-07 
1.22761609e-07 0 0 0 0 0 0 0 0 
0 0 -1.499186261e-07 0 0 2.320132662e-07 -1.499186261e-07 2.320132662e-07 0 
1.940078435e-07 0 0 0 2.116574977e-07 2.609285726e-07 0 2.609285726e-07 0 
0 0 0 0 0 -2.17258912e-07 0 -2.17258912e-07 -1.654397222e-07 
-1.954790651e-07 0 0 0 -2.48930328e-07 -2.461742184e-07 0 -2.461742184e-07 -2.732059764e-07 
-1.242328305e-07 0 0 0 0 0 0 0 -1.569005628e-07 
1.192365139e-07 0 -2.892598344e-07 0 1.347623138e-07 0 -2.892598344e-07 0 0 
0 0 5.822659154e-07 0 0 0 5.822659154e-07 0 -2.439374051e-07 
0 0 4.198857661e-07 0 1.26521766e-07 0 4.198857661e-07 0 -2.789620633e-07 
-1.395568071e-07 0 -7.857231494e-07 0 -3.161375416e-07 -3.808247795e-07 -7.857231494e-07 -3.808247795e-07 -4.268336056e-07 
0 0 1.465030405e-07 0 0 0 1.465030405e-07 0 -1.274652059e-07 
0 0 5.010758408e-07 0 0 0 5.010758408e-07 0 -2.614497342e-07 
0 0 0 0 1.306420399e-07 0 0 0 -1.44977535e-07 
0 0 -5.374914919e-07 0 0 -1.414611596e-07 -5.374914919e-07 -1.414611596e-07 -2.189133062e-07 
0 0 0 0 -2.051061431e-07 -1.488729092e-07 0 -1.488729092e-07 -3.353855053e-07 
0 0 -1.829186916e-07 0 0 -1.979497787e-07 -1.829186916e-07 -1.979497787e-07 -3.528978344e-07 
-5.114880999e-07 -2.049725143e-07 3.654578618e-07 -2.049725143e-07 -7.566820332e-07 -2.950965505e-07 3.654578618e-07 -2.950965505e-07 -6.043211144e-07 
4.307419196e-07 1.613195239e-07 -3.361509262e-07 1.613195239e-07 3.283147954e-07 0 -3.361509262e-07 0 1.405352545e-07 
-4.249119118e-07 -1.363787044e-07 4.358507849e-07 -1.363787044e-07 -6.214699543e-07 0 4.358507849e-07 0 -6.634746783e-07 
5.830954253e-07 2.343363972e-07 2.939218835e-07 2.343363972e-07 1.195540657e-06 -2.74899327e-07 2.939218835e-07 -2.74899327e-07 4.772294248e-07 
0 0 0 0 -2.141836189e-07 -1.394864469e-07 0 -1.394864469e-07 -2.318929299e-07 
0 0 0 0 -1.465775794e-07 0 0 0 -2.614697119e-07 
-4.682000059e-07 -1.706756093e-07 4.006543234e-07 -1.706756093e-07 -6.890759937e-07 -1.411632608e-07 4.006543234e-07 -1.411632608e-07 -6.338978963e-07 
0 0 3.296898727e-07 0 2.194293121e-07 -2.849979387e-07 3.296898727e-07 -2.849979387e-07 0 
5.069186724e-07 1.978279605e-07 0 1.978279605e-07 7.619277264e-07 -1.293878351e-07 0 -1.293878351e-07 3.088823397e-07 
0 0 3.648863342e-07 0 2.870353516e-07 -1.31064649e-07 3.648863342e-07 -1.31064649e-07 0 
3.129428298e-07 2.00420715e-07 5.381442064e-07 2.00420715e-07 5.334899673e-07 0 5.381442064e-07 0 0 
0 0 -2.44883801e-07 0 0 1.409420851e-07 -2.44883801e-07 1.409420851e-07 -1.506935038e-07 
-2.812585509e-07 -1.380441368e-07 -1.841978017e-07 -1.380441368e-07 -5.686654749e-07 2.641889548e-07 -1.841978017e-07 2.641889548e-07 -4.83804638e-07 
1.901431581e-07 0 -8.101507238e-07 0 4.157058911e-07 -4.414233466e-07 -8.101507238e-07 -4.414233466e-07 -1.355120555e-07 
1.398814114e-07 0 1.466302027e-07 0 2.076413719e-07 1.225744917e-07 1.466302027e-07 1.225744917e-07 0 
-1.57219279e-07 -1.196912752e-07 -2.145408013e-07 -1.196912752e-07 -3.434363492e-07 2.0256552e-07 -2.145408013e-07 2.0256552e-07 -3.172490709e-07 
0 0 1.769732023e-07 0 0 1.841979265e-07 1.769732023e-07 1.841979265e-07 -2.794758669e-07 
2.51542994e-07 0 -1.360032587e-07 0 4.745979292e-07 -1.686082242e-07 -1.360032587e-07 -1.686082242e-07 0 
0 0 -5.275172624e-07 0 1.487493338e-07 -1.502406307e-07 -5.275172624e-07 -1.502406307e-07 -1.431027796e-07 
0 0 -4.971742628e-07 0 0 0 -4.971742628e-07 0 -3.096583467e-07 
0 0 -2.806923473e-07 0 -2.832312463e-07 0 -2.806923473e-07 0 -2.108372662e-07 
4.213404374e-07 2.426110762e-07 3.859809374e-07 2.426110762e-07 7.705175243e-07 -1.616587235e-07 3.859809374e-07 -1.616587235e-07 0 
0 0 -2.943164607e-07 0 2.45784751e-07 0 -2.943164607e-07 0 -1.227404383e-07 
-3.750006402e-07 0 3.785170449e-07 0 -5.319219471e-07 0 3.785170449e-07 0 -3.945851353e-07 
1.761213582e-07 0 0 0 2.43643139e-07 0 0 0 0 
2.638780802e-07 1.289793582e-07 0 1.289793582e-07 5.081511376e-07 0 0 0 0 
0 0 -2.87504404e-07 0 0 0 -2.87504404e-07 0 -1.667888523e-07 
-2.220491806e-07 0 0 0 -4.075765967e-07 0 0 0 -3.027112008e-07 
0 0 3.822489912e-07 0 1.192977886e-07 0 3.822489912e-07 0 -1.827573807e-07 
-1.342924586e-07 0 0 0 -1.430685981e-07 0 0 0 -2.586627868e-07 
0 0 -2.75053777e-07 0 0 -1.638525536e-07 -2.75053777e-07 -1.638525536e-07 1.877781306e-07 
0 0 0 0 0 1.854107778e-07 0 1.854107778e-07 0 
0 0 0 0 0 -3.300545344e-07 0 -3.300545344e-07 1.686119647e-07 
0 0 -2.473794854e-07 0 -1.491106774e-07 -3.859381681e-07 -2.473794854e-07 -3.859381681e-07 0 
0 0 0 0 0 0 0 0 0 
0 0 0 0 0 0 0 0 0 
0 0 -1.928803422e-07 0 0 -2.46953544e-07 -1.928803422e-07 -2.46953544e-07 1.781950476e-07 
0 0 -2.612166312e-07 0 0 -2.748953608e-07 -2.612166312e-07 -2.748953608e-07 0 
0 0 0 0 0 0 0 0 0 
0 0 -1.790431965e-07 0 0 -3.579963513e-07 -1.790431965e-07 -3.579963513e-07 0 
-1.275817489e-07 0 -1.509537059e-07 0 0 -3.002982849e-07 -1.509537059e-07 -3.002982849e-07 0 
0 0 3.66262858e-07 0 0 0 3.66262858e-07 0 0 
0 0 -1.638299018e-07 0 0 -2.461044591e-07 -1.638299018e-07 -2.461044591e-07 2.399727476e-07 
0 0 0 0 0 9.209810326e-07 0 9.209810326e-07 0 
0 0 0 0 0 -1.509888221e-07 0 -1.509888221e-07 0 
0 0 0 0 0 -1.238919092e-07 0 -1.238919092e-07 1.575504718e-07 
0 0 -1.573918039e-07 0 0 -2.73201372e-07 -1.573918039e-07 -2.73201372e-07 1.410331495e-07 
0 0 0 0 0 3.103413739e-07 0 3.103413739e-07 0 
0 0 1.546444046e-07 0 0 4.596508366e-07 1.546444046e-07 4.596508366e-07 0 
0 0 0 0 0 3.374382868e-07 0 3.374382868e-07 1.621623336e-07 
0 0 0 0 0 0 0 0 0 
0 0 3.470921103e-07 0 0 4.520553542e-07 3.470921103e-07 4.520553542e-07 1.974640789e-07 
0 0 -2.026014731e-07 0 0 -3.562819161e-07 -2.026014731e-07 -3.562819161e-07 0 
0 0 0 0 0 1.834514857e-07 0 1.834514857e-07 0 
0 0 1.875566396e-07 0 0 2.583687594e-07 1.875566396e-07 2.583687594e-07 1.496345524e-07 
0 0 0 0 0 0 0 0 0 
0 0 0 0 0 -1.457998757e-07 0 -1.457998757e-07 0 
0 0 0 0 0 1.240668251e-07 0 1.240668251e-07 0 
0 0 2.268153707e-07 0 0 3.177534199e-07 2.268153707e-07 3.177534199e-07 0 
0 0 0 0 0 0 0 0 0 
-3.419375507e-07 0 -2.545031315e-07 0 -2.160808235e-07 -3.10034299e-07 -2.545031315e-07 -3.10034299e-07 -2.236066351e-07 
8.02325707e-07 -2.088581826e-07 6.420866891e-07 -2.088581826e-07 7.238353383e-07 1.720695934e-07 6.420866891e-07 1.720695934e-07 6.525362766e-07 
-1.056612278e-06 4.303456171e-07 -2.160616623e-07 4.303456171e-07 -1.022598866e-06 2.988964761e-07 -2.160616623e-07 2.988964761e-07 -5.377483507e-07 
7.515023989e-07 -2.558871608e-07 0 -2.558871608e-07 6.292078124e-07 -2.165016459e-07 0 -2.165016459e-07 6.439015171e-07 
2.301940781e-07 0 1.937917788e-07 0 2.538772574e-07 0 1.937917788e-07 0 2.144648208e-07 
-1.271432854e-07 0 2.130125134e-07 0 -1.493817636e-07 2.354830348e-07 2.130125134e-07 2.354830348e-07 0 
-6.992749142e-07 2.400062746e-07 -2.352823969e-07 2.400062746e-07 -6.193398445e-07 0 -2.352823969e-07 0 -3.806774929e-07 
2.047824241e-07 0 0 0 2.065634944e-07 -2.632679725e-07 0 -2.632679725e-07 2.10147441e-07 
7.769140529e-07 -2.323726717e-07 3.773755885e-07 -2.323726717e-07 6.765215754e-07 0 3.773755885e-07 0 6.482188968e-07 
-1.525549394e-07 0 0 0 -1.966955266e-07 0 0 0 0 
0 0 -2.117224317e-07 0 0 -3.557001545e-07 -2.117224317e-07 -3.557001545e-07 0 
0 0 -1.195762092e-07 0 0 -2.274180827e-07 -1.195762092e-07 -2.274180827e-07 -2.717254122e-07 
0 0 0 0 0 0 0 0 0 
0 0 0 0 0 1.840323592e-07 0 1.840323592e-07 0 
0 0 -1.656493204e-07 0 0 -2.915591186e-07 -1.656493204e-07 -2.915591186e-07 -1.655828491e-07 
0 0 0 0 0 0 0 0 0 
0 0 0 0 0 -1.331111713e-07 0 -1.331111713e-07 0 
0 0 0 0 0 0 0 0 0 
0 0 0 0 0 0 0 0 -1.239622371e-07 
0 0 0 0 0 1.367550855e-07 0 1.367550855e-07 0 
3.173625453e-07 0 0 0 2.335056385e-07 2.187676053e-07 0 2.187676053e-07 2.38358464e-07 
0 0 -5.604064657e-07 0 0 1.566719915e-07 -5.604064657e-07 1.566719915e-07 -2.250679334e-07 
-1.307848627e-07 0 -3.732281715e-07 0 0 -2.146971507e-07 -3.732281715e-07 -2.146971507e-07 0 
-2.577617009e-07 0 6.576055802e-07 0 -2.190568164e-07 -6.603712434e-07 6.576055802e-07 -6.603712434e-07 0 
1.56389556e-07 0 -3.377850468e-07 0 0 1.877197984e-07 -3.377850468e-07 1.877197984e-07 0 
0 0 -4.668173186e-07 0 0 0 -4.668173186e-07 0 -1.679654745e-07 
0 0 -2.441958997e-07 0 0 0 -2.441958997e-07 0 0 
0 0 2.712209762e-07 0 0 -2.208018191e-07 2.712209762e-07 -2.208018191e-07 1.321000443e-07 
-1.311725671e-07 0 0 0 -1.293355932e-07 -2.518496259e-07 0 -2.518496259e-07 0 
-1.942732818e-07 0 1.421887043e-07 0 -1.57262477e-07 -4.375341971e-07 1.421887043e-07 -4.375341971e-07 0 
0 0 -3.097212648e-07 0 1.240715561e-07 0 -3.097212648e-07 0 0 
0 0 5.472656671e-07 0 0 0 5.472656671e-07 0 -1.327536264e-07 
2.401712859e-07 0 4.387737085e-07 0 1.991042189e-07 0 4.387737085e-07 0 -1.286006129e-07 
-3.429863202e-07 -1.563785482e-07 -8.181137143e-07 -1.563785482e-07 -4.356775975e-07 -3.754325122e-07 -8.181137143e-07 -3.754325122e-07 -4.283337632e-07 
0 0 0 0 0 0 0 0 0 
1.712548762e-07 0 4.930196878e-07 0 0 0 4.930196878e-07 0 -1.306771196e-07 
1.538843318e-07 0 0 0 1.615878875e-07 0 0 0 0 
-1.376944712e-07 0 -5.639174896e-07 0 -1.558030207e-07 -1.325531586e-07 -5.639174896e-07 -1.325531586e-07 -2.113195169e-07 
-1.203239268e-07 0 -1.354240236e-07 0 -2.551384132e-07 -1.803069522e-07 -1.354240236e-07 -1.803069522e-07 -2.805436948e-07 
0 0 -1.896700029e-07 0 0 -1.9329913e-07 -1.896700029e-07 -1.9329913e-07 -2.78467188e-07 
-4.344630421e-07 -2.190840899e-07 3.455410032e-07 -2.190840899e-07 -6.712653029e-07 -3.355823226e-07 3.455410032e-07 -3.355823226e-07 -4.727519674e-07 
3.525872697e-07 1.675113869e-07 -3.547314105e-07 1.675113869e-07 3.167473976e-07 0 -3.547314105e-07 0 1.490038043e-07 
-4.166707903e-07 -1.731742245e-07 4.61095305e-07 -1.731742245e-07 -7.283889526e-07 0 4.61095305e-07 0 -6.039058256e-07 
6.381772757e-07 2.304590143e-07 3.089326365e-07 2.304590143e-07 1.248165007e-06 -2.764829189e-07 3.089326365e-07 -2.764829189e-07 5.307625014e-07 
0 0 0 0 -1.772589526e-07 -1.517147379e-07 0 -1.517147379e-07 -1.618740816e-07 
0 0 0 0 -2.058207775e-07 0 0 0 -2.274510107e-07 
-4.255669162e-07 -1.961291572e-07 4.033181541e-07 -1.961291572e-07 -6.998271277e-07 -1.539889701e-07 4.033181541e-07 -1.539889701e-07 -5.383288965e-07 
0 0 3.272368198e-07 0 2.884498518e-07 -3.060326207e-07 3.272368198e-07 -3.060326207e-07 0 
4.953822727e-07 1.989852006e-07 0 1.989852006e-07 7.824562021e-07 -1.221650361e-07 0 -1.221650361e-07 3.398831528e-07 
0 0 3.850139707e-07 0 2.59888027e-07 -1.244392682e-07 3.850139707e-07 -1.244392682e-07 0 
4.330003584e-07 2.16590701e-07 5.231191512e-07 2.16590701e-07 5.793890578e-07 0 5.231191512e-07 0 0 
0 0 -2.721603048e-07 0 0 1.480147871e-07 -2.721603048e-07 1.480147871e-07 -1.322058886e-07 
-3.248282721e-07 -1.210569672e-07 -1.919092139e-07 -1.210569672e-07 -6.130820293e-07 2.978577726e-07 -1.919092139e-07 2.978577726e-07 -4.577022346e-07 
0 0 -8.368447946e-07 0 3.946543856e-07 -3.985763153e-07 -8.368447946e-07 -3.985763153e-07 0 
1.67064315e-07 0 1.254794232e-07 0 2.322024294e-07 0 1.254794232e-07 0 0 
-2.118500002e-07 0 -2.320347593e-07 0 -3.640331141e-07 2.229362798e-07 -2.320347593e-07 2.229362798e-07 -2.949540616e-07 
0 0 1.656049687e-07 0 0 1.898193771e-07 1.656049687e-07 1.898193771e-07 -2.024369547e-07 
2.409696236e-07 0 -1.568628217e-07 0 4.870217217e-07 -1.583976668e-07 -1.568628217e-07 -1.583976668e-07 0 
0 0 -5.545025497e-07 0 1.398350933e-07 -1.252807641e-07 -5.545025497e-07 -1.252807641e-07 -1.198878707e-07 
-1.379446917e-07 0 -5.143770042e-07 0 0 0 -5.143770042e-07 0 -2.826360438e-07 
0 0 -3.067379262e-07 0 -1.986668316e-07 0 -3.067379262e-07 0 -1.56076236e-07 
4.6716841e-07 2.239090092e-07 3.923747901e-07 2.239090092e-07 7.533839212e-07 -1.457782246e-07 3.923747901e-07 -1.457782246e-07 0 
0 0 -3.091906144e-07 0 1.477260568e-07 0 -3.091906144e-07 0 0 
-3.333704854e-07 -1.382961928e-07 3.907693982e-07 -1.382961928e-07 -4.75677485e-07 0 3.907693982e-07 0 -3.334964123e-07 
1.859813837e-07 0 0 0 2.773585448e-07 0 0 0 0 
2.546365479e-07 1.24517083e-07 0 1.24517083e-07 4.50554989e-07 0 0 0 0 
0 0 -3.079642703e-07 0 0 0 -3.079642703e-07 0 -1.374996851e-07 
-2.14288064e-07 0 0 0 -3.371721583e-07 0 0 0 -2.447863241e-07 
0 0 3.915720941e-07 0 1.388532181e-07 0 3.915720941e-07 0 0 
-1.456328998e-07 0 0 0 -1.639757141e-07 0 0 0 -2.262097733e-07 
0 0 -2.043437252e-07 0 0 -2.007979159e-07 -2.043437252e-07 -2.007979159e-07 0 
0 0 -1.844683216e-07 0 0 -2.890741728e-07 -1.844683216e-07 -2.890741728e-07 0 
0 0 0 0 0 1.897961364e-07 0 1.897961364e-07 0 
0 0 0 0 0 0 0 0 0 
0 0 -1.944060234e-07 0 0 -2.449360444e-07 -1.944060234e-07 -2.449360444e-07 0 
0 0 0 0 0 0 0 0 0 
0 0 0 0 0 0 0 0 0 
0 0 0 0 0 -1.277742869e-07 0 -1.277742869e-07 0 
0 0 0 0 0 -1.719124154e-07 0 -1.719124154e-07 0 
0 0 0 0 0 0 0 0 0 
0 0 0 0 0 1.854716516e-07 0 1.854716516e-07 0 
0 0 -2.183289692e-07 0 0 -3.458580897e-07 -2.183289692e-07 -3.458580897e-07 0 
0 0 -3.60103076e-07 0 0 -4.636779112e-07 -3.60103076e-07 -4.636779112e-07 0 
0 0 -1.864577172e-07 0 0 -1.683919961e-07 -1.864577172e-07 -1.683919961e-07 1.347857741e-07 
0 0 0 0 0 0 0 0 0 
0 0 -2.892160226e-07 0 0 -4.047680005e-07 -2.892160226e-07 -4.047680005e-07 0 
0 0 -1.339517435e-07 0 0 -1.391031298e-07 -1.339517435e-07 -1.391031298e-07 0 
0 0 0 0 0 0 0 0 0 
0 0 -2.023933432e-07 0 0 -2.571250429e-07 -2.023933432e-07 -2.571250429e-07 0 
0 0 -2.732803966e-07 0 0 -3.160349536e-07 -2.732803966e-07 -3.160349536e-07 0 
0 0 0 0 0 1.938412898e-07 0 1.938412898e-07 0 
0 0 -2.411571071e-07 0 0 4.823784721e-07 -2.411571071e-07 4.823784721e-07 2.071011966e-07 
-1.526267407e-07 0 -7.913471538e-07 0 0 0 -7.913471538e-07 0 0 
2.255754441e-07 0 1.309644193e-06 0 0 -3.056556067e-07 1.309644193e-06 -3.056556067e-07 0 
0 0 0 0 0 3.381098809e-07 0 3.381098809e-07 0 
0 0 -5.162521305e-07 0 0 2.017033623e-07 -5.162521305e-07 2.017033623e-07 0 
0 0 -3.59728478e-07 0 0 0 -3.59728478e-07 0 0 
0 0 6.907671956e-07 0 0 0 6.907671956e-07 0 0 
0 0 5.342435431e-07 0 0 0 5.342435431e-07 0 0 
0 0 2.591485198e-07 0 0 -1.923136771e-07 2.591485198e-07 -1.923136771e-07 0 
-4.29933561e-07 0 -4.515329284e-07 0 -2.555155226e-07 -3.855719047e-07 -4.515329284e-07 -3.855719047e-07 -2.280720635e-07 
1.426653917e-07 0 1.547125702e-07 0 0 0 1.547125702e-07 0 1.859080917e-07 
0 0 0 0 0 2.426226922e-07 0 2.426226922e-07 0 
3.983007646e-07 -1.502531976e-07 0 -1.502531976e-07 2.336216394e-07 -3.059801611e-07 0 -3.059801611e-07 3.305522026e-07 
-1.436340846e-07 0 -1.484101791e-07 0 0 -1.355686564e-07 -1.484101791e-07 -1.355686564e-07 0 
0 0 0 0 0 1.78528642e-07 0 1.78528642e-07 0 
-2.670534361e-07 0 -2.167327405e-07 0 -1.523098083e-07 0 -2.167327405e-07 0 -1.329478577e-07 
0 0 -2.337160376e-07 0 0 -3.457760329e-07 -2.337160376e-07 -3.457760329e-07 0 
2.704830782e-07 0 0 0 1.543828498e-07 0 0 0 2.582301471e-07 
1.470637267e-07 0 0 0 0 0 0 0 1.463642753e-07 
1.892202878e-07 1.523756476e-07 -3.307933723e-07 1.523756476e-07 2.018039265e-07 1.353695712e-07 -3.307933723e-07 1.353695712e-07 0 
-5.498257983e-07 -3.005027915e-07 3.221372856e-07 -3.005027915e-07 -9.706602166e-07 -1.96404193e-07 3.221372856e-07 -1.96404193e-07 -5.414438245e-07 
0 0 3.120907239e-07 0 1.463812438e-07 -1.274801519e-07 3.120907239e-07 -1.274801519e-07 0 
5.192808677e-07 1.53588579e-07 3.686093432e-07 1.53588579e-07 8.892036555e-07 -1.824704315e-07 3.686093432e-07 -1.824704315e-07 3.871166655e-07 
-1.803027553e-07 0 0 0 -3.84428145e-07 0 0 0 -2.272554744e-07 
-2.228323374e-07 -1.48027598e-07 3.171140047e-07 -1.48027598e-07 -4.121394864e-07 -1.619421725e-07 3.171140047e-07 -1.619421725e-07 -3.134604513e-07 
1.466907057e-07 0 0 0 1.740925852e-07 0 0 0 0 
3.542505777e-07 1.529821133e-07 0 1.529821133e-07 5.45503791e-07 0 0 0 2.370247706e-07 
0 0 3.453733144e-07 0 0 -1.894373123e-07 3.453733144e-07 -1.894373123e-07 0 
3.117209956e-07 0 3.403500335e-07 0 5.177924497e-07 -1.549752917e-07 3.403500335e-07 -1.549752917e-07 1.508197937e-07 
0 0 2.917063921e-07 0 -1.280708952e-07 -1.62730671e-07 2.917063921e-07 -1.62730671e-07 -2.096937946e-07 
0 0 3.004500456e-07 0 0 -2.338732109e-07 3.004500456e-07 -2.338732109e-07 -1.224162227e-07 
5.022875559e-07 2.719507931e-07 -2.542245397e-07 2.719507931e-07 9.5228549e-07 2.677861523e-07 -2.542245397e-07 2.677861523e-07 4.060758124e-07 
-5.616147672e-07 -2.264832172e-07 -2.460629524e-07 -2.264832172e-07 -9.892310911e-07 -3.499463794e-07 -2.460629524e-07 -3.499463794e-07 -6.165973009e-07 
0 0 2.960782189e-07 0 0 -1.98301941e-07 2.960782189e-07 -1.98301941e-07 -1.660550086e-07 
2.315754729e-07 0 0 0 4.338843658e-07 0 0 0 1.418297949e-07 
2.334572792e-07 0 0 0 4.121072974e-07 0 0 0 0 
-2.984938823e-07 -1.393733975e-07 0 -1.393733975e-07 -5.586509931e-07 -2.563385252e-07 0 -2.563385252e-07 -4.131455478e-07 
-3.003756887e-07 -1.563361469e-07 0 -1.563361469e-07 -5.368739248e-07 -2.919097952e-07 0 -2.919097952e-07 -3.695067618e-07 
0 0 -2.50143746e-07 0 0 0 -2.50143746e-07 0 0 
1.791692526e-07 0 2.9382282e-07 0 3.586037906e-07 -1.89068924e-07 2.9382282e-07 -1.89068924e-07 0 
0 0 -3.159305655e-07 0 1.382954318e-07 1.437266644e-07 -3.159305655e-07 1.437266644e-07 0 
-1.314853872e-07 0 -3.173038431e-07 0 -3.565208284e-07 1.649028157e-07 -3.173038431e-07 1.649028157e-07 -1.799948653e-07 
-1.208646915e-07 0 3.740117603e-07 0 -3.175902144e-07 -1.621025697e-07 3.740117603e-07 -1.621025697e-07 -1.57426982e-07 
0 0 0 0 2.484496112e-07 0 0 0 0 
0 0 -3.166172043e-07 0 0 1.5431474e-07 -3.166172043e-07 1.5431474e-07 0 
0 0 0 0 0 0 0 0 0 
0 0 3.339172901e-07 0 0 -1.755857468e-07 3.339172901e-07 -1.755857468e-07 0 
0 0 0 0 0 0 0 0 0 
-1.261750393e-07 0 0 0 -3.370555214e-07 0 0 0 -1.687109237e-07 
-1.488602612e-07 0 -2.352030377e-07 0 -1.259647379e-07 3.069821107e-07 -2.352030377e-07 3.069821107e-07 0 
-6.092599926e-07 -2.033177964e-07 -1.779734291e-07 -2.033177964e-07 -1.05841656e-06 3.829297775e-07 -1.779734291e-07 3.829297775e-07 -5.231337485e-07 
0 0 2.45102333e-07 0 2.607085627e-07 -2.734952413e-07 2.45102333e-07 -2.734952413e-07 0 
7.349562394e-07 3.295706993e-07 -2.279791689e-07 3.295706993e-07 1.089871798e-06 -3.066316142e-07 -2.279791689e-07 -3.066316142e-07 3.80151465e-07 
-3.790601269e-07 0 -2.065882334e-07 0 -5.921906489e-07 3.449559441e-07 -2.065882334e-07 3.449559441e-07 -3.19720999e-07 
-2.620162474e-07 0 0 0 -3.988539986e-07 0 0 0 -2.80174228e-07 
0 0 0 0 0 0 0 0 0 
2.930479891e-07 1.65242212e-07 -2.315911033e-07 1.65242212e-07 4.8195353e-07 0 -2.315911033e-07 0 1.319216078e-07 
0 0 -2.02976299e-07 0 0 0 -2.02976299e-07 0 0 
4.100918686e-07 1.476267107e-07 0 1.476267107e-07 6.752901803e-07 -2.900634278e-07 0 -2.900634278e-07 1.714683788e-07 
-7.207838435e-07 -2.851886553e-07 0 -2.851886553e-07 -7.298761297e-07 -3.847509125e-07 0 -3.847509125e-07 -5.206480439e-07 
-1.801275791e-07 0 -8.398888941e-07 0 0 -1.414150053e-07 -8.398888941e-07 -1.414150053e-07 -1.762939955e-07 
1.998241367e-07 1.950703954e-07 1.470323749e-07 1.950703954e-07 4.199223666e-07 -2.175218957e-07 1.470323749e-07 -2.175218957e-07 0 
6.730693721e-07 1.920030823e-07 1.223956803e-06 1.920030823e-07 3.165894314e-07 9.98244982e-07 1.223956803e-06 9.98244982e-07 1.785890284e-07 
-4.504557113e-07 -1.701563906e-07 -4.284077294e-07 -1.701563906e-07 -3.918608907e-07 -2.630829589e-07 -4.284077294e-07 -2.630829589e-07 -3.484710197e-07 
0 0 -3.464282596e-07 0 1.830383575e-07 -1.794684505e-07 -3.464282596e-07 -1.794684505e-07 0 
-2.604798534e-07 0 0 0 -1.549768815e-07 -3.011364041e-07 0 -3.011364041e-07 -2.599893139e-07 
0 0 6.035151193e-07 0 -2.066433491e-07 3.067470348e-07 6.035151193e-07 3.067470348e-07 -1.710295077e-07 
2.464708965e-07 0 1.920339546e-07 0 1.313718899e-07 4.284149883e-07 1.920339546e-07 4.284149883e-07 0 
4.364467544e-07 1.935367388e-07 6.854945891e-07 1.935367388e-07 3.68255899e-07 3.903615432e-07 6.854945891e-07 3.903615432e-07 0 
3.547868434e-07 1.66065928e-07 0 1.66065928e-07 2.247268443e-07 -3.526868325e-07 0 -3.526868325e-07 0 
-1.864293899e-07 0 -2.301347895e-07 0 0 3.996391178e-07 -2.301347895e-07 3.996391178e-07 -1.947575551e-07 
1.650122324e-07 0 2.987624071e-07 0 0 0 2.987624071e-07 0 0 
-3.079264578e-07 0 0 0 -1.6500607e-07 -1.954520166e-07 0 -1.954520166e-07 -1.936114273e-07 
0 0 0 0 0 0 0 0 0 
0 0 0 0 0 1.475138836e-07 0 1.475138836e-07 0 
2.598995379e-07 0 1.468135589e-07 0 1.593302252e-07 -2.286490916e-07 1.468135589e-07 -2.286490916e-07 0 
0 0 0 0 0 -2.740694245e-07 0 -2.740694245e-07 0 
-2.471779238e-07 0 0 0 -1.390792544e-07 0 0 0 -1.941844912e-07 
0 0 1.870002284e-07 0 0 -1.500316836e-07 1.870002284e-07 -1.500316836e-07 0 
0 0 -2.810559456e-07 0 0 1.714550325e-07 -2.810559456e-07 1.714550325e-07 0 
-4.057903872e-07 0 -1.957098546e-07 0 -7.124801677e-07 3.219740873e-07 -1.957098546e-07 3.219740873e-07 -4.494718782e-07 
5.146368524e-07 2.168840512e-07 4.750512795e-07 2.168840512e-07 6.055038148e-07 0 4.750512795e-07 0 1.53838129e-07 
0 0 -8.35052239e-07 0 4.616458502e-07 -3.235010464e-07 -8.35052239e-07 -3.235010464e-07 0 
-2.61233855e-07 0 -2.383829001e-07 0 -3.93437738e-07 2.467145599e-07 -2.383829001e-07 2.467145599e-07 -2.577712183e-07 
0 0 1.396707125e-07 0 0 1.741215847e-07 1.396707125e-07 1.741215847e-07 -1.478168746e-07 
1.989797648e-07 0 0 0 2.655542532e-07 0 0 0 0 
0 0 -5.580540923e-07 0 1.936252709e-07 0 -5.580540923e-07 0 0 
-2.107521495e-07 0 -5.153810468e-07 0 -1.254171587e-07 0 -5.153810468e-07 0 -2.377731613e-07 
2.494614703e-07 0 -1.800004797e-07 0 5.335748325e-07 -1.486159822e-07 -1.800004797e-07 -1.486159822e-07 0 
5.263608967e-07 2.144482555e-07 3.767334621e-07 2.144482555e-07 7.505238138e-07 -1.442540774e-07 3.767334621e-07 -1.442540774e-07 2.012624698e-07 
0 0 -3.161066146e-07 0 0 0 -3.161066146e-07 0 0 
-1.279863956e-07 0 -3.223834918e-07 0 -1.38481392e-07 0 -3.223834918e-07 0 0 
-3.38037341e-07 -1.668978164e-07 4.101696195e-07 -1.668978164e-07 -4.740562124e-07 0 4.101696195e-07 0 -2.865910358e-07 
2.527711045e-07 1.246615209e-07 0 1.246615209e-07 4.275856433e-07 0 0 0 0 
0 0 -3.192450532e-07 0 0 0 -3.192450532e-07 0 0 
1.991872505e-07 0 0 0 3.060212109e-07 0 0 0 0 
0 0 3.934515408e-07 0 1.382338007e-07 0 3.934515408e-07 0 0 
-1.794280143e-07 0 0 0 -1.847043698e-07 0 0 0 -1.874710602e-07 
-2.330118683e-07 0 0 0 -3.062688022e-07 0 0 0 -1.875558061e-07 
1.295372899e-07 0 4.836866225e-07 0 0 0 4.836866225e-07 0 0 
2.944434664e-07 0 3.793971384e-07 0 1.989138557e-07 0 3.793971384e-07 0 0 
0 0 -3.160979673e-07 0 1.469159066e-07 1.256274425e-07 -3.160979673e-07 1.256274425e-07 0 
-5.257847091e-07 -1.844726089e-07 -8.156010726e-07 -1.844726089e-07 -5.498196027e-07 -2.997218307e-07 -8.156010726e-07 -2.997218307e-07 -4.479642857e-07 
2.119903781e-07 0 4.315418804e-07 0 0 0 4.315418804e-07 0 0 
1.765542101e-07 0 0 0 1.729148812e-07 0 0 0 0 
0 0 0 0 0 0 0 0 0 
-1.981237096e-07 0 -1.659572251e-07 0 -3.161414903e-07 -1.829253226e-07 -1.659572251e-07 -1.829253226e-07 -2.587904361e-07 
0 0 -2.181019671e-07 0 -1.754528735e-07 -1.848069143e-07 -2.181019671e-07 -1.848069143e-07 -2.422085948e-07 
-2.335598777e-07 0 -5.658495199e-07 0 -2.014518481e-07 0 -5.658495199e-07 0 -1.86199184e-07 
2.639450822e-07 1.661486358e-07 -3.722962244e-07 1.661486358e-07 2.840129633e-07 0 -3.722962244e-07 0 1.784354435e-07 
-4.275939542e-07 -2.190619173e-07 4.631858388e-07 -2.190619173e-07 -8.89999503e-07 0 4.631858388e-07 0 -5.799712394e-07 
-3.547345598e-07 -2.252278055e-07 3.208604167e-07 -2.252278055e-07 -5.837147107e-07 -3.483211236e-07 3.208604167e-07 -3.483211236e-07 -3.648197564e-07 
7.505757165e-07 2.563214223e-07 3.189977775e-07 2.563214223e-07 1.422382596e-06 -3.013333663e-07 3.189977775e-07 -3.013333663e-07 6.649287848e-07 
0 0 0 0 -3.029932699e-07 0 0 0 -2.007678979e-07 
-3.91164257e-07 -2.221448614e-07 3.920231277e-07 -2.221448614e-07 -7.368571069e-07 -1.365271835e-07 3.920231277e-07 -1.365271835e-07 -4.723954979e-07 
0 0 0 0 -1.498508737e-07 -1.599836277e-07 0 -1.599836277e-07 0 
5.072603993e-07 2.112350291e-07 0 2.112350291e-07 8.531977799e-07 -1.36489749e-07 0 -1.36489749e-07 4.216821141e-07 
1.614908811e-07 0 3.910918081e-07 0 2.661915467e-07 0 3.910918081e-07 0 0 
1.979205783e-07 0 3.199290971e-07 0 4.193339429e-07 -3.24827245e-07 3.199290971e-07 -3.24827245e-07 1.500545142e-07 
4.573309916e-07 0 0 0 1.911744212e-07 2.063929616e-07 0 2.063929616e-07 3.341049318e-07 
0 0 0 0 0 0 0 0 0 
-2.361106714e-07 0 0 0 0 -2.027469563e-07 0 -2.027469563e-07 -6.617489542e-07 
0 0 0 0 0 2.70565171e-07 0 2.70565171e-07 -6.499406757e-07 
2.096244355e-07 0 0 0 0 0 0 0 1.602035864e-07 
-1.37096396e-07 0 0 0 0 -1.196231905e-07 0 -1.196231905e-07 -3.377233566e-07 
0 0 0 0 0 0 0 0 -1.638220112e-07 
2.154861152e-07 0 0 0 0 2.384790663e-07 0 2.384790663e-07 -1.579178719e-07 
0 0 0 0 0 0 0 0 -3.318192174e-07 
-1.312347163e-07 0 0 0 0 0 0 0 -6.558448149e-07 
-2.12048921e-07 0 0 0 0 -2.042681448e-07 0 -2.042681448e-07 -6.500821682e-07 
0 0 -2.91062772e-07 0 0 0 -2.91062772e-07 0 0 
0 0 1.472632866e-07 0 0 1.641375444e-07 1.472632866e-07 1.641375444e-07 0 
1.921188807e-07 -1.485369947e-07 0 -1.485369947e-07 2.044019855e-07 -2.210559964e-07 0 -2.210559964e-07 3.018971272e-07 
-1.256864894e-07 0 -1.441691418e-07 0 0 0 -1.441691418e-07 0 -3.198235102e-07 
0 0 0 0 0 0 0 0 0 
0 0 0 0 0 0 0 0 -2.7018133e-07 
0 0 0 0 0 -2.126620706e-07 0 -2.126620706e-07 -1.740925205e-07 
0 0 -1.604056106e-07 0 0 0 -1.604056106e-07 0 1.561661375e-07 
0 0 0 0 0 0 0 0 2.058083176e-07 
1.589880973e-07 0 0 0 0 -1.984621543e-07 0 -1.984621543e-07 -4.596789915e-07 
1.474940435e-07 0 0 0 0 -2.534661427e-07 0 -2.534661427e-07 -3.447549683e-07 
-2.091467183e-07 0 0 0 0 1.928909449e-07 0 1.928909449e-07 0 
-2.477988595e-07 0 0 0 -1.313906785e-07 2.739243509e-07 0 2.739243509e-07 -7.16944031e-07 
1.532410704e-07 0 0 0 0 -2.259641485e-07 0 -2.259641485e-07 -4.022169799e-07 
0 0 0 0 0 0 0 0 -1.554226478e-07 
0 0 0 0 0 0 0 0 -2.128846594e-07 
0 0 0 0 0 0 0 0 -5.883115113e-07 
0 0 0 0 0 0 0 0 -5.308494997e-07 
-2.284727889e-07 0 0 0 -1.218419246e-07 2.334076479e-07 0 2.334076479e-07 -3.415171792e-07 
-7.066557111e-07 1.615743925e-07 1.846610762e-07 1.615743925e-07 -4.158273251e-07 1.552961513e-07 1.846610762e-07 1.552961513e-07 -2.064032715e-07 
3.868864681e-07 0 0 0 2.225773681e-07 -2.273074619e-07 0 -2.273074619e-07 -2.415697846e-07 
2.479478947e-07 0 0 0 1.497863752e-07 -1.973979277e-07 0 -1.973979277e-07 -4.199827164e-07 
3.217167845e-07 0 -1.330066983e-07 0 2.572933682e-07 -2.185417938e-07 -1.330066983e-07 -2.185417938e-07 4.042711322e-07 
-1.598846215e-07 0 0 0 0 0 0 0 -2.239865281e-07 
3.174171814e-07 0 0 0 1.861818716e-07 -2.123526948e-07 0 -2.123526948e-07 -3.307762505e-07 
-2.293539082e-07 0 0 0 -1.33020475e-07 0 0 0 -3.131929939e-07 
-1.924694633e-07 0 0 0 0 0 0 0 0 
3.543016263e-07 0 -1.192382776e-07 0 2.399353682e-07 -2.229246278e-07 -1.192382776e-07 -2.229246278e-07 0 
2.848323396e-07 0 0 0 2.035398717e-07 -2.079698608e-07 0 -2.079698608e-07 0 
2.64442165e-07 0 -2.25076008e-07 0 5.054282706e-07 2.314202245e-07 -2.25076008e-07 2.314202245e-07 0 
0 0 2.735488183e-07 0 -1.384504407e-07 -2.083915775e-07 2.735488183e-07 -2.083915775e-07 -3.766776525e-07 
0 0 2.889366846e-07 0 1.379262337e-07 -3.116499488e-07 2.889366846e-07 -3.116499488e-07 0 
-4.113819714e-07 -1.614611329e-07 -1.73966537e-07 -1.614611329e-07 -7.857949757e-07 0 -1.73966537e-07 0 -6.662447038e-07 
0 0 0 0 1.834889149e-07 0 0 0 -1.522538217e-07 
0 0 2.812427515e-07 0 0 -2.600207631e-07 2.812427515e-07 -2.600207631e-07 -2.409247163e-07 
1.63274777e-07 0 0 0 3.216772521e-07 0 0 0 0 
0 0 -1.995212725e-07 0 -1.401833526e-07 0 -1.995212725e-07 0 -2.970373473e-07 
-2.46628487e-07 0 0 0 -4.621227082e-07 -1.456755074e-07 0 -1.456755074e-07 -5.214611781e-07 
-1.746372912e-07 0 0 0 -3.23934371e-07 -1.973046931e-07 0 -1.973046931e-07 -3.85708242e-07 
0 0 3.288937393e-07 0 0 0 3.288937393e-07 0 -3.213343451e-07 
1.687340843e-07 0 -2.978788054e-07 0 0 0 -2.978788054e-07 0 0 
-4.781717152e-07 -2.017290703e-07 3.391830557e-07 -2.017290703e-07 -7.73901653e-07 -2.242059279e-07 3.391830557e-07 -2.242059279e-07 -5.407590045e-07 
4.569297762e-07 2.178822524e-07 3.332122511e-07 2.178822524e-07 9.159658306e-07 -1.550391577e-07 3.332122511e-07 -1.550391577e-07 2.628840859e-07 
0 0 0 0 0 0 0 0 -1.977317302e-07 
-1.547188154e-07 0 0 0 -3.301061889e-07 0 0 0 -3.074440599e-07 
-2.622605464e-07 0 3.340383975e-07 0 -3.817823663e-07 -1.681240167e-07 3.340383975e-07 -1.681240167e-07 -4.310466748e-07 
2.052901993e-07 0 3.310529952e-07 0 4.631513755e-07 -1.335406316e-07 3.310529952e-07 -1.335406316e-07 0 
3.128319302e-07 1.547544007e-07 0 1.547544007e-07 5.148275529e-07 0 0 0 0 
0 0 3.361976534e-07 0 0 -1.896225428e-07 3.361976534e-07 -1.896225428e-07 -1.389374593e-07 
0 0 2.321501446e-07 0 1.829306046e-07 -3.049186109e-07 2.321501446e-07 -3.049186109e-07 -1.989710706e-07 
0 0 -2.122758114e-07 0 0 2.470538372e-07 -2.122758114e-07 2.470538372e-07 -1.983083395e-07 
-4.853879135e-07 -2.329995857e-07 -1.885304279e-07 -2.329995857e-07 -9.262730082e-07 2.824791125e-07 -1.885304279e-07 2.824791125e-07 -5.670025114e-07 
6.583603915e-07 2.872867899e-07 -1.920805808e-07 2.872867899e-07 1.001418956e-06 0 -1.920805808e-07 0 1.829557545e-07 
0 0 0 0 0 0 0 0 -1.98639705e-07 
-2.932083712e-07 -1.405977987e-07 -2.004031196e-07 -1.405977987e-07 -4.786489802e-07 2.647664749e-07 -2.004031196e-07 2.647664749e-07 -3.826554254e-07 
-1.931989356e-07 0 0 0 -3.716712018e-07 0 0 0 -3.82986791e-07 
3.786752169e-07 1.759749386e-07 0 1.759749386e-07 5.921747802e-07 -2.092507532e-07 0 -2.092507532e-07 0 
2.786657813e-07 1.195453891e-07 -2.021781961e-07 1.195453891e-07 4.851970018e-07 0 -2.021781961e-07 0 0 
0 0 -1.903055043e-07 0 0 0 -1.903055043e-07 0 -1.920233784e-07 
0 0 -2.853286267e-07 0 -2.427636769e-07 1.198267784e-07 -2.853286267e-07 1.198267784e-07 -2.497820049e-07 
0 0 3.039014293e-07 0 2.309040463e-07 -1.798525704e-07 3.039014293e-07 -1.798525704e-07 -1.91531165e-07 
0 0 -2.951505407e-07 0 2.481729531e-07 0 -2.951505407e-07 0 0 
-2.401696551e-07 0 3.479451314e-07 0 -3.706248337e-07 -1.201824187e-07 3.479451314e-07 -1.201824187e-07 -3.19837117e-07 
0 0 0 0 0 0 0 0 -2.20656585e-07 
0 0 0 0 2.395384997e-07 0 0 0 0 
0 0 -2.902395837e-07 0 0 0 -2.902395837e-07 0 -1.463210573e-07 
-1.50911318e-07 0 0 0 -3.066942553e-07 0 0 0 -2.848095609e-07 
0 0 3.259232803e-07 0 0 -1.500174945e-07 3.259232803e-07 -1.500174945e-07 -2.55684141e-07 
0 0 0 0 0 0 0 0 -1.813486134e-07 
-3.047358303e-07 -2.149821187e-07 0 -2.149821187e-07 2.938416087e-07 -1.759526312e-07 0 -1.759526312e-07 -1.554881537e-07 
0 2.174049406e-07 -4.156635159e-07 2.174049406e-07 -3.771804137e-07 4.955855004e-07 -4.156635159e-07 4.955855004e-07 -6.945168121e-07 
2.828454268e-07 2.026377565e-07 0 2.026377565e-07 0 1.54705198e-07 0 1.54705198e-07 9.205384335e-07 
-1.744333039e-07 0 -4.928387057e-07 0 0 7.635084142e-07 -4.928387057e-07 7.635084142e-07 -2.257644397e-07 
0 0 -2.029966155e-07 0 0 1.598164346e-07 -2.029966155e-07 1.598164346e-07 -4.250024829e-07 
1.966616793e-07 2.100213486e-07 -1.645432413e-07 2.100213486e-07 -1.828896441e-07 3.251453492e-07 -1.645432413e-07 3.251453492e-07 0 
0 0 0 0 1.526213671e-07 0 0 0 3.825251399e-07 
-2.395845671e-07 0 -2.415842104e-07 0 1.240872481e-07 2.937778915e-07 -2.415842104e-07 2.937778915e-07 -1.906262967e-07 
0 1.517885504e-07 -4.542511108e-07 1.517885504e-07 -2.114237631e-07 6.295469573e-07 -4.542511108e-07 6.295469573e-07 -4.601406259e-07 
0 1.444049584e-07 -2.031308362e-07 1.444049584e-07 0 4.591068061e-07 -2.031308362e-07 4.591068061e-07 3.473869969e-07 
8.429467778e-07 5.798022792e-07 -6.327303768e-07 5.798022792e-07 8.426777384e-07 -2.986378732e-07 -6.327303768e-07 -2.986378732e-07 1.313982216e-06 
-5.693869221e-07 0 0 0 -9.074401562e-07 7.603272853e-07 0 7.603272853e-07 -1.043595801e-06 
4.687051787e-07 0 4.389200507e-07 0 5.8859832e-07 0 4.389200507e-07 0 1.791605091e-07 
-3.156836691e-07 0 1.405936888e-07 0 2.058567716e-07 -7.921524719e-07 1.405936888e-07 -7.921524719e-07 5.966567175e-07 
1.367799279e-07 2.806994442e-07 -3.155052024e-07 2.806994442e-07 0 2.308447061e-07 -3.155052024e-07 2.308447061e-07 1.351932076e-07 
0 0 2.203200114e-07 0 -1.594209181e-07 4.274752088e-07 2.203200114e-07 4.274752088e-07 -4.322176459e-07 
6.558259783e-07 2.424300077e-07 0 2.424300077e-07 7.156380292e-07 0 0 0 7.465713625e-07 
2.636315544e-07 2.743697667e-07 -2.46068344e-07 2.743697667e-07 5.24267255e-07 -5.453951726e-07 -2.46068344e-07 -5.453951726e-07 9.553194667e-07 
-4.425352956e-07 0 0 0 -3.507916923e-07 0 0 0 -2.234695417e-07 
0 0 2.897568698e-07 0 3.972275458e-07 -3.487646699e-07 2.897568698e-07 -3.487646699e-07 3.879086133e-07 
-1.335843374e-07 0 -2.263469671e-07 0 0 2.703661402e-07 -2.263469671e-07 2.703661402e-07 -1.508511496e-07 
-5.457146568e-07 -2.178309153e-07 -2.019768769e-07 -2.178309153e-07 -9.509266429e-07 3.076546054e-07 -2.019768769e-07 3.076546054e-07 -5.449299877e-07 
1.354936369e-07 0 2.454535723e-07 0 2.265137653e-07 -3.146883179e-07 2.454535723e-07 -3.146883179e-07 0 
6.450579477e-07 2.962340973e-07 -1.962485161e-07 2.962340973e-07 9.644225917e-07 -1.489615358e-07 -1.962485161e-07 -1.489615358e-07 2.564263301e-07 
-3.396494971e-07 -1.201872293e-07 -2.14161922e-07 -1.201872293e-07 -5.006652475e-07 2.890103728e-07 -2.14161922e-07 2.890103728e-07 -3.478905686e-07 
-2.051105099e-07 0 0 0 -3.622064388e-07 0 0 0 -3.208629659e-07 
0 0 0 0 0 0 0 0 -1.238235468e-07 
2.557368051e-07 1.36845277e-07 -2.112977416e-07 1.36845277e-07 4.570093698e-07 0 -2.112977416e-07 0 0 
0 0 -1.991126965e-07 0 0 0 -1.991126965e-07 0 -1.442518288e-07 
3.902757923e-07 1.67422188e-07 0 1.67422188e-07 5.954681785e-07 -2.318249268e-07 0 -2.318249268e-07 0 
1.314752572e-07 0 3.134078882e-07 0 2.427301904e-07 -1.966938653e-07 3.134078882e-07 -1.966938653e-07 0 
0 0 -3.115577056e-07 0 2.000229473e-07 0 -3.115577056e-07 0 0 
0 0 -3.038841674e-07 0 -2.301326837e-07 1.35835449e-07 -3.038841674e-07 1.35835449e-07 -1.992409728e-07 
-1.818173546e-07 0 3.629996099e-07 0 -2.737110422e-07 -1.331961276e-07 3.629996099e-07 -1.331961276e-07 -2.201938251e-07 
0 0 0 0 2.213765689e-07 0 0 0 0 
0 0 -3.077209365e-07 0 0 1.265109515e-07 -3.077209365e-07 1.265109515e-07 0 
0 0 0 0 0 0 0 0 -1.462979797e-07 
0 0 3.38203749e-07 0 0 -1.649449965e-07 3.38203749e-07 -1.649449965e-07 -1.567744059e-07 
0 0 0 0 0 0 0 0 -1.252052337e-07 
-1.489013831e-07 0 0 0 -2.519218629e-07 0 0 0 -2.097173989e-07 
0 0 2.933962535e-07 0 -1.40936345e-07 -2.030059691e-07 2.933962535e-07 -2.030059691e-07 -2.898748649e-07 
0 0 2.861612132e-07 0 0 -2.980455982e-07 2.861612132e-07 -2.980455982e-07 0 
2.701389311e-07 1.534222014e-07 -2.574000019e-07 1.534222014e-07 5.565006944e-07 2.108371786e-07 -2.574000019e-07 2.108371786e-07 1.64009546e-07 
-4.168175651e-07 -1.51812966e-07 -1.646719644e-07 -1.51812966e-07 -7.670261783e-07 0 -1.646719644e-07 0 -5.854777893e-07 
0 0 2.897787333e-07 0 0 -2.505257837e-07 2.897787333e-07 -2.505257837e-07 -1.92308809e-07 
1.544256462e-07 0 0 0 3.209205834e-07 0 0 0 0 
0 0 0 0 2.077821747e-07 0 0 0 0 
-2.339971084e-07 0 0 0 -4.539812617e-07 -1.459446805e-07 0 -1.459446805e-07 -4.376763271e-07 
-1.890526019e-07 0 0 0 -3.408428529e-07 -1.934644951e-07 0 -1.934644951e-07 -3.401102712e-07 
0 0 -2.110359831e-07 0 0 0 -2.110359831e-07 0 -2.107341216e-07 
1.314155288e-07 0 -3.256407168e-07 0 1.587274384e-07 0 -3.256407168e-07 0 0 
-4.63823636e-07 -2.224580488e-07 3.534790253e-07 -2.224580488e-07 -8.152331405e-07 -1.813211494e-07 3.534790253e-07 -1.813211494e-07 -5.156716368e-07 
0 0 3.40406184e-07 0 0 -1.214923492e-07 3.40406184e-07 -1.214923492e-07 -2.297448689e-07 
4.811767573e-07 1.942721716e-07 3.407827636e-07 1.942721716e-07 9.129856175e-07 -1.839195053e-07 3.407827636e-07 -1.839195053e-07 3.352046016e-07 
-1.662040536e-07 0 0 0 -3.28252851e-07 0 0 0 -2.563075712e-07 
-2.280545531e-07 0 3.469426046e-07 0 -4.073183283e-07 -1.514067493e-07 3.469426046e-07 -1.514067493e-07 -3.727082529e-07 
0 0 0 0 0 0 0 0 0 
3.06296143e-07 1.493371496e-07 0 1.493371496e-07 5.35856528e-07 0 0 0 1.691305479e-07 
0 0 3.471308944e-07 0 0 -1.826203273e-07 3.471308944e-07 -1.826203273e-07 0 
2.444456436e-07 0 3.405944738e-07 0 4.567910507e-07 -1.527059272e-07 3.405944738e-07 -1.527059272e-07 0 
0 0 1.280435188e-07 0 0 1.849002785e-07 1.280435188e-07 1.849002785e-07 0 
-2.100499933e-07 0 0 0 0 -2.116507464e-07 0 -2.116507464e-07 -4.409730613e-07 
0 0 -2.624979915e-07 0 0 0 -2.624979915e-07 0 0 
1.955384612e-07 0 0 0 1.361447708e-07 -2.44857901e-07 0 -2.44857901e-07 2.132214956e-07 
0 0 0 0 0 0 0 0 -1.626833666e-07 
-1.458631448e-07 0 -1.286142575e-07 0 0 0 -1.286142575e-07 0 -2.301461659e-07 
0 0 0 0 0 0 0 0 0 
1.501010074e-07 0 0 0 0 0 0 0 1.644139118e-07 
0 0 0 0 0 -2.282543237e-07 0 -2.282543237e-07 0 
0 0 -1.594971148e-07 0 0 0 -1.594971148e-07 0 0 
-1.925997696e-07 0 0 0 0 -2.065171281e-07 0 -2.065171281e-07 -4.313165339e-07 
2.86302152e-07 0 0 0 1.29163763e-07 2.194071929e-07 0 2.194071929e-07 2.136371779e-07 
0 0 0 0 0 0 0 0 0 
-1.413655081e-07 0 0 0 0 3.136810957e-07 0 3.136810957e-07 -4.641425169e-07 
0 0 0 0 0 0 0 0 0 
1.674715074e-07 0 0 0 0 0 0 0 0 
0 0 0 0 0 -1.266442677e-07 0 -1.266442677e-07 -2.086771958e-07 
-1.669826388e-07 0 0 0 0 0 0 0 -4.477295254e-07 
0 0 0 0 0 2.665441443e-07 0 2.665441443e-07 -1.252526695e-07 
0 0 0 0 0 1.334548442e-07 0 1.334548442e-07 -2.250901873e-07 
1.751513796e-07 0 0 0 0 -1.989310765e-07 0 -1.989310765e-07 -2.391987116e-07 
-4.07365839e-07 0 1.681198334e-07 0 -2.28561919e-07 1.6832548e-07 1.681198334e-07 1.6832548e-07 0 
2.809139308e-07 0 0 0 1.420492067e-07 -2.312943371e-07 0 -2.312943371e-07 -1.840885835e-07 
0 0 -1.306525442e-07 0 0 -2.492376215e-07 -1.306525442e-07 -2.492376215e-07 1.953734314e-07 
0 0 0 0 0 0 0 0 -1.76566565e-07 
0 0 0 0 0 0 0 0 -1.49011501e-07 
2.280326552e-07 0 0 0 1.229612659e-07 -2.151127068e-07 0 -2.151127068e-07 -2.116436475e-07 
0 0 0 0 0 -2.24084349e-07 0 -2.24084349e-07 0 
-1.894343402e-07 0 0 0 0 0 0 0 0 
1.547055447e-07 0 -1.194116524e-07 0 0 -2.402659793e-07 -1.194116524e-07 -2.402659793e-07 0 
-1.513753222e-07 0 0 0 0 2.012801848e-07 0 2.012801848e-07 0 
1.24011661e-07 0 0 0 0 -1.96539928e-07 0 -1.96539928e-07 -2.617443986e-07 
0 0 0 0 0 -2.583539069e-07 0 -2.583539069e-07 -2.881351805e-07 
0 0 0 0 0 3.196855834e-07 0 3.196855834e-07 -4.14830167e-07 
0 0 0 0 0 0 0 0 -1.260275695e-07 
0 0 0 0 0 -2.274469175e-07 0 -2.274469175e-07 -2.749397895e-07 
0 0 0 0 0 0 0 0 -1.392229605e-07 
0 0 0 0 0 2.604828841e-07 0 2.604828841e-07 -2.025704538e-07 
0 0 0 0 0 0 0 0 -3.382872828e-07 
0 0 0 0 0 0 0 0 -3.514826737e-07 
0 0 2.420596462e-07 0 0 5.176728411e-07 2.420596462e-07 5.176728411e-07 7.294374693e-07 
-2.305473752e-07 1.538488335e-07 -3.972781783e-07 1.538488335e-07 0 7.714766464e-07 -3.972781783e-07 7.714766464e-07 -4.818136165e-07 
0 -1.291075946e-07 -3.098787857e-07 -1.291075946e-07 0 -8.640212401e-07 -3.098787857e-07 -8.640212401e-07 0 
0 0 1.261412077e-07 0 0 -4.288627458e-07 1.261412077e-07 -4.288627458e-07 -2.053642216e-07 
0 0 0 0 0 6.445747438e-07 0 6.445747438e-07 1.238119264e-07 
-1.199901129e-07 0 -3.53578482e-07 0 0 0 -3.53578482e-07 0 -2.098177482e-07 
0 0 0 0 0 -1.731741995e-07 0 -1.731741995e-07 3.958077947e-07 
0 0 1.841004269e-07 0 0 0 1.841004269e-07 0 2.620366239e-07 
0 0 -1.355684853e-07 0 0 1.713069503e-07 -1.355684853e-07 1.713069503e-07 -3.43588919e-07 
0 0 0 0 0 -6.46441993e-07 0 -6.46441993e-07 0 
0 0 -5.039334832e-07 0 0 -2.107852154e-07 -5.039334832e-07 -2.107852154e-07 2.204763071e-07 
-2.634922971e-07 0 -1.534527293e-07 0 0 0 -1.534527293e-07 0 -7.571404987e-07 
0 0 3.549825782e-07 0 1.30178769e-07 1.703578518e-07 3.549825782e-07 1.703578518e-07 7.186222867e-07 
0 -1.417475039e-07 -1.62117514e-07 -1.417475039e-07 0 0 -1.62117514e-07 0 6.797801284e-07 
-1.723773855e-07 0 -3.286931062e-07 0 0 -1.208455497e-07 -3.286931062e-07 -1.208455497e-07 -2.683320958e-07 
0 0 0 0 0 0 0 0 0 
0 0 0 0 0 0 0 0 4.695492969e-07 
0 0 -3.330254986e-07 0 0 -1.595959961e-07 -3.330254986e-07 -1.595959961e-07 4.501282177e-07 
-1.719703973e-07 0 -1.577851216e-07 0 0 0 -1.577851216e-07 0 0 
0 0 0 0 0 0 0 0 6.992012075e-07 
1.676731722e-07 0 -2.452506231e-07 0 0 -3.931659707e-07 -2.452506231e-07 -3.931659707e-07 4.897878556e-07 
-2.438246837e-07 0 3.392422679e-07 0 -1.828535415e-07 2.358922624e-07 3.392422679e-07 2.358922624e-07 -7.287886294e-07 
0 0 1.893068131e-07 0 0 -2.562274988e-07 1.893068131e-07 -2.562274988e-07 1.756326556e-07 
4.247797264e-07 1.201398133e-07 2.475544832e-07 1.201398133e-07 2.599426635e-07 5.270450327e-07 2.475544832e-07 5.270450327e-07 6.655478153e-07 
0 0 0 0 0 0 0 0 -1.195003869e-07 
-1.446208715e-07 0 2.642745405e-07 0 0 0 2.642745405e-07 0 -2.765779869e-07 
0 0 0 0 0 -3.246967347e-07 0 -3.246967347e-07 3.327102556e-07 
2.962264493e-07 0 0 0 1.668985074e-07 0 0 0 5.776678355e-07 
0 0 2.933983755e-07 0 0 3.814686476e-07 2.933983755e-07 3.814686476e-07 0 
1.896813335e-07 0 2.184306482e-07 0 1.763910858e-07 1.35408767e-07 2.184306482e-07 1.35408767e-07 4.205902355e-07 
0 0 0 0 0 0 0 0 1.518460512e-07 
0 0 3.471332673e-07 0 -1.376610982e-07 2.284733168e-07 3.471332673e-07 2.284733168e-07 -6.749623415e-07 
0 0 -4.085672997e-07 0 0 -1.639605901e-07 -4.085672997e-07 -1.639605901e-07 3.931165223e-07 
0 0 -4.892329207e-07 0 0 -2.892268644e-07 -4.892329207e-07 -2.892268644e-07 1.315932837e-07 
0 0 1.827261575e-07 0 0 0 1.827261575e-07 0 -2.615581452e-07 
0 0 0 0 0 0 0 0 -1.409229096e-07 
0 0 -1.951241259e-07 0 0 0 -1.951241259e-07 0 2.724812867e-07 
0 0 -2.354569364e-07 0 0 -1.474820589e-07 -2.354569364e-07 -1.474820589e-07 1.417196674e-07 
0 0 0 0 0 0 0 0 -2.716845289e-07 
0 0 -4.489001102e-07 0 0 -2.265937272e-07 -4.489001102e-07 -2.265937272e-07 2.62354903e-07 
-1.984542872e-07 0 0 0 0 -3.668087025e-07 0 -3.668087025e-07 0 
2.434293322e-07 0 0 0 1.669209853e-07 2.857168575e-07 0 2.857168575e-07 1.830071054e-07 
0 0 -1.782301619e-07 0 0 6.484630127e-07 -1.782301619e-07 6.484630127e-07 -1.721776708e-07 
-1.659125574e-07 0 0 0 0 2.831864782e-07 0 2.831864782e-07 0 
0 0 0 0 0 0 0 0 0 
1.742912179e-07 0 0 0 0 4.670899351e-07 0 4.670899351e-07 0 
0 0 0 0 0 1.408271551e-07 0 1.408271551e-07 0 
-1.821834223e-07 0 0 0 0 0 0 0 0 
0 0 0 0 0 2.844516679e-07 0 2.844516679e-07 0 
0 0 -1.355102377e-07 0 0 4.658247454e-07 -1.355102377e-07 4.658247454e-07 0 
2.291806901e-07 0 8.477897044e-07 0 1.561537677e-07 8.040926049e-07 8.477897044e-07 8.040926049e-07 0 
-3.314031956e-07 0 -4.779082532e-07 0 -1.347702423e-07 2.069862847e-07 -4.779082532e-07 2.069862847e-07 -1.416877014e-07 
-2.148383582e-07 0 0 0 0 -3.711478088e-07 0 -3.711478088e-07 0 
3.777257312e-07 0 -4.520133366e-07 0 2.061682798e-07 -5.429154576e-07 -4.520133366e-07 -5.429154576e-07 2.929355838e-07 
0 0 1.849407256e-07 0 0 5.055394448e-07 1.849407256e-07 5.055394448e-07 0 
-2.731207769e-07 0 -2.235555543e-07 0 -1.266290095e-07 0 -2.235555543e-07 0 0 
0 0 4.392934245e-07 0 0 2.16472398e-07 4.392934245e-07 2.16472398e-07 0 
3.034532106e-07 0 1.978881839e-07 0 1.811610237e-07 1.305885736e-07 1.978881839e-07 1.305885736e-07 1.602987086e-07 
0 0 -4.649607949e-07 0 0 -1.679645865e-07 -4.649607949e-07 -1.679645865e-07 0 
0 0 -2.10608096e-07 0 0 -4.570316332e-07 -2.10608096e-07 -4.570316332e-07 1.32024181e-07 
0 0 0 0 0 7.018291562e-07 0 7.018291562e-07 -1.227884175e-07 
0 0 0 0 0 -3.5849753e-07 0 -3.5849753e-07 3.135343269e-07 
0 0 0 0 0 -3.739221878e-07 0 -3.739221878e-07 0 
0 0 0 0 0 2.945698497e-07 0 2.945698497e-07 0 
0 0 0 0 0 1.716658131e-07 0 1.716658131e-07 0 
0 0 0 0 0 -3.662098589e-07 0 -3.662098589e-07 1.992000617e-07 
0 0 0 0 0 1.639534842e-07 0 1.639534842e-07 0 
0 0 0 0 0 4.981995029e-07 0 4.981995029e-07 0 
0 0 0 0 0 0 0 0 2.059138591e-07 
0 0 0 0 0 0 0 0 0 
0 0 0 0 0 -3.762326914e-07 0 -3.762326914e-07 0 
1.291865124e-07 0 2.348065561e-07 0 0 -3.432461237e-07 2.348065561e-07 -3.432461237e-07 3.875216511e-07 
0 0 8.126884431e-07 0 0 7.966918177e-07 8.126884431e-07 7.966918177e-07 0 
-1.562146781e-07 0 -7.057531047e-07 0 -1.212382941e-07 -6.460624223e-07 -7.057531047e-07 -6.460624223e-07 -1.659408509e-07 
0 0 1.447852702e-07 0 0 -3.597394075e-07 1.447852702e-07 -3.597394075e-07 2.389792057e-07 
0 0 5.237474996e-07 0 0 2.26722847e-07 5.237474996e-07 2.26722847e-07 1.382149002e-07 
0 0 4.337262137e-07 0 0 2.102295632e-07 4.337262137e-07 2.102295632e-07 0 
0 0 -3.254945602e-07 0 0 -5.111475569e-07 -3.254945602e-07 -5.111475569e-07 0 
0 0 -2.354732743e-07 0 0 -4.94654273e-07 -2.354732743e-07 -4.94654273e-07 0 
0 0 0 0 0 0 0 0 -1.385163508e-07 
0 0 -2.637171926e-07 0 0 -3.372207516e-07 -2.637171926e-07 -3.372207516e-07 1.692696143e-07 
0 0 0 0 0 1.878598923e-07 0 1.878598923e-07 0 
0 0 0 0 0 2.600300459e-07 0 2.600300459e-07 2.756398476e-07 
0 0 5.138533847e-07 0 0 2.689495134e-07 5.138533847e-07 2.689495134e-07 -2.995633917e-07 
0 0 0 0 0 0 0 0 1.196171144e-07 
0 0 0 0 0 2.239449691e-07 0 2.239449691e-07 1.72802231e-07 
0 0 0 0 0 0 0 0 2.22454731e-07 
0 0 1.250680961e-07 0 0 0 1.250680961e-07 0 0 
0 0 3.125127485e-07 0 0 2.284047029e-07 3.125127485e-07 2.284047029e-07 0 
0 0 2.743048013e-07 0 0 2.644897797e-07 2.743048013e-07 2.644897797e-07 0 
-1.593414602e-07 0 0 0 -2.078461305e-07 1.505154575e-07 0 1.505154575e-07 0 
0 0 0 0 0 2.152629458e-07 0 2.152629458e-07 1.192231418e-07 
0 0 -2.665550717e-07 0 0 -3.465721214e-07 -2.665550717e-07 -3.465721214e-07 1.571492784e-07 
0 0 -1.368238022e-07 0 0 -2.716694635e-07 -1.368238022e-07 -2.716694635e-07 2.551534439e-07 
0 0 0 0 0 1.828892016e-07 0 1.828892016e-07 0 
0 0 0 0 0 0 0 0 1.381862101e-07 
0 0 0 0 0 0 0 0 0 
0 0 0 0 0 0 0 0 1.551053338e-07 
0 0 0 0 0 0 0 0 1.871882929e-07 
0 0 -2.016894369e-07 0 0 -3.091207925e-07 -2.016894369e-07 -3.091207925e-07 2.061513612e-07 
0 0 -2.500515663e-07 0 0 4.63211021e-07 -2.500515663e-07 4.63211021e-07 2.237926107e-07 
0 0 -7.383465984e-07 0 0 0 -7.383465984e-07 0 0 
-1.336727634e-07 0 -4.032527306e-07 0 0 -2.349187194e-07 -4.032527306e-07 -2.349187194e-07 0 
2.079496894e-07 0 1.293203874e-06 0 0 -2.952934393e-07 1.293203874e-06 -2.952934393e-07 0 
0 0 -4.941990823e-07 0 0 1.823835817e-07 -4.941990823e-07 1.823835817e-07 0 
0 0 -5.707996645e-07 0 0 -1.666812884e-07 -5.707996645e-07 -1.666812884e-07 0 
0 0 -3.266521484e-07 0 0 0 -3.266521484e-07 0 0 
0 0 5.21576154e-07 0 0 0 5.21576154e-07 0 1.535068512e-07 
0 0 2.774286379e-07 0 0 -1.968686484e-07 2.774286379e-07 -1.968686484e-07 0 
0 0 4.449755718e-07 0 0 -2.651060793e-07 4.449755718e-07 -2.651060793e-07 0 
0 0 -3.736327402e-07 0 0 -2.625619686e-07 -3.736327402e-07 -2.625619686e-07 0 
-5.175965318e-07 0 -4.417705061e-07 0 -2.6830492e-07 -3.711418921e-07 -4.417705061e-07 -3.711418921e-07 -1.828086345e-07 
-3.803598947e-07 1.826321057e-07 1.290886825e-07 1.826321057e-07 -4.316262385e-07 0 1.290886825e-07 0 0 
8.898573058e-07 -3.281853005e-07 0 -3.281853005e-07 7.290584904e-07 -3.578074537e-07 0 -3.578074537e-07 7.263970096e-07 
-2.535648352e-07 0 -4.077016232e-07 0 -1.50040505e-07 -3.168519304e-07 -4.077016232e-07 -3.168519304e-07 0 
-4.489782133e-07 1.442696628e-07 -1.563409118e-07 1.442696628e-07 -3.499655793e-07 -1.289569802e-07 -1.563409118e-07 -1.289569802e-07 -1.20678995e-07 
-1.849465166e-07 0 -1.222720288e-07 0 -2.317011643e-07 0 -1.222720288e-07 0 0 
4.501620836e-07 -1.655017165e-07 -1.962921904e-07 -1.655017165e-07 3.486412002e-07 -3.101847111e-07 -1.962921904e-07 -3.101847111e-07 3.965880936e-07 
1.86130387e-07 0 -2.303610734e-07 0 2.303767852e-07 -3.644746729e-07 -2.303610734e-07 -3.644746729e-07 2.717941875e-07 
2.547487055e-07 0 0 0 1.487161259e-07 -1.22289761e-07 0 -1.22289761e-07 3.33923827e-07 
1.573002854e-07 0 -1.814695567e-07 0 0 3.643711182e-07 -1.814695567e-07 3.643711182e-07 3.778739518e-07 
0 0 -5.13776911e-07 0 0 -1.199341982e-07 -5.13776911e-07 -1.199341982e-07 2.663380541e-07 
0 0 -3.867147269e-07 0 0 -1.822054739e-07 -3.867147269e-07 -1.822054739e-07 1.667020427e-07 
0 0 1.037080503e-06 0 0 -1.683303229e-07 1.037080503e-06 -1.683303229e-07 0 
1.243567793e-07 0 -3.476232339e-07 0 0 1.2221846e-07 -3.476232339e-07 1.2221846e-07 3.221060029e-07 
0 0 -4.50245819e-07 0 0 -1.51069836e-07 -4.50245819e-07 -1.51069836e-07 2.165200484e-07 
0 0 -2.840921418e-07 0 0 0 -2.840921418e-07 0 2.722879972e-07 
0 0 4.278054732e-07 0 0 0 4.278054732e-07 0 1.734334944e-07 
0 0 2.616517961e-07 0 0 -1.441322605e-07 2.616517961e-07 -1.441322605e-07 0 
0 0 3.251828882e-07 0 0 -1.752678984e-07 3.251828882e-07 -1.752678984e-07 0 
0 0 -3.324766976e-07 0 0 -2.317614849e-07 -3.324766976e-07 -2.317614849e-07 1.750760061e-07 
-4.313403673e-07 1.462070111e-07 -2.632261025e-07 1.462070111e-07 -2.000790938e-07 -3.483139394e-07 -2.632261025e-07 -3.483139394e-07 0 
-4.882576536e-07 1.95959694e-07 0 1.95959694e-07 -5.331155342e-07 1.408511162e-07 0 1.408511162e-07 0 
1.025764047e-06 -3.742774431e-07 0 -3.742774431e-07 9.295144172e-07 -3.02463427e-07 0 -3.02463427e-07 9.978675066e-07 
-2.204624296e-07 0 -2.978514e-07 0 -1.321899832e-07 -2.900377121e-07 -2.978514e-07 -2.900377121e-07 0 
-4.597990104e-07 1.710833525e-07 0 1.710833525e-07 -3.66597314e-07 0 0 0 0 
-2.489210727e-07 1.213381684e-07 -1.344521334e-07 1.213381684e-07 -2.987082034e-07 0 -1.344521334e-07 0 0 
5.080897778e-07 -1.637804002e-07 -2.008629173e-07 -1.637804002e-07 4.326067723e-07 -2.671124559e-07 -2.008629173e-07 -2.671124559e-07 5.864717564e-07 
2.972118401e-07 0 -1.662376198e-07 0 3.647176617e-07 -3.253886832e-07 -1.662376198e-07 -3.253886832e-07 5.113480868e-07 
2.687531969e-07 0 0 0 1.981994415e-07 0 0 0 5.007876771e-07 
1.698925713e-07 0 -2.512885328e-07 0 2.83934287e-07 -2.909361606e-07 -2.512885328e-07 -2.909361606e-07 3.828634355e-07 
0 0 0 0 -1.302288056e-07 1.516005552e-07 0 1.516005552e-07 0 
0 0 0 0 0 2.227379148e-07 0 2.227379148e-07 3.661404491e-07 
-1.403775701e-07 0 4.824477006e-07 0 0 2.370038286e-07 4.824477006e-07 2.370038286e-07 -2.770234166e-07 
0 0 0 0 0 0 0 0 2.35819459e-07 
0 0 0 0 0 1.87169235e-07 0 1.87169235e-07 2.274579657e-07 
0 0 -1.20160001e-07 0 0 0 -1.20160001e-07 0 3.745019423e-07 
0 0 0 0 0 0 0 0 0 
0 0 2.888635459e-07 0 0 1.943021919e-07 2.888635459e-07 1.943021919e-07 0 
0 0 2.467081157e-07 0 0 2.298708717e-07 2.467081157e-07 2.298708717e-07 0 
-2.498751377e-07 0 0 0 -3.162226228e-07 1.213819763e-07 0 1.213819763e-07 1.465378561e-07 
2.262685469e-07 0 0 0 1.396862868e-07 1.891897356e-07 0 1.891897356e-07 2.728725948e-07 
1.619155109e-07 0 -2.451864569e-07 0 2.297217626e-07 -3.094840757e-07 -2.451864569e-07 -3.094840757e-07 3.533336924e-07 
0 0 -1.442300895e-07 0 0 -2.410227864e-07 -1.442300895e-07 -2.410227864e-07 3.683568888e-07 
0 0 0 0 0 1.55285856e-07 0 1.55285856e-07 2.097052255e-07 
1.940920289e-07 0 0 0 1.847040247e-07 0 0 0 3.131031436e-07 
0 0 0 0 0 0 0 0 2.499357743e-07 
-1.702439503e-07 0 0 0 -1.604777786e-07 0 0 0 2.574473725e-07 
0 0 0 0 0 0 0 0 3.206147418e-07 
0 0 -1.947082732e-07 0 0 -2.75253431e-07 -1.947082732e-07 -2.75253431e-07 3.608452906e-07 
0 0 -5.920988525e-07 0 -4.056468277e-07 4.16859933e-07 -5.920988525e-07 4.16859933e-07 -6.3757242e-07 
-1.271772208e-07 0 5.144991088e-07 0 3.544300196e-07 -6.077980228e-07 5.144991088e-07 -6.077980228e-07 8.997078994e-07 
0 -1.571802412e-07 4.243177382e-07 -1.571802412e-07 2.197296017e-07 -4.457442209e-07 4.243177382e-07 -4.457442209e-07 7.303831078e-07 
3.806928153e-07 0 -2.274401501e-07 0 4.81063964e-07 -7.190395632e-07 -2.274401501e-07 -7.190395632e-07 3.784155172e-07 
0 0 0 0 0 0 0 0 1.310677397e-07 
0 0 4.694084235e-07 0 2.870798106e-07 -5.267711218e-07 4.694084235e-07 -5.267711218e-07 8.150455036e-07 
0 0 0 0 0 0 0 0 0 
1.689096203e-07 0 -4.097695013e-07 0 0 -1.510898151e-07 -4.097695013e-07 -1.510898151e-07 -1.295784514e-07 
1.267577973e-07 0 1.435294793e-07 0 4.177469918e-07 -6.63418793e-07 1.435294793e-07 -6.63418793e-07 6.390617083e-07 
1.708588447e-07 0 0 0 3.503967828e-07 -5.823918921e-07 0 -5.823918921e-07 5.543993125e-07 
0 -2.797745013e-07 0 -2.797745013e-07 1.672137301e-07 -4.95013514e-07 0 -4.95013514e-07 7.168635836e-07 
3.289015564e-07 2.938877872e-07 3.425919859e-07 2.938877872e-07 6.613526232e-07 -6.347770985e-07 3.425919859e-07 -6.347770985e-07 1.128608314e-06 
-4.453276273e-07 -2.341289848e-07 -3.336964884e-07 -2.341289848e-07 -7.208060338e-07 4.574135577e-07 -3.336964884e-07 4.574135577e-07 -8.528563976e-07 
1.62768281e-07 3.941394225e-07 0 3.941394225e-07 -1.33437887e-07 4.889846645e-07 0 4.889846645e-07 2.74168506e-07 
1.486886108e-07 0 2.264861334e-07 0 4.142831766e-07 -5.648953063e-07 2.264861334e-07 -5.648953063e-07 9.227359486e-07 
0 0 0 0 0 0 0 0 1.37875958e-07 
-2.384259811e-07 -2.569517431e-07 0 -2.569517431e-07 -2.767961519e-07 0 0 0 0 
0 0 0 0 0 0 0 0 4.955160448e-07 
2.458349187e-07 3.440136049e-07 1.765534769e-07 3.440136049e-07 2.639573681e-07 0 1.765534769e-07 0 7.013884098e-07 
-1.412796731e-07 0 -1.615907602e-07 0 -4.271219604e-07 4.731991111e-07 -1.615907602e-07 4.731991111e-07 -2.893439458e-07 
0 0 -2.728341906e-07 0 -1.305901875e-07 0 -2.728341906e-07 0 1.408025161e-07 
0 0 2.826254502e-07 0 2.897527239e-07 0 2.826254502e-07 0 0 
1.482406121e-07 0 -2.772013227e-07 0 2.340385605e-07 0 -2.772013227e-07 0 2.293728599e-07 
-2.725090334e-07 0 3.537134336e-07 0 -4.569231391e-07 0 3.537134336e-07 0 0 
0 0 0 0 0 0 0 0 0 
0 0 0 0 2.618956422e-07 0 0 0 0 
0 0 -2.750177567e-07 0 0 0 -2.750177567e-07 0 1.85087688e-07 
-1.289717622e-07 0 0 0 -2.937566633e-07 0 0 0 0 
0 0 3.181694419e-07 0 0 0 3.181694419e-07 0 0 
0 0 0 0 0 0 0 0 0 
0 0 2.806283463e-07 0 3.064625054e-07 0 2.806283463e-07 0 0 
0 0 -2.689619823e-07 0 -1.540974404e-07 0 -2.689619823e-07 0 1.274931125e-07 
-3.615304118e-07 0 -2.700268438e-07 0 -9.949915882e-07 0 -2.700268438e-07 0 -2.924462426e-07 
6.059072059e-07 0 -2.039548468e-07 0 1.323507901e-06 0 -2.039548468e-07 0 3.897672252e-07 
0 0 0 0 0 0 0 0 0 
-1.837530618e-07 0 -2.69494413e-07 0 -5.745445143e-07 0 -2.69494413e-07 0 0 
-1.481775611e-07 0 0 0 -3.442645414e-07 0 0 0 -1.874205689e-07 
3.355412477e-07 0 0 0 8.149852032e-07 0 0 0 1.53686165e-07 
2.999657471e-07 0 -2.364584145e-07 0 5.847052303e-07 0 -2.364584145e-07 0 2.586301689e-07 
1.22188397e-07 0 -2.369908453e-07 0 1.642581564e-07 0 -2.369908453e-07 0 0 
-1.26977163e-07 0 2.916186134e-07 0 -1.805207572e-07 0 2.916186134e-07 0 -2.792060637e-07 
2.21741252e-07 0 -2.891364204e-07 0 4.112537118e-07 0 -2.891364204e-07 0 3.469156559e-07 
-4.094700356e-07 0 3.028345054e-07 0 -9.18815321e-07 0 3.028345054e-07 0 -5.456048858e-07 
4.449230022e-07 0 3.551784868e-07 0 1.211789656e-06 0 3.551784868e-07 0 6.568443204e-07 
0 0 0 0 0 0 0 0 0 
0 0 0 0 -2.537808046e-07 0 0 0 0 
-2.682235993e-07 0 2.972265594e-07 0 -5.496680391e-07 0 2.972265594e-07 0 -4.124054748e-07 
1.589729196e-07 0 3.233985501e-07 0 5.156344493e-07 0 3.233985501e-07 0 1.888191283e-07 
3.333321271e-07 0 0 0 8.115216838e-07 0 0 0 5.018799882e-07 
0 0 3.290064961e-07 0 1.464871674e-07 0 3.290064961e-07 0 0 
2.722841321e-07 0 -2.844731212e-07 0 5.441656339e-07 0 -2.844731212e-07 0 4.019584935e-07 
-1.821356405e-07 0 2.892983247e-07 0 -2.968643894e-07 0 2.892983247e-07 0 -3.306598774e-07 
0 0 2.883244713e-07 0 2.711839426e-07 0 2.883244713e-07 0 0 
-3.015469475e-07 0 -2.012367911e-07 0 -7.936701624e-07 0 -2.012367911e-07 0 -5.412887852e-07 
0 0 0 0 1.236506222e-07 0 0 0 0 
0 0 2.88811398e-07 0 0 0 2.88811398e-07 0 -1.81482842e-07 
1.919390518e-07 0 0 0 4.076747882e-07 0 0 0 1.848263434e-07 
0 0 -2.428549562e-07 0 -1.247522643e-07 0 -2.428549562e-07 0 0 
-2.41841294e-07 0 0 0 -5.452672759e-07 0 0 0 -4.359743313e-07 
0 0 0 0 -2.612431099e-07 0 0 0 -2.867972959e-07 
0 0 -2.107528065e-07 0 0 4.141541626e-07 -2.107528065e-07 4.141541626e-07 3.185287235e-07 
0 0 -5.93004038e-07 0 0 -1.312370581e-07 -5.93004038e-07 -1.312370581e-07 1.418431163e-07 
-1.507276555e-07 0 -4.023538232e-07 0 0 -2.072587242e-07 -4.023538232e-07 -2.072587242e-07 0 
0 0 1.148567914e-06 0 0 -2.013292841e-07 1.148567914e-06 -2.013292841e-07 0 
0 0 -4.018784222e-07 0 0 1.414585522e-07 -4.018784222e-07 1.414585522e-07 2.301859199e-07 
0 0 -4.976789306e-07 0 0 -1.692478911e-07 -4.976789306e-07 -1.692478911e-07 0 
0 0 -3.065533149e-07 0 0 0 -3.065533149e-07 0 1.876461378e-07 
0 0 4.689075535e-07 0 0 0 4.689075535e-07 0 1.742520211e-07 
0 0 2.777819378e-07 0 0 -1.662831711e-07 2.777819378e-07 -1.662831711e-07 0 
0 0 3.731070452e-07 0 0 -2.042940042e-07 3.731070452e-07 -2.042940042e-07 0 
0 0 -3.681330317e-07 0 0 -2.386449892e-07 -3.681330317e-07 -2.386449892e-07 1.400417029e-07 
-5.080335685e-07 1.322064442e-07 -3.369743667e-07 1.322064442e-07 -2.717425582e-07 -3.650046473e-07 -3.369743667e-07 -3.650046473e-07 0 
-4.932990991e-07 2.005234823e-07 0 2.005234823e-07 -5.096787371e-07 1.244060667e-07 0 1.244060667e-07 0 
9.610635779e-07 -3.583279707e-07 0 -3.583279707e-07 8.483884398e-07 -3.321526666e-07 0 -3.321526666e-07 8.682214857e-07 
-2.236642972e-07 0 -3.525536992e-07 0 -1.43231474e-07 -3.018248183e-07 -3.525536992e-07 -3.018248183e-07 0 
-5.006663338e-07 1.663649633e-07 0 1.663649633e-07 -3.907106476e-07 -1.202992903e-07 0 -1.202992903e-07 0 
-2.162970625e-07 0 -1.309227363e-07 0 -2.621995635e-07 0 -1.309227363e-07 0 0 
5.10884276e-07 -1.748773224e-07 -2.102472238e-07 -1.748773224e-07 4.16834025e-07 -2.853988279e-07 -2.102472238e-07 -2.853988279e-07 5.041315943e-07 
2.265150047e-07 0 -1.946678913e-07 0 2.883229408e-07 -3.48578657e-07 -1.946678913e-07 -3.48578657e-07 3.866049093e-07 
2.338822394e-07 0 0 0 1.693548514e-07 0 0 0 4.081608751e-07 
0 0 -2.55112502e-07 0 1.816102448e-07 -3.193522251e-07 -2.55112502e-07 -3.193522251e-07 2.648672676e-07 
0 0 0 0 0 1.735578155e-07 0 1.735578155e-07 0 
0 0 0 0 0 2.499791098e-07 0 2.499791098e-07 3.147116565e-07 
0 0 5.054368375e-07 0 0 2.663583116e-07 5.054368375e-07 2.663583116e-07 -2.881790473e-07 
0 0 0 0 0 0 0 0 1.772305555e-07 
0 0 0 0 0 2.117684626e-07 0 2.117684626e-07 2.021527499e-07 
0 0 0 0 0 0 0 0 2.89789462e-07 
0 0 1.251621678e-07 0 0 0 1.251621678e-07 0 0 
0 0 3.08215067e-07 0 0 2.199580635e-07 3.08215067e-07 2.199580635e-07 0 
0 0 2.619595462e-07 0 0 2.581687107e-07 2.619595462e-07 2.581687107e-07 0 
-2.157107542e-07 0 0 0 -2.746904396e-07 1.376671281e-07 0 1.376671281e-07 0 
1.223421885e-07 0 0 0 0 2.113799797e-07 0 2.113799797e-07 1.858008556e-07 
1.388268162e-07 0 -2.582668692e-07 0 1.779869539e-07 -3.28931141e-07 -2.582668692e-07 -3.28931141e-07 2.636305714e-07 
0 0 -1.385580834e-07 0 0 -2.669868285e-07 -1.385580834e-07 -2.669868285e-07 3.270848423e-07 
0 0 0 0 0 1.745235539e-07 0 1.745235539e-07 1.380613065e-07 
1.305845023e-07 0 0 0 1.333346959e-07 0 0 0 2.247157135e-07 
0 0 0 0 0 0 0 0 1.769761644e-07 
0 0 0 0 0 0 0 0 2.087032998e-07 
0 0 0 0 0 0 0 0 2.56442849e-07 
0 0 -1.984124763e-07 0 1.239157683e-07 -2.979589848e-07 -1.984124763e-07 -2.979589848e-07 2.953577068e-07 
0 0 -2.975518737e-07 0 0 0 -2.975518737e-07 0 0 
0 0 2.775198054e-07 0 2.416862902e-07 0 2.775198054e-07 0 0 
0 0 -2.864218808e-07 0 1.667143399e-07 0 -2.864218808e-07 0 2.288173423e-07 
-2.831628207e-07 0 3.59996841e-07 0 -4.894248106e-07 0 3.59996841e-07 0 -1.492030809e-07 
0 0 0 0 0 0 0 0 0 
0 0 0 0 2.042003151e-07 0 0 0 0 
0 0 -2.919868773e-07 0 0 0 -2.919868773e-07 0 1.32094548e-07 
-1.531938045e-07 0 0 0 -2.825152493e-07 0 0 0 0 
0 0 3.187583232e-07 0 -1.238692602e-07 0 3.187583232e-07 0 0 
0 0 0 0 -1.613552354e-07 0 0 0 0 
0 0 2.742277081e-07 0 2.093455485e-07 0 2.742277081e-07 0 0 
0 0 -2.962724438e-07 0 0 0 -2.962724438e-07 0 0 
-3.695942897e-07 0 -2.817912943e-07 0 -9.86453467e-07 0 -2.817912943e-07 0 -2.602226879e-07 
6.26181289e-07 0 -2.209450037e-07 0 1.359519779e-06 0 -2.209450037e-07 0 4.657511707e-07 
0 0 0 0 0 0 0 0 0 
-1.952339451e-07 0 -2.89031869e-07 0 -5.12159638e-07 0 -2.89031869e-07 0 0 
-1.414417004e-07 0 0 0 -3.885539592e-07 0 0 0 -1.363329824e-07 
3.56446089e-07 0 0 0 7.844326637e-07 0 0 0 2.266539469e-07 
3.026538442e-07 0 -2.586087238e-07 0 6.608269849e-07 0 -2.586087238e-07 0 2.565600547e-07 
1.282934996e-07 0 -2.51368149e-07 0 1.865331559e-07 0 -2.51368149e-07 0 0 
0 0 2.746088716e-07 0 0 0 2.746088716e-07 0 0 
1.267435114e-07 0 -3.03939122e-07 0 2.964163193e-07 0 -3.03939122e-07 0 1.948251173e-07 
-3.888471893e-07 0 2.980760408e-07 0 -8.989770595e-07 0 2.980760408e-07 0 -5.24093633e-07 
4.464739016e-07 0 3.621401299e-07 0 1.204853837e-06 0 3.621401299e-07 0 5.888733069e-07 
0 0 0 0 1.313931831e-07 0 0 0 0 
-1.310518389e-07 0 0 0 -3.012803701e-07 0 0 0 -1.646342578e-07 
-2.03518519e-07 0 2.863424562e-07 0 -4.663035063e-07 0 2.863424562e-07 0 -3.169905878e-07 
2.141420264e-07 0 3.183745008e-07 0 5.85611942e-07 0 3.183745008e-07 0 2.394928821e-07 
2.866087065e-07 0 0 0 7.506350782e-07 0 0 0 3.918492121e-07 
0 0 3.301080854e-07 0 1.529383888e-07 0 3.301080854e-07 0 0 
1.809792738e-07 0 -3.02852623e-07 0 4.489746174e-07 0 -3.02852623e-07 0 2.568648478e-07 
0 0 2.709245482e-07 0 -1.484203322e-07 0 2.709245482e-07 0 -1.596100267e-07 
0 0 2.875957326e-07 0 2.053889759e-07 0 2.875957326e-07 0 0 
-3.081066501e-07 0 -2.243413587e-07 0 -8.112365387e-07 0 -2.243413587e-07 0 -4.67039249e-07 
0 0 0 0 1.502771426e-07 0 0 0 0 
0 0 2.792601404e-07 0 0 0 2.792601404e-07 0 0 
1.281320472e-07 0 0 0 3.271817967e-07 0 0 0 0 
0 0 -2.635969908e-07 0 -1.811309606e-07 0 -2.635969908e-07 0 0 
-1.886153371e-07 0 0 0 -4.798284354e-07 0 0 0 -3.133246378e-07 
0 0 0 0 -3.029237814e-07 0 0 0 -2.602990126e-07 
0 0 -1.759661736e-07 0 1.550875831e-07 0 -1.759661736e-07 0 3.828006274e-07 
0 0 2.311395139e-07 0 0 0 2.311395139e-07 0 1.36971658e-07 
1.203476607e-07 0 2.845718079e-07 0 2.549930425e-07 0 2.845718079e-07 0 2.637174897e-07 
-4.226909627e-07 1.878123189e-07 -1.880725158e-07 1.878123189e-07 -6.512306851e-07 0 -1.880725158e-07 0 -2.072683395e-07 
0 0 0 0 0 0 0 0 2.598861427e-07 
0 0 2.578556609e-07 0 1.347176902e-07 0 2.578556609e-07 0 2.003445738e-07 
0 0 0 0 2.050403128e-07 0 0 0 3.232590585e-07 
-2.080039177e-07 0 -1.820193447e-07 0 -2.48071551e-07 0 -1.820193447e-07 0 0 
-1.626587972e-07 0 0 0 -3.183941736e-07 0 0 0 0 
-1.51171651e-07 0 0 0 -1.981188213e-07 0 0 0 0 
1.731631222e-07 0 2.133930909e-07 0 1.620626535e-07 0 2.133930909e-07 0 2.039991861e-07 
-1.803851738e-07 0 -1.47864152e-07 0 0 -1.266279502e-07 -1.47864152e-07 -1.266279502e-07 2.647393514e-07 
-3.470649175e-07 1.597442785e-07 2.39773367e-07 1.597442785e-07 -5.764657725e-07 1.878032274e-07 2.39773367e-07 1.878032274e-07 -1.259325492e-07 
6.301084867e-07 -2.935041369e-07 3.778992063e-07 -2.935041369e-07 9.573680198e-07 0 3.778992063e-07 0 7.794498859e-07 
0 0 0 0 0 0 0 0 2.343692687e-07 
-2.637250456e-07 1.223221281e-07 0 1.223221281e-07 -3.139118432e-07 0 0 0 0 
0 0 2.265832289e-07 0 -2.072015595e-07 1.50662015e-07 2.265832289e-07 1.50662015e-07 0 
4.016358045e-07 -1.859302988e-07 2.956461486e-07 -1.859302988e-07 5.597153367e-07 0 2.956461486e-07 0 4.91724536e-07 
2.248616565e-07 0 0 0 4.53005053e-07 0 0 0 5.220946186e-07 
1.415217846e-07 0 3.088362866e-07 0 1.904511236e-07 1.460678753e-07 3.088362866e-07 1.460678753e-07 3.267586684e-07 
0 0 2.021695586e-07 0 -1.742533734e-07 0 2.021695586e-07 0 0 
1.312419299e-07 0 -1.370137989e-07 0 1.307117287e-07 0 -1.370137989e-07 0 4.328106738e-07 
-3.502558498e-07 2.077153986e-07 -1.678857018e-07 2.077153986e-07 -5.234144706e-07 0 -1.678857018e-07 0 1.855552649e-07 
6.196946863e-07 -2.621756154e-07 -1.827770459e-07 -2.621756154e-07 1.019624992e-06 0 -1.827770459e-07 0 5.829714871e-07 
0 0 0 0 0 0 0 0 2.266342939e-07 
0 0 -1.524497504e-07 0 -1.96351371e-07 0 -1.524497504e-07 0 3.091829694e-07 
-1.953184104e-07 0 0 0 -3.48833922e-07 0 0 0 0 
2.896568576e-07 -1.287674501e-07 0 -1.287674501e-07 4.226858091e-07 0 0 0 3.017147005e-07 
3.754683081e-07 -1.736328208e-07 -1.598954224e-07 -1.736328208e-07 5.751683602e-07 0 -1.598954224e-07 0 5.078910805e-07 
1.347194182e-07 0 -1.753313739e-07 0 2.481052605e-07 0 -1.753313739e-07 0 3.84263376e-07 
0 0 0 0 0 -1.550153814e-07 0 -1.550153814e-07 3.146980836e-07 
0 0 1.889159614e-07 0 0 1.52029299e-07 1.889159614e-07 1.52029299e-07 0 
0 0 -1.50561788e-07 0 1.91906594e-07 -1.365438176e-07 -1.50561788e-07 -1.365438176e-07 5.371366258e-07 
-1.801763935e-07 0 3.694676464e-07 0 -3.45902278e-07 1.39599853e-07 3.694676464e-07 1.39599853e-07 1.699053327e-07 
0 0 0 0 0 0 0 0 2.117644687e-07 
0 0 0 0 0 0 0 0 3.229837399e-07 
0 0 -1.32125942e-07 0 0 -1.457795995e-07 -1.32125942e-07 -1.457795995e-07 4.259173547e-07 
-1.257102335e-07 0 1.278887752e-07 0 -2.027334406e-07 0 1.278887752e-07 0 2.423017082e-07 
0 0 2.791918039e-07 0 -1.64759446e-07 1.45814576e-07 2.791918039e-07 1.45814576e-07 1.393680933e-07 
0 0 0 0 0 0 0 0 3.535209793e-07 
0 0 -2.974567107e-07 0 0 0 -2.974567107e-07 0 0 
-4.160005974e-07 0 -2.99849497e-07 0 -1.000716663e-06 0 -2.99849497e-07 0 -3.336290779e-07 
0 0 2.886303004e-07 0 2.67951374e-07 0 2.886303004e-07 0 0 
5.598095014e-07 0 -2.174558982e-07 0 1.300975562e-06 0 -2.174558982e-07 0 4.148888255e-07 
-2.215831402e-07 0 -2.986531039e-07 0 -5.393216842e-07 0 -2.986531039e-07 0 -1.197448494e-07 
-1.61621083e-07 0 0 0 -3.663826447e-07 0 0 0 -1.855147345e-07 
0 0 0 0 0 0 0 0 0 
2.663219092e-07 0 -2.574563044e-07 0 6.115244286e-07 0 -2.574563044e-07 0 2.545141022e-07 
0 0 -2.586526976e-07 0 1.501294493e-07 0 -2.586526976e-07 0 0 
3.262839664e-07 0 0 0 7.844634681e-07 0 0 0 1.887442172e-07 
0 0 2.904366318e-07 0 3.115337794e-07 0 2.904366318e-07 0 0 
0 0 -3.05042637e-07 0 1.759182627e-07 0 -3.05042637e-07 0 1.646502986e-07 
0 0 -3.013571062e-07 0 0 0 -3.013571062e-07 0 0 
-2.034056701e-07 0 3.825144667e-07 0 -4.282462455e-07 0 3.825144667e-07 0 0 
0 0 0 0 2.43726021e-07 0 0 0 0 
0 0 -3.031998716e-07 0 0 0 -3.031998716e-07 0 1.24844968e-07 
0 0 0 0 0 0 0 0 0 
0 0 3.364755493e-07 0 0 0 3.364755493e-07 0 0 
0 0 0 0 -1.261639914e-07 0 0 0 0 
0 0 0 0 -2.680830201e-07 0 0 0 0 
0 0 2.935609784e-07 0 -2.291507785e-07 0 2.935609784e-07 0 -2.446432241e-07 
0 0 2.928494825e-07 0 1.771772418e-07 0 2.928494825e-07 0 0 
2.201837929e-07 0 -3.098382862e-07 0 5.327650772e-07 0 -3.098382862e-07 0 3.424531773e-07 
-3.189779782e-07 0 -2.144677987e-07 0 -7.487128163e-07 0 -2.144677987e-07 0 -4.816610064e-07 
0 0 2.932052304e-07 0 0 0 2.932052304e-07 0 -1.37399449e-07 
1.627596743e-07 0 0 0 3.549711595e-07 0 0 0 1.561487517e-07 
0 0 0 0 1.518071493e-07 0 0 0 0 
-2.167281288e-07 0 0 0 -4.889317974e-07 0 0 0 -3.631521152e-07 
0 0 0 0 -2.857677873e-07 0 0 0 -2.559083401e-07 
0 0 -2.621530424e-07 0 0 0 -2.621530424e-07 0 0 
1.475816574e-07 0 -3.142799336e-07 0 3.467285723e-07 0 -3.142799336e-07 0 2.648554539e-07 
-3.802522861e-07 0 3.067847746e-07 0 -9.23008479e-07 0 3.067847746e-07 0 -5.058685082e-07 
0 0 2.956482038e-07 0 0 0 2.956482038e-07 0 -1.700674907e-07 
4.607556416e-07 0 3.844746869e-07 0 1.114723715e-06 0 3.844746869e-07 0 5.874558203e-07 
0 0 0 0 -2.881399533e-07 0 0 0 -1.205065272e-07 
-2.072503757e-07 0 3.012164892e-07 0 -4.919064442e-07 0 3.012164892e-07 0 -3.379679995e-07 
0 0 0 0 1.429620814e-07 0 0 0 0 
3.041686495e-07 0 0 0 7.307261436e-07 0 0 0 4.261556371e-07 
0 0 3.456297307e-07 0 0 0 3.456297307e-07 0 0 
2.132535882e-07 0 3.400614454e-07 0 5.269596527e-07 0 3.400614454e-07 0 2.086941648e-07 
4.827971881e-07 0 2.397416958e-07 0 0 -3.024839884e-07 2.397416958e-07 -3.024839884e-07 0 
-9.282044343e-07 -2.644019344e-07 4.416080486e-07 -2.644019344e-07 -4.487944092e-07 0 4.416080486e-07 0 -7.063206219e-07 
6.507328281e-07 3.702862344e-07 -5.029122388e-07 3.702862344e-07 6.978454277e-07 0 -5.029122388e-07 0 5.933572553e-07 
-2.814405111e-07 0 -1.534323631e-07 0 -2.161129087e-07 3.755297405e-07 -1.534323631e-07 3.755297405e-07 -4.184728086e-07 
-2.227036231e-07 0 3.406748722e-07 0 -1.73090026e-07 -1.82851636e-07 3.406748722e-07 -1.82851636e-07 -3.956052163e-07 
-1.387358031e-07 0 0 0 1.245255092e-07 0 0 0 0 
5.667650081e-07 2.141549853e-07 -1.315852715e-07 2.141549853e-07 4.002298925e-07 -1.395915969e-07 -1.315852715e-07 -1.395915969e-07 2.542337223e-07 
0 0 0 0 0 0 0 0 -2.516813096e-07 
-6.048224727e-07 -1.553218557e-07 1.440878428e-07 -1.553218557e-07 -3.32453659e-07 1.561552285e-07 1.440878428e-07 1.561552285e-07 -5.623967153e-07 
1.846461585e-07 1.620222287e-07 -3.28172301e-07 1.620222287e-07 2.408662595e-07 1.994152675e-07 -3.28172301e-07 1.994152675e-07 0 
2.584457074e-07 1.646962122e-07 -2.121717374e-07 1.646962122e-07 1.33073356e-07 2.710457106e-07 -2.121717374e-07 2.710457106e-07 2.926707483e-07 
0 0 2.288802156e-07 0 0 -2.407283358e-07 2.288802156e-07 -2.407283358e-07 -2.713284198e-07 
-3.500390553e-07 -2.261726024e-07 3.783336899e-07 -2.261726024e-07 -5.486967006e-07 -1.861681339e-07 3.783336899e-07 -1.861681339e-07 -5.364597787e-07 
0 0 1.344506403e-07 0 0 -3.486487334e-07 1.344506403e-07 -3.486487334e-07 0 
0 0 0 0 0 0 0 0 0 
-2.013953058e-07 0 3.036069528e-07 0 -2.277692705e-07 -2.134482349e-07 3.036069528e-07 -2.134482349e-07 -4.038940992e-07 
0 0 0 0 -2.078116723e-07 0 0 0 -1.218945152e-07 
1.439200868e-07 0 0 0 0 0 0 0 2.033351122e-07 
0 0 1.81665428e-07 0 0 -2.946885346e-07 1.81665428e-07 -2.946885346e-07 0 
-1.603222945e-07 0 2.563921651e-07 0 -2.684569127e-07 -2.674084337e-07 2.563921651e-07 -2.674084337e-07 -2.112301513e-07 
9.05098112e-07 5.36867708e-07 -5.013696125e-07 5.36867708e-07 1.13722736e-06 0 -5.013696125e-07 0 8.01538485e-07 
-3.435471303e-07 -1.920984512e-07 0 -1.920984512e-07 -6.793400398e-07 7.670235311e-07 0 7.670235311e-07 -3.219196011e-07 
-1.378765806e-06 -7.142608426e-07 2.731435127e-07 -7.142608426e-07 -1.766910584e-06 -2.854368408e-07 2.731435127e-07 -2.854368408e-07 -1.198144738e-06 
4.201256825e-07 4.152714252e-07 -3.803944775e-07 4.152714252e-07 9.820841394e-07 2.152837687e-07 -3.803944775e-07 2.152837687e-07 1.238249771e-07 
2.807754908e-07 1.723846284e-07 -2.185185221e-07 1.723846284e-07 2.2894366e-07 3.987778924e-07 -2.185185221e-07 3.987778924e-07 2.39809442e-07 
-8.611564682e-07 -4.531796469e-07 1.687380405e-07 -4.531796469e-07 -1.223125312e-06 2.407933451e-07 1.687380405e-07 2.407933451e-07 -7.600321696e-07 
-2.368338471e-07 0 0 0 -3.148416123e-07 -1.274522936e-07 0 -1.274522936e-07 -1.983031266e-07 
6.626118972e-07 4.760695666e-07 -4.40882045e-07 4.760695666e-07 1.05965575e-06 1.229080112e-07 -4.40882045e-07 1.229080112e-07 4.62681731e-07 
0 0 -1.580309546e-07 0 1.513720498e-07 4.911536499e-07 -1.580309546e-07 4.911536499e-07 0 
-4.793200618e-07 -1.494947087e-07 0 -1.494947087e-07 -3.924132225e-07 0 0 0 -5.371598805e-07 
0 0 -3.216218859e-07 0 0 0 -3.216218859e-07 0 0 
-4.288335874e-07 0 -3.084708493e-07 0 -1.000193383e-06 0 -3.084708493e-07 0 -3.309064333e-07 
0 0 2.777527035e-07 0 1.934357039e-07 0 2.777527035e-07 0 0 
5.442134106e-07 0 -2.339626963e-07 0 1.259815396e-06 0 -2.339626963e-07 0 4.532901026e-07 
-2.358392438e-07 0 -3.150463676e-07 0 -4.904393543e-07 0 -3.150463676e-07 0 -1.405823476e-07 
-1.598905967e-07 0 0 0 -4.033788395e-07 0 0 0 -1.539897665e-07 
0 0 0 0 0 0 0 0 0 
2.506842552e-07 0 -2.777922911e-07 0 6.395650352e-07 0 -2.777922911e-07 0 2.515159204e-07 
0 0 -2.712167728e-07 0 1.298110066e-07 0 -2.712167728e-07 0 0 
3.266329023e-07 0 0 0 7.2662555e-07 0 0 0 2.381085015e-07 
1.490521646e-07 0 2.820149738e-07 0 2.749362416e-07 0 2.820149738e-07 0 0 
0 0 -3.150879578e-07 0 1.371503372e-07 0 -3.150879578e-07 0 1.497402576e-07 
0 0 -3.232728734e-07 0 0 0 -3.232728734e-07 0 0 
-1.984523211e-07 0 3.82978622e-07 0 -4.106975163e-07 0 3.82978622e-07 0 0 
0 0 0 0 2.060432894e-07 0 0 0 0 
0 0 -3.191804156e-07 0 0 0 -3.191804156e-07 0 0 
0 0 0 0 0 0 0 0 0 
0 0 3.324967979e-07 0 0 0 3.324967979e-07 0 0 
0 0 0 0 -1.367735895e-07 0 0 0 0 
-1.421868023e-07 0 0 0 -2.62400818e-07 0 0 0 0 
0 0 2.729961081e-07 0 -1.455979311e-07 0 2.729961081e-07 0 -1.2004083e-07 
0 0 2.907760512e-07 0 0 0 2.907760512e-07 0 0 
1.680967079e-07 0 -3.261338604e-07 0 5.199688638e-07 0 -3.261338604e-07 0 2.658252459e-07 
-3.322357859e-07 0 -2.344316618e-07 0 -7.84625443e-07 0 -2.344316618e-07 0 -4.221620597e-07 
0 0 2.818860797e-07 0 0 0 2.818860797e-07 0 0 
0 0 0 0 3.054303142e-07 0 0 0 0 
0 0 0 0 1.871854663e-07 0 0 0 0 
-1.860785709e-07 0 0 0 -4.651116871e-07 0 0 0 -2.711014449e-07 
-1.352516339e-07 0 0 0 -3.468668392e-07 0 0 0 -2.298842875e-07 
0 0 -2.802827611e-07 0 -1.323282896e-07 0 -2.802827611e-07 0 0 
0 0 -3.275567895e-07 0 2.540362949e-07 0 -3.275567895e-07 0 1.553175353e-07 
-3.69516962e-07 0 2.998985069e-07 0 -9.352732185e-07 0 2.998985069e-07 0 -4.7481762e-07 
0 0 2.775454094e-07 0 0 0 2.775454094e-07 0 0 
4.73076768e-07 0 3.848376647e-07 0 1.148900827e-06 0 3.848376647e-07 0 5.610321508e-07 
-1.519199137e-07 0 0 0 -3.406184618e-07 0 0 0 -1.597500423e-07 
-1.673980182e-07 0 2.887219581e-07 0 -4.560781134e-07 0 2.887219581e-07 0 -2.609223442e-07 
0 0 0 0 1.385766433e-07 0 0 0 0 
2.693769514e-07 0 0 0 7.014685608e-07 0 0 0 3.581748431e-07 
0 0 3.423680858e-07 0 0 0 3.423680858e-07 0 0 
2.538988468e-07 0 3.311915371e-07 0 5.860089092e-07 0 3.311915371e-07 0 2.570025412e-07 
-3.994000641e-07 2.014178873e-07 1.328400821e-07 2.014178873e-07 -6.359062867e-07 -1.241621417e-07 1.328400821e-07 -1.241621417e-07 0 
3.797482072e-07 -1.839634465e-07 -1.9463067e-07 -1.839634465e-07 7.037142574e-07 0 -1.9463067e-07 0 3.871509222e-07 
2.138564065e-07 0 2.888335721e-07 0 2.710078292e-07 3.738466169e-07 2.888335721e-07 3.738466169e-07 4.411980096e-07 
-1.865738628e-07 0 -1.862813256e-07 0 -3.240079638e-07 0 -1.862813256e-07 0 2.019634744e-07 
0 0 0 0 0 0 0 0 1.697630306e-07 
2.968023068e-07 -1.196708822e-07 0 -1.196708822e-07 4.873610433e-07 1.501993662e-07 0 1.501993662e-07 4.141744659e-07 
0 0 2.108368271e-07 0 -1.824492288e-07 1.248422376e-07 2.108368271e-07 1.248422376e-07 1.967865743e-07 
-2.929869635e-07 1.471868571e-07 0 1.471868571e-07 -4.799571253e-07 0 0 0 0 
0 0 -1.904559978e-07 0 1.898531468e-07 0 -1.904559978e-07 0 2.945571983e-07 
0 0 0 0 0 1.303963614e-07 0 1.303963614e-07 3.21580742e-07 
3.098024899e-07 -1.540764e-07 -1.966382878e-07 -1.540764e-07 5.925226375e-07 0 -1.966382878e-07 0 3.331568781e-07 
-1.927871037e-07 0 0 0 -3.17367616e-07 0 0 0 1.229551574e-07 
-1.787057323e-07 0 4.134695983e-07 0 -3.596962789e-07 1.318135331e-07 4.134695983e-07 1.318135331e-07 0 
0 0 2.322041146e-07 0 -2.572567731e-07 0 2.322041146e-07 0 0 
0 0 0 0 1.375775107e-07 0 0 0 2.280560178e-07 
-1.85746418e-07 0 2.267689184e-07 0 -3.385319475e-07 0 2.267689184e-07 0 1.198692996e-07 
0 0 0 0 0 0 0 0 2.249701599e-07 
1.290791041e-07 0 0 0 1.676329322e-07 0 0 0 1.53485506e-07 
-1.222156927e-07 0 1.361361766e-07 0 -2.873121946e-07 0 1.361361766e-07 0 0 
0 0 3.228368564e-07 0 -3.08476526e-07 1.243043331e-07 3.228368564e-07 1.243043331e-07 0 
-4.747062639e-07 1.659990346e-07 -2.017023232e-07 1.659990346e-07 -7.721780845e-07 0 -2.017023232e-07 0 -3.096385847e-07 
6.711265679e-07 -2.90436102e-07 2.253530757e-07 -2.90436102e-07 9.342017116e-07 -3.241204366e-07 2.253530757e-07 -3.241204366e-07 7.742016871e-07 
-5.468640519e-07 2.088694137e-07 -2.016262432e-07 2.088694137e-07 -8.231638813e-07 0 -2.016262432e-07 0 -2.649222302e-07 
1.823153326e-07 0 -2.989884112e-07 0 3.73035558e-07 1.654807604e-07 -2.989884112e-07 1.654807604e-07 4.723772714e-07 
0 0 0 0 0 -1.929401732e-07 0 -1.929401732e-07 2.322815512e-07 
0 0 0 0 0 -1.54077209e-07 0 -1.54077209e-07 2.546397284e-07 
-5.107851579e-07 1.874342242e-07 -2.016642832e-07 1.874342242e-07 -7.976709829e-07 0 -2.016642832e-07 0 -2.872804075e-07 
-1.461954657e-07 0 -2.503453672e-07 0 -1.995712632e-07 0 -2.503453672e-07 0 0 
4.267209502e-07 -1.754326053e-07 0 -1.754326053e-07 6.536186348e-07 0 0 0 6.232894792e-07 
-1.822743596e-07 0 -2.503073272e-07 0 -2.250641617e-07 0 -2.503073272e-07 0 0 
2.317524987e-07 0 0 0 3.695505911e-07 0 0 0 4.73615501e-07 
0 0 -2.082909157e-07 0 0 0 -2.082909157e-07 0 0 
-1.254122258e-07 0 -1.643436728e-07 0 0 0 -1.643436728e-07 0 1.201326863e-07 
0 0 2.525903704e-07 0 -4.705876759e-07 0 2.525903704e-07 0 0 
0 0 0 0 1.705252183e-07 0 0 0 2.609146202e-07 
0 0 -1.863172943e-07 0 0 0 -1.863172943e-07 0 0 
0 0 0 0 2.044837309e-07 0 0 0 2.968740937e-07 
0 0 1.641697704e-07 0 0 0 1.641697704e-07 0 1.938863219e-07 
0 0 0 0 -2.495439153e-07 0 0 0 0 
0 0 0 0 -2.155854026e-07 0 0 0 0 
2.266462909e-07 0 -3.250151216e-07 0 6.521959296e-07 0 -3.250151216e-07 0 3.521845451e-07 
0 0 2.910658378e-07 0 -2.902999262e-07 0 2.910658378e-07 0 -2.054478778e-07 
0 0 2.984794207e-07 0 0 0 2.984794207e-07 0 0 
-3.274750625e-07 0 -2.213733252e-07 0 -7.140574155e-07 0 -2.213733252e-07 0 -4.122187677e-07 
0 0 0 0 1.809480017e-07 0 0 0 0 
0 0 2.947726292e-07 0 0 0 2.947726292e-07 0 0 
1.643097681e-07 0 0 0 3.691710379e-07 0 0 0 1.691237891e-07 
0 0 -2.731942234e-07 0 0 0 -2.731942234e-07 0 0 
-2.17744773e-07 0 0 0 -5.021786708e-07 0 0 0 -3.088333227e-07 
0 0 0 0 -3.139556346e-07 0 0 0 -2.130778673e-07 
0 0 2.931435276e-07 0 0 0 2.931435276e-07 0 0 
1.47335689e-07 0 -3.292320581e-07 0 4.672718701e-07 0 -3.292320581e-07 0 2.729073954e-07 
-3.780549002e-07 0 3.120256724e-07 0 -1.004150194e-06 0 3.120256724e-07 0 -4.850126206e-07 
4.322652925e-07 0 4.0750209e-07 0 9.753187266e-07 0 4.0750209e-07 0 5.038360967e-07 
0 0 0 0 2.026534643e-07 0 0 0 0 
0 0 0 0 -2.68439162e-07 0 0 0 0 
-1.882498078e-07 0 3.025846e-07 0 -5.330575678e-07 0 3.025846e-07 0 -2.945428751e-07 
2.169102886e-07 0 3.503228088e-07 0 4.566768925e-07 0 3.503228088e-07 0 1.998814835e-07 
2.898004908e-07 0 0 0 7.212952983e-07 0 0 0 3.88371746e-07 
0 0 3.597638812e-07 0 0 0 3.597638812e-07 0 0 
1.324113045e-07 0 2.880067342e-07 0 2.766317984e-07 0 2.880067342e-07 0 0 
0 0 -3.159169106e-07 0 0 0 -3.159169106e-07 0 0 
-4.590021731e-07 0 -3.239632265e-07 0 -9.905029309e-07 0 -3.239632265e-07 0 -3.600585382e-07 
5.052674516e-07 0 -2.262653368e-07 0 1.230270591e-06 0 -2.262653368e-07 0 4.358205528e-07 
0 0 0 0 0 0 0 0 0 
-2.742281881e-07 0 -3.199400685e-07 0 -5.471645395e-07 0 -3.199400685e-07 0 -1.640351804e-07 
-1.632954343e-07 0 0 0 -3.569355663e-07 0 0 0 -1.616501262e-07 
3.18839378e-07 0 0 0 7.534511947e-07 0 0 0 2.362894193e-07 
2.079066242e-07 0 -2.710911237e-07 0 5.632222215e-07 0 -2.710911237e-07 0 2.339043651e-07 
0 0 -2.751142816e-07 0 1.1988383e-07 0 -2.751142816e-07 0 0 
0 0 -3.200110225e-07 0 0 0 -3.200110225e-07 0 0 
1.723955111e-07 0 2.900429968e-07 0 3.471673155e-07 0 2.900429968e-07 0 0 
0 0 -3.278104473e-07 0 0 0 -3.278104473e-07 0 0 
-1.408387023e-07 0 4.090535952e-07 0 -3.67519175e-07 0 4.090535952e-07 0 0 
0 0 0 0 1.35898972e-07 0 0 0 0 
0 0 0 0 2.152556713e-07 0 0 0 0 
0 0 -3.239107349e-07 0 0 0 -3.239107349e-07 0 0 
0 0 0 0 -2.214442733e-07 0 0 0 0 
0 0 3.49548296e-07 0 0 0 3.49548296e-07 0 0 
0 0 0 0 -1.42087574e-07 0 0 0 0 
0 0 0 0 0 3.069485218e-07 0 3.069485218e-07 0 
0 0 0 0 0 -3.001711657e-07 0 -3.001711657e-07 0 
0 0 0 0 0 0 0 0 -2.128499755e-07 
0 0 0 0 0 2.545887046e-07 0 2.545887046e-07 0 
0 0 0 0 0 0 0 0 0 
0 0 0 0 0 0 0 0 0 
0 0 0 0 0 2.124396049e-07 0 2.124396049e-07 0 
0 0 0 0 0 2.807686132e-07 0 2.807686132e-07 0 
0 0 0 0 0 0 0 0 0 
0 0 0 0 0 1.862596963e-07 0 1.862596963e-07 0 
-1.336427094e-07 0 0 0 0 1.342085399e-07 0 1.342085399e-07 -2.691674518e-07 
0 0 0 0 0 -2.997240358e-07 0 -2.997240358e-07 0 
0 0 1.35972438e-07 0 0 2.715150522e-07 1.35972438e-07 2.715150522e-07 0 
2.722847883e-07 0 0 0 0 -2.796031272e-07 0 -2.796031272e-07 0 
0 0 0 0 0 0 0 0 -1.381097638e-07 
0 0 0 0 0 0 0 0 0 
0 0 0 0 0 2.028617961e-07 0 2.028617961e-07 -1.485569341e-07 
0 0 0 0 0 0 0 0 -1.938337348e-07 
1.35911234e-07 0 0 0 0 -2.896635815e-07 0 -2.896635815e-07 0 
0 0 0 0 0 0 0 0 0 
0 0 -2.016141161e-07 0 0 0 -2.016141161e-07 0 1.930104444e-07 
-3.669308485e-07 1.435046702e-07 -1.936107009e-07 1.435046702e-07 -5.55620996e-07 0 -1.936107009e-07 0 0 
0 0 2.455485783e-07 0 -1.278563671e-07 0 2.455485783e-07 0 0 
4.063474957e-07 -1.899891508e-07 -2.090867886e-07 -1.899891508e-07 8.799519814e-07 0 -2.090867886e-07 0 4.344724893e-07 
-1.75639569e-07 0 -1.976124085e-07 0 -2.321170365e-07 0 -1.976124085e-07 0 0 
-1.655490814e-07 0 0 0 -3.417386815e-07 0 0 0 0 
0 0 0 0 0 0 0 0 0 
2.109996031e-07 -1.315047021e-07 -2.053504523e-07 -1.315047021e-07 4.856694522e-07 0 -2.053504523e-07 0 3.137414669e-07 
0 0 -2.013487447e-07 0 1.621654927e-07 0 -2.013487447e-07 0 2.01222468e-07 
2.210900906e-07 0 0 0 3.760478072e-07 0 0 0 2.354365192e-07 
1.407040041e-07 0 2.222949689e-07 0 0 1.543122475e-07 2.222949689e-07 1.543122475e-07 1.360141643e-07 
0 0 -1.75138655e-07 0 0 -1.530830982e-07 -1.75138655e-07 -1.530830982e-07 2.702091259e-07 
-1.599020207e-07 0 -1.714419874e-07 0 0 -1.567031301e-07 -1.714419874e-07 -1.567031301e-07 0 
0 0 4.463197414e-07 0 -2.151604803e-07 1.479324566e-07 4.463197414e-07 1.479324566e-07 0 
0 0 0 0 0 0 0 0 2.031116451e-07 
0 0 -1.732903212e-07 0 0 -1.548931141e-07 -1.732903212e-07 -1.548931141e-07 1.810837132e-07 
0 0 0 0 0 0 0 0 0 
0 0 3.343073551e-07 0 0 1.511223521e-07 3.343073551e-07 1.511223521e-07 0 
0 0 1.355905432e-07 0 0 0 1.355905432e-07 0 1.829583735e-07 
0 0 1.37438877e-07 0 -1.419800485e-07 0 1.37438877e-07 0 0 
0 0 2.366142883e-07 0 0 0 2.366142883e-07 0 0 
0 0 2.859929629e-07 0 0 0 2.859929629e-07 0 1.31028126e-07 
0 0 -1.994890636e-07 0 2.884599915e-07 0 -1.994890636e-07 0 2.762283521e-07 
-3.254546161e-07 0 -1.878338949e-07 0 -4.492300101e-07 0 -1.878338949e-07 0 -1.638912769e-07 
0 0 2.613036256e-07 0 0 0 2.613036256e-07 0 0 
0 0 0 0 1.853634582e-07 0 0 0 2.03628239e-07 
0 0 0 0 1.273044761e-07 0 0 0 1.68776595e-07 
-1.445574143e-07 0 0 0 -2.415405248e-07 0 0 0 0 
-1.247936175e-07 0 0 0 -1.834815426e-07 0 0 0 0 
0 0 -1.936614792e-07 0 0 0 -1.936614792e-07 0 0 
0 0 -1.697655556e-07 0 0 -1.678489815e-07 -1.697655556e-07 -1.678489815e-07 1.478292154e-07 
-3.046663853e-07 1.769678662e-07 2.565174743e-07 1.769678662e-07 -6.077967992e-07 1.765793314e-07 2.565174743e-07 1.765793314e-07 -1.901441279e-07 
1.375485849e-07 0 2.14489155e-07 0 1.618697241e-07 1.587611795e-07 2.14489155e-07 1.587611795e-07 1.50408955e-07 
5.300937901e-07 -1.987370142e-07 4.355994938e-07 -1.987370142e-07 7.377871143e-07 1.50849562e-07 4.355994938e-07 1.50849562e-07 5.272647955e-07 
-2.083938783e-07 0 0 0 -2.724403944e-07 0 0 0 0 
0 0 2.355033146e-07 0 -2.229635376e-07 1.676702554e-07 2.355033146e-07 1.676702554e-07 0 
0 0 0 0 0 0 0 0 1.491190852e-07 
2.089862094e-07 0 1.329169691e-07 0 4.003515624e-07 0 1.329169691e-07 0 3.375470054e-07 
0 0 3.460584841e-07 0 0 1.637144467e-07 3.460584841e-07 1.637144467e-07 1.685603338e-07 
3.338211875e-07 0 3.250443244e-07 0 4.498284192e-07 1.548053707e-07 3.250443244e-07 1.548053707e-07 3.388368752e-07 
1.624559743e-07 0 -3.386778966e-07 0 5.855917808e-07 0 -3.386778966e-07 0 2.729707263e-07 
0 0 2.760322436e-07 0 -2.431074464e-07 0 2.760322436e-07 0 0 
0 0 2.826229495e-07 0 0 0 2.826229495e-07 0 0 
-3.171690291e-07 0 -2.36947377e-07 0 -6.957958389e-07 0 -2.36947377e-07 0 -3.250495543e-07 
0 0 0 0 1.712421672e-07 0 0 0 0 
0 0 2.793275966e-07 0 0 0 2.793275966e-07 0 0 
1.213661037e-07 0 0 0 3.436511219e-07 0 0 0 1.518194448e-07 
0 0 -2.878126368e-07 0 0 0 -2.878126368e-07 0 0 
-1.851734058e-07 0 0 0 -4.694516426e-07 0 0 0 -2.136783319e-07 
0 0 0 0 -2.97042688e-07 0 0 0 -1.471906955e-07 
0 0 2.81600877e-07 0 0 0 2.81600877e-07 0 0 
0 0 -3.413667921e-07 0 4.020272281e-07 0 -3.413667921e-07 0 1.960100915e-07 
-3.497963649e-07 0 2.89181982e-07 0 -9.403382394e-07 0 2.89181982e-07 0 -4.11034718e-07 
4.325997753e-07 0 4.081423485e-07 0 9.630903046e-07 0 4.081423485e-07 0 4.716689855e-07 
0 0 0 0 1.649112628e-07 0 0 0 0 
-1.302007906e-07 0 0 0 -2.691555057e-07 0 0 0 0 
-1.611810614e-07 0 2.853914295e-07 0 -5.06271471e-07 0 2.853914295e-07 0 -2.189718783e-07 
2.300170087e-07 0 3.448716127e-07 0 4.45442801e-07 0 3.448716127e-07 0 2.223799735e-07 
2.609972795e-07 0 0 0 6.825587663e-07 0 0 0 3.338395385e-07 
0 0 3.486621653e-07 0 0 0 3.486621653e-07 0 0 
1.721107317e-07 0 2.818411096e-07 0 2.744430924e-07 0 2.818411096e-07 0 0 
-1.410085155e-07 0 -3.375863379e-07 0 -1.221452771e-07 0 -3.375863379e-07 0 0 
-4.706617398e-07 0 -3.22475526e-07 0 -9.860149998e-07 0 -3.22475526e-07 0 -3.697816194e-07 
4.936472042e-07 0 -2.357082455e-07 0 1.197082974e-06 0 -2.357082455e-07 0 4.810098767e-07 
0 0 0 0 0 0 0 0 0 
-3.058351277e-07 0 -3.300309319e-07 0 -5.540801385e-07 0 -3.300309319e-07 0 -2.018874718e-07 
-1.492755041e-07 0 0 0 -3.557859537e-07 0 0 0 -1.259811974e-07 
3.32878968e-07 0 0 0 7.357630334e-07 0 0 0 2.994145507e-07 
1.763193444e-07 0 -2.866472917e-07 0 5.374688486e-07 0 -2.866472917e-07 0 2.235082762e-07 
0 0 -2.790918858e-07 0 0 0 -2.790918858e-07 0 0 
-1.241280632e-07 0 -3.406264296e-07 0 0 0 -3.406264296e-07 0 0 
1.931062839e-07 0 2.871121528e-07 0 2.962297648e-07 0 2.871121528e-07 0 1.305393828e-07 
0 0 -3.281047592e-07 0 0 0 -3.281047592e-07 0 0 
-1.308972274e-07 0 4.061994139e-07 0 -3.445696215e-07 0 4.061994139e-07 0 0 
0 0 0 0 0 0 0 0 0 
0 0 0 0 1.879770835e-07 0 0 0 0 
0 0 -3.343655944e-07 0 0 0 -3.343655944e-07 0 0 
-1.275126453e-07 0 0 0 -2.214057738e-07 0 0 0 0 
0 0 3.466557833e-07 0 0 0 3.466557833e-07 0 0 
0 0 0 0 -1.324226096e-07 0 0 0 0 
1.948567169e-07 0 -3.257468833e-07 0 6.43034527e-07 0 -3.257468833e-07 0 2.876185599e-07 
-1.547800733e-07 0 2.769336075e-07 0 -4.163223936e-07 0 2.769336075e-07 0 -2.03047564e-07 
2.274570837e-07 0 3.122806346e-07 0 3.672686066e-07 -1.480854249e-07 3.122806346e-07 -1.480854249e-07 1.778813872e-07 
-3.855564008e-07 0 -2.191290173e-07 0 -7.163396441e-07 0 -2.191290173e-07 0 -3.669295656e-07 
0 0 0 0 0 0 0 0 0 
0 0 2.946071211e-07 0 0 0 2.946071211e-07 0 0 
2.111569003e-07 0 0 0 5.051515668e-07 0 0 0 2.327499735e-07 
0 0 -2.724379503e-07 0 0 0 -2.724379503e-07 0 0 
-2.70168237e-07 0 0 0 -5.663310188e-07 0 0 0 -2.849885648e-07 
0 0 0 0 -1.745355187e-07 0 0 0 0 
0 0 2.802573069e-07 0 -1.853718503e-07 0 2.802573069e-07 0 0 
0 0 -3.342998956e-07 0 4.555716516e-07 0 -3.342998956e-07 0 2.042126957e-07 
-2.741394094e-07 0 3.324090976e-07 0 -8.228834563e-07 0 3.324090976e-07 0 -3.295584253e-07 
3.722809158e-07 0 4.189738734e-07 0 7.502513006e-07 0 4.189738734e-07 0 3.520582629e-07 
0 0 0 0 1.350999006e-07 0 0 0 0 
0 0 0 0 -1.836559024e-07 0 0 0 0 
-1.589814837e-07 0 3.063332023e-07 0 -5.041276533e-07 0 3.063332023e-07 0 -2.15009951e-07 
1.642286789e-07 0 3.496155902e-07 0 2.824397251e-07 0 3.496155902e-07 0 1.257983931e-07 
2.383504777e-07 0 0 0 6.029114761e-07 0 0 0 2.781354793e-07 
0 0 3.756914855e-07 0 0 0 3.756914855e-07 0 0 
2.333824113e-07 0 2.774101624e-07 0 4.806805927e-07 0 2.774101624e-07 0 1.942618702e-07 
-2.366401464e-07 0 -3.231906312e-07 0 -3.619106036e-07 0 -3.231906312e-07 0 -1.502117743e-07 
-5.268177493e-07 0 -3.3828686e-07 0 -1.071573916e-06 0 -3.3828686e-07 0 -4.326605371e-07 
4.371378338e-07 0 -2.228746957e-07 0 1.196733704e-06 0 -2.228746957e-07 0 4.69365886e-07 
0 0 0 0 0 0 0 0 0 
-3.817289479e-07 0 -3.307387456e-07 0 -7.167422598e-07 0 -3.307387456e-07 0 -2.914361557e-07 
-1.46717669e-07 0 0 0 -2.954466616e-07 0 0 0 0 
3.352601225e-07 0 0 0 8.387071485e-07 0 0 0 3.318138781e-07 
0 0 -2.730326634e-07 0 4.174115503e-07 0 -2.730326634e-07 0 1.595770559e-07 
0 0 -2.805807778e-07 0 0 0 -2.805807778e-07 0 0 
-1.678600903e-07 0 -3.325113261e-07 0 -1.85170869e-07 0 -3.325113261e-07 0 0 
2.059920087e-07 0 2.821518096e-07 0 3.899104642e-07 0 2.821518096e-07 0 1.586073963e-07 
0 0 -3.421554554e-07 0 0 0 -3.421554554e-07 0 0 
0 0 4.240443505e-07 0 -2.653713127e-07 0 4.240443505e-07 0 0 
0 0 0 0 0 0 0 0 0 
0 0 0 0 2.283845507e-07 0 0 0 0 
0 0 -3.373333907e-07 0 0 0 -3.373333907e-07 0 0 
0 0 0 0 -2.252710909e-07 0 0 0 0 
0 0 3.5309808e-07 0 0 0 3.5309808e-07 0 0 
0 0 0 0 0 0 0 0 0 
2.544577076e-07 1.912267534e-07 0 1.912267534e-07 4.633335828e-07 -3.051575412e-07 0 -3.051575412e-07 0 
-1.068191409e-06 -6.156008297e-07 -2.087570455e-07 -6.156008297e-07 -1.559463493e-06 -4.811170418e-07 -2.087570455e-07 -4.811170418e-07 -7.75024769e-07 
-2.353181357e-07 0 -9.060553272e-07 0 0 -2.471180713e-07 -9.060553272e-07 -2.471180713e-07 -2.156172096e-07 
1.169848467e-06 4.222735586e-07 1.578086237e-06 4.222735586e-07 1.039661231e-06 1.333997354e-06 1.578086237e-06 1.333997354e-06 5.546118126e-07 
-4.068668508e-07 -2.121870382e-07 -1.413850139e-07 -2.121870382e-07 -5.480649553e-07 -3.931372915e-07 -1.413850139e-07 -3.931372915e-07 -4.213273356e-07 
-6.517547724e-07 -3.250093359e-07 -5.574061863e-07 -3.250093359e-07 -7.764515807e-07 -3.641175565e-07 -5.574061863e-07 -3.641175565e-07 -4.953209893e-07 
0 0 -4.900341548e-07 0 2.349469573e-07 -2.761378063e-07 -4.900341548e-07 -2.761378063e-07 -1.416235558e-07 
7.121530874e-07 3.06750156e-07 7.520366274e-07 3.06750156e-07 7.51497407e-07 5.144199065e-07 7.520366274e-07 5.144199065e-07 2.434909553e-07 
0 0 6.846645959e-07 0 -2.59901131e-07 4.264401562e-07 6.846645959e-07 4.264401562e-07 0 
4.672651657e-07 1.939278582e-07 3.36015455e-07 1.939278582e-07 5.231107816e-07 5.434396414e-07 3.36015455e-07 5.434396414e-07 1.694973015e-07 
2.516974564e-07 0 2.985866325e-07 0 2.853648131e-07 0 2.985866325e-07 0 1.672797465e-07 
1.731266333e-07 0 0 0 1.443097453e-07 -1.611703395e-07 0 -1.611703395e-07 -1.899651991e-07 
0 0 -2.795620398e-07 0 -2.106321686e-07 3.177036186e-07 -2.795620398e-07 3.177036186e-07 -2.415991124e-07 
-4.039449183e-07 0 0 0 -2.658021843e-07 -4.088803246e-07 0 -4.088803246e-07 -3.444687205e-07 
2.124120448e-07 0 1.919041024e-07 0 2.148372792e-07 0 1.919041024e-07 0 0 
0 0 0 0 0 0 0 0 -2.157821557e-07 
0 0 0 0 0 1.456884454e-07 0 1.456884454e-07 0 
0 0 1.833459555e-07 0 0 -2.176035262e-07 1.833459555e-07 -2.176035262e-07 0 
0 0 0 0 0 -2.85025332e-07 0 -2.85025332e-07 -2.672169598e-07 
-2.397217552e-07 0 0 0 -2.382171765e-07 0 0 0 -2.930339164e-07 
1.416678394e-07 0 1.547914649e-07 0 0 -3.606350749e-07 1.547914649e-07 -3.606350749e-07 4.778512292e-07 
1.742908934e-07 0 0 0 0 -3.355806717e-07 0 -3.355806717e-07 3.518098619e-07 
-2.142117733e-07 0 -2.096973777e-07 0 0 2.600814591e-07 -2.096973777e-07 2.600814591e-07 -2.665783411e-07 
0 0 1.45272572e-07 0 0 -3.46254432e-07 1.45272572e-07 -3.46254432e-07 -1.569486099e-07 
1.579793664e-07 0 1.318057627e-07 0 0 -3.481078733e-07 1.318057627e-07 -3.481078733e-07 4.148305456e-07 
0 0 0 0 0 0 0 0 0 
0 0 0 0 0 0 0 0 0 
0 0 1.500320184e-07 0 0 -3.534447535e-07 1.500320184e-07 -3.534447535e-07 1.604513097e-07 
0 0 1.270463162e-07 0 0 -3.409175518e-07 1.270463162e-07 -3.409175518e-07 0 
-1.383106256e-07 0 0 0 0 0 0 0 -2.117634755e-07 
0 0 0 0 0 2.890370473e-07 0 2.890370473e-07 -2.222114879e-07 
0 0 0 0 0 -3.451184559e-07 0 -3.451184559e-07 2.401204679e-07 
0 0 0 0 0 -3.670422388e-07 0 -3.670422388e-07 4.658802181e-07 
0 0 0 0 0 2.886266374e-07 0 2.886266374e-07 4.363582313e-07 
0 0 0 0 0 0 0 0 0 
0 0 0 0 0 -3.560803474e-07 0 -3.560803474e-07 3.53000343e-07 
0 0 0 0 0 0 0 0 1.218343651e-07 
0 0 0 0 0 2.888318423e-07 0 2.888318423e-07 0 
0 0 0 0 0 0 0 0 3.382393496e-07 
0 0 0 0 0 0 0 0 4.511192247e-07 
0 0 -2.843288893e-07 0 0 2.227287288e-07 -2.843288893e-07 2.227287288e-07 -2.316872303e-07 
0 0 0 0 1.327285379e-07 6.809687833e-07 0 6.809687833e-07 1.455576296e-07 
-2.254231917e-07 0 1.501775576e-07 0 -1.283568564e-07 -3.525337599e-07 1.501775576e-07 -3.525337599e-07 3.445679014e-07 
0 0 0 0 0 -4.146971258e-07 0 -4.146971258e-07 -2.539168381e-07 
0 0 0 0 0 4.51848756e-07 0 4.51848756e-07 0 
0 0 0 0 0 1.642175117e-07 0 1.642175117e-07 2.450627655e-07 
0 0 0 0 0 0 0 0 0 
0 0 -1.449129744e-07 0 0 0 -1.449129744e-07 0 -2.428020342e-07 
0 0 0 0 0 1.331358287e-07 0 1.331358287e-07 0 
0 0 0 0 0 -3.836154428e-07 0 -3.836154428e-07 0 
-2.563559728e-07 0 0 0 -1.324287865e-07 -3.578712814e-07 0 -3.578712814e-07 3.383451029e-07 
2.422977979e-07 0 0 0 2.074449426e-07 6.650296708e-07 0 6.650296708e-07 2.311472421e-07 
1.611502553e-07 0 -1.376803662e-07 0 0 2.417719345e-07 -1.376803662e-07 2.417719345e-07 -2.192614825e-07 
-1.929274435e-07 0 0 0 0 2.971976387e-07 0 2.971976387e-07 3.413338167e-07 
0 0 0 0 0 1.535791947e-07 0 1.535791947e-07 2.847461725e-07 
2.017240266e-07 0 0 0 1.398496886e-07 4.534008027e-07 0 4.534008027e-07 0 
0 0 0 0 0 0 0 0 0 
-2.246417082e-07 0 0 0 0 0 0 0 3.398394598e-07 
0 0 0 0 0 4.811136547e-07 0 4.811136547e-07 2.862405294e-07 
0 0 0 0 0 2.694847866e-07 0 2.694847866e-07 0 
0 0 2.373471675e-07 0 -6.069769617e-07 0 2.373471675e-07 0 -4.634923563e-07 
0 0 2.080408974e-07 0 1.845302481e-07 -2.526867656e-07 2.080408974e-07 -2.526867656e-07 -2.260513849e-07 
1.494049267e-07 0 -3.260413438e-07 0 5.592908335e-07 0 -3.260413438e-07 0 4.209236499e-07 
-1.479964726e-07 1.626000277e-07 -3.131782031e-07 1.626000277e-07 -5.083934717e-07 4.268234006e-07 -3.131782031e-07 4.268234006e-07 -4.274710095e-07 
0 0 2.226940324e-07 0 -2.112233568e-07 -1.320620697e-07 2.226940324e-07 -1.320620697e-07 -3.447718706e-07 
0 0 0 0 3.719105408e-07 -1.295625313e-07 0 -1.295625313e-07 0 
0 0 0 0 0 0 0 0 0 
-1.284989318e-07 0 0 0 -5.576852167e-07 2.076930134e-07 0 2.076930134e-07 -4.454816829e-07 
-1.316661254e-07 0 0 0 -1.619316118e-07 0 0 0 -3.267611972e-07 
0 0 -3.196097735e-07 0 0 2.101925518e-07 -3.196097735e-07 2.101925518e-07 0 
4.409879537e-07 2.06601922e-07 -4.78196744e-07 2.06601922e-07 8.519400232e-07 -2.564658946e-07 -4.78196744e-07 -2.564658946e-07 5.846425509e-07 
-2.676054019e-07 0 4.948810741e-07 0 -9.186902949e-07 2.037374253e-07 4.948810741e-07 2.037374253e-07 -5.814040615e-07 
-3.546138324e-07 -1.729763456e-07 3.277881003e-07 -1.729763456e-07 -5.984348279e-07 1.409828084e-07 3.277881003e-07 1.409828084e-07 -5.27633495e-07 
5.229852346e-07 0 3.225435427e-07 0 8.595471326e-07 -4.691800848e-07 3.225435427e-07 -4.691800848e-07 5.483677921e-07 
0 0 0 0 0 0 0 0 0 
-3.111096171e-07 -1.400503085e-07 4.113345872e-07 -1.400503085e-07 -7.585625614e-07 1.723601169e-07 4.113345872e-07 1.723601169e-07 -5.545187783e-07 
0 0 0 0 1.267525977e-07 0 0 0 0 
4.819865942e-07 0 0 0 8.557435779e-07 -3.628229897e-07 0 -3.628229897e-07 5.665051715e-07 
1.276899164e-07 0 4.087123084e-07 0 0 -1.327213298e-07 4.087123084e-07 -1.327213298e-07 0 
0 0 3.251658215e-07 0 1.305561524e-07 -1.640986382e-07 3.251658215e-07 -1.640986382e-07 0 
-3.015455197e-07 0 -2.285707447e-07 0 -2.745216013e-07 3.161031722e-07 -2.285707447e-07 3.161031722e-07 0 
-6.445844533e-07 -1.935997071e-07 -2.039151567e-07 -1.935997071e-07 -8.665944333e-07 2.832159255e-07 -2.039151567e-07 2.832159255e-07 -3.098515113e-07 
5.329846296e-07 1.443584878e-07 0 1.443584878e-07 5.310137201e-07 -3.821843316e-07 0 -3.821843316e-07 2.420960338e-07 
5.224793193e-07 2.983079014e-07 -4.152062247e-07 2.983079014e-07 8.79414398e-07 0 -4.152062247e-07 0 3.618779312e-07 
-4.730649865e-07 0 -2.162429507e-07 0 -5.705580173e-07 2.996595488e-07 -2.162429507e-07 2.996595488e-07 -2.141102224e-07 
0 0 0 0 -1.677903566e-07 0 0 0 0 
0 0 0 0 1.282460594e-07 0 0 0 0 
0 1.292392038e-07 -3.218884847e-07 1.292392038e-07 3.024463984e-07 1.770209635e-07 -3.218884847e-07 1.770209635e-07 1.217544989e-07 
0 0 -3.095606907e-07 0 0 1.605773401e-07 -3.095606907e-07 1.605773401e-07 0 
5.277319745e-07 2.213331946e-07 -1.49199328e-07 2.213331946e-07 7.05214059e-07 -1.721227884e-07 -1.49199328e-07 -1.721227884e-07 3.019869825e-07 
6.612425593e-07 1.784230812e-07 0 1.784230812e-07 1.199967115e-06 -4.017683327e-07 0 -4.017683327e-07 4.811181126e-07 
0 0 -2.109741843e-07 0 0 2.712298212e-07 -2.109741843e-07 2.712298212e-07 1.463772846e-07 
-2.263423099e-07 0 -2.935362372e-07 0 -4.102913913e-07 2.060857261e-07 -2.935362372e-07 2.060857261e-07 -1.373088772e-07 
-3.479369338e-07 -2.967176404e-07 4.167816316e-07 -2.967176404e-07 -8.622274272e-07 -2.124651696e-07 4.167816316e-07 -2.124651696e-07 -2.961793668e-07 
3.241768455e-07 1.30554376e-07 0 1.30554376e-07 6.113667049e-07 0 0 0 3.137476986e-07 
-1.196155891e-07 0 -2.522552108e-07 0 -1.937625484e-07 2.386577737e-07 -2.522552108e-07 2.386577737e-07 0 
2.174501247e-07 0 0 0 3.94837862e-07 0 0 0 1.719046177e-07 
1.566528127e-07 0 2.606873403e-07 0 1.68869844e-07 -3.071167512e-07 2.606873403e-07 -3.071167512e-07 0 
-1.804129011e-07 0 0 0 -4.197305663e-07 0 0 0 0 
-2.871396219e-07 -1.462692407e-07 0 -1.462692407e-07 -6.362594093e-07 0 0 0 -2.16744122e-07 
-1.607978584e-07 0 -1.993931785e-07 0 0 -1.365502058e-07 -1.993931785e-07 -1.365502058e-07 0 
1.916665137e-07 0 2.262779118e-07 0 1.784360596e-07 1.405896423e-07 2.262779118e-07 1.405896423e-07 1.690525767e-07 
0 0 -1.748203478e-07 0 0 -1.515839133e-07 -1.748203478e-07 -1.515839133e-07 1.335780977e-07 
0 0 4.82525876e-07 0 -2.124945013e-07 1.551116285e-07 4.82525876e-07 1.551116285e-07 0 
0 0 0 0 0 0 0 0 0 
0 0 0 0 0 0 0 0 1.513153372e-07 
0 0 -1.871067631e-07 0 0 -1.440670595e-07 -1.871067631e-07 -1.440670595e-07 0 
0 0 1.415663488e-07 0 -1.260363624e-07 0 1.415663488e-07 0 0 
0 0 3.544018939e-07 0 0 1.478506354e-07 3.544018939e-07 1.478506354e-07 0 
0 0 1.538527641e-07 0 0 0 1.538527641e-07 0 0 
1.654076952e-07 0 2.537185379e-07 0 1.223288585e-07 0 2.537185379e-07 0 1.443167598e-07 
-1.536932751e-07 0 -2.239259346e-07 0 0 0 -2.239259346e-07 0 0 
-3.46045329e-07 0 -2.010819947e-07 0 -5.378040528e-07 0 -2.010819947e-07 0 -1.231983802e-07 
2.694258173e-07 -1.443818941e-07 -2.108398111e-07 -1.443818941e-07 6.689997856e-07 0 -2.108398111e-07 0 3.219748563e-07 
0 0 0 0 0 0 0 0 0 
-2.49869302e-07 0 -2.125039647e-07 0 -3.222088877e-07 0 -2.125039647e-07 0 0 
0 0 0 0 -2.077375971e-07 0 0 0 0 
2.174167562e-07 0 0 0 3.95664322e-07 0 0 0 2.33145808e-07 
0 0 -2.173828729e-07 0 2.811930314e-07 0 -2.173828729e-07 0 1.621822474e-07 
0 0 -2.059609029e-07 0 0 0 -2.059609029e-07 0 0 
0 0 2.052363448e-07 0 0 1.73240326e-07 2.052363448e-07 1.73240326e-07 0 
0 0 -1.716479247e-07 0 3.20917586e-07 -1.910397167e-07 -1.716479247e-07 -1.910397167e-07 2.077032787e-07 
-2.999806594e-07 1.815240783e-07 2.161668216e-07 1.815240783e-07 -6.24764328e-07 1.905541445e-07 2.161668216e-07 1.905541445e-07 -2.342736104e-07 
3.58604932e-07 0 4.908243176e-07 0 4.898022604e-07 1.262426684e-07 4.908243176e-07 1.262426684e-07 3.465390305e-07 
0 0 0 0 1.584565365e-07 0 0 0 1.337298269e-07 
-1.242793795e-07 0 0 0 -1.51923371e-07 0 0 0 0 
-1.281939501e-07 0 2.107015832e-07 0 -3.143844205e-07 1.818972353e-07 2.107015832e-07 1.818972353e-07 0 
2.010988456e-07 0 3.480303312e-07 0 2.428988737e-07 1.497414972e-07 3.480303312e-07 1.497414972e-07 2.031477028e-07 
2.050134162e-07 0 1.595881964e-07 0 4.053599232e-07 0 1.595881964e-07 0 2.771211546e-07 
0 0 3.534955696e-07 0 0 1.583984065e-07 3.534955696e-07 1.583984065e-07 0 
1.486602824e-07 -1.423053193e-07 -1.884703859e-07 -1.423053193e-07 4.224892911e-07 -1.473273997e-07 -1.884703859e-07 -1.473273997e-07 2.673411947e-07 
0 0 2.276773589e-07 0 -1.417265609e-07 0 2.276773589e-07 0 0 
0 0 2.422100267e-07 0 0 1.228934014e-07 2.422100267e-07 1.228934014e-07 0 
-3.063298187e-07 0 -2.055356428e-07 0 -4.244674856e-07 0 -2.055356428e-07 0 -1.723399577e-07 
0 0 0 0 1.403813651e-07 0 0 0 1.30332453e-07 
0 0 2.349436928e-07 0 0 0 2.349436928e-07 0 0 
0 0 0 0 2.217097666e-07 0 0 0 1.710103516e-07 
0 0 -1.970030143e-07 0 0 0 -1.970030143e-07 0 0 
-1.732399729e-07 0 0 0 -2.830970232e-07 0 0 0 0 
0 0 0 0 -2.017686217e-07 0 0 0 0 
-9.420575941e-07 -2.326145585e-07 -3.255165091e-07 -2.326145585e-07 0 -7.294354125e-07 -3.255165091e-07 -7.294354125e-07 5.079946024e-07 
6.330366898e-07 2.200086544e-07 0 2.200086544e-07 -1.57913339e-07 1.133934979e-06 0 1.133934979e-06 -1.271750656e-07 
7.514941058e-07 3.153468833e-07 3.252877723e-07 3.153468833e-07 0 4.855603996e-07 3.252877723e-07 4.855603996e-07 -5.139823743e-07 
-7.369002978e-07 0 -5.013964662e-07 0 -5.752981581e-07 5.075412475e-07 -5.013964662e-07 5.075412475e-07 2.539491208e-07 
-1.545104521e-07 0 -1.360995172e-07 0 0 2.022497834e-07 -1.360995172e-07 2.022497834e-07 1.904097684e-07 
6.922653978e-07 2.676777689e-07 1.893026235e-07 2.676777689e-07 -1.281105358e-07 8.097476894e-07 1.893026235e-07 8.097476894e-07 -3.2057872e-07 
0 0 0 0 0 -1.219375064e-07 0 -1.219375064e-07 0 
-8.394789459e-07 -1.534322855e-07 -4.134564876e-07 -1.534322855e-07 -3.250600811e-07 0 -4.134564876e-07 0 3.809718616e-07 
0 0 -2.240394957e-07 0 -3.666057485e-07 8.207381134e-07 -2.240394957e-07 8.207381134e-07 0 
0 1.205484355e-07 0 1.205484355e-07 -3.368029454e-07 4.965508235e-07 0 4.965508235e-07 -1.300166268e-07 
-1.281179592e-06 -6.139413398e-07 0 -6.139413398e-07 -1.253662627e-06 1.154781018e-06 0 1.154781018e-06 -1.016643845e-06 
1.537090423e-06 3.488805717e-07 -2.590544412e-07 3.488805717e-07 1.163683132e-06 -7.396636218e-07 -2.590544412e-07 -7.396636218e-07 1.611630663e-06 
7.836304141e-07 8.86341807e-07 -2.468584207e-07 8.86341807e-07 1.472359202e-07 3.861537406e-07 -2.468584207e-07 3.861537406e-07 -3.622794772e-07 
-1.413090733e-06 -8.392762174e-07 2.777062386e-07 -8.392762174e-07 -5.384018978e-07 -1.541237905e-07 2.777062386e-07 -1.541237905e-07 -7.938418538e-07 
1.279554154e-07 -1.325303841e-07 -1.479415724e-07 -1.325303841e-07 0 2.075586983e-07 -1.479415724e-07 2.075586983e-07 2.974934089e-07 
1.160360418e-06 6.176111894e-07 -2.52956431e-07 6.176111894e-07 6.554595259e-07 -1.767549406e-07 -2.52956431e-07 -1.767549406e-07 6.246755928e-07 
-2.487745889e-07 1.362002336e-07 -1.418435622e-07 1.362002336e-07 -5.532133532e-07 7.704673795e-07 -1.418435622e-07 7.704673795e-07 -6.894616611e-07 
-1.347135163e-06 -7.266087786e-07 1.204387675e-07 -7.266087786e-07 -8.960322622e-07 5.00328614e-07 1.204387675e-07 5.00328614e-07 -9.052428494e-07 
0 -2.451978228e-07 0 -2.451978228e-07 3.126406169e-07 -4.468937061e-07 0 -4.468937061e-07 4.088944045e-07 
-3.147301597e-07 0 0 0 -1.955829888e-07 0 0 0 -5.780606655e-07 
-2.940649897e-07 0 -2.088397319e-07 0 0 2.349118789e-07 -2.088397319e-07 2.349118789e-07 -3.317915244e-07 
2.031493421e-07 0 1.526819554e-07 0 0 -3.412332052e-07 1.526819554e-07 -3.412332052e-07 5.935234553e-07 
1.823904575e-07 0 0 0 0 -3.193272088e-07 0 -3.193272088e-07 4.916909573e-07 
0 0 1.509197302e-07 0 0 -3.467099904e-07 1.509197302e-07 -3.467099904e-07 -1.700739586e-07 
0 0 0 0 0 0 0 0 1.308659655e-07 
1.927698998e-07 0 1.271018455e-07 0 0 -3.30280207e-07 1.271018455e-07 -3.30280207e-07 5.426072063e-07 
0 0 0 0 0 0 0 0 0 
-1.606668327e-07 0 0 0 0 0 0 0 -2.509327415e-07 
0 0 1.518008428e-07 0 0 -3.439715978e-07 1.518008428e-07 -3.439715978e-07 2.117247484e-07 
0 0 1.26220733e-07 0 0 -3.330185996e-07 1.26220733e-07 -3.330185996e-07 1.608084994e-07 
0 0 0 0 0 -3.470870884e-07 0 -3.470870884e-07 5.565425301e-07 
-1.220186829e-07 0 0 0 0 2.675533747e-07 0 2.675533747e-07 -2.53730875e-07 
0 0 0 0 0 -3.309414858e-07 0 -3.309414858e-07 3.77492736e-07 
0 0 0 0 0 2.864505755e-07 0 2.864505755e-07 5.250644992e-07 
0 0 0 0 0 0 0 0 1.514058276e-07 
0 0 0 0 0 0 0 0 0 
0 0 0 0 0 -3.390142871e-07 0 -3.390142871e-07 4.67017633e-07 
0 0 0 0 0 0 0 0 5.408035146e-07 
0 0 0 0 0 2.770019751e-07 0 2.770019751e-07 1.356668121e-07 
0 0 0 0 0 0 0 0 4.512786176e-07 
-2.643893751e-07 0 1.503724732e-07 0 -1.597258361e-07 -3.305998757e-07 1.503724732e-07 -3.305998757e-07 4.142192545e-07 
0 0 -3.14268421e-07 0 0 1.860108415e-07 -3.14268421e-07 1.860108415e-07 -2.637576761e-07 
0 0 1.710195997e-07 0 1.808854674e-07 6.848079688e-07 1.710195997e-07 6.848079688e-07 1.572462301e-07 
0 0 0 0 0 -4.328153752e-07 0 -4.328153752e-07 -2.81890289e-07 
0 0 0 0 0 0 0 0 0 
0 0 0 0 0 4.354094051e-07 0 4.354094051e-07 0 
0 0 1.606960365e-07 0 0 1.771040466e-07 1.606960365e-07 1.771040466e-07 2.857327423e-07 
0 0 0 0 -1.241686462e-07 -3.817076254e-07 0 -3.817076254e-07 0 
0 0 -1.842766003e-07 0 0 -1.234022669e-07 -1.842766003e-07 -1.234022669e-07 -2.728239825e-07 
0 0 0 0 0 1.259962968e-07 0 1.259962968e-07 0 
2.155016422e-07 0 -1.567062082e-07 0 0 2.052109122e-07 -1.567062082e-07 2.052109122e-07 -2.282220085e-07 
-3.423733335e-07 0 1.229841801e-07 0 -1.852397852e-07 -3.351865976e-07 1.229841801e-07 -3.351865976e-07 3.869315182e-07 
3.148428655e-07 0 0 0 2.881883554e-07 6.632396713e-07 0 6.632396713e-07 2.798695431e-07 
-2.047451837e-07 0 0 0 0 2.92743787e-07 0 2.92743787e-07 4.160905433e-07 
0 0 0 0 0 0 0 0 0 
0 0 0 0 0 1.640265369e-07 0 1.640265369e-07 3.334005306e-07 
2.651722538e-07 0 0 0 1.943634379e-07 4.342252918e-07 0 4.342252918e-07 0 
0 0 0 0 0 2.489773496e-07 0 2.489773496e-07 0 
-2.735592586e-07 0 0 0 0 0 0 0 4.015110307e-07 
0 0 0 0 1.365128575e-07 4.779917292e-07 0 4.779917292e-07 3.479800432e-07 
0 0 0 0 -4.039576866e-07 3.792968132e-07 0 3.792968132e-07 -4.12842696e-07 
1.668206008e-07 0 0 0 3.959770151e-07 -1.360268804e-07 0 -1.360268804e-07 8.909985613e-07 
0 0 0 0 0 0 0 0 0 
-1.822283864e-07 0 -5.366526147e-07 0 0 3.774971175e-07 -5.366526147e-07 3.774971175e-07 0 
0 0 0 0 0 1.216349664e-07 0 1.216349664e-07 2.390779327e-07 
0 0 0 0 1.860228235e-07 0 0 0 4.266999585e-07 
0 0 0 0 -2.139445274e-07 1.852944246e-07 0 1.852944246e-07 -2.252206701e-07 
-1.276376018e-07 0 -3.189329874e-07 0 -2.325066186e-07 3.783969653e-07 -3.189329874e-07 3.783969653e-07 -2.312062766e-07 
0 0 -2.516805999e-07 0 1.674607323e-07 1.207351186e-07 -2.516805999e-07 1.207351186e-07 4.20714352e-07 
-1.198362584e-07 0 -2.490003924e-07 0 0 1.843945767e-07 -2.490003924e-07 1.843945767e-07 0 
-2.270733637e-07 -1.291936734e-07 6.373326957e-07 -1.291936734e-07 -5.544850913e-07 1.013205916e-06 6.373326957e-07 1.013205916e-06 -3.200409023e-07 
1.726755551e-06 6.239081984e-07 -7.920387053e-07 6.239081984e-07 2.752135913e-06 -1.53757653e-06 -7.920387053e-07 -1.53757653e-06 2.164383855e-06 
-6.020146689e-07 -1.234317334e-07 0 -1.234317334e-07 -1.054769262e-06 7.034942936e-07 0 7.034942936e-07 -7.895511468e-07 
-4.901413995e-07 -3.840151107e-07 2.070336117e-07 -3.840151107e-07 -3.335570359e-07 -4.150093325e-07 2.070336117e-07 -4.150093325e-07 2.6597865e-07 
7.498410935e-07 2.473572625e-07 0 2.473572625e-07 1.098825411e-06 -2.621853069e-07 0 -2.621853069e-07 9.221714763e-07 
5.623704409e-07 2.502382325e-07 -3.502690887e-07 2.502382325e-07 8.486833254e-07 -4.17041118e-07 -3.502690887e-07 -4.17041118e-07 6.874163541e-07 
-4.145440163e-07 -1.263127034e-07 3.644166118e-07 -1.263127034e-07 -8.046271768e-07 8.583501048e-07 3.644166118e-07 8.583501048e-07 -5.547960245e-07 
-3.586073816e-07 -2.566043921e-07 4.221831537e-07 -2.566043921e-07 -4.440210636e-07 2.990982917e-07 4.221831537e-07 2.990982917e-07 0 
6.183070756e-07 1.199465439e-07 -2.925025468e-07 1.199465439e-07 1.209289439e-06 -9.762929311e-07 -2.925025468e-07 -9.762929311e-07 1.215181252e-06 
-5.460780342e-07 -2.53723422e-07 1.492670698e-07 -2.53723422e-07 -6.941631491e-07 1.442424806e-07 1.492670698e-07 1.442424806e-07 -2.617862484e-07 
0 -1.541905178e-07 2.005879416e-07 -1.541905178e-07 0 0 2.005879416e-07 0 -3.256932535e-07 
1.381501544e-07 -2.457065167e-07 0 -2.457065167e-07 2.756707744e-07 -7.460142427e-07 0 -7.460142427e-07 -1.730775558e-07 
0 2.035142848e-07 -3.236045095e-07 2.035142848e-07 -3.955484546e-07 4.885641081e-07 -3.236045095e-07 4.885641081e-07 0 
-1.24095719e-07 0 -1.653361499e-07 0 -1.413593978e-07 1.662170942e-07 -1.653361499e-07 1.662170942e-07 -7.152150564e-07 
0 -1.999485173e-07 0 -1.999485173e-07 0 -4.308962777e-07 0 -4.308962777e-07 -2.493854046e-07 
0 0 -2.04237259e-07 0 0 -1.287250673e-07 -2.04237259e-07 -1.287250673e-07 0 
0 0 0 0 -2.206481406e-07 1.863928977e-07 0 1.863928977e-07 -1.78972854e-07 
0 0 0 0 0 0 0 0 -5.204541549e-07 
0 -1.292946022e-07 -1.251030792e-07 -1.292946022e-07 0 -2.898985742e-07 -1.251030792e-07 -2.898985742e-07 -4.441463061e-07 
0 0 -2.444703297e-07 0 -2.684539262e-07 3.273906011e-07 -2.444703297e-07 3.273906011e-07 -3.737337554e-07 
0 0 -5.398795102e-07 0 0 -3.259137374e-07 -5.398795102e-07 -3.259137374e-07 -1.871665842e-07 
-2.838507094e-07 -2.692386804e-07 0 -2.692386804e-07 -7.189994227e-07 -9.594166863e-07 0 -9.594166863e-07 -6.601821142e-07 
2.939191794e-07 0 4.141896711e-07 0 0 6.632392035e-07 4.141896711e-07 6.632392035e-07 0 
2.907878024e-07 0 6.74638282e-07 0 2.654702842e-07 3.528798896e-07 6.74638282e-07 3.528798896e-07 5.954953736e-07 
-2.003557941e-07 0 -3.294208674e-07 0 -3.107285084e-07 -6.426652118e-07 -3.294208674e-07 -6.426652118e-07 -4.236743492e-07 
0 0 1.476137232e-07 0 -4.064778464e-07 -1.480887414e-07 1.476137232e-07 -1.480887414e-07 -3.239228516e-07 
0 0 0 0 0 1.686627331e-07 0 1.686627331e-07 0 
0 0 0 0 1.81506345e-07 0 0 0 2.041643947e-07 
0 -1.395950161e-07 2.778380287e-07 -1.395950161e-07 -2.267645692e-07 -3.032683983e-07 2.778380287e-07 -3.032683983e-07 0 
2.923534909e-07 0 5.444139766e-07 0 0 5.080595465e-07 5.444139766e-07 5.080595465e-07 3.039158923e-07 
7.253211161e-07 0 0 0 1.426947131e-06 -9.326967793e-07 0 -9.326967793e-07 1.184415357e-06 
0 0 1.696368305e-07 0 2.509004943e-07 -5.255096261e-07 1.696368305e-07 -5.255096261e-07 -2.789342653e-07 
-4.313845784e-07 0 0 0 -1.013936762e-06 7.501503427e-07 0 7.501503427e-07 -9.305243514e-07 
-1.543398724e-07 -1.66811779e-07 3.377184161e-07 -1.66811779e-07 -2.485839479e-07 -2.059174018e-07 3.377184161e-07 -2.059174018e-07 -3.119700169e-07 
3.471937494e-07 0 1.228036751e-07 0 8.389238126e-07 -7.291032027e-07 1.228036751e-07 -7.291032027e-07 4.527405459e-07 
-2.311590978e-07 0 0 0 -3.815181337e-07 0 0 0 -6.047293084e-07 
1.469682689e-07 0 0 0 2.065051846e-07 0 0 0 1.269455028e-07 
2.854906219e-07 0 2.068444679e-07 0 5.891815915e-07 -5.693070906e-07 2.068444679e-07 -5.693070906e-07 4.3622267e-07 
0 0 2.536776233e-07 0 0 -3.65713514e-07 2.536776233e-07 -3.65713514e-07 -2.954521411e-07 
-2.928622254e-07 0 1.570292985e-07 0 -6.312603548e-07 2.721164704e-07 1.570292985e-07 2.721164704e-07 -6.212471842e-07 
-9.903153908e-07 -1.265330559e-07 0 -1.265330559e-07 -1.206799724e-06 7.91711184e-07 0 7.91711184e-07 -1.140941141e-06 
-1.567978051e-07 0 4.462533285e-07 0 -1.918560855e-07 -3.497763444e-07 4.462533285e-07 -3.497763444e-07 -3.738870954e-07 
1.496448358e-06 3.730192494e-07 -3.368135493e-07 3.730192494e-07 2.056090484e-06 -1.22524739e-06 -3.368135493e-07 -1.22524739e-06 1.485541784e-06 
-3.09532603e-07 -2.131174553e-07 0 -2.131174553e-07 -9.086492921e-07 6.790823014e-07 0 6.790823014e-07 -2.105000598e-07 
-5.735565979e-07 0 2.299013036e-07 0 -6.99327905e-07 2.209674198e-07 2.299013036e-07 2.209674198e-07 -7.574141182e-07 
6.698252766e-07 1.364902898e-07 0 1.364902898e-07 9.321171993e-07 -7.875118673e-07 0 -7.875118673e-07 5.558273443e-07 
2.530664838e-07 1.232430968e-07 -1.616321353e-07 1.232430968e-07 4.246453798e-07 -2.167681031e-07 -1.616321353e-07 -2.167681031e-07 1.723003215e-07 
-6.499239969e-07 -1.698252556e-07 0 -1.698252556e-07 -1.057724508e-06 7.353967427e-07 0 7.353967427e-07 -6.757206004e-07 
-2.331652041e-07 -1.565780625e-07 2.026775384e-07 -1.565780625e-07 -5.502526888e-07 1.646529785e-07 2.026775384e-07 1.646529785e-07 -2.921935776e-07 
5.934578777e-07 0 -1.888559005e-07 0 5.73720596e-07 -2.730825444e-07 -1.888559005e-07 -2.730825444e-07 6.375208621e-07 
0 0 -5.504898678e-07 0 0 -2.508790446e-07 -5.504898678e-07 -2.508790446e-07 1.375522708e-07 
1.203688891e-07 0 0 0 1.628107714e-07 2.801616153e-07 0 2.801616153e-07 1.633548087e-07 
-1.829291487e-07 0 2.071255429e-07 0 -2.720053061e-07 0 2.071255429e-07 0 0 
0 0 0 0 0 -4.222283554e-07 0 -4.222283554e-07 2.098044652e-07 
0 0 -2.872577699e-07 0 0 0 -2.872577699e-07 0 1.504535398e-07 
0 0 0 0 0 1.688917151e-07 0 1.688917151e-07 0 
0 0 -1.716821625e-07 0 -1.455963281e-07 0 -1.716821625e-07 0 0 
0 0 -2.430600125e-07 0 0 -3.365537e-07 -2.430600125e-07 -3.365537e-07 1.73678368e-07 
0 0 0 0 1.195332365e-07 0 0 0 1.86579637e-07 
0 0 1.357476928e-07 0 0 -1.823032703e-07 1.357476928e-07 -1.823032703e-07 0 
-1.451794409e-07 0 -1.669071869e-07 0 0 4.024727691e-07 -1.669071869e-07 4.024727691e-07 0 
0 0 0 0 0 1.989628237e-07 0 1.989628237e-07 1.202195543e-07 
-1.784823743e-07 0 -7.314524473e-07 0 0 0 -7.314524473e-07 0 0 
2.850737062e-07 0 1.222375286e-06 0 1.659132022e-07 -2.293691646e-07 1.222375286e-06 -2.293691646e-07 3.160238174e-07 
0 0 0 0 0 3.007177964e-07 0 3.007177964e-07 0 
0 0 -3.330171475e-07 0 0 0 -3.330171475e-07 0 0 
-1.618309076e-07 0 -4.491798171e-07 0 0 1.591031579e-07 -4.491798171e-07 1.591031579e-07 0 
0 0 5.277340496e-07 0 0 0 5.277340496e-07 0 1.479755686e-07 
1.633415832e-07 0 6.438967191e-07 0 0 0 6.438967191e-07 0 2.181216858e-07 
0 0 2.454614194e-07 0 0 -1.56817809e-07 2.454614194e-07 -1.56817809e-07 1.676502227e-07 
0 0 -2.079294181e-06 0 0 -1.451481892e-06 -2.079294181e-06 -1.451481892e-06 -2.14091261e-07 
0 0 5.354728287e-07 0 -1.742573265e-07 1.489198277e-07 5.354728287e-07 1.489198277e-07 -2.445264044e-07 
4.003840726e-07 0 6.369116474e-07 0 3.512049859e-07 1.14425303e-06 6.369116474e-07 1.14425303e-06 2.06542003e-07 
0 0 4.161702403e-07 0 0 1.722602376e-07 4.161702403e-07 1.722602376e-07 -1.478392232e-07 
0 0 -7.719106764e-07 0 -1.192315889e-07 -6.512810323e-07 -7.719106764e-07 -6.512810323e-07 -2.293088327e-07 
1.491293969e-07 0 5.861922381e-07 0 0 6.465864288e-07 5.861922381e-07 6.465864288e-07 0 
1.689126988e-07 0 -7.21191267e-07 0 1.434995673e-07 -1.536144312e-07 -7.21191267e-07 -1.536144312e-07 0 
0 0 -8.315619706e-07 0 0 -6.396108273e-07 -8.315619706e-07 -6.396108273e-07 -1.809652421e-07 
0 0 4.758215345e-07 0 0 1.605900327e-07 4.758215345e-07 1.605900327e-07 -1.961828138e-07 
1.568104691e-07 0 5.265409439e-07 0 1.943736262e-07 6.582566338e-07 5.265409439e-07 6.582566338e-07 0 
-2.050676845e-07 -1.196323702e-07 -3.039132936e-07 -1.196323702e-07 -1.267154048e-07 5.001723865e-07 -3.039132936e-07 5.001723865e-07 0 
1.299341316e-07 0 0 0 0 -1.799875466e-07 0 -1.799875466e-07 0 
0 0 0 0 0 0 0 0 -2.792954869e-07 
0 0 -2.413633181e-07 0 0 4.257391501e-07 -2.413633181e-07 4.257391501e-07 0 
0 0 -1.240134597e-07 0 0 1.6009242e-07 -1.240134597e-07 1.6009242e-07 0 
0 0 0 0 0 0 0 0 -1.841283579e-07 
-1.32572303e-07 0 -1.489305346e-07 0 0 2.382002304e-07 -1.489305346e-07 2.382002304e-07 -1.80771243e-07 
0 0 -2.726383059e-07 0 0 4.629557683e-07 -2.726383059e-07 4.629557683e-07 0 
1.232689691e-07 0 0 0 0 1.228758018e-07 0 1.228758018e-07 0 
0 0 0 0 0 2.009836122e-07 0 2.009836122e-07 -1.957036184e-07 
1.779710293e-07 0 0 0 0 2.873667166e-07 0 2.873667166e-07 -4.46638224e-07 
0 0 0 0 0 -1.605147762e-07 0 -1.605147762e-07 2.34176569e-07 
0 0 0 0 0 -2.016154517e-07 0 -2.016154517e-07 -4.848489884e-07 
0 0 0 0 0 -2.486763822e-07 0 -2.486763822e-07 -5.296213048e-07 
1.376570108e-07 0 0 0 0 0 0 0 0 
0 0 0 0 0 -1.810651139e-07 0 -1.810651139e-07 -1.253362097e-07 
0 0 0 0 0 0 0 0 -4.657436062e-07 
0 0 0 0 0 0 0 0 -4.881297644e-07 
0 0 0 0 0 -2.045955792e-07 0 -2.045955792e-07 -1.477223679e-07 
0 0 0 0 0 -2.251459169e-07 0 -2.251459169e-07 -5.072351466e-07 
0 0 3.789745202e-07 0 0 -2.56204491e-07 3.789745202e-07 -2.56204491e-07 2.776931966e-07 
3.063241729e-07 0 0 0 1.252770168e-07 2.827229606e-07 0 2.827229606e-07 -3.892058116e-07 
2.572130239e-07 0 -1.35711068e-07 0 1.577195191e-07 -1.877340968e-07 -1.35711068e-07 -1.877340968e-07 -3.401536775e-07 
-6.28003874e-07 1.39359761e-07 -4.956656603e-07 1.39359761e-07 -3.547581972e-07 0 -4.956656603e-07 0 -3.37170456e-07 
1.544104361e-07 0 2.44900036e-07 0 0 0 2.44900036e-07 0 0 
2.817685984e-07 0 0 0 1.414982679e-07 0 0 0 -3.646797446e-07 
1.298548616e-07 0 1.216317261e-07 0 0 -2.219692939e-07 1.216317261e-07 -2.219692939e-07 0 
-3.127535874e-07 0 0 0 -1.576190073e-07 0 0 0 0 
-1.608398505e-07 0 -1.924200542e-07 0 0 1.779266272e-07 -1.924200542e-07 1.779266272e-07 -3.631881338e-07 
-1.853954251e-07 0 -3.156883642e-07 0 0 0 -3.156883642e-07 0 -3.386620668e-07 
0 0 0 0 0 -1.567715206e-07 0 -1.567715206e-07 2.444556139e-07 
0 0 0 0 0 2.815228601e-07 0 2.815228601e-07 -4.813070233e-07 
3.773657782e-07 0 0 0 1.750103578e-07 2.034817375e-07 0 2.034817375e-07 3.084341553e-07 
-4.945392232e-07 0 0 0 -2.552819857e-07 -2.633090308e-07 0 -2.633090308e-07 -7.000417213e-07 
0 0 0 0 0 0 0 0 0 
2.338929017e-07 0 0 0 0 2.425022988e-07 0 2.425022988e-07 0 
2.318168606e-07 0 0 0 0 0 0 0 2.764448846e-07 
-2.041356401e-07 0 0 0 0 -2.100402757e-07 0 -2.100402757e-07 -2.277930537e-07 
-2.02059599e-07 0 0 0 0 0 0 0 -5.906743723e-07 
0 0 0 0 0 0 0 0 -1.95803783e-07 
-1.622065916e-07 0 0 0 -1.453590962e-07 2.874314929e-07 0 2.874314929e-07 -6.104336373e-07 
0 0 3.519777499e-07 0 0 -2.511063726e-07 3.519777499e-07 -2.511063726e-07 2.350057319e-07 
-4.639688156e-07 0 2.196833373e-07 0 -2.526205674e-07 1.696350732e-07 2.196833373e-07 1.696350732e-07 0 
9.905800134e-07 -2.360081976e-07 -6.93616737e-07 -2.360081976e-07 4.907917511e-07 0 -6.93616737e-07 0 4.053058273e-07 
-1.376332016e-07 0 2.160490306e-07 0 0 0 2.160490306e-07 0 -1.877139527e-07 
-2.885143136e-07 0 2.858305436e-07 0 -1.206702429e-07 0 2.858305436e-07 0 0 
-3.130877036e-07 0 1.499018243e-07 0 -1.989898318e-07 2.28533283e-07 1.499018243e-07 2.28533283e-07 -3.276647209e-07 
4.141867109e-07 0 -3.067482128e-07 0 1.727163274e-07 1.985462913e-07 -3.067482128e-07 1.985462913e-07 0 
4.387601009e-07 -1.439004728e-07 -1.708194935e-07 -1.439004728e-07 2.510359164e-07 0 -1.708194935e-07 0 3.201557796e-07 
2.633055989e-07 0 -2.369666998e-07 0 0 1.396480814e-07 -2.369666998e-07 1.396480814e-07 1.802050113e-07 
2.567070616e-07 0 0 0 1.424278877e-07 -1.450748131e-07 0 -1.450748131e-07 3.470337798e-07 
-2.219447059e-07 0 0 0 0 -1.924990797e-07 0 -1.924990797e-07 -7.182433945e-07 
1.736187879e-07 0 0 0 0 2.60072848e-07 0 2.60072848e-07 -6.108354516e-07 
0 0 0 0 0 -2.128074271e-07 0 -2.128074271e-07 -6.123919017e-07 
0 0 0 0 0 -1.687869464e-07 0 -1.687869464e-07 -1.856048073e-07 
0 0 0 0 0 0 0 0 -6.64539423e-07 
2.151629248e-07 0 0 0 0 0 0 0 -1.319008359e-07 
0 0 0 0 0 -1.789411201e-07 0 -1.789411201e-07 -1.326790609e-07 
-1.262068874e-07 0 0 0 0 -2.026532534e-07 0 -2.026532534e-07 -6.653176481e-07 
0 0 0 0 0 0 0 0 -6.116136766e-07 
3.204440042e-07 0 1.247080024e-07 0 0 2.553686124e-07 1.247080024e-07 2.553686124e-07 -5.450665994e-07 
3.996499379e-07 0 -1.291350126e-07 0 2.422297281e-07 -1.78519818e-07 -1.291350126e-07 -1.78519818e-07 -4.525112577e-07 
0 0 2.982468736e-07 0 0 -2.264073285e-07 2.982468736e-07 -2.264073285e-07 3.113370378e-07 
-8.552157682e-07 1.82605755e-07 -3.759029951e-07 1.82605755e-07 -4.561573746e-07 0 -3.759029951e-07 0 -4.442296441e-07 
3.60046971e-07 0 0 0 1.770399454e-07 0 0 0 -4.987889285e-07 
1.986445738e-07 0 0 0 1.471344057e-07 -2.024635732e-07 0 -2.024635732e-07 0 
1.590416069e-07 0 2.11477438e-07 0 0 0 2.11477438e-07 0 0 
-2.67385882e-07 0 -1.255974963e-07 0 -1.721536059e-07 1.527277274e-07 -1.255974963e-07 1.527277274e-07 -4.946481217e-07 
-2.277829151e-07 0 -2.525190039e-07 0 0 0 -2.525190039e-07 0 -4.483704509e-07 
-4.287882793e-07 0 0 0 -2.020591456e-07 0 0 0 0 
1.249983558e-07 0 0 0 0 2.58270458e-07 0 2.58270458e-07 -6.19828018e-07 
3.576455225e-07 0 0 0 1.497990556e-07 1.827986363e-07 0 1.827986363e-07 3.180721475e-07 
1.751653798e-07 0 -1.219729591e-07 0 0 -1.422757504e-07 -1.219729591e-07 -1.422757504e-07 3.229727073e-07 
-6.403325279e-07 1.28445625e-07 0 1.28445625e-07 -3.035552202e-07 -2.289029134e-07 0 -2.289029134e-07 -8.723211268e-07 
2.413219391e-07 0 0 0 0 2.205345472e-07 0 2.205345472e-07 -1.508779353e-07 
2.664054511e-07 0 0 0 1.307196203e-07 0 0 0 3.205224274e-07 
1.500818678e-07 0 0 0 0 0 0 0 -1.484276554e-07 
-2.576670861e-07 0 0 0 -1.365339517e-07 0 0 0 -7.460745724e-07 
-1.413435027e-07 0 0 0 0 0 0 0 -2.771244897e-07 
-2.325835741e-07 0 0 0 0 -1.855893319e-07 0 -1.855893319e-07 -2.746742098e-07 
-4.032892613e-07 0 2.857415437e-07 0 0 -2.239682447e-07 2.857415437e-07 -2.239682447e-07 1.414723471e-07 
-9.236057958e-07 2.018655653e-07 2.457839964e-07 2.018655653e-07 -5.036812647e-07 1.55783031e-07 2.457839964e-07 1.55783031e-07 -2.342952419e-07 
0 0 0 0 0 2.720349522e-07 0 2.720349522e-07 -6.505724474e-07 
1.597779896e-06 -3.514356085e-07 -6.086386629e-07 -3.514356085e-07 8.066182212e-07 0 -6.086386629e-07 0 6.747796064e-07 
-6.634475285e-07 0 2.6576277e-07 0 -3.088819546e-07 0 2.6576277e-07 0 0 
-4.092261848e-07 0 1.362615747e-07 0 -2.671903913e-07 2.139089916e-07 1.362615747e-07 2.139089916e-07 -4.424338446e-07 
-1.490679175e-07 0 1.562403484e-07 0 0 0 1.562403484e-07 0 -2.545500501e-07 
5.972453174e-07 -1.773720722e-07 -1.614485596e-07 -1.773720722e-07 3.462677884e-07 0 -1.614485596e-07 0 4.081259768e-07 
3.370870501e-07 0 -1.814273333e-07 0 1.514684782e-07 1.245869577e-07 -1.814273333e-07 1.245869577e-07 2.202421823e-07 
8.514666611e-07 -1.610210477e-07 -2.909497549e-07 -1.610210477e-07 3.879593517e-07 1.827129183e-07 -2.909497549e-07 1.827129183e-07 0 
0 0 0 0 0 -1.6645572e-07 0 -1.6645572e-07 1.782687849e-07 
0 0 0 0 0 3.135290606e-07 0 3.135290606e-07 -3.702029948e-07 
2.46074074e-07 0 0 0 1.286323921e-07 2.114745392e-07 0 2.114745392e-07 2.075327768e-07 
-2.461649652e-07 0 0 0 -1.39914449e-07 -2.604612814e-07 0 -2.604612814e-07 -4.780927389e-07 
0 0 0 0 0 0 0 0 0 
1.320603299e-07 0 0 0 0 2.625017999e-07 0 2.625017999e-07 0 
1.381994156e-07 0 0 0 0 0 0 0 1.929007809e-07 
0 0 0 0 0 -2.134585007e-07 0 -2.134585007e-07 -1.49911977e-07 
0 0 0 0 0 0 0 0 -4.241478669e-07 
0 0 0 0 0 0 0 0 -1.35279981e-07 
-2.77583647e-07 0 0 0 -1.662980905e-07 3.228783757e-07 0 3.228783757e-07 -5.178236971e-07 
1.693575644e-07 0 6.54108762e-07 0 1.558025385e-07 -3.18980698e-07 6.54108762e-07 -3.18980698e-07 3.46037573e-07 
0 0 1.879281505e-07 0 0 1.802580581e-07 1.879281505e-07 1.802580581e-07 0 
3.07160763e-07 0 -8.993300894e-07 0 1.245292776e-07 1.2202084e-07 -8.993300894e-07 1.2202084e-07 0 
0 0 3.536402649e-07 0 0 0 3.536402649e-07 0 0 
0 0 4.210184562e-07 0 0 0 4.210184562e-07 0 2.076124658e-07 
-1.865603033e-07 0 1.205499592e-07 0 0 2.515682169e-07 1.205499592e-07 2.515682169e-07 -2.243181692e-07 
0 0 -4.230791608e-07 0 0 2.224496078e-07 -4.230791608e-07 2.224496078e-07 -2.168807875e-07 
2.382591637e-07 0 -1.226106637e-07 0 1.401659081e-07 0 -1.226106637e-07 0 2.150498476e-07 
0 0 -3.557009695e-07 0 0 1.51139449e-07 -3.557009695e-07 1.51139449e-07 0 
0 0 0 0 0 3.178426289e-07 0 3.178426289e-07 -3.524544614e-07 
0 0 0 0 0 -1.695498674e-07 0 -1.695498674e-07 1.675773758e-07 
0 0 0 0 0 -1.9837209e-07 0 -1.9837209e-07 -2.797244455e-07 
0 0 0 0 0 -2.541149998e-07 0 -2.541149998e-07 -4.241190937e-07 
0 0 0 0 0 0 0 0 0 
0 0 0 0 0 -1.839609787e-07 0 -1.839609787e-07 0 
0 0 0 0 0 0 0 0 -3.160894535e-07 
0 0 0 0 0 0 0 0 -3.882867776e-07 
0 0 0 0 0 -2.118324336e-07 0 -2.118324336e-07 -1.282708589e-07 
0 0 0 0 0 -2.262435449e-07 0 -2.262435449e-07 -3.519217696e-07 
1.195925291e-07 0 5.184983318e-07 0 0 -2.928782963e-07 5.184983318e-07 -2.928782963e-07 3.074094377e-07 
1.961377929e-07 0 0 0 0 3.167117506e-07 0 3.167117506e-07 -2.927499501e-07 
0 0 -2.06657769e-07 0 0 -1.677712396e-07 -2.06657769e-07 -1.677712396e-07 -2.890770602e-07 
-3.104048862e-07 0 -5.912399297e-07 0 -1.96457425e-07 0 -5.912399297e-07 0 -1.91464512e-07 
1.57865161e-07 0 3.000678842e-07 0 0 0 3.000678842e-07 0 0 
1.207897123e-07 0 0 0 0 0 0 0 -2.909135051e-07 
0 0 1.559202814e-07 0 0 -2.30324768e-07 1.559202814e-07 -2.30324768e-07 0 
0 0 0 0 0 0 0 0 0 
0 0 -2.548012466e-07 0 0 1.907580185e-07 -2.548012466e-07 1.907580185e-07 -2.42107231e-07 
-1.324816272e-07 0 -3.989488493e-07 0 0 0 -3.989488493e-07 0 -2.402707861e-07 
-1.246554651e-07 0 -1.913313803e-07 0 0 4.401074611e-07 -1.913313803e-07 4.401074611e-07 0 
0 0 0 0 0 2.006593527e-07 0 2.006593527e-07 0 
-1.974780988e-07 0 -7.768573583e-07 0 0 0 -7.768573583e-07 0 0 
3.23859648e-07 0 1.249299599e-06 0 1.514556783e-07 -2.449452535e-07 1.249299599e-06 -2.449452535e-07 3.18608669e-07 
0 0 0 0 0 3.203834069e-07 0 3.203834069e-07 0 
0 0 -3.486264481e-07 0 0 0 -3.486264481e-07 0 0 
-1.61066782e-07 0 -4.840943693e-07 0 0 1.767918228e-07 -4.840943693e-07 1.767918228e-07 0 
0 0 5.289841093e-07 0 0 0 5.289841093e-07 0 0 
2.034500964e-07 0 6.644520305e-07 0 0 0 6.644520305e-07 0 2.112394875e-07 
0 0 2.362211203e-07 0 0 -1.657345345e-07 2.362211203e-07 -1.657345345e-07 1.351600699e-07 
1.529491003e-07 0 -5.982008533e-07 0 0 -2.470397829e-07 -5.982008533e-07 -2.470397829e-07 1.543957513e-07 
0 0 0 0 0 2.917862623e-07 0 2.917862623e-07 0 
0 0 2.356439917e-07 0 0 0 2.356439917e-07 0 0 
-2.016073939e-07 0 0 0 -1.786592408e-07 -4.248854453e-07 0 -4.248854453e-07 0 
0 0 -3.104474246e-07 0 0 0 -3.104474246e-07 0 0 
0 0 0 0 0 1.694664468e-07 0 1.694664468e-07 0 
0 0 -1.812784308e-07 0 0 0 -1.812784308e-07 0 0 
0 0 -2.513667265e-07 0 0 -3.359626141e-07 -2.513667265e-07 -3.359626141e-07 0 
0 0 0 0 0 0 0 0 0 
-1.216411932e-07 0 1.65555696e-07 0 -1.331818696e-07 -1.88869407e-07 1.65555696e-07 -1.88869407e-07 0 
2.800907874e-07 0 0 0 2.591321294e-07 2.615199075e-07 0 2.615199075e-07 2.872784542e-07 
-2.655059841e-07 0 1.898959995e-07 0 -3.252953402e-07 0 1.898959995e-07 0 0 
-1.682242182e-07 0 -4.577108071e-07 0 -1.36392234e-07 -2.269329225e-07 -4.577108071e-07 -2.269329225e-07 0 
0 0 0 0 1.666111582e-07 -4.050314634e-07 0 -4.050314634e-07 3.690406756e-07 
0 0 0 0 0 1.601781178e-07 0 1.601781178e-07 1.66586326e-07 
-2.168651012e-07 0 -1.339074038e-07 0 -2.308437871e-07 0 -1.339074038e-07 0 0 
0 0 -2.537199298e-07 0 0 0 -2.537199298e-07 0 1.880156199e-07 
1.981858831e-07 0 0 0 2.128716438e-07 0 0 0 3.281595649e-07 
0 0 0 0 0 -1.730975677e-07 0 -1.730975677e-07 2.074674367e-07 
0 0 -2.121519807e-07 0 0 -3.15982193e-07 -2.121519807e-07 -3.15982193e-07 2.288967305e-07 
-2.009106043e-07 0 -5.654553848e-07 0 0 -1.289810116e-07 -5.654553848e-07 -1.289810116e-07 0 
-1.869958728e-07 0 0 0 -1.478165995e-07 3.387617979e-07 0 3.387617979e-07 0 
0 0 0 0 0 1.909238307e-07 0 1.909238307e-07 1.501815175e-07 
2.426436393e-07 0 1.03656177e-06 0 1.813163469e-07 0 1.03656177e-06 0 3.004587556e-07 
-1.939532386e-07 0 -3.390137171e-07 0 -1.214590345e-07 0 -3.390137171e-07 0 0 
0 0 0 0 0 2.648428143e-07 0 2.648428143e-07 0 
0 0 -2.692063791e-07 0 0 0 -2.692063791e-07 0 0 
0 0 2.355531928e-07 0 0 0 2.355531928e-07 0 1.826598805e-07 
0 0 4.619948606e-07 0 0 0 4.619948606e-07 0 1.738144967e-07 
1.36141314e-07 0 5.318021985e-07 0 0 0 5.318021985e-07 0 2.253201365e-07 
CELL_DATA 3292
SCALARS GLOBAL_ID int 1
LOOKUP_TABLE default
-1 
-1 
-1 
-1 
-1 
-1 
-1 
-1 
-1 
-1 
-1 
-1 
-1 
-1 
-1 
-1 
-1 
-1 
-1 
-1 
-1 
-1 
-1 
-1 
-1 
-1 
-1 
-1 
-1 
-1 
-1 
-1 
-1 
-1 
-1 
-1 
-1 
-1 
-1 
-1 
-1 
-1 
-1 
-1 
-1 
-1 
-1 
-1 
-1 
-1 
-1 
-1 
-1 
-1 
-1 
-1 
-1 
-1 
-1 
-1 
-1 
-1 
-1 
-1 
-1 
-1 
-1 
-1 
-1 
-1 
-1 
-1 
-1 
-1 
-1 
-1 
-1 
-1 
-1 
-1 
-1 
-1 
-1 
-1 
-1 
-1 
-1 
-1 
-1 
-1 
-1 
-1 
-1 
-1 
-1 
-1 
-1 
-1 
-1 
-1 
-1 
-1 
-1 
-1 
-1 
-1 
-1 
-1 
-1 
-1 
-1 
-1 
-1 
-1 
-1 
-1 
-1 
-1 
-1 
-1 
-1 
-1 
-1 
-1 
-1 
-1 
-1 
-1 
-1 
-1 
-1 
-1 
-1 
-1 
-1 
-1 
-1 
-1 
-1 
-1 
-1 
-1 
-1 
-1 
-1 
-1 
-1 
-1 
-1 
-1 
-1 
-1 
-1 
-1 
-1 
-1 
-1 
-1 
-1 
-1 
-1 
-1 
-1 
-1 
-1 
-1 
-1 
-1 
-1 
-1 
-1 
-1 
-1 
-1 
-1 
-1 
-1 
-1 
-1 
-1 
-1 
-1 
-1 
-1 
-1 
-1 
-1 
-1 
-1 
-1 
-1 
-1 
-1 
-1 
-1 
-1 
-1 
-1 
-1 
-1 
-1 
-1 
-1 
-1 
-1 
-1 
-1 
-1 
-1 
-1 
-1 
-1 
-1 
-1 
-1 
-1 
-1 
-1 
-1 
-1 
-1 
-1 
-1 
-1 
-1 
-1 
-1 
-1 
-1 
-1 
-1 
-1 
-1 
-1 
-1 
-1 
-1 
-1 
-1 
-1 
-1 
-1 
-1 
-1 
-1 
-1 
-1 
-1 
-1 
-1 
-1 
-1 
-1 
-1 
-1 
-1 
-1 
-1 
-1 
-1 
-1 
-1 
-1 
-1 
-1 
-1 
-1 
-1 
-1 
-1 
-1 
-1 
-1 
-1 
-1 
-1 
-1 
-1 
-1 
-1 
-1 
-1 
-1 
-1 
-1 
-1 
-1 
-1 
-1 
-1 
-1 
-1 
-1 
-1 
-1 
-1 
-1 
-1 
-1 
-1 
-1 
-1 
-1 
-1 
-1 
-1 
-1 
-1 
-1 
-1 
-1 
-1 
-1 
-1 
-1 
-1 
-1 
-1 
-1 
-1 
-1 
-1 
-1 
-1 
-1 
-1 
-1 
-1 
-1 
-1 
-1 
-1 
-1 
-1 
-1 
-1 
-1 
-1 
-1 
-1 
-1 
-1 
-1 
-1 
-1 
-1 
-1 
-1 
-1 
-1 
-1 
-1 
-1 
-1 
-1 
-1 
-1 
-1 
-1 
-1 
-1 
-1 
-1 
-1 
-1 
-1 
-1 
-1 
-1 
-1 
-1 
-1 
-1 
-1 
-1 
-1 
-1 
-1 
-1 
-1 
-1 
-1 
-1 
-1 
-1 
-1 
-1 
-1 
-1 
-1 
-1 
-1 
-1 
-1 
-1 
-1 
-1 
-1 
-1 
-1 
-1 
-1 
-1 
-1 
-1 
-1 
-1 
-1 
-1 
-1 
-1 
-1 
-1 
-1 
-1 
-1 
-1 
-1 
-1 
-1 
-1 
-1 
-1 
-1 
-1 
-1 
-1 
-1 
-1 
-1 
-1 
-1 
-1 
-1 
-1 
-1 
-1 
-1 
-1 
-1 
-1 
-1 
-1 
-1 
-1 
-1 
-1 
-1 
-1 
-1 
-1 
-1 
-1 
-1 
-1 
-1 
-1 
-1 
-1 
-1 
-1 
-1 
-1 
-1 
-1 
-1 
-1 
-1 
-1 
-1 
-1 
-1 
-1 
-1 
-1 
-1 
-1 
-1 
-1 
-1 
-1 
-1 
-1 
-1 
-1 
-1 
-1 
-1 
-1 
-1 
-1 
-1 
-1 
-1 
-1 
-1 
-1 
-1 
-1 
-1 
-1 
-1 
-1 
-1 
-1 
-1 
-1 
-1 
-1 
-1 
-1 
-1 
-1 
-1 
-1 
-1 
-1 
-1 
-1 
-1 
-1 
-1 
-1 
-1 
-1 
-1 
-1 
-1 
-1 
-1 
-1 
-1 
-1 
-1 
-1 
-1 
-1 
-1 
-1 
-1 
-1 
-1 
-1 
-1 
-1 
-1 
-1 
-1 
-1 
-1 
-1 
-1 
-1 
-1 
-1 
-1 
-1 
-1 
-1 
-1 
-1 
-1 
-1 
-1 
-1 
-1 
-1 
-1 
-1 
-1 
-1 
-1 
-1 
-1 
-1 
-1 
-1 
-1 
-1 
-1 
-1 
-1 
-1 
-1 
-1 
-1 
-1 
-1 
-1 
-1 
-1 
-1 
-1 
-1 
-1 
-1 
-1 
-1 
-1 
-1 
-1 
-1 
-1 
-1 
-1 
-1 
-1 
-1 
-1 
-1 
-1 
-1 
-1 
-1 
-1 
-1 
-1 
-1 
-1 
-1 
-1 
-1 
-1 
-1 
-1 
-1 
-1 
-1 
-1 
-1 
-1 
-1 
-1 
-1 
-1 
-1 
-1 
-1 
-1 
-1 
-1 
-1 
-1 
-1 
-1 
-1 
-1 
-1 
-1 
-1 
-1 
-1 
-1 
-1 
-1 
-1 
-1 
-1 
-1 
-1 
-1 
-1 
-1 
-1 
-1 
-1 
-1 
-1 
-1 
-1 
-1 
-1 
-1 
-1 
-1 
-1 
-1 
-1 
-1 
-1 
-1 
-1 
-1 
-1 
-1 
-1 
-1 
-1 
-1 
-1 
-1 
-1 
-1 
-1 
-1 
-1 
-1 
-1 
-1 
-1 
-1 
-1 
-1 
-1 
-1 
-1 
-1 
-1 
-1 
-1 
-1 
-1 
-1 
-1 
-1 
-1 
-1 
-1 
-1 
-1 
-1 
-1 
-1 
-1 
-1 
-1 
-1 
-1 
-1 
-1 
-1 
-1 
-1 
-1 
-1 
-1 
-1 
-1 
-1 
-1 
-1 
-1 
-1 
-1 
-1 
-1 
-1 
-1 
-1 
-1 
-1 
-1 
-1 
-1 
-1 
-1 
-1 
-1 
-1 
-1 
-1 
-1 
-1 
-1 
-1 
-1 
-1 
-1 
-1 
-1 
-1 
-1 
-1 
-1 
-1 
-1 
-1 
-1 
-1 
-1 
-1 
-1 
-1 
-1 
-1 
-1 
-1 
-1 
-1 
-1 
-1 
-1 
-1 
-1 
-1 
-1 
-1 
-1 
-1 
-1 
-1 
-1 
-1 
-1 
-1 
-1 
-1 
-1 
-1 
-1 
-1 
-1 
-1 
-1 
-1 
-1 
-1 
-1 
-1 
-1 
-1 
-1 
-1 
-1 
-1 
-1 
-1 
-1 
-1 
-1 
-1 
-1 
-1 
-1 
-1 
-1 
-1 
-1 
-1 
-1 
-1 
-1 
-1 
-1 
-1 
-1 
-1 
-1 
-1 
-1 
-1 
-1 
-1 
-1 
-1 
-1 
-1 
-1 
-1 
-1 
-1 
-1 
-1 
-1 
-1 
-1 
-1 
-1 
-1 
-1 
-1 
-1 
-1 
-1 
-1 
-1 
-1 
-1 
-1 
-1 
-1 
-1 
-1 
-1 
-1 
-1 
-1 
-1 
-1 
-1 
-1 
-1 
-1 
-1 
-1 
-1 
-1 
-1 
-1 
-1 
-1 
-1 
-1 
-1 
-1 
-1 
-1 
-1 
-1 
-1 
-1 
-1 
-1 
-1 
-1 
-1 
-1 
-1 
-1 
-1 
-1 
-1 
-1 
-1 
-1 
-1 
-1 
-1 
-1 
-1 
-1 
-1 
-1 
-1 
-1 
-1 
-1 
-1 
-1 
-1 
-1 
-1 
-1 
-1 
-1 
-1 
-1 
-1 
-1 
-1 
-1 
-1 
-1 
-1 
-1 
-1 
-1 
-1 
-1 
-1 
-1 
-1 
-1 
-1 
-1 
-1 
-1 
-1 
-1 
-1 
-1 
-1 
-1 
-1 
-1 
-1 
-1 
-1 
-1 
-1 
-1 
-1 
-1 
-1 
-1 
-1 
-1 
-1 
-1 
-1 
-1 
-1 
-1 
-1 
-1 
-1 
-1 
-1 
-1 
-1 
-1 
-1 
-1 
-1 
-1 
-1 
-1 
-1 
-1 
-1 
-1 
-1 
-1 
-1 
-1 
-1 
-1 
-1 
-1 
-1 
-1 
-1 
-1 
-1 
-1 
-1 
-1 
-1 
-1 
-1 
-1 
-1 
-1 
-1 
-1 
-1 
-1 
-1 
-1 
-1 
-1 
-1 
-1 
-1 
-1 
-1 
-1 
-1 
-1 
-1 
-1 
-1 
-1 
-1 
-1 
-1 
-1 
-1 
-1 
-1 
-1 
-1 
-1 
-1 
-1 
-1 
-1 
-1 
-1 
-1 
-1 
-1 
-1 
-1 
-1 
-1 
-1 
-1 
-1 
-1 
-1 
-1 
-1 
-1 
-1 
-1 
-1 
-1 
-1 
-1 
-1 
-1 
-1 
-1 
-1 
-1 
-1 
-1 
-1 
-1 
-1 
-1 
-1 
-1 
-1 
-1 
-1 
-1 
-1 
-1 
-1 
-1 
-1 
-1 
-1 
-1 
-1 
-1 
-1 
-1 
-1 
-1 
-1 
-1 
-1 
-1 
-1 
-1 
-1 
-1 
-1 
-1 
-1 
-1 
-1 
-1 
-1 
-1 
-1 
-1 
-1 
-1 
-1 
-1 
-1 
-1 
-1 
-1 
-1 
-1 
-1 
-1 
-1 
-1 
-1 
-1 
-1 
-1 
-1 
-1 
-1 
-1 
-1 
-1 
-1 
-1 
-1 
-1 
-1 
-1 
-1 
-1 
-1 
-1 
-1 
-1 
-1 
-1 
-1 
-1 
-1 
-1 
-1 
-1 
-1 
-1 
-1 
-1 
-1 
-1 
-1 
-1 
-1 
-1 
-1 
-1 
-1 
-1 
-1 
-1 
-1 
-1 
-1 
-1 
-1 
-1 
-1 
-1 
-1 
-1 
-1 
-1 
-1 
-1 
-1 
-1 
-1 
-1 
-1 
-1 
-1 
-1 
-1 
-1 
-1 
-1 
-1 
-1 
-1 
-1 
-1 
-1 
-1 
-1 
-1 
-1 
-1 
-1 
-1 
-1 
-1 
-1 
-1 
-1 
-1 
-1 
-1 
-1 
-1 
-1 
-1 
-1 
-1 
-1 
-1 
-1 
-1 
-1 
-1 
-1 
-1 
-1 
-1 
-1 
-1 
-1 
-1 
-1 
-1 
-1 
-1 
-1 
-1 
-1 
-1 
-1 
-1 
-1 
-1 
-1 
-1 
-1 
-1 
-1 
-1 
-1 
-1 
-1 
-1 
-1 
-1 
-1 
-1 
-1 
-1 
-1 
-1 
-1 
-1 
-1 
-1 
-1 
-1 
-1 
-1 
-1 
-1 
-1 
-1 
-1 
-1 
-1 
-1 
-1 
-1 
-1 
-1 
-1 
-1 
-1 
-1 
-1 
-1 
-1 
-1 
-1 
-1 
-1 
-1 
-1 
-1 
-1 
-1 
-1 
-1 
-1 
-1 
-1 
-1 
-1 
-1 
-1 
-1 
-1 
-1 
-1 
-1 
-1 
-1 
-1 
-1 
-1 
-1 
-1 
-1 
-1 
-1 
-1 
-1 
-1 
-1 
-1 
-1 
-1 
-1 
-1 
-1 
-1 
-1 
-1 
-1 
-1 
-1 
-1 
-1 
-1 
-1 
-1 
-1 
-1 
-1 
-1 
-1 
-1 
-1 
-1 
-1 
-1 
-1 
-1 
-1 
-1 
-1 
-1 
-1 
-1 
-1 
-1 
-1 
-1 
-1 
-1 
-1 
-1 
-1 
-1 
-1 
-1 
-1 
-1 
-1 
-1 
-1 
-1 
-1 
-1 
-1 
-1 
-1 
-1 
-1 
-1 
-1 
-1 
-1 
-1 
-1 
-1 
-1 
-1 
-1 
-1 
-1 
-1 
-1 
-1 
-1 
-1 
-1 
-1 
-1 
-1 
-1 
-1 
-1 
-1 
-1 
-1 
-1 
-1 
-1 
-1 
-1 
-1 
-1 
-1 
-1 
-1 
-1 
-1 
-1 
-1 
-1 
-1 
-1 
-1 
-1 
-1 
-1 
-1 
-1 
-1 
-1 
-1 
-1 
-1 
-1 
-1 
-1 
-1 
-1 
-1 
-1 
-1 
-1 
-1 
-1 
-1 
-1 
-1 
-1 
-1 
-1 
-1 
-1 
-1 
-1 
-1 
-1 
-1 
-1 
-1 
-1 
-1 
-1 
-1 
-1 
-1 
-1 
-1 
-1 
-1 
-1 
-1 
-1 
-1 
-1 
-1 
-1 
-1 
-1 
-1 
-1 
-1 
-1 
-1 
-1 
-1 
-1 
-1 
-1 
-1 
-1 
-1 
-1 
-1 
-1 
-1 
-1 
-1 
-1 
-1 
-1 
-1 
-1 
-1 
-1 
-1 
-1 
-1 
-1 
-1 
-1 
-1 
-1 
-1 
-1 
-1 
-1 
-1 
-1 
-1 
-1 
-1 
-1 
-1 
-1 
-1 
-1 
-1 
-1 
-1 
-1 
-1 
-1 
-1 
-1 
-1 
-1 
-1 
-1 
-1 
-1 
-1 
-1 
-1 
-1 
-1 
-1 
-1 
-1 
-1 
-1 
-1 
-1 
-1 
-1 
-1 
-1 
-1 
-1 
-1 
-1 
-1 
-1 
-1 
-1 
-1 
-1 
-1 
-1 
-1 
-1 
-1 
-1 
-1 
-1 
-1 
-1 
-1 
-1 
-1 
-1 
-1 
-1 
-1 
-1 
-1 
-1 
-1 
-1 
-1 
-1 
-1 
-1 
-1 
-1 
-1 
-1 
-1 
-1 
-1 
-1 
-1 
-1 
-1 
-1 
-1 
-1 
-1 
-1 
-1 
-1 
-1 
-1 
-1 
-1 
-1 
-1 
-1 
-1 
-1 
-1 
-1 
-1 
-1 
-1 
-1 
-1 
-1 
-1 
-1 
-1 
-1 
-1 
-1 
-1 
-1 
-1 
-1 
-1 
-1 
-1 
-1 
-1 
-1 
-1 
-1 
-1 
-1 
-1 
-1 
-1 
-1 
-1 
-1 
-1 
-1 
-1 
-1 
-1 
-1 
-1 
-1 
-1 
-1 
-1 
-1 
-1 
-1 
-1 
-1 
-1 
-1 
-1 
-1 
-1 
-1 
-1 
-1 
-1 
-1 
-1 
-1 
-1 
-1 
-1 
-1 
-1 
-1 
-1 
-1 
-1 
-1 
-1 
-1 
-1 
-1 
-1 
-1 
-1 
-1 
-1 
-1 
-1 
-1 
-1 
-1 
-1 
-1 
-1 
-1 
-1 
-1 
-1 
-1 
-1 
-1 
-1 
-1 
-1 
-1 
-1 
-1 
-1 
-1 
-1 
-1 
-1 
-1 
-1 
-1 
-1 
-1 
-1 
-1 
-1 
-1 
-1 
-1 
-1 
-1 
-1 
-1 
-1 
-1 
-1 
-1 
-1 
-1 
-1 
-1 
-1 
-1 
-1 
-1 
-1 
-1 
-1 
-1 
-1 
-1 
-1 
-1 
-1 
-1 
-1 
-1 
-1 
-1 
-1 
-1 
-1 
-1 
-1 
-1 
-1 
-1 
-1 
-1 
-1 
-1 
-1 
-1 
-1 
-1 
-1 
-1 
-1 
-1 
-1 
-1 
-1 
-1 
-1 
-1 
-1 
-1 
-1 
-1 
-1 
-1 
-1 
-1 
-1 
-1 
-1 
-1 
-1 
-1 
-1 
-1 
-1 
-1 
-1 
-1 
-1 
-1 
-1 
-1 
-1 
-1 
-1 
-1 
-1 
-1 
-1 
-1 
-1 
-1 
-1 
-1 
-1 
-1 
-1 
-1 
-1 
-1 
-1 
-1 
-1 
-1 
-1 
-1 
-1 
-1 
-1 
-1 
-1 
-1 
-1 
-1 
-1 
-1 
-1 
-1 
-1 
-1 
-1 
-1 
-1 
-1 
-1 
-1 
-1 
-1 
-1 
-1 
-1 
-1 
-1 
-1 
-1 
-1 
-1 
-1 
-1 
-1 
-1 
-1 
-1 
-1 
-1 
-1 
-1 
-1 
-1 
-1 
-1 
-1 
-1 
-1 
-1 
-1 
-1 
-1 
-1 
-1 
-1 
-1 
-1 
-1 
-1 
-1 
-1 
-1 
-1 
-1 
-1 
-1 
-1 
-1 
-1 
-1 
-1 
-1 
-1 
-1 
-1 
-1 
-1 
-1 
-1 
-1 
-1 
-1 
-1 
-1 
-1 
-1 
-1 
-1 
-1 
-1 
-1 
-1 
-1 
-1 
-1 
-1 
-1 
-1 
-1 
-1 
-1 
-1 
-1 
-1 
-1 
-1 
-1 
-1 
-1 
-1 
-1 
-1 
-1 
-1 
-1 
-1 
-1 
-1 
-1 
-1 
-1 
-1 
-1 
-1 
-1 
-1 
-1 
-1 
-1 
-1 
-1 
-1 
-1 
-1 
-1 
-1 
-1 
-1 
-1 
-1 
-1 
-1 
-1 
-1 
-1 
-1 
-1 
-1 
-1 
-1 
-1 
-1 
-1 
-1 
-1 
-1 
-1 
-1 
-1 
-1 
-1 
-1 
-1 
-1 
-1 
-1 
-1 
-1 
-1 
-1 
-1 
-1 
-1 
-1 
-1 
-1 
-1 
-1 
-1 
-1 
-1 
-1 
-1 
-1 
-1 
-1 
-1 
-1 
-1 
-1 
-1 
-1 
-1 
-1 
-1 
-1 
-1 
-1 
-1 
-1 
-1 
-1 
-1 
-1 
-1 
-1 
-1 
-1 
-1 
-1 
-1 
-1 
-1 
-1 
-1 
-1 
-1 
-1 
-1 
-1 
-1 
-1 
-1 
-1 
-1 
-1 
-1 
-1 
-1 
-1 
-1 
-1 
-1 
-1 
-1 
-1 
-1 
-1 
-1 
-1 
-1 
-1 
-1 
-1 
-1 
-1 
-1 
-1 
-1 
-1 
-1 
-1 
-1 
-1 
-1 
-1 
-1 
-1 
-1 
-1 
-1 
-1 
-1 
-1 
-1 
-1 
-1 
-1 
-1 
-1 
-1 
-1 
-1 
-1 
-1 
-1 
-1 
-1 
-1 
-1 
-1 
-1 
-1 
-1 
-1 
-1 
-1 
-1 
-1 
-1 
-1 
-1 
-1 
-1 
-1 
-1 
-1 
-1 
-1 
-1 
-1 
-1 
-1 
-1 
-1 
-1 
-1 
-1 
-1 
-1 
-1 
-1 
-1 
-1 
-1 
-1 
-1 
-1 
-1 
-1 
-1 
-1 
-1 
-1 
-1 
-1 
-1 
-1 
-1 
-1 
-1 
-1 
-1 
-1 
-1 
-1 
-1 
-1 
-1 
-1 
-1 
-1 
-1 
-1 
-1 
-1 
-1 
-1 
-1 
-1 
-1 
-1 
-1 
-1 
-1 
-1 
-1 
-1 
-1 
-1 
-1 
-1 
-1 
-1 
-1 
-1 
-1 
-1 
-1 
-1 
-1 
-1 
-1 
-1 
-1 
-1 
-1 
-1 
-1 
-1 
-1 
-1 
-1 
-1 
-1 
-1 
-1 
-1 
-1 
-1 
-1 
-1 
-1 
-1 
-1 
-1 
-1 
-1 
-1 
-1 
-1 
-1 
-1 
-1 
-1 
-1 
-1 
-1 
-1 
-1 
-1 
-1 
-1 
-1 
-1 
-1 
-1 
-1 
-1 
-1 
-1 
-1 
-1 
-1 
-1 
-1 
-1 
-1 
-1 
-1 
-1 
-1 
-1 
-1 
-1 
-1 
-1 
-1 
-1 
-1 
-1 
-1 
-1 
-1 
-1 
-1 
-1 
-1 
-1 
-1 
-1 
-1 
-1 
-1 
-1 
-1 
-1 
-1 
-1 
-1 
-1 
-1 
-1 
-1 
-1 
-1 
-1 
-1 
-1 
-1 
-1 
-1 
-1 
-1 
-1 
-1 
-1 
-1 
-1 
-1 
-1 
-1 
-1 
-1 
-1 
-1 
-1 
-1 
-1 
-1 
-1 
-1 
-1 
-1 
-1 
-1 
-1 
-1 
-1 
-1 
-1 
-1 
-1 
-1 
-1 
-1 
-1 
-1 
-1 
-1 
-1 
-1 
-1 
-1 
-1 
-1 
-1 
-1 
-1 
-1 
-1 
-1 
-1 
-1 
-1 
-1 
-1 
-1 
-1 
-1 
-1 
-1 
-1 
-1 
-1 
-1 
-1 
-1 
-1 
-1 
-1 
-1 
-1 
-1 
-1 
-1 
-1 
-1 
-1 
-1 
-1 
-1 
-1 
-1 
-1 
-1 
-1 
-1 
-1 
-1 
-1 
-1 
-1 
-1 
-1 
-1 
-1 
-1 
-1 
-1 
-1 
-1 
-1 
-1 
-1 
-1 
-1 
-1 
-1 
-1 
-1 
-1 
-1 
-1 
-1 
-1 
-1 
-1 
-1 
-1 
-1 
-1 
-1 
-1 
-1 
-1 
-1 
-1 
-1 
-1 
-1 
-1 
-1 
-1 
-1 
-1 
-1 
-1 
-1 
-1 
-1 
-1 
-1 
-1 
-1 
-1 
-1 
-1 
-1 
-1 
-1 
-1 
-1 
-1 
-1 
-1 
-1 
-1 
-1 
-1 
-1 
-1 
-1 
-1 
-1 
-1 
-1 
-1 
-1 
-1 
-1 
-1 
-1 
-1 
-1 
-1 
-1 
-1 
-1 
-1 
-1 
-1 
-1 
-1 
-1 
-1 
-1 
-1 
-1 
-1 
-1 
-1 
-1 
-1 
-1 
-1 
-1 
-1 
-1 
-1 
-1 
-1 
-1 
-1 
-1 
-1 
-1 
-1 
-1 
-1 
-1 
-1 
-1 
-1 
-1 
-1 
-1 
-1 
-1 
-1 
-1 
-1 
-1 
-1 
-1 
-1 
-1 
-1 
-1 
-1 
-1 
-1 
-1 
-1 
-1 
-1 
-1 
-1 
-1 
-1 
-1 
-1 
-1 
-1 
-1 
-1 
-1 
-1 
-1 
-1 
-1 
-1 
-1 
-1 
-1 
-1 
-1 
-1 
-1 
-1 
-1 
-1 
-1 
-1 
-1 
-1 
-1 
-1 
-1 
-1 
-1 
-1 
-1 
-1 
-1 
-1 
-1 
-1 
-1 
-1 
-1 
-1 
-1 
-1 
-1 
-1 
-1 
-1 
-1 
-1 
-1 
-1 
-1 
-1 
-1 
-1 
-1 
-1 
-1 
-1 
-1 
-1 
-1 
-1 
-1 
-1 
-1 
-1 
-1 
-1 
-1 
-1 
-1 
-1 
-1 
-1 
-1 
-1 
-1 
-1 
-1 
-1 
-1 
-1 
-1 
-1 
-1 
-1 
-1 
-1 
-1 
-1 
-1 
-1 
-1 
-1 
-1 
-1 
-1 
-1 
-1 
-1 
-1 
-1 
-1 
-1 
-1 
-1 
-1 
-1 
-1 
-1 
-1 
-1 
-1 
-1 
-1 
-1 
-1 
-1 
-1 
-1 
-1 
-1 
-1 
-1 
-1 
-1 
-1 
-1 
-1 
-1 
-1 
-1 
-1 
-1 
-1 
-1 
-1 
-1 
-1 
-1 
-1 
-1 
-1 
-1 
-1 
-1 
-1 
-1 
-1 
-1 
-1 
-1 
-1 
-1 
-1 
-1 
-1 
-1 
-1 
-1 
-1 
-1 
-1 
-1 
-1 
-1 
-1 
-1 
-1 
-1 
-1 
-1 
-1 
-1 
-1 
-1 
-1 
-1 
-1 
-1 
-1 
-1 
-1 
-1 
-1 
-1 
-1 
-1 
-1 
-1 
-1 
-1 
-1 
-1 
-1 
-1 
-1 
-1 
-1 
-1 
-1 
-1 
-1 
-1 
-1 
-1 
-1 
-1 
-1 
-1 
-1 
-1 
-1 
-1 
-1 
-1 
-1 
-1 
-1 
-1 
-1 
-1 
-1 
-1 
-1 
-1 
-1 
-1 
-1 
-1 
-1 
-1 
-1 
-1 
-1 
-1 
-1 
-1 
-1 
-1 
-1 
-1 
-1 
-1 
-1 
-1 
-1 
-1 
-1 
-1 
-1 
-1 
-1 
-1 
-1 
-1 
-1 
-1 
-1 
-1 
-1 
-1 
-1 
-1 
-1 
-1 
-1 
-1 
-1 
-1 
-1 
-1 
-1 
-1 
-1 
-1 
-1 
-1 
-1 
-1 
-1 
-1 
-1 
-1 
-1 
-1 
-1 
-1 
-1 
-1 
-1 
-1 
-1 
-1 
-1 
-1 
-1 
-1 
-1 
-1 
-1 
-1 
-1 
-1 
-1 
-1 
-1 
-1 
-1 
-1 
-1 
-1 
-1 
-1 
-1 
-1 
-1 
-1 
-1 
-1 
-1 
-1 
-1 
-1 
-1 
-1 
-1 
-1 
-1 
-1 
-1 
-1 
-1 
-1 
-1 
-1 
-1 
-1 
-1 
-1 
-1 
-1 
-1 
-1 
-1 
-1 
-1 
-1 
-1 
-1 
-1 
-1 
-1 
-1 
-1 
-1 
-1 
-1 
-1 
-1 
-1 
-1 
-1 
-1 
-1 
-1 
-1 
-1 
-1 
-1 
-1 
-1 
-1 
-1 
-1 
-1 
-1 
-1 
-1 
-1 
-1 
-1 
-1 
-1 
-1 
-1 
-1 
-1 
-1 
-1 
-1 
-1 
-1 
-1 
-1 
-1 
-1 
-1 
-1 
-1 
-1 
-1 
-1 
-1 
-1 
-1 
-1 
-1 
-1 
-1 
-1 
-1 
-1 
-1 
-1 
-1 
-1 
-1 
-1 
-1 
-1 
-1 
-1 
-1 
-1 
-1 
-1 
-1 
-1 
-1 
-1 
-1 
-1 
-1 
-1 
-1 
-1 
-1 
-1 
-1 
-1 
-1 
-1 
-1 
-1 
-1 
-1 
-1 
-1 
-1 
-1 
-1 
-1 
-1 
-1 
-1 
-1 
-1 
-1 
-1 
-1 
-1 
-1 
-1 
-1 
-1 
-1 
-1 
-1 
-1 
-1 
-1 
-1 
-1 
-1 
-1 
-1 
-1 
-1 
-1 
-1 
-1 
-1 
-1 
-1 
-1 
-1 
-1 
-1 
-1 
-1 
-1 
-1 
-1 
-1 
-1 
-1 
-1 
-1 
-1 
-1 
-1 
-1 
-1 
-1 
-1 
-1 
-1 
-1 
-1 
-1 
-1 
-1 
-1 
-1 
-1 
-1 
-1 
-1 
-1 
-1 
-1 
-1 
-1 
-1 
-1 
-1 
-1 
-1 
-1 
-1 
-1 
-1 
-1 
-1 
-1 
-1 
-1 
-1 
-1 
-1 
-1 
-1 
-1 
-1 
-1 
-1 
-1 
-1 
-1 
-1 
-1 
-1 
-1 
-1 
-1 
-1 
-1 
-1 
-1 
-1 
-1 
-1 
-1 
-1 
-1 
-1 
-1 
-1 
-1 
-1 
-1 
-1 
-1 
-1 
-1 
-1 
-1 
-1 
-1 
-1 
-1 
-1 
-1 
-1 
-1 
-1 
-1 
-1 
-1 
-1 
-1 
-1 
-1 
-1 
-1 
-1 
-1 
-1 
-1 
-1 
-1 
-1 
-1 
-1 
-1 
-1 
-1 
-1 
-1 
-1 
-1 
-1 
-1 
-1 
-1 
-1 
-1 
-1 
-1 
-1 
-1 
-1 
-1 
-1 
-1 
-1 
-1 
-1 
-1 
-1 
-1 
-1 
-1 
-1 
-1 
-1 
-1 
-1 
-1 
-1 
-1 
-1 
-1 
-1 
-1 
-1 
-1 
-1 
-1 
-1 
-1 
-1 
-1 
-1 
-1 
-1 
-1 
-1 
-1 
-1 
-1 
-1 
-1 
-1 
-1 
-1 
-1 
-1 
-1 
-1 
-1 
-1 
-1 
-1 
-1 
-1 
-1 
-1 
-1 
-1 
-1 
-1 
-1 
-1 
-1 
-1 
-1 
-1 
-1 
-1 
-1 
-1 
-1 
-1 
-1 
SCALARS NB_IN_THE_LOOP int 1
LOOKUP_TABLE default
0 
1 
2 
3 
4 
5 
6 
7 
8 
9 
10 
11 
12 
13 
14 
15 
16 
17 
18 
19 
20 
21 
22 
23 
24 
25 
26 
27 
28 
29 
30 
31 
32 
33 
34 
35 
36 
37 
38 
39 
40 
41 
42 
43 
44 
45 
46 
47 
48 
49 
50 
51 
52 
53 
54 
55 
56 
57 
58 
59 
60 
61 
62 
63 
64 
65 
66 
67 
68 
69 
70 
71 
72 
73 
74 
75 
76 
77 
78 
79 
80 
81 
82 
83 
84 
85 
86 
87 
88 
89 
90 
91 
92 
93 
94 
95 
96 
97 
98 
99 
100 
101 
102 
103 
104 
105 
106 
107 
108 
109 
110 
111 
112 
113 
114 
115 
116 
117 
118 
119 
120 
121 
122 
123 
124 
125 
126 
127 
128 
129 
130 
131 
132 
133 
134 
135 
136 
137 
138 
139 
140 
141 
142 
143 
144 
145 
146 
147 
148 
149 
150 
151 
152 
153 
154 
155 
156 
157 
158 
159 
160 
161 
162 
163 
164 
165 
166 
167 
168 
169 
170 
171 
172 
173 
174 
175 
176 
177 
178 
179 
180 
181 
182 
183 
184 
185 
186 
187 
188 
189 
190 
191 
192 
193 
194 
195 
196 
197 
198 
199 
200 
201 
202 
203 
204 
205 
206 
207 
208 
209 
210 
211 
212 
213 
214 
215 
216 
217 
218 
219 
220 
221 
222 
223 
224 
225 
226 
227 
228 
229 
230 
231 
232 
233 
234 
235 
236 
237 
238 
239 
240 
241 
242 
243 
244 
245 
246 
247 
248 
249 
250 
251 
252 
253 
254 
255 
256 
257 
258 
259 
260 
261 
262 
263 
264 
265 
266 
267 
268 
269 
270 
271 
272 
273 
274 
275 
276 
277 
278 
279 
280 
281 
282 
283 
284 
285 
286 
287 
288 
289 
290 
291 
292 
293 
294 
295 
296 
297 
298 
299 
300 
301 
302 
303 
304 
305 
306 
307 
308 
309 
310 
311 
312 
313 
314 
315 
316 
317 
318 
319 
320 
321 
322 
323 
324 
325 
326 
327 
328 
329 
330 
331 
332 
333 
334 
335 
336 
337 
338 
339 
340 
341 
342 
343 
344 
345 
346 
347 
348 
349 
350 
351 
352 
353 
354 
355 
356 
357 
358 
359 
360 
361 
362 
363 
364 
365 
366 
367 
368 
369 
370 
371 
372 
373 
374 
375 
376 
377 
378 
379 
380 
381 
382 
383 
384 
385 
386 
387 
388 
389 
390 
391 
392 
393 
394 
395 
396 
0 
1 
2 
3 
4 
5 
6 
7 
8 
9 
10 
11 
12 
13 
14 
15 
16 
17 
18 
19 
20 
21 
22 
23 
24 
25 
26 
27 
28 
29 
30 
31 
32 
33 
34 
35 
36 
37 
38 
39 
40 
41 
42 
43 
44 
45 
46 
47 
48 
49 
50 
51 
52 
53 
54 
55 
56 
57 
58 
59 
60 
61 
62 
63 
64 
65 
66 
67 
68 
69 
70 
71 
72 
73 
74 
75 
76 
77 
78 
79 
80 
81 
82 
83 
84 
85 
86 
87 
88 
89 
90 
91 
92 
93 
94 
95 
96 
97 
98 
99 
100 
101 
102 
103 
104 
105 
106 
107 
108 
109 
110 
111 
112 
113 
114 
115 
116 
117 
118 
119 
120 
121 
122 
123 
124 
125 
126 
127 
128 
129 
130 
131 
132 
133 
134 
135 
136 
137 
138 
139 
140 
141 
142 
143 
144 
145 
146 
147 
148 
149 
150 
151 
152 
153 
154 
155 
156 
157 
158 
159 
160 
161 
162 
163 
164 
165 
166 
167 
168 
169 
170 
171 
172 
173 
174 
175 
176 
177 
178 
179 
180 
181 
182 
183 
184 
185 
186 
187 
188 
189 
190 
191 
192 
193 
194 
195 
196 
197 
198 
199 
200 
201 
202 
203 
204 
205 
206 
207 
208 
209 
210 
211 
212 
213 
214 
215 
216 
217 
218 
219 
220 
221 
222 
223 
224 
225 
226 
227 
228 
229 
230 
231 
232 
233 
234 
235 
236 
237 
238 
239 
240 
241 
242 
243 
244 
245 
246 
247 
248 
249 
250 
251 
252 
253 
254 
255 
256 
257 
258 
259 
260 
261 
262 
263 
264 
265 
266 
267 
268 
269 
270 
271 
272 
273 
274 
275 
276 
277 
278 
279 
280 
281 
282 
283 
284 
285 
286 
287 
288 
289 
290 
291 
292 
293 
294 
295 
296 
297 
298 
299 
300 
301 
302 
303 
304 
305 
306 
307 
308 
309 
310 
311 
312 
313 
314 
315 
316 
317 
318 
319 
320 
321 
322 
323 
324 
325 
326 
327 
328 
329 
330 
331 
332 
333 
334 
335 
336 
337 
338 
339 
340 
341 
342 
343 
344 
345 
346 
347 
348 
349 
350 
351 
352 
353 
354 
355 
356 
357 
358 
359 
360 
361 
362 
363 
364 
365 
366 
367 
368 
369 
370 
371 
372 
373 
374 
375 
376 
377 
378 
379 
380 
381 
382 
383 
384 
385 
386 
387 
388 
389 
390 
391 
392 
393 
394 
395 
0 
1 
2 
3 
4 
5 
6 
7 
8 
9 
10 
11 
12 
13 
14 
15 
16 
17 
18 
19 
20 
21 
22 
23 
24 
25 
26 
27 
28 
29 
30 
31 
32 
33 
34 
35 
36 
37 
38 
39 
40 
41 
42 
43 
44 
45 
46 
47 
48 
49 
50 
51 
52 
53 
54 
55 
56 
57 
58 
59 
60 
61 
62 
63 
64 
65 
66 
67 
68 
69 
70 
71 
72 
73 
74 
75 
76 
77 
78 
79 
80 
81 
82 
83 
84 
85 
86 
87 
88 
89 
90 
91 
92 
93 
94 
95 
96 
97 
98 
99 
100 
101 
102 
103 
104 
105 
106 
107 
108 
109 
110 
111 
112 
113 
114 
115 
116 
117 
118 
119 
120 
121 
122 
123 
124 
125 
126 
127 
128 
129 
130 
131 
132 
133 
134 
135 
136 
137 
138 
139 
140 
141 
142 
143 
144 
145 
146 
147 
148 
149 
150 
151 
152 
153 
154 
155 
156 
157 
158 
159 
160 
161 
162 
163 
164 
165 
166 
167 
168 
169 
170 
171 
172 
173 
174 
175 
176 
177 
178 
179 
180 
181 
182 
183 
184 
185 
186 
187 
188 
189 
190 
191 
192 
193 
194 
195 
196 
197 
198 
199 
200 
201 
202 
203 
204 
205 
206 
207 
208 
209 
210 
211 
212 
213 
214 
215 
216 
217 
218 
219 
220 
221 
222 
223 
224 
225 
226 
227 
228 
229 
230 
231 
232 
233 
234 
235 
236 
237 
238 
239 
240 
241 
242 
243 
244 
245 
246 
247 
248 
249 
250 
251 
252 
253 
254 
255 
256 
257 
258 
259 
260 
261 
262 
263 
264 
265 
266 
267 
268 
269 
270 
271 
272 
273 
274 
275 
276 
277 
278 
279 
280 
281 
282 
283 
284 
285 
286 
287 
288 
289 
290 
291 
292 
293 
294 
295 
296 
297 
298 
299 
300 
301 
302 
303 
304 
305 
306 
307 
308 
309 
310 
311 
312 
313 
314 
315 
316 
317 
318 
319 
320 
321 
322 
323 
324 
325 
326 
327 
328 
329 
330 
331 
332 
333 
334 
335 
336 
337 
338 
339 
340 
341 
342 
343 
344 
345 
346 
347 
348 
349 
350 
351 
352 
353 
354 
355 
356 
357 
358 
359 
360 
361 
362 
363 
364 
365 
366 
367 
368 
369 
370 
371 
372 
373 
374 
375 
376 
377 
378 
379 
380 
381 
382 
383 
384 
385 
386 
387 
388 
389 
390 
391 
392 
393 
394 
395 
396 
397 
398 
399 
400 
401 
402 
403 
404 
405 
406 
407 
408 
409 
410 
411 
412 
413 
414 
415 
416 
417 
418 
419 
420 
0 
1 
2 
3 
4 
5 
6 
7 
8 
9 
10 
11 
12 
13 
14 
15 
16 
17 
18 
19 
20 
21 
22 
23 
24 
25 
26 
27 
28 
29 
30 
31 
32 
33 
34 
35 
36 
37 
38 
39 
40 
41 
42 
43 
44 
45 
46 
47 
48 
49 
50 
51 
52 
53 
54 
55 
56 
57 
58 
59 
60 
61 
62 
63 
64 
65 
66 
67 
68 
69 
70 
71 
72 
73 
74 
75 
76 
77 
78 
79 
80 
81 
82 
83 
84 
85 
86 
87 
88 
89 
90 
91 
92 
93 
94 
95 
96 
97 
98 
99 
100 
101 
102 
103 
104 
105 
106 
107 
108 
109 
110 
111 
112 
113 
114 
115 
116 
117 
118 
119 
120 
121 
122 
123 
124 
125 
126 
127 
128 
129 
130 
131 
132 
133 
134 
135 
136 
137 
138 
139 
140 
141 
142 
143 
144 
145 
146 
147 
148 
149 
150 
151 
152 
153 
154 
155 
156 
157 
158 
159 
160 
161 
162 
163 
164 
165 
166 
167 
168 
169 
170 
171 
172 
173 
174 
175 
176 
177 
178 
179 
180 
181 
182 
183 
184 
185 
186 
187 
188 
189 
190 
191 
192 
193 
194 
195 
196 
197 
198 
199 
200 
201 
202 
203 
204 
205 
206 
207 
208 
209 
210 
211 
212 
213 
214 
215 
216 
217 
218 
219 
220 
221 
222 
223 
224 
225 
226 
227 
228 
229 
230 
231 
232 
233 
234 
235 
236 
237 
238 
239 
240 
241 
242 
243 
244 
245 
246 
247 
248 
249 
250 
251 
252 
253 
254 
255 
256 
257 
258 
259 
260 
261 
262 
263 
264 
265 
266 
267 
268 
269 
270 
271 
272 
273 
274 
275 
276 
277 
278 
279 
280 
281 
282 
283 
284 
285 
286 
287 
288 
289 
290 
291 
292 
293 
294 
295 
296 
297 
298 
299 
300 
301 
302 
303 
304 
305 
306 
307 
308 
309 
310 
311 
312 
313 
314 
315 
316 
317 
318 
319 
320 
321 
322 
323 
324 
325 
326 
327 
328 
329 
330 
331 
332 
333 
334 
335 
336 
337 
338 
339 
340 
341 
342 
343 
344 
345 
346 
347 
348 
349 
350 
351 
352 
353 
354 
355 
356 
357 
358 
359 
360 
361 
362 
363 
364 
365 
366 
367 
368 
369 
370 
371 
372 
373 
374 
375 
376 
377 
378 
379 
380 
381 
382 
383 
384 
385 
386 
387 
388 
389 
390 
391 
392 
393 
394 
395 
396 
397 
398 
0 
1 
2 
3 
4 
5 
6 
7 
8 
9 
10 
11 
12 
13 
14 
15 
16 
17 
18 
19 
20 
21 
22 
23 
24 
25 
26 
27 
28 
29 
30 
31 
32 
33 
34 
35 
36 
37 
38 
39 
40 
41 
42 
43 
44 
45 
46 
47 
48 
49 
50 
51 
52 
53 
54 
55 
56 
57 
58 
59 
60 
61 
62 
63 
64 
65 
66 
67 
68 
69 
70 
71 
72 
73 
74 
75 
76 
77 
78 
79 
80 
81 
82 
83 
84 
85 
86 
87 
88 
89 
90 
91 
92 
93 
94 
95 
96 
97 
98 
99 
100 
101 
102 
103 
104 
105 
106 
107 
108 
109 
110 
111 
112 
113 
114 
115 
116 
117 
118 
119 
120 
121 
122 
123 
124 
125 
126 
127 
128 
129 
130 
131 
132 
133 
134 
135 
136 
137 
138 
139 
140 
141 
142 
143 
144 
145 
146 
147 
148 
149 
150 
151 
152 
153 
154 
155 
156 
157 
158 
159 
160 
161 
162 
163 
164 
165 
166 
167 
168 
169 
170 
171 
172 
173 
174 
175 
176 
177 
178 
179 
180 
181 
182 
183 
184 
185 
186 
187 
188 
189 
190 
191 
192 
193 
194 
195 
196 
197 
198 
199 
200 
201 
202 
203 
204 
205 
206 
207 
208 
209 
210 
211 
212 
213 
214 
215 
216 
217 
218 
219 
220 
221 
222 
223 
224 
225 
226 
227 
228 
229 
230 
231 
232 
233 
234 
235 
236 
237 
238 
239 
240 
241 
242 
243 
244 
245 
246 
247 
248 
249 
250 
251 
252 
253 
254 
255 
256 
257 
258 
259 
260 
261 
262 
263 
264 
265 
266 
267 
268 
269 
270 
271 
272 
273 
274 
275 
276 
277 
278 
279 
280 
281 
282 
283 
284 
285 
286 
287 
288 
289 
290 
291 
292 
293 
294 
295 
296 
297 
298 
299 
300 
301 
302 
303 
304 
305 
306 
307 
308 
309 
310 
311 
312 
313 
314 
315 
316 
317 
318 
319 
320 
321 
322 
323 
324 
325 
326 
327 
328 
329 
330 
331 
332 
333 
334 
335 
336 
337 
338 
339 
340 
341 
342 
343 
344 
345 
346 
347 
348 
349 
350 
351 
352 
353 
354 
355 
356 
357 
358 
359 
360 
361 
362 
363 
364 
365 
366 
367 
368 
369 
370 
371 
372 
373 
374 
375 
376 
377 
378 
379 
380 
381 
382 
383 
384 
385 
386 
387 
388 
389 
390 
391 
392 
393 
394 
395 
396 
397 
398 
399 
400 
401 
402 
403 
404 
405 
406 
407 
408 
409 
410 
411 
412 
413 
414 
415 
416 
417 
418 
419 
420 
421 
422 
423 
424 
425 
426 
427 
428 
429 
430 
431 
0 
1 
2 
3 
4 
5 
6 
7 
8 
9 
10 
11 
12 
13 
14 
15 
16 
17 
18 
19 
20 
21 
22 
23 
24 
25 
26 
27 
28 
29 
30 
31 
32 
33 
34 
35 
36 
37 
38 
39 
40 
41 
42 
43 
44 
45 
46 
47 
48 
49 
50 
51 
52 
53 
54 
55 
56 
57 
58 
59 
60 
61 
62 
63 
64 
65 
66 
67 
68 
69 
70 
71 
72 
73 
74 
75 
76 
77 
78 
79 
80 
81 
82 
83 
84 
85 
86 
87 
88 
89 
90 
91 
92 
93 
94 
95 
96 
97 
98 
99 
100 
101 
102 
103 
104 
105 
106 
107 
108 
109 
110 
111 
112 
113 
114 
115 
116 
117 
118 
119 
120 
121 
122 
123 
124 
125 
126 
127 
128 
129 
130 
131 
132 
133 
134 
135 
136 
137 
138 
139 
140 
141 
142 
143 
144 
145 
146 
147 
148 
149 
150 
151 
152 
153 
154 
155 
156 
157 
158 
159 
160 
161 
162 
163 
164 
165 
166 
167 
168 
169 
170 
171 
172 
173 
174 
175 
176 
177 
178 
179 
180 
181 
182 
183 
184 
185 
186 
187 
188 
189 
190 
191 
192 
193 
194 
195 
196 
197 
198 
199 
200 
201 
202 
203 
204 
205 
206 
207 
208 
209 
210 
211 
212 
213 
214 
215 
216 
217 
218 
219 
220 
221 
222 
223 
224 
225 
226 
227 
228 
229 
230 
231 
232 
233 
234 
235 
236 
237 
238 
239 
240 
241 
242 
243 
244 
245 
246 
247 
248 
249 
250 
251 
252 
253 
254 
255 
256 
257 
258 
259 
260 
261 
262 
263 
264 
265 
266 
267 
268 
269 
270 
271 
272 
273 
274 
275 
276 
277 
278 
279 
280 
281 
282 
283 
284 
285 
286 
287 
288 
289 
290 
291 
292 
293 
294 
295 
296 
297 
298 
299 
300 
301 
302 
303 
304 
305 
306 
307 
308 
309 
310 
311 
312 
313 
314 
315 
316 
317 
318 
319 
320 
321 
322 
323 
324 
325 
326 
327 
328 
329 
330 
331 
332 
333 
334 
335 
336 
337 
338 
339 
340 
341 
342 
343 
344 
345 
346 
347 
348 
349 
350 
351 
352 
353 
354 
355 
356 
357 
358 
359 
360 
361 
362 
363 
364 
365 
366 
367 
368 
369 
370 
371 
372 
373 
374 
375 
376 
377 
378 
379 
380 
381 
382 
383 
384 
385 
386 
387 
388 
389 
390 
391 
392 
393 
394 
395 
396 
397 
398 
399 
400 
401 
402 
403 
404 
405 
406 
407 
408 
409 
410 
411 
412 
413 
414 
415 
416 
417 
418 
419 
420 
421 
422 
423 
424 
425 
426 
427 
428 
429 
430 
0 
1 
2 
3 
4 
5 
6 
7 
8 
9 
10 
11 
12 
13 
14 
15 
16 
17 
18 
19 
20 
21 
22 
23 
24 
25 
26 
27 
28 
29 
30 
31 
32 
33 
34 
35 
36 
37 
38 
39 
40 
41 
42 
43 
44 
45 
46 
47 
48 
49 
50 
51 
52 
53 
54 
55 
56 
57 
58 
59 
60 
61 
62 
63 
64 
65 
66 
67 
68 
69 
70 
71 
72 
73 
74 
75 
76 
77 
78 
79 
80 
81 
82 
83 
84 
85 
86 
87 
88 
89 
90 
91 
92 
93 
94 
95 
96 
97 
98 
99 
100 
101 
102 
103 
104 
105 
106 
107 
108 
109 
110 
111 
112 
113 
114 
115 
116 
117 
118 
119 
120 
121 
122 
123 
124 
125 
126 
127 
128 
129 
130 
131 
132 
133 
134 
135 
136 
137 
138 
139 
140 
141 
142 
143 
144 
145 
146 
147 
148 
149 
150 
151 
152 
153 
154 
155 
156 
157 
158 
159 
160 
161 
162 
163 
164 
165 
166 
167 
168 
169 
170 
171 
172 
173 
174 
175 
176 
177 
178 
179 
180 
181 
182 
183 
184 
185 
186 
187 
188 
189 
190 
191 
192 
193 
194 
195 
196 
197 
198 
199 
200 
201 
202 
203 
204 
205 
206 
207 
208 
209 
210 
211 
212 
213 
214 
215 
216 
217 
218 
219 
220 
221 
222 
223 
224 
225 
226 
227 
228 
229 
230 
231 
232 
233 
234 
235 
236 
237 
238 
239 
240 
241 
242 
243 
244 
245 
246 
247 
248 
249 
250 
251 
252 
253 
254 
255 
256 
257 
258 
259 
260 
261 
262 
263 
264 
265 
266 
267 
268 
269 
270 
271 
272 
273 
274 
275 
276 
277 
278 
279 
280 
281 
282 
283 
284 
285 
286 
287 
288 
289 
290 
291 
292 
293 
294 
295 
296 
297 
298 
299 
300 
301 
302 
303 
304 
305 
306 
307 
308 
309 
310 
311 
312 
313 
314 
315 
316 
317 
318 
319 
320 
321 
322 
323 
324 
325 
326 
327 
328 
329 
330 
331 
332 
333 
334 
335 
336 
337 
338 
339 
340 
341 
342 
343 
344 
345 
346 
347 
348 
349 
350 
351 
352 
353 
354 
355 
356 
357 
358 
359 
360 
361 
362 
363 
364 
365 
366 
367 
368 
369 
370 
371 
372 
373 
374 
375 
376 
377 
378 
379 
380 
381 
382 
383 
384 
385 
386 
387 
388 
389 
390 
391 
392 
393 
394 
395 
396 
397 
398 
399 
400 
401 
402 
403 
404 
405 
406 
407 
0 
1 
2 
3 
4 
5 
6 
7 
8 
9 
10 
11 
12 
13 
14 
15 
16 
17 
18 
19 
20 
21 
22 
23 
24 
25 
26 
27 
28 
29 
30 
31 
32 
33 
34 
35 
36 
37 
38 
39 
40 
41 
42 
43 
44 
45 
46 
47 
48 
49 
50 
51 
52 
53 
54 
55 
56 
57 
58 
59 
60 
61 
62 
63 
64 
65 
66 
67 
68 
69 
70 
71 
72 
73 
74 
75 
76 
77 
78 
79 
80 
81 
82 
83 
84 
85 
86 
87 
88 
89 
90 
91 
92 
93 
94 
95 
96 
97 
98 
99 
100 
101 
102 
103 
104 
105 
106 
107 
108 
109 
110 
111 
112 
113 
114 
115 
116 
117 
118 
119 
120 
121 
122 
123 
124 
125 
126 
127 
128 
129 
130 
131 
132 
133 
134 
135 
136 
137 
138 
139 
140 
141 
142 
143 
144 
145 
146 
147 
148 
149 
150 
151 
152 
153 
154 
155 
156 
157 
158 
159 
160 
161 
162 
163 
164 
165 
166 
167 
168 
169 
170 
171 
172 
173 
174 
175 
176 
177 
178 
179 
180 
181 
182 
183 
184 
185 
186 
187 
188 
189 
190 
191 
192 
193 
194 
195 
196 
197 
198 
199 
200 
201 
202 
203 
204 
205 
206 
207 
208 
209 
210 
211 
212 
213 
214 
215 
216 
217 
218 
219 
220 
221 
222 
223 
224 
225 
226 
227 
228 
229 
230 
231 
232 
233 
234 
235 
236 
237 
238 
239 
240 
241 
242 
243 
244 
245 
246 
247 
248 
249 
250 
251 
252 
253 
254 
255 
256 
257 
258 
259 
260 
261 
262 
263 
264 
265 
266 
267 
268 
269 
270 
271 
272 
273 
274 
275 
276 
277 
278 
279 
280 
281 
282 
283 
284 
285 
286 
287 
288 
289 
290 
291 
292 
293 
294 
295 
296 
297 
298 
299 
300 
301 
302 
303 
304 
305 
306 
307 
308 
309 
310 
311 
312 
313 
314 
315 
316 
317 
318 
319 
320 
321 
322 
323 
324 
325 
326 
327 
328 
329 
330 
331 
332 
333 
334 
335 
336 
337 
338 
339 
340 
341 
342 
343 
344 
345 
346 
347 
348 
349 
350 
351 
352 
353 
354 
355 
356 
357 
358 
359 
360 
361 
362 
363 
364 
365 
366 
367 
368 
369 
370 
371 
372 
373 
374 
375 
376 
377 
378 
379 
380 
381 
382 
383 
384 
385 
386 
387 
388 
389 
390 
391 
392 
393 
394 
395 
396 
397 
398 
399 
400 
401 
402 
403 
404 
405 
406 
407 
SCALARS PARALLEL_PARTITION int 1
LOOKUP_TABLE default
0 
0 
0 
0 
0 
0 
0 
0 
0 
0 
0 
0 
0 
0 
0 
0 
0 
0 
0 
0 
0 
0 
0 
0 
0 
0 
0 
0 
0 
0 
0 
0 
0 
0 
0 
0 
0 
0 
0 
0 
0 
0 
0 
0 
0 
0 
0 
0 
0 
0 
0 
0 
0 
0 
0 
0 
0 
0 
0 
0 
0 
0 
0 
0 
0 
0 
0 
0 
0 
0 
0 
0 
0 
0 
0 
0 
0 
0 
0 
0 
0 
0 
0 
0 
0 
0 
0 
0 
0 
0 
0 
0 
0 
0 
0 
0 
0 
0 
0 
0 
0 
0 
0 
0 
0 
0 
0 
0 
0 
0 
0 
0 
0 
0 
0 
0 
0 
0 
0 
0 
0 
0 
0 
0 
0 
0 
0 
0 
0 
0 
0 
0 
0 
0 
0 
0 
0 
0 
0 
0 
0 
0 
0 
0 
0 
0 
0 
0 
0 
0 
0 
0 
0 
0 
0 
0 
0 
0 
0 
0 
0 
0 
0 
0 
0 
0 
0 
0 
0 
0 
0 
0 
0 
0 
0 
0 
0 
0 
0 
0 
0 
0 
0 
0 
0 
0 
0 
0 
0 
0 
0 
0 
0 
0 
0 
0 
0 
0 
0 
0 
0 
0 
0 
0 
0 
0 
0 
0 
0 
0 
0 
0 
0 
0 
0 
0 
0 
0 
0 
0 
0 
0 
0 
0 
0 
0 
0 
0 
0 
0 
0 
0 
0 
0 
0 
0 
0 
0 
0 
0 
0 
0 
0 
0 
0 
0 
0 
0 
0 
0 
0 
0 
0 
0 
0 
0 
0 
0 
0 
0 
0 
0 
0 
0 
0 
0 
0 
0 
0 
0 
0 
0 
0 
0 
0 
0 
0 
0 
0 
0 
0 
0 
0 
0 
0 
0 
0 
0 
0 
0 
0 
0 
0 
0 
0 
0 
0 
0 
0 
0 
0 
0 
0 
0 
0 
0 
0 
0 
0 
0 
0 
0 
0 
0 
0 
0 
0 
0 
0 
0 
0 
0 
0 
0 
0 
0 
0 
0 
0 
0 
0 
0 
0 
0 
0 
0 
0 
0 
0 
0 
0 
0 
0 
0 
0 
0 
0 
0 
0 
0 
0 
0 
0 
0 
0 
0 
0 
0 
0 
0 
0 
0 
0 
0 
0 
0 
0 
0 
0 
0 
0 
0 
0 
0 
0 
0 
0 
0 
0 
0 
0 
0 
0 
0 
0 
0 
0 
0 
0 
0 
0 
0 
0 
0 
0 
0 
0 
1 
1 
1 
1 
1 
1 
1 
1 
1 
1 
1 
1 
1 
1 
1 
1 
1 
1 
1 
1 
1 
1 
1 
1 
1 
1 
1 
1 
1 
1 
1 
1 
1 
1 
1 
1 
1 
1 
1 
1 
1 
1 
1 
1 
1 
1 
1 
1 
1 
1 
1 
1 
1 
1 
1 
1 
1 
1 
1 
1 
1 
1 
1 
1 
1 
1 
1 
1 
1 
1 
1 
1 
1 
1 
1 
1 
1 
1 
1 
1 
1 
1 
1 
1 
1 
1 
1 
1 
1 
1 
1 
1 
1 
1 
1 
1 
1 
1 
1 
1 
1 
1 
1 
1 
1 
1 
1 
1 
1 
1 
1 
1 
1 
1 
1 
1 
1 
1 
1 
1 
1 
1 
1 
1 
1 
1 
1 
1 
1 
1 
1 
1 
1 
1 
1 
1 
1 
1 
1 
1 
1 
1 
1 
1 
1 
1 
1 
1 
1 
1 
1 
1 
1 
1 
1 
1 
1 
1 
1 
1 
1 
1 
1 
1 
1 
1 
1 
1 
1 
1 
1 
1 
1 
1 
1 
1 
1 
1 
1 
1 
1 
1 
1 
1 
1 
1 
1 
1 
1 
1 
1 
1 
1 
1 
1 
1 
1 
1 
1 
1 
1 
1 
1 
1 
1 
1 
1 
1 
1 
1 
1 
1 
1 
1 
1 
1 
1 
1 
1 
1 
1 
1 
1 
1 
1 
1 
1 
1 
1 
1 
1 
1 
1 
1 
1 
1 
1 
1 
1 
1 
1 
1 
1 
1 
1 
1 
1 
1 
1 
1 
1 
1 
1 
1 
1 
1 
1 
1 
1 
1 
1 
1 
1 
1 
1 
1 
1 
1 
1 
1 
1 
1 
1 
1 
1 
1 
1 
1 
1 
1 
1 
1 
1 
1 
1 
1 
1 
1 
1 
1 
1 
1 
1 
1 
1 
1 
1 
1 
1 
1 
1 
1 
1 
1 
1 
1 
1 
1 
1 
1 
1 
1 
1 
1 
1 
1 
1 
1 
1 
1 
1 
1 
1 
1 
1 
1 
1 
1 
1 
1 
1 
1 
1 
1 
1 
1 
1 
1 
1 
1 
1 
1 
1 
1 
1 
1 
1 
1 
1 
1 
1 
1 
1 
1 
1 
1 
1 
1 
1 
1 
1 
1 
1 
1 
1 
1 
1 
1 
1 
1 
1 
1 
1 
1 
1 
1 
1 
1 
1 
1 
1 
1 
1 
1 
1 
1 
1 
1 
1 
1 
1 
1 
1 
1 
1 
1 
2 
2 
2 
2 
2 
2 
2 
2 
2 
2 
2 
2 
2 
2 
2 
2 
2 
2 
2 
2 
2 
2 
2 
2 
2 
2 
2 
2 
2 
2 
2 
2 
2 
2 
2 
2 
2 
2 
2 
2 
2 
2 
2 
2 
2 
2 
2 
2 
2 
2 
2 
2 
2 
2 
2 
2 
2 
2 
2 
2 
2 
2 
2 
2 
2 
2 
2 
2 
2 
2 
2 
2 
2 
2 
2 
2 
2 
2 
2 
2 
2 
2 
2 
2 
2 
2 
2 
2 
2 
2 
2 
2 
2 
2 
2 
2 
2 
2 
2 
2 
2 
2 
2 
2 
2 
2 
2 
2 
2 
2 
2 
2 
2 
2 
2 
2 
2 
2 
2 
2 
2 
2 
2 
2 
2 
2 
2 
2 
2 
2 
2 
2 
2 
2 
2 
2 
2 
2 
2 
2 
2 
2 
2 
2 
2 
2 
2 
2 
2 
2 
2 
2 
2 
2 
2 
2 
2 
2 
2 
2 
2 
2 
2 
2 
2 
2 
2 
2 
2 
2 
2 
2 
2 
2 
2 
2 
2 
2 
2 
2 
2 
2 
2 
2 
2 
2 
2 
2 
2 
2 
2 
2 
2 
2 
2 
2 
2 
2 
2 
2 
2 
2 
2 
2 
2 
2 
2 
2 
2 
2 
2 
2 
2 
2 
2 
2 
2 
2 
2 
2 
2 
2 
2 
2 
2 
2 
2 
2 
2 
2 
2 
2 
2 
2 
2 
2 
2 
2 
2 
2 
2 
2 
2 
2 
2 
2 
2 
2 
2 
2 
2 
2 
2 
2 
2 
2 
2 
2 
2 
2 
2 
2 
2 
2 
2 
2 
2 
2 
2 
2 
2 
2 
2 
2 
2 
2 
2 
2 
2 
2 
2 
2 
2 
2 
2 
2 
2 
2 
2 
2 
2 
2 
2 
2 
2 
2 
2 
2 
2 
2 
2 
2 
2 
2 
2 
2 
2 
2 
2 
2 
2 
2 
2 
2 
2 
2 
2 
2 
2 
2 
2 
2 
2 
2 
2 
2 
2 
2 
2 
2 
2 
2 
2 
2 
2 
2 
2 
2 
2 
2 
2 
2 
2 
2 
2 
2 
2 
2 
2 
2 
2 
2 
2 
2 
2 
2 
2 
2 
2 
2 
2 
2 
2 
2 
2 
2 
2 
2 
2 
2 
2 
2 
2 
2 
2 
2 
2 
2 
2 
2 
2 
2 
2 
2 
2 
2 
2 
2 
2 
2 
2 
2 
2 
2 
2 
2 
2 
2 
2 
2 
2 
2 
2 
2 
2 
2 
2 
2 
2 
2 
2 
2 
2 
2 
2 
2 
2 
2 
2 
2 
2 
3 
3 
3 
3 
3 
3 
3 
3 
3 
3 
3 
3 
3 
3 
3 
3 
3 
3 
3 
3 
3 
3 
3 
3 
3 
3 
3 
3 
3 
3 
3 
3 
3 
3 
3 
3 
3 
3 
3 
3 
3 
3 
3 
3 
3 
3 
3 
3 
3 
3 
3 
3 
3 
3 
3 
3 
3 
3 
3 
3 
3 
3 
3 
3 
3 
3 
3 
3 
3 
3 
3 
3 
3 
3 
3 
3 
3 
3 
3 
3 
3 
3 
3 
3 
3 
3 
3 
3 
3 
3 
3 
3 
3 
3 
3 
3 
3 
3 
3 
3 
3 
3 
3 
3 
3 
3 
3 
3 
3 
3 
3 
3 
3 
3 
3 
3 
3 
3 
3 
3 
3 
3 
3 
3 
3 
3 
3 
3 
3 
3 
3 
3 
3 
3 
3 
3 
3 
3 
3 
3 
3 
3 
3 
3 
3 
3 
3 
3 
3 
3 
3 
3 
3 
3 
3 
3 
3 
3 
3 
3 
3 
3 
3 
3 
3 
3 
3 
3 
3 
3 
3 
3 
3 
3 
3 
3 
3 
3 
3 
3 
3 
3 
3 
3 
3 
3 
3 
3 
3 
3 
3 
3 
3 
3 
3 
3 
3 
3 
3 
3 
3 
3 
3 
3 
3 
3 
3 
3 
3 
3 
3 
3 
3 
3 
3 
3 
3 
3 
3 
3 
3 
3 
3 
3 
3 
3 
3 
3 
3 
3 
3 
3 
3 
3 
3 
3 
3 
3 
3 
3 
3 
3 
3 
3 
3 
3 
3 
3 
3 
3 
3 
3 
3 
3 
3 
3 
3 
3 
3 
3 
3 
3 
3 
3 
3 
3 
3 
3 
3 
3 
3 
3 
3 
3 
3 
3 
3 
3 
3 
3 
3 
3 
3 
3 
3 
3 
3 
3 
3 
3 
3 
3 
3 
3 
3 
3 
3 
3 
3 
3 
3 
3 
3 
3 
3 
3 
3 
3 
3 
3 
3 
3 
3 
3 
3 
3 
3 
3 
3 
3 
3 
3 
3 
3 
3 
3 
3 
3 
3 
3 
3 
3 
3 
3 
3 
3 
3 
3 
3 
3 
3 
3 
3 
3 
3 
3 
3 
3 
3 
3 
3 
3 
3 
3 
3 
3 
3 
3 
3 
3 
3 
3 
3 
3 
3 
3 
3 
3 
3 
3 
3 
3 
3 
3 
3 
3 
3 
3 
3 
3 
3 
3 
3 
3 
3 
3 
3 
3 
3 
3 
3 
3 
3 
3 
3 
3 
3 
3 
3 
4 
4 
4 
4 
4 
4 
4 
4 
4 
4 
4 
4 
4 
4 
4 
4 
4 
4 
4 
4 
4 
4 
4 
4 
4 
4 
4 
4 
4 
4 
4 
4 
4 
4 
4 
4 
4 
4 
4 
4 
4 
4 
4 
4 
4 
4 
4 
4 
4 
4 
4 
4 
4 
4 
4 
4 
4 
4 
4 
4 
4 
4 
4 
4 
4 
4 
4 
4 
4 
4 
4 
4 
4 
4 
4 
4 
4 
4 
4 
4 
4 
4 
4 
4 
4 
4 
4 
4 
4 
4 
4 
4 
4 
4 
4 
4 
4 
4 
4 
4 
4 
4 
4 
4 
4 
4 
4 
4 
4 
4 
4 
4 
4 
4 
4 
4 
4 
4 
4 
4 
4 
4 
4 
4 
4 
4 
4 
4 
4 
4 
4 
4 
4 
4 
4 
4 
4 
4 
4 
4 
4 
4 
4 
4 
4 
4 
4 
4 
4 
4 
4 
4 
4 
4 
4 
4 
4 
4 
4 
4 
4 
4 
4 
4 
4 
4 
4 
4 
4 
4 
4 
4 
4 
4 
4 
4 
4 
4 
4 
4 
4 
4 
4 
4 
4 
4 
4 
4 
4 
4 
4 
4 
4 
4 
4 
4 
4 
4 
4 
4 
4 
4 
4 
4 
4 
4 
4 
4 
4 
4 
4 
4 
4 
4 
4 
4 
4 
4 
4 
4 
4 
4 
4 
4 
4 
4 
4 
4 
4 
4 
4 
4 
4 
4 
4 
4 
4 
4 
4 
4 
4 
4 
4 
4 
4 
4 
4 
4 
4 
4 
4 
4 
4 
4 
4 
4 
4 
4 
4 
4 
4 
4 
4 
4 
4 
4 
4 
4 
4 
4 
4 
4 
4 
4 
4 
4 
4 
4 
4 
4 
4 
4 
4 
4 
4 
4 
4 
4 
4 
4 
4 
4 
4 
4 
4 
4 
4 
4 
4 
4 
4 
4 
4 
4 
4 
4 
4 
4 
4 
4 
4 
4 
4 
4 
4 
4 
4 
4 
4 
4 
4 
4 
4 
4 
4 
4 
4 
4 
4 
4 
4 
4 
4 
4 
4 
4 
4 
4 
4 
4 
4 
4 
4 
4 
4 
4 
4 
4 
4 
4 
4 
4 
4 
4 
4 
4 
4 
4 
4 
4 
4 
4 
4 
4 
4 
4 
4 
4 
4 
4 
4 
4 
4 
4 
4 
4 
4 
4 
4 
4 
4 
4 
4 
4 
4 
4 
4 
4 
4 
4 
4 
4 
4 
4 
4 
4 
4 
4 
4 
4 
4 
4 
4 
4 
4 
4 
4 
4 
4 
4 
4 
4 
4 
4 
4 
4 
4 
4 
4 
4 
4 
4 
4 
4 
4 
4 
4 
4 
4 
4 
4 
4 
5 
5 
5 
5 
5 
5 
5 
5 
5 
5 
5 
5 
5 
5 
5 
5 
5 
5 
5 
5 
5 
5 
5 
5 
5 
5 
5 
5 
5 
5 
5 
5 
5 
5 
5 
5 
5 
5 
5 
5 
5 
5 
5 
5 
5 
5 
5 
5 
5 
5 
5 
5 
5 
5 
5 
5 
5 
5 
5 
5 
5 
5 
5 
5 
5 
5 
5 
5 
5 
5 
5 
5 
5 
5 
5 
5 
5 
5 
5 
5 
5 
5 
5 
5 
5 
5 
5 
5 
5 
5 
5 
5 
5 
5 
5 
5 
5 
5 
5 
5 
5 
5 
5 
5 
5 
5 
5 
5 
5 
5 
5 
5 
5 
5 
5 
5 
5 
5 
5 
5 
5 
5 
5 
5 
5 
5 
5 
5 
5 
5 
5 
5 
5 
5 
5 
5 
5 
5 
5 
5 
5 
5 
5 
5 
5 
5 
5 
5 
5 
5 
5 
5 
5 
5 
5 
5 
5 
5 
5 
5 
5 
5 
5 
5 
5 
5 
5 
5 
5 
5 
5 
5 
5 
5 
5 
5 
5 
5 
5 
5 
5 
5 
5 
5 
5 
5 
5 
5 
5 
5 
5 
5 
5 
5 
5 
5 
5 
5 
5 
5 
5 
5 
5 
5 
5 
5 
5 
5 
5 
5 
5 
5 
5 
5 
5 
5 
5 
5 
5 
5 
5 
5 
5 
5 
5 
5 
5 
5 
5 
5 
5 
5 
5 
5 
5 
5 
5 
5 
5 
5 
5 
5 
5 
5 
5 
5 
5 
5 
5 
5 
5 
5 
5 
5 
5 
5 
5 
5 
5 
5 
5 
5 
5 
5 
5 
5 
5 
5 
5 
5 
5 
5 
5 
5 
5 
5 
5 
5 
5 
5 
5 
5 
5 
5 
5 
5 
5 
5 
5 
5 
5 
5 
5 
5 
5 
5 
5 
5 
5 
5 
5 
5 
5 
5 
5 
5 
5 
5 
5 
5 
5 
5 
5 
5 
5 
5 
5 
5 
5 
5 
5 
5 
5 
5 
5 
5 
5 
5 
5 
5 
5 
5 
5 
5 
5 
5 
5 
5 
5 
5 
5 
5 
5 
5 
5 
5 
5 
5 
5 
5 
5 
5 
5 
5 
5 
5 
5 
5 
5 
5 
5 
5 
5 
5 
5 
5 
5 
5 
5 
5 
5 
5 
5 
5 
5 
5 
5 
5 
5 
5 
5 
5 
5 
5 
5 
5 
5 
5 
5 
5 
5 
5 
5 
5 
5 
5 
5 
5 
5 
5 
5 
5 
5 
5 
5 
5 
5 
5 
5 
5 
5 
5 
5 
5 
5 
5 
5 
5 
5 
5 
5 
5 
5 
5 
5 
5 
5 
5 
5 
5 
5 
6 
6 
6 
6 
6 
6 
6 
6 
6 
6 
6 
6 
6 
6 
6 
6 
6 
6 
6 
6 
6 
6 
6 
6 
6 
6 
6 
6 
6 
6 
6 
6 
6 
6 
6 
6 
6 
6 
6 
6 
6 
6 
6 
6 
6 
6 
6 
6 
6 
6 
6 
6 
6 
6 
6 
6 
6 
6 
6 
6 
6 
6 
6 
6 
6 
6 
6 
6 
6 
6 
6 
6 
6 
6 
6 
6 
6 
6 
6 
6 
6 
6 
6 
6 
6 
6 
6 
6 
6 
6 
6 
6 
6 
6 
6 
6 
6 
6 
6 
6 
6 
6 
6 
6 
6 
6 
6 
6 
6 
6 
6 
6 
6 
6 
6 
6 
6 
6 
6 
6 
6 
6 
6 
6 
6 
6 
6 
6 
6 
6 
6 
6 
6 
6 
6 
6 
6 
6 
6 
6 
6 
6 
6 
6 
6 
6 
6 
6 
6 
6 
6 
6 
6 
6 
6 
6 
6 
6 
6 
6 
6 
6 
6 
6 
6 
6 
6 
6 
6 
6 
6 
6 
6 
6 
6 
6 
6 
6 
6 
6 
6 
6 
6 
6 
6 
6 
6 
6 
6 
6 
6 
6 
6 
6 
6 
6 
6 
6 
6 
6 
6 
6 
6 
6 
6 
6 
6 
6 
6 
6 
6 
6 
6 
6 
6 
6 
6 
6 
6 
6 
6 
6 
6 
6 
6 
6 
6 
6 
6 
6 
6 
6 
6 
6 
6 
6 
6 
6 
6 
6 
6 
6 
6 
6 
6 
6 
6 
6 
6 
6 
6 
6 
6 
6 
6 
6 
6 
6 
6 
6 
6 
6 
6 
6 
6 
6 
6 
6 
6 
6 
6 
6 
6 
6 
6 
6 
6 
6 
6 
6 
6 
6 
6 
6 
6 
6 
6 
6 
6 
6 
6 
6 
6 
6 
6 
6 
6 
6 
6 
6 
6 
6 
6 
6 
6 
6 
6 
6 
6 
6 
6 
6 
6 
6 
6 
6 
6 
6 
6 
6 
6 
6 
6 
6 
6 
6 
6 
6 
6 
6 
6 
6 
6 
6 
6 
6 
6 
6 
6 
6 
6 
6 
6 
6 
6 
6 
6 
6 
6 
6 
6 
6 
6 
6 
6 
6 
6 
6 
6 
6 
6 
6 
6 
6 
6 
6 
6 
6 
6 
6 
6 
6 
6 
6 
6 
6 
6 
6 
6 
6 
6 
6 
6 
6 
6 
6 
6 
6 
6 
6 
6 
6 
6 
6 
6 
6 
6 
6 
6 
6 
6 
6 
6 
6 
6 
6 
6 
6 
7 
7 
7 
7 
7 
7 
7 
7 
7 
7 
7 
7 
7 
7 
7 
7 
7 
7 
7 
7 
7 
7 
7 
7 
7 
7 
7 
7 
7 
7 
7 
7 
7 
7 
7 
7 
7 
7 
7 
7 
7 
7 
7 
7 
7 
7 
7 
7 
7 
7 
7 
7 
7 
7 
7 
7 
7 
7 
7 
7 
7 
7 
7 
7 
7 
7 
7 
7 
7 
7 
7 
7 
7 
7 
7 
7 
7 
7 
7 
7 
7 
7 
7 
7 
7 
7 
7 
7 
7 
7 
7 
7 
7 
7 
7 
7 
7 
7 
7 
7 
7 
7 
7 
7 
7 
7 
7 
7 
7 
7 
7 
7 
7 
7 
7 
7 
7 
7 
7 
7 
7 
7 
7 
7 
7 
7 
7 
7 
7 
7 
7 
7 
7 
7 
7 
7 
7 
7 
7 
7 
7 
7 
7 
7 
7 
7 
7 
7 
7 
7 
7 
7 
7 
7 
7 
7 
7 
7 
7 
7 
7 
7 
7 
7 
7 
7 
7 
7 
7 
7 
7 
7 
7 
7 
7 
7 
7 
7 
7 
7 
7 
7 
7 
7 
7 
7 
7 
7 
7 
7 
7 
7 
7 
7 
7 
7 
7 
7 
7 
7 
7 
7 
7 
7 
7 
7 
7 
7 
7 
7 
7 
7 
7 
7 
7 
7 
7 
7 
7 
7 
7 
7 
7 
7 
7 
7 
7 
7 
7 
7 
7 
7 
7 
7 
7 
7 
7 
7 
7 
7 
7 
7 
7 
7 
7 
7 
7 
7 
7 
7 
7 
7 
7 
7 
7 
7 
7 
7 
7 
7 
7 
7 
7 
7 
7 
7 
7 
7 
7 
7 
7 
7 
7 
7 
7 
7 
7 
7 
7 
7 
7 
7 
7 
7 
7 
7 
7 
7 
7 
7 
7 
7 
7 
7 
7 
7 
7 
7 
7 
7 
7 
7 
7 
7 
7 
7 
7 
7 
7 
7 
7 
7 
7 
7 
7 
7 
7 
7 
7 
7 
7 
7 
7 
7 
7 
7 
7 
7 
7 
7 
7 
7 
7 
7 
7 
7 
7 
7 
7 
7 
7 
7 
7 
7 
7 
7 
7 
7 
7 
7 
7 
7 
7 
7 
7 
7 
7 
7 
7 
7 
7 
7 
7 
7 
7 
7 
7 
7 
7 
7 
7 
7 
7 
7 
7 
7 
7 
7 
7 
7 
7 
7 
7 
7 
7 
7 
7 
7 
7 
7 
7 
7 
7 
7 
7 
7 
7 
7 
7 
7 
7 
7 
7 
7 
7 
7 
7 
7 
